<?xml version="1.0"?>
<VTKFile type="UnstructuredGrid" version="0.1" byte_order="LittleEndian">
<UnstructuredGrid>
<Piece NumberOfPoints="30216" NumberOfCells="10569">
<Points>
<DataArray type="Float64" NumberOfComponents="3" format="ascii">
-0.5 -0.5 0 -0.500000000000003 -0.47387910615940992 0 -0.47465271013153171 -0.47472111009224632 0 -0.5 -0.5 0 -0.47465271013153171 -0.47472111009224632 0 -0.47261021182536 -0.50000000000000067 0 -0.47261021182536 -0.50000000000000067 0 -0.44755414560184781 -0.49445982194884841 0 -0.47261021182536 -0.50000000000000067 0 -0.44594502469383351 -0.5 0 -0.44755414560184781 -0.49445982194884841 0 -0.47465271013153171 -0.47472111009224632 0 -0.47261021182536 -0.50000000000000067 0 -0.44755414560184781 -0.49445982194884841 0 -0.44755414560184781 -0.49445982194884841 0 -0.45208872913075621 -0.46314264578579778 0 -0.43559960621689908 -0.47690486664813181 0 -0.47465271013153171 -0.47472111009224632 0 -0.44755414560184781 -0.49445982194884841 0 -0.45208872913075621 -0.46314264578579778 0 -0.44594502469383351 -0.5 0 -0.44755414560184781 -0.49445982194884841 0 -0.42249807937833572 -0.48891964389769538 0 -0.45208872913075621 -0.46314264578579778 0 -0.46791672135621343 -0.44832966308460948 0 -0.4542185954388015 -0.43157063856233979 0 -0.45208872913075621 -0.46314264578579778 0 -0.4542185954388015 -0.43157063856233979 0 -0.43104918068613451 -0.43950654264135719 0 -0.45208872913075621 -0.46314264578579778 0 -0.43559960621689908 -0.47690486664813181 0 -0.4256217579879662 -0.46211584969857128 0 -0.47465271013153171 -0.47472111009224632 0 -0.45208872913075621 -0.46314264578579778 0 -0.46791672135621343 -0.44832966308460948 0 -0.46791672135621343 -0.44832966308460948 0 -0.48869400509573752 -0.44875692032136533 0 -0.47738801019146848 -0.42363473448332212 0 -0.47465271013153171 -0.47472111009224632 0 -0.46791672135621343 -0.44832966308460948 0 -0.48869400509573752 -0.44875692032136533 0 -0.500000000000003 -0.47387910615940992 0 -0.48869400509573752 -0.44875692032136533 0 -0.5 -0.44488443186898541 0 -0.500000000000003 -0.47387910615940992 0 -0.47465271013153171 -0.47472111009224632 0 -0.48869400509573752 -0.44875692032136533 0 -0.500000000000003 -0.47387910615940992 0 -0.48869400509573752 -0.44875692032136533 0 -0.48869400509573752 -0.44875692032136533 0 -0.5 -0.44488443186898541 0 -0.47738801019146848 -0.42363473448332212 0 -0.5 -0.44488443186898541 0 -0.50000000000000089 -0.41588975757856089 0 -0.47738801019146848 -0.42363473448332212 0 -0.50000000000000089 -0.41588975757856089 0 -0.47738801019146848 -0.42363473448332212 0 -0.48540935015958903 -0.40091368828034829 0 -0.50000000000000089 -0.41588975757856089 0 -0.47738801019146848 -0.42363473448332212 0 -0.47738801019146848 -0.42363473448332212 0 -0.48540935015958903 -0.40091368828034829 0 -0.46712802750809113 -0.40083681233233631 0 -0.47738801019146848 -0.42363473448332212 0 -0.46712802750809113 -0.40083681233233631 0 -0.48869400509573752 -0.44875692032136533 0 -0.47738801019146848 -0.42363473448332212 0 -0.50000000000000022 -0.38852600732545622 0 -0.47843402241235627 -0.38328244875340373 0 -0.50000000000000022 -0.38852600732545622 0 -0.47843402241235627 -0.38328244875340373 0 -0.5 -0.36133801216824207 0 -0.50000000000000022 -0.38852600732545622 0 -0.48540935015958903 -0.40091368828034829 0 -0.47843402241235627 -0.38328244875340373 0 -0.50000000000000089 -0.41588975757856089 0 -0.50000000000000022 -0.38852600732545622 0 -0.48540935015958903 -0.40091368828034829 0 -0.48540935015958903 -0.40091368828034829 0 -0.47843402241235627 -0.38328244875340373 0 -0.46712802750809113 -0.40083681233233631 0 -0.47843402241235627 -0.38328244875340373 0 -0.45686804482471238 -0.37803889018135112 0 -0.45686804482471238 -0.37803889018135112 0 -0.46712802750809113 -0.40083681233233631 0 -0.47843402241235627 -0.38328244875340373 0 -0.45686804482471238 -0.37803889018135112 0 -0.46712802750809113 -0.40083681233233631 0 -0.45686804482471238 -0.37803889018135112 0 -0.46712802750809113 -0.40083681233233631 0 -0.44580486283467308 -0.39597473054352672 0 -0.46712802750809113 -0.40083681233233631 0 -0.44580486283467308 -0.39597473054352672 0 -0.45589391656625911 -0.41419618907926897 0 -0.45686804482471238 -0.37803889018135112 0 -0.43440959155470049 -0.37257833479125019 0 -0.45686804482471238 -0.37803889018135112 0 -0.44580486283467308 -0.39597473054352672 0 -0.43440959155470049 -0.37257833479125019 0 -0.46791672135621343 -0.44832966308460948 0 -0.47738801019146848 -0.42363473448332212 0 -0.4542185954388015 -0.43157063856233979 0 -0.47738801019146848 -0.42363473448332212 0 -0.4542185954388015 -0.43157063856233979 0 -0.45589391656625911 -0.41419618907926897 0 -0.47738801019146848 -0.42363473448332212 0 -0.4542185954388015 -0.43157063856233979 0 -0.47738801019146848 -0.42363473448332212 0 -0.46712802750809113 -0.40083681233233631 0 -0.45589391656625911 -0.41419618907926897 0 -0.4542185954388015 -0.43157063856233979 0 -0.45589391656625911 -0.41419618907926897 0 -0.43726934138190787 -0.41571049340060962 0 -0.44580486283467308 -0.39597473054352672 0 -0.45589391656625911 -0.41419618907926897 0 -0.43726934138190787 -0.41571049340060962 0 -0.4542185954388015 -0.43157063856233979 0 -0.43726934138190787 -0.41571049340060962 0 -0.43104918068613451 -0.43950654264135719 0 -0.4542185954388015 -0.43157063856233979 0 -0.43104918068613451 -0.43950654264135719 0 -0.43726934138190787 -0.41571049340060962 0 -0.41557001055291942 -0.4209650550983603 0 -0.43104918068613451 -0.43950654264135719 0 -0.43726934138190787 -0.41571049340060962 0 -0.41557001055291942 -0.4209650550983603 0 -0.42326025517236782 -0.39448766347634362 0 -0.41557001055291942 -0.4209650550983603 0 -0.40896430047291737 -0.3997713238665262 0 -0.40113686528745318 -0.41453561802669348 0 -0.41557001055291942 -0.4209650550983603 0 -0.42326025517236782 -0.39448766347634362 0 -0.41557001055291942 -0.4209650550983603 0 -0.40787976593346809 -0.44744244672037642 0 -0.41557001055291942 -0.4209650550983603 0 -0.39917366122136261 -0.42819610570855038 0 -0.40787976593346809 -0.44744244672037642 0 -0.41557001055291942 -0.4209650550983603 0 -0.43104918068613451 -0.43950654264135719 0 -0.40787976593346809 -0.44744244672037642 0 -0.44580486283467308 -0.39597473054352672 0 -0.42326025517236782 -0.39448766347634362 0 -0.43440959155470049 -0.37257833479125019 0 -0.44580486283467308 -0.39597473054352672 0 -0.43726934138190787 -0.41571049340060962 0 -0.42326025517236782 -0.39448766347634362 0 -0.41557001055291942 -0.4209650550983603 0 -0.42326025517236782 -0.39448766347634362 0 -0.40896430047291737 -0.3997713238665262 0 -0.42326025517236782 -0.39448766347634362 0 -0.40652083043305021 -0.37643045285707111 0 -0.43440959155470049 -0.37257833479125019 0 -0.42326025517236782 -0.39448766347634362 0 -0.40896430047291737 -0.3997713238665262 0 -0.40652083043305021 -0.37643045285707111 0 -0.40652083043305021 -0.37643045285707111 0 -0.38910877505687053 -0.38734206271014671 0 -0.38722065725087462 -0.3727228525611424 0 -0.40896430047291737 -0.3997713238665262 0 -0.40652083043305021 -0.37643045285707111 0 -0.38910877505687053 -0.38734206271014671 0 -0.40896430047291737 -0.3997713238665262 0 -0.3914686432601977 -0.40389401324505741 0 -0.40113686528745318 -0.41453561802669348 0 -0.40896430047291737 -0.3997713238665262 0 -0.38910877505687053 -0.38734206271014671 0 -0.40896430047291737 -0.3997713238665262 0 -0.3914686432601977 -0.40389401324505741 0 -0.38910877505687053 -0.38734206271014671 0 -0.3914686432601977 -0.40389401324505741 0 -0.37518229609146492 -0.39849904928886631 0 -0.38910877505687053 -0.38734206271014671 0 -0.38910877505687053 -0.38734206271014671 0 -0.38722065725087462 -0.3727228525611424 0 -0.36925324964082362 -0.37491280155376688 0 -0.38910877505687053 -0.38734206271014671 0 -0.36925324964082362 -0.37491280155376688 0 -0.37518229609146492 -0.39849904928886631 0 -0.38910877505687053 -0.38734206271014671 0 -0.36925324964082362 -0.37491280155376688 0 -0.3914686432601977 -0.40389401324505741 0 -0.40113686528745318 -0.41453561802669348 0 -0.38295097939228251 -0.41932201233305438 0 -0.41557001055291942 -0.4209650550983603 0 -0.39917366122136261 -0.42819610570855038 0 -0.40113686528745318 -0.41453561802669348 0 -0.39917366122136261 -0.42819610570855038 0 -0.40113686528745318 -0.41453561802669348 0 -0.38295097939228251 -0.41932201233305438 0 -0.3914686432601977 -0.40389401324505741 0 -0.37518229609146492 -0.39849904928886631 0 -0.38295097939228251 -0.41932201233305438 0 -0.38295097939228251 -0.41932201233305438 0 -0.38833068494069062 -0.43871539636426909 0 -0.36335345481182962 -0.43638327528025278 0 -0.39917366122136261 -0.42819610570855038 0 -0.38295097939228251 -0.41932201233305438 0 -0.38833068494069062 -0.43871539636426909 0 -0.38833068494069062 -0.43871539636426909 0 -0.37961434410022032 -0.45712381669955382 0 -0.36335345481182962 -0.43638327528025278 0 -0.37961434410022032 -0.45712381669955382 0 -0.40787976593346809 -0.44744244672037642 0 -0.39917366122136261 -0.42819610570855038 0 -0.38833068494069062 -0.43871539636426909 0 -0.40787976593346809 -0.44744244672037642 0 -0.38833068494069062 -0.43871539636426909 0 -0.37961434410022032 -0.45712381669955382 0 -0.40787976593346809 -0.44744244672037642 0 -0.40266088954414769 -0.46541095628345991 0 -0.37961434410022032 -0.45712381669955382 0 -0.39476360579206049 -0.47216482242284552 0 -0.40266088954414769 -0.46541095628345991 0 -0.37961434410022032 -0.45712381669955382 0 -0.40787976593346809 -0.44744244672037642 0 -0.40266088954414769 -0.46541095628345991 0 -0.40787976593346809 -0.44744244672037642 0 -0.37961434410022032 -0.45712381669955382 0 -0.382861635596695 -0.47177938139130371 0 -0.39476360579206049 -0.47216482242284552 0 -0.37961434410022032 -0.45712381669955382 0 -0.382861635596695 -0.47177938139130371 0 -0.3703098119603494 -0.46779139183271728 0 -0.382861635596695 -0.47177938139130371 0 -0.37436745694621099 -0.47901044162751499 0 -0.3703098119603494 -0.46779139183271728 0 -0.38372729115453258 -0.48035149144520578 0 -0.38137642856357029 -0.48973809357247938 0 -0.37436745694621099 -0.47901044162751499 0 -0.38372729115453258 -0.48035149144520578 0 -0.382861635596695 -0.47177938139130371 0 -0.37436745694621099 -0.47901044162751499 0 -0.3886246575349272 -0.47668132146479048 0 -0.38372729115453258 -0.48035149144520578 0 -0.39314609759642061 -0.48242959059980722 0 -0.38372729115453258 -0.48035149144520578 0 -0.38137642856357029 -0.48973809357247938 0 -0.39314609759642061 -0.48242959059980722 0 -0.3886246575349272 -0.47668132146479048 0 -0.38372729115453258 -0.48035149144520578 0 -0.382861635596695 -0.47177938139130371 0 -0.3886246575349272 -0.47668132146479048 0 -0.382861635596695 -0.47177938139130371 0 -0.39476360579206049 -0.47216482242284552 0 -0.38137642856357029 -0.48973809357247938 0 -0.39261465043078042 -0.50000000000000377 0 -0.37188457908714639 -0.5 0 -0.38137642856357029 -0.48973809357247938 0 -0.39261465043078042 -0.50000000000000377 0 -0.39314609759642061 -0.48242959059980722 0 -0.39261465043078042 -0.50000000000000377 0 -0.39744201315482358 -0.48337946584654251 0 -0.39261465043078042 -0.50000000000000377 0 -0.39744201315482358 -0.48337946584654251 0 -0.41927983756230691 -0.5 0 -0.39261465043078042 -0.50000000000000377 0 -0.39314609759642061 -0.48242959059980722 0 -0.39744201315482358 -0.48337946584654251 0 -0.40266088954414769 -0.46541095628345991 0 -0.39476360579206049 -0.47216482242284552 0 -0.39744201315482358 -0.48337946584654251 0 -0.40266088954414769 -0.46541095628345991 0 -0.39744201315482358 -0.48337946584654251 0 -0.41566818248165721 -0.47455898322691881 0 -0.40266088954414769 -0.46541095628345991 0 -0.39744201315482358 -0.48337946584654251 0 -0.3886246575349272 -0.47668132146479048 0 -0.39476360579206049 -0.47216482242284552 0 -0.39314609759642061 -0.48242959059980722 0 -0.39476360579206049 -0.47216482242284552 0 -0.39314609759642061 -0.48242959059980722 0 -0.39744201315482358 -0.48337946584654251 0 -0.39314609759642061 -0.48242959059980722 0 -0.39744201315482358 -0.48337946584654251 0 -0.39744201315482358 -0.48337946584654251 0 -0.41566818248165721 -0.47455898322691881 0 -0.42249807937833572 -0.48891964389769538 0 -0.39744201315482358 -0.48337946584654251 0 -0.42249807937833572 -0.48891964389769538 0 -0.39744201315482358 -0.48337946584654251 0 -0.41927983756230691 -0.5 0 -0.42249807937833572 -0.48891964389769538 0 -0.44755414560184781 -0.49445982194884841 0 -0.42249807937833572 -0.48891964389769538 0 -0.43559960621689908 -0.47690486664813181 0 -0.44594502469383351 -0.5 0 -0.41927983756230691 -0.5 0 -0.42249807937833572 -0.48891964389769538 0 -0.44755414560184781 -0.49445982194884841 0 -0.42249807937833572 -0.48891964389769538 0 -0.41566818248165721 -0.47455898322691881 0 -0.43559960621689908 -0.47690486664813181 0 -0.4256217579879662 -0.46211584969857128 0 -0.41566818248165721 -0.47455898322691881 0 -0.42249807937833572 -0.48891964389769538 0 -0.43559960621689908 -0.47690486664813181 0 -0.45208872913075621 -0.46314264578579778 0 -0.4256217579879662 -0.46211584969857128 0 -0.43104918068613451 -0.43950654264135719 0 -0.43104918068613451 -0.43950654264135719 0 -0.40787976593346809 -0.44744244672037642 0 -0.4256217579879662 -0.46211584969857128 0 -0.43104918068613451 -0.43950654264135719 0 -0.40787976593346809 -0.44744244672037642 0 -0.40266088954414769 -0.46541095628345991 0 -0.4256217579879662 -0.46211584969857128 0 -0.40787976593346809 -0.44744244672037642 0 -0.40266088954414769 -0.46541095628345991 0 -0.41566818248165721 -0.47455898322691881 0 -0.4256217579879662 -0.46211584969857128 0 -0.45222185260284259 -0.25288006385438788 0 -0.44308632105269807 -0.26487585649570983 0 -0.45845273567306538 -0.26422263509527449 0 -0.45222185260284259 -0.25288006385438788 0 -0.44064585684077578 -0.25158834746322473 0 -0.44308632105269807 -0.26487585649570983 0 -0.44064585684077578 -0.25158834746322473 0 -0.44308632105269807 -0.26487585649570983 0 -0.42942343752306211 -0.25580878815679958 0 -0.44308632105269807 -0.26487585649570983 0 -0.45826756992209772 -0.27895145245272729 0 -0.43298792249389467 -0.27805638099810409 0 -0.45826756992209772 -0.27895145245272729 0 -0.45845273567306538 -0.26422263509527449 0 -0.47756117206478021 -0.26714362443288708 0 -0.44308632105269807 -0.26487585649570983 0 -0.45826756992209772 -0.27895145245272729 0 -0.45845273567306538 -0.26422263509527449 0 -0.45845273567306538 -0.26422263509527449 0 -0.46676211514085431 -0.25406199841660582 0 -0.47756117206478021 -0.26714362443288708 0 -0.45222185260284259 -0.25288006385438788 0 -0.45845273567306538 -0.26422263509527449 0 -0.46676211514085431 -0.25406199841660582 0 -0.46676211514085431 -0.25406199841660582 0 -0.47756117206478021 -0.26714362443288708 0 -0.4824752312733584 -0.2457244592886825 0 -0.5 -0.25258603153938591 0 -0.47756117206478021 -0.26714362443288708 0 -0.4824752312733584 -0.2457244592886825 0 -0.5 -0.2797740266965999 0 -0.47756117206478021 -0.26714362443288708 0 -0.47920175565599737 -0.29267676585713071 0 -0.5 -0.25258603153938591 0 -0.5 -0.2797740266965999 0 -0.47756117206478021 -0.26714362443288708 0 -0.45826756992209772 -0.27895145245272729 0 -0.47756117206478021 -0.26714362443288708 0 -0.47920175565599737 -0.29267676585713071 0 -0.47920175565599737 -0.29267676585713071 0 -0.5 -0.30696202185381399 0 -0.46571651746368298 -0.31310214214580862 0 -0.5 -0.2797740266965999 0 -0.47920175565599737 -0.29267676585713071 0 -0.5 -0.30696202185381399 0 -0.44833985913075208 -0.29763840356202581 0 -0.46571651746368298 -0.31310214214580862 0 -0.43291976466447851 -0.32482525000362372 0 -0.47920175565599737 -0.29267676585713071 0 -0.44833985913075208 -0.29763840356202581 0 -0.46571651746368298 -0.31310214214580862 0 -0.45826756992209772 -0.27895145245272729 0 -0.47920175565599737 -0.29267676585713071 0 -0.44833985913075208 -0.29763840356202581 0 -0.45826756992209772 -0.27895145245272729 0 -0.44833985913075208 -0.29763840356202581 0 -0.43298792249389467 -0.27805638099810409 0 -0.4610281952380047 -0.33537609923759909 0 -0.46571651746368298 -0.31310214214580862 0 -0.43291976466447851 -0.32482525000362372 0 -0.44489390474459561 -0.35143207009248728 0 -0.43291976466447851 -0.32482525000362372 0 -0.4610281952380047 -0.33537609923759909 0 -0.44489390474459561 -0.35143207009248728 0 -0.43291976466447851 -0.32482525000362372 0 -0.5 -0.30696202185381399 0 -0.46571651746368298 -0.31310214214580862 0 -0.48024949214218798 -0.32853001680499633 0 -0.4610281952380047 -0.33537609923759909 0 -0.46571651746368298 -0.31310214214580862 0 -0.48024949214218798 -0.32853001680499633 0 -0.5 -0.30696202185381399 0 -0.5 -0.33415001701102809 0 -0.48024949214218798 -0.32853001680499633 0 -0.5 -0.33415001701102809 0 -0.48024949214218798 -0.32853001680499633 0 -0.47450274800925257 -0.35305980377673152 0 -0.4610281952380047 -0.33537609923759909 0 -0.48024949214218798 -0.32853001680499633 0 -0.47450274800925257 -0.35305980377673152 0 -0.5 -0.33415001701102809 0 -0.47450274800925257 -0.35305980377673152 0 -0.5 -0.36133801216824207 0 -0.47843402241235627 -0.38328244875340373 0 -0.47450274800925257 -0.35305980377673152 0 -0.5 -0.36133801216824207 0 -0.47843402241235627 -0.38328244875340373 0 -0.45686804482471238 -0.37803889018135112 0 -0.47450274800925257 -0.35305980377673152 0 -0.45686804482471238 -0.37803889018135112 0 -0.47450274800925257 -0.35305980377673152 0 -0.44489390474459561 -0.35143207009248728 0 -0.4610281952380047 -0.33537609923759909 0 -0.47450274800925257 -0.35305980377673152 0 -0.44489390474459561 -0.35143207009248728 0 -0.45686804482471238 -0.37803889018135112 0 -0.44489390474459561 -0.35143207009248728 0 -0.43440959155470049 -0.37257833479125019 0 -0.45686804482471238 -0.37803889018135112 0 -0.44489390474459561 -0.35143207009248728 0 -0.44489390474459561 -0.35143207009248728 0 -0.43440959155470049 -0.37257833479125019 0 -0.41759402812986718 -0.35498042282961012 0 -0.40652083043305021 -0.37643045285707111 0 -0.43440959155470049 -0.37257833479125019 0 -0.41759402812986718 -0.35498042282961012 0 -0.40652083043305021 -0.37643045285707111 0 -0.41759402812986718 -0.35498042282961012 0 -0.3869022579287516 -0.3546712041659677 0 -0.40652083043305021 -0.37643045285707111 0 -0.38722065725087462 -0.3727228525611424 0 -0.3869022579287516 -0.3546712041659677 0 -0.3869022579287516 -0.3546712041659677 0 -0.36925324964082362 -0.37491280155376688 0 -0.38722065725087462 -0.3727228525611424 0 -0.3869022579287516 -0.3546712041659677 0 -0.36925324964082362 -0.37491280155376688 0 -0.3869022579287516 -0.3546712041659677 0 -0.38246950615932862 -0.3354769445711539 0 -0.36860985855843242 -0.35252570670851152 0 -0.41759402812986718 -0.35498042282961012 0 -0.3869022579287516 -0.3546712041659677 0 -0.40455126621668042 -0.33442960677816941 0 -0.3869022579287516 -0.3546712041659677 0 -0.40455126621668042 -0.33442960677816941 0 -0.3869022579287516 -0.3546712041659677 0 -0.40455126621668042 -0.33442960677816941 0 -0.38246950615932862 -0.3354769445711539 0 -0.38246950615932862 -0.3354769445711539 0 -0.38087524429864222 -0.31327105019167562 0 -0.36337817221246088 -0.33504927378548122 0 -0.40455126621668042 -0.33442960677816941 0 -0.38246950615932862 -0.3354769445711539 0 -0.38087524429864222 -0.31327105019167562 0 -0.40455126621668042 -0.33442960677816941 0 -0.38087524429864222 -0.31327105019167562 0 -0.40511174973568431 -0.31274098457578547 0 -0.40455126621668042 -0.33442960677816941 0 -0.40511174973568431 -0.31274098457578547 0 -0.43291976466447851 -0.32482525000362372 0 -0.41759402812986718 -0.35498042282961012 0 -0.40455126621668042 -0.33442960677816941 0 -0.43291976466447851 -0.32482525000362372 0 -0.44489390474459561 -0.35143207009248728 0 -0.41759402812986718 -0.35498042282961012 0 -0.43291976466447851 -0.32482525000362372 0 -0.44833985913075208 -0.29763840356202581 0 -0.43291976466447851 -0.32482525000362372 0 -0.42094562458436141 -0.29821842991476022 0 -0.43291976466447851 -0.32482525000362372 0 -0.42094562458436141 -0.29821842991476022 0 -0.44833985913075208 -0.29763840356202581 0 -0.42094562458436141 -0.29821842991476022 0 -0.43298792249389467 -0.27805638099810409 0 -0.42094562458436141 -0.29821842991476022 0 -0.40897148450424381 -0.27161160982589683 0 -0.42094562458436141 -0.29821842991476022 0 -0.40897148450424381 -0.27161160982589683 0 -0.43298792249389467 -0.27805638099810409 0 -0.42094562458436141 -0.29821842991476022 0 -0.3999550980632679 -0.29454915708640278 0 -0.40897148450424381 -0.27161160982589683 0 -0.40511174973568431 -0.31274098457578547 0 -0.43291976466447851 -0.32482525000362372 0 -0.42094562458436141 -0.29821842991476022 0 -0.40511174973568431 -0.31274098457578547 0 -0.42094562458436141 -0.29821842991476022 0 -0.3999550980632679 -0.29454915708640278 0 -0.38087524429864222 -0.31327105019167562 0 -0.40511174973568431 -0.31274098457578547 0 -0.3999550980632679 -0.29454915708640278 0 -0.38087524429864222 -0.31327105019167562 0 -0.38183404472636301 -0.28412993802821329 0 -0.3999550980632679 -0.29454915708640278 0 -0.38183404472636301 -0.28412993802821329 0 -0.3999550980632679 -0.29454915708640278 0 -0.40897148450424381 -0.27161160982589683 0 -0.38183404472636301 -0.28412993802821329 0 -0.40897148450424381 -0.27161160982589683 0 -0.38183404472636301 -0.28412993802821329 0 -0.38662283229117689 -0.26485737801514508 0 -0.40897148450424381 -0.27161160982589683 0 -0.38183404472636301 -0.28412993802821329 0 -0.38662283229117689 -0.26485737801514508 0 -0.36676047055009359 -0.2691754856356105 0 -0.38662283229117689 -0.26485737801514508 0 -0.36676047055009359 -0.2691754856356105 0 -0.37604061671614919 -0.24878734238839381 0 -0.38662283229117689 -0.26485737801514508 0 -0.39950754495903501 -0.25058251419761129 0 -0.37604061671614919 -0.24878734238839381 0 -0.39950754495903501 -0.25058251419761129 0 -0.40897148450424381 -0.27161160982589683 0 -0.38662283229117689 -0.26485737801514508 0 -0.39950754495903501 -0.25058251419761129 0 -0.40897148450424381 -0.27161160982589683 0 -0.39950754495903501 -0.25058251419761129 0 -0.41473056091589161 -0.25670298491766941 0 -0.40897148450424381 -0.27161160982589683 0 -0.39950754495903501 -0.25058251419761129 0 -0.41473056091589161 -0.25670298491766941 0 -0.4196482281114669 -0.24329947577913641 0 -0.41473056091589161 -0.25670298491766941 0 -0.42942343752306211 -0.25580878815679958 0 -0.4196482281114669 -0.24329947577913641 0 -0.41473056091589161 -0.25670298491766941 0 -0.41977234285598242 -0.2666292426305949 0 -0.42942343752306211 -0.25580878815679958 0 -0.41473056091589161 -0.25670298491766941 0 -0.40897148450424381 -0.27161160982589683 0 -0.41977234285598242 -0.2666292426305949 0 -0.40897148450424381 -0.27161160982589683 0 -0.41977234285598242 -0.2666292426305949 0 -0.43298792249389467 -0.27805638099810409 0 -0.40897148450424381 -0.27161160982589683 0 -0.41977234285598242 -0.2666292426305949 0 -0.41977234285598242 -0.2666292426305949 0 -0.43298792249389467 -0.27805638099810409 0 -0.43134818579207512 -0.26662667312584748 0 -0.44308632105269807 -0.26487585649570983 0 -0.43298792249389467 -0.27805638099810409 0 -0.43134818579207512 -0.26662667312584748 0 -0.44308632105269807 -0.26487585649570983 0 -0.43134818579207512 -0.26662667312584748 0 -0.42942343752306211 -0.25580878815679958 0 -0.44064585684077578 -0.25158834746322473 0 -0.42942343752306211 -0.25580878815679958 0 -0.43357277536023853 -0.2446274102914045 0 -0.41977234285598242 -0.2666292426305949 0 -0.43134818579207512 -0.26662667312584748 0 -0.42942343752306211 -0.25580878815679958 0 -0.31367801507988852 -0.26619229460899252 0 -0.34553828659498009 -0.26849197046719497 0 -0.32822456851176302 -0.2851498130035246 0 -0.31367801507988852 -0.26619229460899252 0 -0.34553828659498009 -0.26849197046719497 0 -0.33016850951032167 -0.2488591399558098 0 -0.31367801507988852 -0.26619229460899252 0 -0.31165457360289223 -0.2376621753647476 0 -0.33016850951032167 -0.2488591399558098 0 -0.31367801507988852 -0.26619229460899252 0 -0.32822456851176302 -0.2851498130035246 0 -0.30607821099915672 -0.29094730768194632 0 -0.34553828659498009 -0.26849197046719497 0 -0.34966300242442072 -0.24336812660083651 0 -0.33016850951032167 -0.2488591399558098 0 -0.34553828659498009 -0.26849197046719497 0 -0.34966300242442072 -0.24336812660083651 0 -0.36676047055009359 -0.2691754856356105 0 -0.34553828659498009 -0.26849197046719497 0 -0.34966300242442072 -0.24336812660083651 0 -0.36676047055009359 -0.2691754856356105 0 -0.34966300242442072 -0.24336812660083651 0 -0.37604061671614919 -0.24878734238839381 0 -0.36676047055009359 -0.2691754856356105 0 -0.34553828659498009 -0.26849197046719497 0 -0.35469660494848188 -0.29664826623052998 0 -0.38183404472636301 -0.28412993802821329 0 -0.36676047055009359 -0.2691754856356105 0 -0.35469660494848188 -0.29664826623052998 0 -0.38183404472636301 -0.28412993802821329 0 -0.35469660494848188 -0.29664826623052998 0 -0.38087524429864222 -0.31327105019167562 0 -0.35469660494848188 -0.29664826623052998 0 -0.35390332427133459 -0.31769740627095122 0 -0.38087524429864222 -0.31327105019167562 0 -0.38183404472636301 -0.28412993802821329 0 -0.35469660494848188 -0.29664826623052998 0 -0.35469660494848188 -0.29664826623052998 0 -0.3275591651706008 -0.30916659443284661 0 -0.35390332427133459 -0.31769740627095122 0 -0.35469660494848188 -0.29664826623052998 0 -0.3275591651706008 -0.30916659443284661 0 -0.35469660494848188 -0.29664826623052998 0 -0.32822456851176302 -0.2851498130035246 0 -0.3275591651706008 -0.30916659443284661 0 -0.34553828659498009 -0.26849197046719497 0 -0.35469660494848188 -0.29664826623052998 0 -0.32822456851176302 -0.2851498130035246 0 -0.32822456851176302 -0.2851498130035246 0 -0.3275591651706008 -0.30916659443284661 0 -0.30607821099915672 -0.29094730768194632 0 -0.3275591651706008 -0.30916659443284661 0 -0.3136368412226383 -0.3356406971367718 0 -0.29815014719060179 -0.31297887162497151 0 -0.3275591651706008 -0.30916659443284661 0 -0.3136368412226383 -0.3356406971367718 0 -0.33823087262905033 -0.33177113535013419 0 -0.3136368412226383 -0.3356406971367718 0 -0.33823087262905033 -0.33177113535013419 0 -0.32753644314119101 -0.34517714477843747 0 -0.3275591651706008 -0.30916659443284661 0 -0.33823087262905033 -0.33177113535013419 0 -0.35390332427133459 -0.31769740627095122 0 -0.38087524429864222 -0.31327105019167562 0 -0.35390332427133459 -0.31769740627095122 0 -0.36337817221246088 -0.33504927378548122 0 -0.38246950615932862 -0.3354769445711539 0 -0.36337817221246088 -0.33504927378548122 0 -0.36860985855843242 -0.35252570670851152 0 -0.33823087262905033 -0.33177113535013419 0 -0.35390332427133459 -0.31769740627095122 0 -0.36337817221246088 -0.33504927378548122 0 -0.33823087262905033 -0.33177113535013419 0 -0.36337817221246088 -0.33504927378548122 0 -0.35301400534892452 -0.34836882165449412 0 -0.33823087262905033 -0.33177113535013419 0 -0.35301400534892452 -0.34836882165449412 0 -0.34014966568284449 -0.35669439443430662 0 -0.35301400534892452 -0.34836882165449412 0 -0.35470145766183409 -0.36580359799403678 0 -0.34014966568284449 -0.35669439443430662 0 -0.35301400534892452 -0.34836882165449412 0 -0.36860985855843242 -0.35252570670851152 0 -0.35470145766183409 -0.36580359799403678 0 -0.36337817221246088 -0.33504927378548122 0 -0.35301400534892452 -0.34836882165449412 0 -0.36860985855843242 -0.35252570670851152 0 -0.3869022579287516 -0.3546712041659677 0 -0.36860985855843242 -0.35252570670851152 0 -0.36925324964082362 -0.37491280155376688 0 -0.36860985855843242 -0.35252570670851152 0 -0.36925324964082362 -0.37491280155376688 0 -0.35470145766183409 -0.36580359799403678 0 -0.36925324964082362 -0.37491280155376688 0 -0.35470145766183409 -0.36580359799403678 0 -0.35470145766183409 -0.36580359799403678 0 -0.34083634081942638 -0.37318681733996539 0 -0.34014966568284449 -0.35669439443430662 0 -0.35470145766183409 -0.36580359799403678 0 -0.34014966568284449 -0.35669439443430662 0 -0.34083634081942638 -0.37318681733996539 0 -0.34014966568284449 -0.35669439443430662 0 -0.32563194898567982 -0.37160113807792677 0 -0.33823087262905033 -0.33177113535013419 0 -0.34014966568284449 -0.35669439443430662 0 -0.32753644314119101 -0.34517714477843747 0 -0.34014966568284449 -0.35669439443430662 0 -0.32753644314119101 -0.34517714477843747 0 -0.31812839303023083 -0.35660235219253722 0 -0.3136368412226383 -0.3356406971367718 0 -0.32753644314119101 -0.34517714477843747 0 -0.31812839303023083 -0.35660235219253722 0 -0.31812839303023083 -0.35660235219253722 0 -0.32563194898567982 -0.37160113807792677 0 -0.3092075781596183 -0.37468399985873668 0 -0.34014966568284449 -0.35669439443430662 0 -0.31812839303023083 -0.35660235219253722 0 -0.32563194898567982 -0.37160113807792677 0 -0.31812839303023083 -0.35660235219253722 0 -0.3092075781596183 -0.37468399985873668 0 -0.29525967535968251 -0.3553680205944702 0 -0.3092075781596183 -0.37468399985873668 0 -0.29525967535968251 -0.3553680205944702 0 -0.29175044443244269 -0.37144778479844393 0 -0.3136368412226383 -0.3356406971367718 0 -0.31812839303023083 -0.35660235219253722 0 -0.29525967535968251 -0.3553680205944702 0 -0.29525967535968251 -0.3553680205944702 0 -0.29175044443244269 -0.37144778479844393 0 -0.27376774886630878 -0.36967828479665299 0 -0.27376774886630878 -0.36967828479665299 0 -0.25496865658164691 -0.35081232725434908 0 -0.24748049984531889 -0.36877365697948111 0 -0.29525967535968251 -0.3553680205944702 0 -0.27376774886630878 -0.36967828479665299 0 -0.2715223986286126 -0.34071202540556778 0 -0.27376774886630878 -0.36967828479665299 0 -0.25496865658164691 -0.35081232725434908 0 -0.2715223986286126 -0.34071202540556778 0 -0.27376774886630878 -0.36967828479665299 0 -0.2715223986286126 -0.34071202540556778 0 -0.25496865658164691 -0.35081232725434908 0 -0.2715223986286126 -0.34071202540556778 0 -0.24826554150090119 -0.32906349466359353 0 -0.2715223986286126 -0.34071202540556778 0 -0.26927704839091637 -0.31174576601448267 0 -0.24826554150090119 -0.32906349466359353 0 -0.26927704839091637 -0.31174576601448267 0 -0.2520801468119348 -0.30734102622534332 0 -0.24826554150090119 -0.32906349466359353 0 -0.2715223986286126 -0.34071202540556778 0 -0.26927704839091637 -0.31174576601448267 0 -0.2715223986286126 -0.34071202540556778 0 -0.28956922215849029 -0.33128907615525283 0 -0.26927704839091637 -0.31174576601448267 0 -0.28956922215849029 -0.33128907615525283 0 -0.29815014719060179 -0.31297887162497151 0 -0.26927704839091637 -0.31174576601448267 0 -0.29525967535968251 -0.3553680205944702 0 -0.2715223986286126 -0.34071202540556778 0 -0.28956922215849029 -0.33128907615525283 0 -0.3136368412226383 -0.3356406971367718 0 -0.29525967535968251 -0.3553680205944702 0 -0.28956922215849029 -0.33128907615525283 0 -0.3136368412226383 -0.3356406971367718 0 -0.28956922215849029 -0.33128907615525283 0 -0.29815014719060179 -0.31297887162497151 0 -0.3275591651706008 -0.30916659443284661 0 -0.29815014719060179 -0.31297887162497151 0 -0.30607821099915672 -0.29094730768194632 0 -0.30607821099915672 -0.29094730768194632 0 -0.28519371630216561 -0.29485450020578169 0 -0.28657394373053158 -0.27588946289804928 0 -0.29815014719060179 -0.31297887162497151 0 -0.28519371630216561 -0.29485450020578169 0 -0.26927704839091637 -0.31174576601448267 0 -0.29815014719060179 -0.31297887162497151 0 -0.30607821099915672 -0.29094730768194632 0 -0.28519371630216561 -0.29485450020578169 0 -0.26927704839091637 -0.31174576601448267 0 -0.2670316981532202 -0.28277950662339768 0 -0.26927704839091637 -0.31174576601448267 0 -0.2520801468119348 -0.30734102622534332 0 -0.2670316981532202 -0.28277950662339768 0 -0.2670316981532202 -0.28277950662339768 0 -0.25129365032097989 -0.27799071898506628 0 -0.24213299377120481 -0.29265971187443057 0 -0.2520801468119348 -0.30734102622534332 0 -0.2670316981532202 -0.28277950662339768 0 -0.24213299377120481 -0.29265971187443057 0 -0.28519371630216561 -0.29485450020578169 0 -0.2670316981532202 -0.28277950662339768 0 -0.28657394373053158 -0.27588946289804928 0 -0.28519371630216561 -0.29485450020578169 0 -0.26927704839091637 -0.31174576601448267 0 -0.2670316981532202 -0.28277950662339768 0 -0.2670316981532202 -0.28277950662339768 0 -0.26155346297422272 -0.26431275471601712 0 -0.28657394373053158 -0.27588946289804928 0 -0.2670316981532202 -0.28277950662339768 0 -0.25129365032097989 -0.27799071898506628 0 -0.26155346297422272 -0.26431275471601712 0 -0.26155346297422272 -0.26431275471601712 0 -0.2454770400230725 -0.25067841925105527 0 -0.26907844967376238 -0.24535471509105369 0 -0.26155346297422272 -0.26431275471601712 0 -0.28865047956317352 -0.25641460670561439 0 -0.26155346297422272 -0.26431275471601712 0 -0.28865047956317352 -0.25641460670561439 0 -0.28657394373053158 -0.27588946289804928 0 -0.26155346297422272 -0.26431275471601712 0 -0.28865047956317352 -0.25641460670561439 0 -0.26907844967376238 -0.24535471509105369 0 -0.31367801507988852 -0.26619229460899252 0 -0.28865047956317352 -0.25641460670561439 0 -0.28657394373053158 -0.27588946289804928 0 -0.31367801507988852 -0.26619229460899252 0 -0.30607821099915672 -0.29094730768194632 0 -0.28657394373053158 -0.27588946289804928 0 -0.31367801507988852 -0.26619229460899252 0 -0.28865047956317352 -0.25641460670561439 0 -0.31165457360289223 -0.2376621753647476 0 -0.32776831832126258 -0.45148843929154481 0 -0.34164402231005447 -0.46980036898968502 0 -0.35446267626492328 -0.45658074472920429 0 -0.32776831832126258 -0.45148843929154481 0 -0.34164402231005447 -0.46980036898968502 0 -0.32776831832126258 -0.45148843929154481 0 -0.3280854564837673 -0.47570136007941088 0 -0.34164402231005447 -0.46980036898968502 0 -0.33672460428322748 -0.43924761268560841 0 -0.32776831832126258 -0.45148843929154481 0 -0.35446267626492328 -0.45658074472920429 0 -0.32776831832126258 -0.45148843929154481 0 -0.31389261433247118 -0.43317650959340442 0 -0.33672460428322748 -0.43924761268560841 0 -0.32776831832126258 -0.45148843929154481 0 -0.31389261433247118 -0.43317650959340442 0 -0.32776831832126258 -0.45148843929154481 0 -0.31389261433247118 -0.43317650959340442 0 -0.31157959379986933 -0.44934224189673128 0 -0.32776831832126258 -0.45148843929154481 0 -0.31680322904875791 -0.4655455558568809 0 -0.3280854564837673 -0.47570136007941088 0 -0.32776831832126258 -0.45148843929154481 0 -0.31680322904875791 -0.4655455558568809 0 -0.31157959379986933 -0.44934224189673128 0 -0.31680322904875791 -0.4655455558568809 0 -0.3156690710129228 -0.48373191267223947 0 -0.3280854564837673 -0.47570136007941088 0 -0.3156690710129228 -0.48373191267223947 0 -0.33042443639987862 -0.50000000000000044 0 -0.3156690710129228 -0.48373191267223947 0 -0.3280854564837673 -0.47570136007941088 0 -0.33042443639987862 -0.50000000000000044 0 -0.3156690710129228 -0.48373191267223947 0 -0.33042443639987862 -0.50000000000000044 0 -0.30603228727206738 -0.5 0 -0.33042443639987862 -0.50000000000000044 0 -0.34099944210650468 -0.48845523242115668 0 -0.35115450774351248 -0.5 0 -0.3280854564837673 -0.47570136007941088 0 -0.33042443639987862 -0.50000000000000044 0 -0.34099944210650468 -0.48845523242115668 0 -0.3280854564837673 -0.47570136007941088 0 -0.34099944210650468 -0.48845523242115668 0 -0.34164402231005447 -0.46980036898968502 0 -0.34164402231005447 -0.46980036898968502 0 -0.35551972629884632 -0.48811229868782519 0 -0.34099944210650468 -0.48845523242115668 0 -0.34164402231005447 -0.46980036898968502 0 -0.35551972629884632 -0.48811229868782519 0 -0.34164402231005447 -0.46980036898968502 0 -0.35551972629884632 -0.48811229868782519 0 -0.36024294689369762 -0.4744625747160095 0 -0.34099944210650468 -0.48845523242115668 0 -0.35115450774351248 -0.5 0 -0.35551972629884632 -0.48811229868782519 0 -0.35115450774351248 -0.5 0 -0.35551972629884632 -0.48811229868782519 0 -0.36646297615983592 -0.48928153940359709 0 -0.35115450774351248 -0.5 0 -0.36646297615983592 -0.48928153940359709 0 -0.37188457908714639 -0.5 0 -0.38137642856357029 -0.48973809357247938 0 -0.36646297615983592 -0.48928153940359709 0 -0.37436745694621099 -0.47901044162751499 0 -0.38137642856357029 -0.48973809357247938 0 -0.36646297615983592 -0.48928153940359709 0 -0.37188457908714639 -0.5 0 -0.35551972629884632 -0.48811229868782519 0 -0.36646297615983592 -0.48928153940359709 0 -0.36024294689369762 -0.4744625747160095 0 -0.36646297615983592 -0.48928153940359709 0 -0.36024294689369762 -0.4744625747160095 0 -0.37436745694621099 -0.47901044162751499 0 -0.36024294689369762 -0.4744625747160095 0 -0.37436745694621099 -0.47901044162751499 0 -0.3703098119603494 -0.46779139183271728 0 -0.37961434410022032 -0.45712381669955382 0 -0.3703098119603494 -0.46779139183271728 0 -0.35446267626492328 -0.45658074472920429 0 -0.36024294689369762 -0.4744625747160095 0 -0.3703098119603494 -0.46779139183271728 0 -0.35446267626492328 -0.45658074472920429 0 -0.34164402231005447 -0.46980036898968502 0 -0.36024294689369762 -0.4744625747160095 0 -0.35446267626492328 -0.45658074472920429 0 -0.33672460428322748 -0.43924761268560841 0 -0.35446267626492328 -0.45658074472920429 0 -0.36335345481182962 -0.43638327528025278 0 -0.37961434410022032 -0.45712381669955382 0 -0.35446267626492328 -0.45658074472920429 0 -0.36335345481182962 -0.43638327528025278 0 -0.38295097939228251 -0.41932201233305438 0 -0.36335345481182962 -0.43638327528025278 0 -0.36400926523915961 -0.41309121083696032 0 -0.37518229609146492 -0.39849904928886631 0 -0.38295097939228251 -0.41932201233305438 0 -0.36400926523915961 -0.41309121083696032 0 -0.34866766923183989 -0.42565931432045229 0 -0.35124146893726299 -0.3955704615928366 0 -0.3332296882337033 -0.41622812163190698 0 -0.36400926523915961 -0.41309121083696032 0 -0.34866766923183989 -0.42565931432045229 0 -0.35124146893726299 -0.3955704615928366 0 -0.33672460428322748 -0.43924761268560841 0 -0.36335345481182962 -0.43638327528025278 0 -0.34866766923183989 -0.42565931432045229 0 -0.36335345481182962 -0.43638327528025278 0 -0.36400926523915961 -0.41309121083696032 0 -0.34866766923183989 -0.42565931432045229 0 -0.37518229609146492 -0.39849904928886631 0 -0.36925324964082362 -0.37491280155376688 0 -0.35124146893726299 -0.3955704615928366 0 -0.36925324964082362 -0.37491280155376688 0 -0.35124146893726299 -0.3955704615928366 0 -0.37518229609146492 -0.39849904928886631 0 -0.36400926523915961 -0.41309121083696032 0 -0.35124146893726299 -0.3955704615928366 0 -0.35470145766183409 -0.36580359799403678 0 -0.34083634081942638 -0.37318681733996539 0 -0.35124146893726299 -0.3955704615928366 0 -0.36925324964082362 -0.37491280155376688 0 -0.35470145766183409 -0.36580359799403678 0 -0.35124146893726299 -0.3955704615928366 0 -0.34083634081942638 -0.37318681733996539 0 -0.35124146893726299 -0.3955704615928366 0 -0.33335902037107579 -0.38364821702401453 0 -0.34083634081942638 -0.37318681733996539 0 -0.32563194898567982 -0.37160113807792677 0 -0.33335902037107579 -0.38364821702401453 0 -0.35124146893726299 -0.3955704615928366 0 -0.3332296882337033 -0.41622812163190698 0 -0.35124146893726299 -0.3955704615928366 0 -0.33335902037107579 -0.38364821702401453 0 -0.33123069632033619 -0.39706986540183409 0 -0.35124146893726299 -0.3955704615928366 0 -0.33123069632033619 -0.39706986540183409 0 -0.3332296882337033 -0.41622812163190698 0 -0.3185974543653346 -0.40287388951421738 0 -0.31972584969430379 -0.38702863724619468 0 -0.3027753131831451 -0.39419028585098831 0 -0.33123069632033619 -0.39706986540183409 0 -0.3185974543653346 -0.40287388951421738 0 -0.31972584969430379 -0.38702863724619468 0 -0.33123069632033619 -0.39706986540183409 0 -0.3185974543653346 -0.40287388951421738 0 -0.3332296882337033 -0.41622812163190698 0 -0.32563194898567982 -0.37160113807792677 0 -0.3092075781596183 -0.37468399985873668 0 -0.31972584969430379 -0.38702863724619468 0 -0.33335902037107579 -0.38364821702401453 0 -0.33123069632033619 -0.39706986540183409 0 -0.31972584969430379 -0.38702863724619468 0 -0.32563194898567982 -0.37160113807792677 0 -0.33335902037107579 -0.38364821702401453 0 -0.31972584969430379 -0.38702863724619468 0 -0.33672460428322748 -0.43924761268560841 0 -0.34866766923183989 -0.42565931432045229 0 -0.32917987340102423 -0.42719698444768173 0 -0.34866766923183989 -0.42565931432045229 0 -0.32917987340102423 -0.42719698444768173 0 -0.3332296882337033 -0.41622812163190698 0 -0.3185974543653346 -0.40287388951421738 0 -0.3332296882337033 -0.41622812163190698 0 -0.31724458616225082 -0.41824525547476288 0 -0.32917987340102423 -0.42719698444768173 0 -0.3332296882337033 -0.41622812163190698 0 -0.31724458616225082 -0.41824525547476288 0 -0.3185974543653346 -0.40287388951421738 0 -0.31724458616225082 -0.41824525547476288 0 -0.30645770676837403 -0.40810797251206637 0 -0.33672460428322748 -0.43924761268560841 0 -0.31389261433247118 -0.43317650959340442 0 -0.33672460428322748 -0.43924761268560841 0 -0.32917987340102423 -0.42719698444768173 0 -0.31389261433247118 -0.43317650959340442 0 -0.32917987340102423 -0.42719698444768173 0 -0.31724458616225082 -0.41824525547476288 0 -0.31389261433247118 -0.43317650959340442 0 -0.31389261433247118 -0.43317650959340442 0 -0.28819979293288628 -0.42634470177538453 0 -0.31389261433247118 -0.43317650959340442 0 -0.30404007749178408 -0.42017400088316381 0 -0.28819979293288628 -0.42634470177538453 0 -0.31389261433247118 -0.43317650959340442 0 -0.28819979293288628 -0.42634470177538453 0 -0.29773341761425492 -0.44126531740099217 0 -0.31724458616225082 -0.41824525547476288 0 -0.31389261433247118 -0.43317650959340442 0 -0.30404007749178408 -0.42017400088316381 0 -0.31389261433247118 -0.43317650959340442 0 -0.30404007749178408 -0.42017400088316381 0 -0.31724458616225082 -0.41824525547476288 0 -0.30645770676837403 -0.40810797251206637 0 -0.30404007749178408 -0.42017400088316381 0 -0.30645770676837403 -0.40810797251206637 0 -0.30404007749178408 -0.42017400088316381 0 -0.29418754065109742 -0.40717149217292281 0 -0.30404007749178408 -0.42017400088316381 0 -0.29418754065109742 -0.40717149217292281 0 -0.30404007749178408 -0.42017400088316381 0 -0.29627829194793931 -0.41559331483189549 0 -0.29418754065109742 -0.40717149217292281 0 -0.30404007749178408 -0.42017400088316381 0 -0.29627829194793931 -0.41559331483189549 0 -0.28819979293288628 -0.42634470177538453 0 -0.29627829194793931 -0.41559331483189549 0 -0.28819979293288628 -0.42634470177538453 0 -0.29627829194793931 -0.41559331483189549 0 -0.29418754065109742 -0.40717149217292281 0 -0.28250602713201822 -0.41247257394728198 0 -0.29418754065109742 -0.40717149217292281 0 -0.28250602713201822 -0.41247257394728198 0 -0.2840437003248017 -0.39971508926210259 0 -0.29627829194793931 -0.41559331483189549 0 -0.28250602713201822 -0.41247257394728198 0 -0.28819979293288628 -0.42634470177538453 0 -0.28819979293288628 -0.42634470177538453 0 -0.27436380467182292 -0.44475852633153801 0 -0.28661383886449388 -0.44089107088115798 0 -0.28819979293288628 -0.42634470177538453 0 -0.27436380467182292 -0.44475852633153801 0 -0.28819979293288628 -0.42634470177538453 0 -0.28661383886449388 -0.44089107088115798 0 -0.29773341761425492 -0.44126531740099217 0 -0.3092075781596183 -0.37468399985873668 0 -0.31972584969430379 -0.38702863724619468 0 -0.3027753131831451 -0.39419028585098831 0 -0.3092075781596183 -0.37468399985873668 0 -0.3027753131831451 -0.39419028585098831 0 -0.2887667753441614 -0.38606083394391599 0 -0.3185974543653346 -0.40287388951421738 0 -0.30645770676837403 -0.40810797251206637 0 -0.3027753131831451 -0.39419028585098831 0 -0.30645770676837403 -0.40810797251206637 0 -0.29418754065109742 -0.40717149217292281 0 -0.3027753131831451 -0.39419028585098831 0 -0.29418754065109742 -0.40717149217292281 0 -0.2840437003248017 -0.39971508926210259 0 -0.29244333237580128 -0.39678442530748242 0 -0.29418754065109742 -0.40717149217292281 0 -0.3027753131831451 -0.39419028585098831 0 -0.29244333237580128 -0.39678442530748242 0 -0.2840437003248017 -0.39971508926210259 0 -0.29244333237580128 -0.39678442530748242 0 -0.2887667753441614 -0.38606083394391599 0 -0.3027753131831451 -0.39419028585098831 0 -0.29244333237580128 -0.39678442530748242 0 -0.2887667753441614 -0.38606083394391599 0 -0.29175044443244269 -0.37144778479844393 0 -0.27376774886630878 -0.36967828479665299 0 -0.2887667753441614 -0.38606083394391599 0 -0.3092075781596183 -0.37468399985873668 0 -0.29175044443244269 -0.37144778479844393 0 -0.2887667753441614 -0.38606083394391599 0 -0.27376774886630878 -0.36967828479665299 0 -0.2887667753441614 -0.38606083394391599 0 -0.26772076069739309 -0.39579109390291289 0 -0.2840437003248017 -0.39971508926210259 0 -0.2887667753441614 -0.38606083394391599 0 -0.26772076069739309 -0.39579109390291289 0 -0.28250602713201822 -0.41247257394728198 0 -0.2840437003248017 -0.39971508926210259 0 -0.26772076069739309 -0.39579109390291289 0 -0.26772076069739309 -0.39579109390291289 0 -0.24488238085297759 -0.4123055219447464 0 -0.24179014880966651 -0.39412688422596431 0 -0.26772076069739309 -0.39579109390291289 0 -0.24179014880966651 -0.39412688422596431 0 -0.24748049984531889 -0.36877365697948111 0 -0.27376774886630878 -0.36967828479665299 0 -0.26772076069739309 -0.39579109390291289 0 -0.24748049984531889 -0.36877365697948111 0 -0.28819979293288628 -0.42634470177538453 0 -0.26192062261077281 -0.41935698180234571 0 -0.26452330169845878 -0.433830511629613 0 -0.28819979293288628 -0.42634470177538453 0 -0.26192062261077281 -0.41935698180234571 0 -0.28819979293288628 -0.42634470177538453 0 -0.26452330169845878 -0.433830511629613 0 -0.27436380467182292 -0.44475852633153801 0 -0.28250602713201822 -0.41247257394728198 0 -0.28819979293288628 -0.42634470177538453 0 -0.26192062261077281 -0.41935698180234571 0 -0.28250602713201822 -0.41247257394728198 0 -0.26772076069739309 -0.39579109390291289 0 -0.26192062261077281 -0.41935698180234571 0 -0.26772076069739309 -0.39579109390291289 0 -0.26192062261077281 -0.41935698180234571 0 -0.24488238085297759 -0.4123055219447464 0 -0.26452330169845878 -0.433830511629613 0 -0.2546941212121398 -0.44580045478894609 0 -0.2377502140397772 -0.43139846922366071 0 -0.26192062261077281 -0.41935698180234571 0 -0.26452330169845878 -0.433830511629613 0 -0.2377502140397772 -0.43139846922366071 0 -0.2546941212121398 -0.44580045478894609 0 -0.26052781641075978 -0.46317235088769182 0 -0.27436380467182292 -0.44475852633153801 0 -0.26452330169845878 -0.433830511629613 0 -0.2546941212121398 -0.44580045478894609 0 -0.27436380467182292 -0.44475852633153801 0 -0.2546941212121398 -0.44580045478894609 0 -0.26052781641075978 -0.46317235088769182 0 -0.23630546923988041 -0.45584241587222668 0 -0.27437666971541758 -0.45875878746261139 0 -0.28615834023901171 -0.45119573801671731 0 -0.28005807381362041 -0.47155445566401888 0 -0.26052781641075978 -0.46317235088769182 0 -0.27437666971541758 -0.45875878746261139 0 -0.28005807381362041 -0.47155445566401888 0 -0.26052781641075978 -0.46317235088769182 0 -0.27437666971541758 -0.45875878746261139 0 -0.27436380467182292 -0.44475852633153801 0 -0.26052781641075978 -0.46317235088769182 0 -0.27436380467182292 -0.44475852633153801 0 -0.27437666971541758 -0.45875878746261139 0 -0.27436380467182292 -0.44475852633153801 0 -0.28615834023901171 -0.45119573801671731 0 -0.28661383886449388 -0.44089107088115798 0 -0.28615834023901171 -0.45119573801671731 0 -0.29773341761425492 -0.44126531740099217 0 -0.28615834023901171 -0.45119573801671731 0 -0.29773341761425492 -0.44126531740099217 0 -0.29909626431977582 -0.45231678066472969 0 -0.27436380467182292 -0.44475852633153801 0 -0.28661383886449388 -0.44089107088115798 0 -0.28615834023901171 -0.45119573801671731 0 -0.28615834023901171 -0.45119573801671731 0 -0.3009137056259672 -0.46746382534447828 0 -0.29909626431977582 -0.45231678066472969 0 -0.28615834023901171 -0.45119573801671731 0 -0.3009137056259672 -0.46746382534447828 0 -0.28005807381362041 -0.47155445566401888 0 -0.28615834023901171 -0.45119573801671731 0 -0.3009137056259672 -0.46746382534447828 0 -0.31680322904875791 -0.4655455558568809 0 -0.3009137056259672 -0.46746382534447828 0 -0.31157959379986933 -0.44934224189673128 0 -0.3009137056259672 -0.46746382534447828 0 -0.31157959379986933 -0.44934224189673128 0 -0.29909626431977582 -0.45231678066472969 0 -0.31389261433247118 -0.43317650959340442 0 -0.31157959379986933 -0.44934224189673128 0 -0.29773341761425492 -0.44126531740099217 0 -0.31157959379986933 -0.44934224189673128 0 -0.29773341761425492 -0.44126531740099217 0 -0.29909626431977582 -0.45231678066472969 0 -0.3156690710129228 -0.48373191267223947 0 -0.30603228727206738 -0.5 0 -0.29599795732645112 -0.48474944730318958 0 -0.3156690710129228 -0.48373191267223947 0 -0.3009137056259672 -0.46746382534447828 0 -0.29599795732645112 -0.48474944730318958 0 -0.31680322904875791 -0.4655455558568809 0 -0.3156690710129228 -0.48373191267223947 0 -0.3009137056259672 -0.46746382534447828 0 -0.3156690710129228 -0.48373191267223947 0 -0.3009137056259672 -0.46746382534447828 0 -0.3009137056259672 -0.46746382534447828 0 -0.29599795732645112 -0.48474944730318958 0 -0.28005807381362041 -0.47155445566401888 0 -0.29599795732645112 -0.48474944730318958 0 -0.28164013814425631 -0.5 0 -0.28005807381362041 -0.47155445566401888 0 -0.30603228727206738 -0.5 0 -0.29599795732645112 -0.48474944730318958 0 -0.28164013814425631 -0.5 0 -0.28164013814425631 -0.5 0 -0.26523316910695571 -0.48326259639911129 0 -0.25724798901644508 -0.5 0 -0.28164013814425631 -0.5 0 -0.28005807381362041 -0.47155445566401888 0 -0.26523316910695571 -0.48326259639911129 0 -0.26052781641075978 -0.46317235088769182 0 -0.28005807381362041 -0.47155445566401888 0 -0.26523316910695571 -0.48326259639911129 0 -0.26052781641075978 -0.46317235088769182 0 -0.26523316910695571 -0.48326259639911129 0 -0.24669182814969681 -0.48158617544384558 0 -0.26052781641075978 -0.46317235088769182 0 -0.24669182814969681 -0.48158617544384558 0 -0.26523316910695571 -0.48326259639911129 0 -0.25724798901644508 -0.5 0 -0.24669182814969681 -0.48158617544384558 0 -0.24669182814969681 -0.48158617544384558 0 -0.23285583988863401 -0.49999999999999961 0 -0.25724798901644508 -0.5 0 -0.24669182814969681 -0.48158617544384558 0 -0.23285583988863401 -0.49999999999999961 0 -0.24669182814969681 -0.48158617544384558 0 -0.22300489802689891 -0.47807327668989968 0 -0.23630546923988041 -0.45584241587222668 0 -0.24669182814969681 -0.48158617544384558 0 -0.22300489802689891 -0.47807327668989968 0 -0.23285583988863401 -0.49999999999999961 0 -0.22300489802689891 -0.47807327668989968 0 -0.23285583988863401 -0.49999999999999961 0 -0.20462747180296659 -0.5 0 -0.2546941212121398 -0.44580045478894609 0 -0.23630546923988041 -0.45584241587222668 0 -0.2377502140397772 -0.43139846922366071 0 -0.26052781641075978 -0.46317235088769182 0 -0.24669182814969681 -0.48158617544384558 0 -0.23630546923988041 -0.45584241587222668 0 -0.23630546923988041 -0.45584241587222668 0 -0.21230364459112849 -0.45093970260861571 0 -0.22300489802689891 -0.47807327668989968 0 -0.23630546923988041 -0.45584241587222668 0 -0.21230364459112849 -0.45093970260861571 0 -0.23630546923988041 -0.45584241587222668 0 -0.21230364459112849 -0.45093970260861571 0 -0.2377502140397772 -0.43139846922366071 0 -0.21230364459112849 -0.45093970260861571 0 -0.20438507535328571 -0.43071153934647177 0 -0.2377502140397772 -0.43139846922366071 0 -0.22300489802689891 -0.47807327668989968 0 -0.21230364459112849 -0.45093970260861571 0 -0.2000962161014562 -0.47416035015031999 0 -0.21230364459112849 -0.45093970260861571 0 -0.1883018199423766 -0.44603698934500469 0 -0.2000962161014562 -0.47416035015031999 0 -0.1883018199423766 -0.44603698934500469 0 -0.2000962161014562 -0.47416035015031999 0 -0.17772424475069271 -0.46317833696466798 0 -0.21230364459112849 -0.45093970260861571 0 -0.1883018199423766 -0.44603698934500469 0 -0.21230364459112849 -0.45093970260861571 0 -0.1883018199423766 -0.44603698934500469 0 -0.20438507535328571 -0.43071153934647177 0 -0.22300489802689891 -0.47807327668989968 0 -0.20462747180296659 -0.5 0 -0.2000962161014562 -0.47416035015031999 0 -0.2000962161014562 -0.47416035015031999 0 -0.18953761358098539 -0.48975259775557339 0 -0.1754665840155839 -0.48319367766021992 0 -0.20462747180296659 -0.5 0 -0.2000962161014562 -0.47416035015031999 0 -0.18953761358098539 -0.48975259775557339 0 -0.20462747180296659 -0.5 0 -0.18953761358098539 -0.48975259775557339 0 -0.17639910371729919 -0.5 0 -0.18953761358098539 -0.48975259775557339 0 -0.17639910371729919 -0.5 0 -0.1754665840155839 -0.48319367766021992 0 -0.17639910371729919 -0.5 0 -0.14817073563163169 -0.5 0 -0.15609788290949381 -0.48206224188216601 0 -0.17639910371729919 -0.5 0 -0.1754665840155839 -0.48319367766021992 0 -0.15609788290949381 -0.48206224188216601 0 -0.1754665840155839 -0.48319367766021992 0 -0.15788237733022789 -0.45971262023900178 0 -0.15609788290949381 -0.48206224188216601 0 -0.1754665840155839 -0.48319367766021992 0 -0.15788237733022789 -0.45971262023900178 0 -0.2000962161014562 -0.47416035015031999 0 -0.1754665840155839 -0.48319367766021992 0 -0.17772424475069271 -0.46317833696466798 0 -0.1883018199423766 -0.44603698934500469 0 -0.17772424475069271 -0.46317833696466798 0 -0.16429999529362471 -0.44113427608139361 0 -0.1883018199423766 -0.44603698934500469 0 -0.16429999529362471 -0.44113427608139361 0 -0.1808495371891283 -0.43175989921335151 0 -0.1883018199423766 -0.44603698934500469 0 -0.16429999529362471 -0.44113427608139361 0 -0.1754665840155839 -0.48319367766021992 0 -0.17772424475069271 -0.46317833696466798 0 -0.15788237733022789 -0.45971262023900178 0 -0.17772424475069271 -0.46317833696466798 0 -0.16429999529362471 -0.44113427608139361 0 -0.15788237733022789 -0.45971262023900178 0 -0.15788237733022789 -0.45971262023900178 0 -0.14390628052321269 -0.46827200627473597 0 -0.13660336258074249 -0.45395414227994457 0 -0.16429999529362471 -0.44113427608139361 0 -0.15788237733022789 -0.45971262023900178 0 -0.14029817064487249 -0.43623156281778341 0 -0.16429999529362471 -0.44113427608139361 0 -0.14029817064487249 -0.43623156281778341 0 -0.15788237733022789 -0.45971262023900178 0 -0.13660336258074249 -0.45395414227994457 0 -0.14029817064487249 -0.43623156281778341 0 -0.15788237733022789 -0.45971262023900178 0 -0.14029817064487249 -0.43623156281778341 0 -0.12801870348117109 -0.44191499541921669 0 -0.13660336258074249 -0.45395414227994457 0 -0.14029817064487249 -0.43623156281778341 0 -0.12801870348117109 -0.44191499541921669 0 -0.13660336258074249 -0.45395414227994457 0 -0.12496120325886489 -0.45167609106350898 0 -0.14390628052321269 -0.46827200627473597 0 -0.13660336258074249 -0.45395414227994457 0 -0.1239278340235323 -0.4657325013730691 0 -0.13660336258074249 -0.45395414227994457 0 -0.1239278340235323 -0.4657325013730691 0 -0.12496120325886489 -0.45167609106350898 0 -0.14390628052321269 -0.46827200627473597 0 -0.13343349479690139 -0.481363103274419 0 -0.1239278340235323 -0.4657325013730691 0 -0.13343349479690139 -0.481363103274419 0 -0.14817073563163169 -0.5 0 -0.1199423675459642 -0.5 0 -0.13343349479690139 -0.481363103274419 0 -0.14817073563163169 -0.5 0 -0.15609788290949381 -0.48206224188216601 0 -0.14390628052321269 -0.46827200627473597 0 -0.13343349479690139 -0.481363103274419 0 -0.15609788290949381 -0.48206224188216601 0 -0.15788237733022789 -0.45971262023900178 0 -0.14390628052321269 -0.46827200627473597 0 -0.15609788290949381 -0.48206224188216601 0 -0.1484675852943699 -0.38535783995607198 0 -0.13028534393200469 -0.3982014945926558 0 -0.1490339708179568 -0.41040772569946848 0 -0.1484675852943699 -0.38535783995607198 0 -0.1490339708179568 -0.41040772569946848 0 -0.16637364965585161 -0.39607307160706939 0 -0.1484675852943699 -0.38535783995607198 0 -0.12797313340181179 -0.37601582804419398 0 -0.1431036369069317 -0.36810080163240272 0 -0.1484675852943699 -0.38535783995607198 0 -0.12797313340181179 -0.37601582804419398 0 -0.13028534393200469 -0.3982014945926558 0 -0.13028534393200469 -0.3982014945926558 0 -0.12534060311460279 -0.41625798605401149 0 -0.1490339708179568 -0.41040772569946848 0 -0.13169429198006191 -0.42474237979186769 0 -0.1490339708179568 -0.41040772569946848 0 -0.12534060311460279 -0.41625798605401149 0 -0.13169429198006191 -0.42474237979186769 0 -0.1490339708179568 -0.41040772569946848 0 -0.12534060311460279 -0.41625798605401149 0 -0.13169429198006191 -0.42474237979186769 0 -0.12534060311460279 -0.41625798605401149 0 -0.13169429198006191 -0.42474237979186769 0 -0.12014991016422399 -0.42331499977506049 0 -0.14029817064487249 -0.43623156281778341 0 -0.1169096243795008 -0.43145412036622371 0 -0.14029817064487249 -0.43623156281778341 0 -0.1237724601436556 -0.43129133148899301 0 -0.1169096243795008 -0.43145412036622371 0 -0.12801870348117109 -0.44191499541921669 0 -0.14029817064487249 -0.43623156281778341 0 -0.1169096243795008 -0.43145412036622371 0 -0.13169429198006191 -0.42474237979186769 0 -0.14029817064487249 -0.43623156281778341 0 -0.1237724601436556 -0.43129133148899301 0 -0.13169429198006191 -0.42474237979186769 0 -0.1237724601436556 -0.43129133148899301 0 -0.12014991016422399 -0.42331499977506049 0 -0.13169429198006191 -0.42474237979186769 0 -0.1237724601436556 -0.43129133148899301 0 -0.13169429198006191 -0.42474237979186769 0 -0.14029817064487249 -0.43623156281778341 0 -0.14387580636696159 -0.42485083754462039 0 -0.13169429198006191 -0.42474237979186769 0 -0.14029817064487249 -0.43623156281778341 0 -0.16429999529362471 -0.44113427608139361 0 -0.14029817064487249 -0.43623156281778341 0 -0.1544767920249551 -0.42802168186936213 0 -0.14029817064487249 -0.43623156281778341 0 -0.14387580636696159 -0.42485083754462039 0 -0.1544767920249551 -0.42802168186936213 0 -0.14387580636696159 -0.42485083754462039 0 -0.1544767920249551 -0.42802168186936213 0 -0.1490339708179568 -0.41040772569946848 0 -0.13169429198006191 -0.42474237979186769 0 -0.14387580636696159 -0.42485083754462039 0 -0.1490339708179568 -0.41040772569946848 0 -0.1490339708179568 -0.41040772569946848 0 -0.168656730136202 -0.41981407536148202 0 -0.16637364965585161 -0.39607307160706939 0 -0.1544767920249551 -0.42802168186936213 0 -0.1490339708179568 -0.41040772569946848 0 -0.168656730136202 -0.41981407536148202 0 -0.16429999529362471 -0.44113427608139361 0 -0.1544767920249551 -0.42802168186936213 0 -0.168656730136202 -0.41981407536148202 0 -0.16429999529362471 -0.44113427608139361 0 -0.168656730136202 -0.41981407536148202 0 -0.1808495371891283 -0.43175989921335151 0 -0.168656730136202 -0.41981407536148202 0 -0.1808495371891283 -0.43175989921335151 0 -0.18998637111243291 -0.41550379543427018 0 -0.168656730136202 -0.41981407536148202 0 -0.16637364965585161 -0.39607307160706939 0 -0.18998637111243291 -0.41550379543427018 0 -0.16637364965585161 -0.39607307160706939 0 -0.18371332849374639 -0.3817384175146703 0 -0.19457422826140669 -0.39677721444429759 0 -0.16637364965585161 -0.39607307160706939 0 -0.19457422826140669 -0.39677721444429759 0 -0.18998637111243291 -0.41550379543427018 0 -0.1490339708179568 -0.41040772569946848 0 -0.16637364965585161 -0.39607307160706939 0 -0.1484675852943699 -0.38535783995607198 0 -0.16736453125713899 -0.37961701938412712 0 -0.15704254493008149 -0.36972234119821779 0 -0.1484675852943699 -0.38535783995607198 0 -0.16637364965585161 -0.39607307160706939 0 -0.16736453125713899 -0.37961701938412712 0 -0.16637364965585161 -0.39607307160706939 0 -0.18371332849374639 -0.3817384175146703 0 -0.16637364965585161 -0.39607307160706939 0 -0.16736453125713899 -0.37961701938412712 0 -0.18371332849374639 -0.3817384175146703 0 -0.16736453125713899 -0.37961701938412712 0 -0.18371332849374639 -0.3817384175146703 0 -0.17651572252402831 -0.36437963190415879 0 -0.18371332849374639 -0.3817384175146703 0 -0.19457422826140669 -0.39677721444429759 0 -0.21001491563913169 -0.3829008931263217 0 -0.18371332849374639 -0.3817384175146703 0 -0.21001491563913169 -0.3829008931263217 0 -0.19783539778963999 -0.36976431993652858 0 -0.19457422826140669 -0.39677721444429759 0 -0.21001491563913169 -0.3829008931263217 0 -0.21949017897242859 -0.40746395931681723 0 -0.1808495371891283 -0.43175989921335151 0 -0.18998637111243291 -0.41550379543427018 0 -0.20438507535328571 -0.43071153934647177 0 -0.1883018199423766 -0.44603698934500469 0 -0.1808495371891283 -0.43175989921335151 0 -0.20438507535328571 -0.43071153934647177 0 -0.19457422826140669 -0.39677721444429759 0 -0.18998637111243291 -0.41550379543427018 0 -0.21949017897242859 -0.40746395931681723 0 -0.18998637111243291 -0.41550379543427018 0 -0.20438507535328571 -0.43071153934647177 0 -0.21949017897242859 -0.40746395931681723 0 -0.20438507535328571 -0.43071153934647177 0 -0.21949017897242859 -0.40746395931681723 0 -0.2377502140397772 -0.43139846922366071 0 -0.21949017897242859 -0.40746395931681723 0 -0.24488238085297759 -0.4123055219447464 0 -0.2377502140397772 -0.43139846922366071 0 -0.26192062261077281 -0.41935698180234571 0 -0.24488238085297759 -0.4123055219447464 0 -0.2377502140397772 -0.43139846922366071 0 -0.21001491563913169 -0.3829008931263217 0 -0.21949017897242859 -0.40746395931681723 0 -0.22909391140292701 -0.37948067132960978 0 -0.21949017897242859 -0.40746395931681723 0 -0.22909391140292701 -0.37948067132960978 0 -0.24179014880966651 -0.39412688422596431 0 -0.21949017897242859 -0.40746395931681723 0 -0.24488238085297759 -0.4123055219447464 0 -0.24179014880966651 -0.39412688422596431 0 -0.22909391140292701 -0.37948067132960978 0 -0.24179014880966651 -0.39412688422596431 0 -0.24748049984531889 -0.36877365697948111 0 -0.24748049984531889 -0.36877365697948111 0 -0.22420403412294621 -0.36072446977704742 0 -0.21001491563913169 -0.3829008931263217 0 -0.22909391140292701 -0.37948067132960978 0 -0.22420403412294621 -0.36072446977704742 0 -0.22909391140292701 -0.37948067132960978 0 -0.24748049984531889 -0.36877365697948111 0 -0.22420403412294621 -0.36072446977704742 0 -0.22420403412294621 -0.36072446977704742 0 -0.23380709406709291 -0.34583417442644981 0 -0.21347561029611589 -0.34014130749153881 0 -0.24748049984531889 -0.36877365697948111 0 -0.22420403412294621 -0.36072446977704742 0 -0.23380709406709291 -0.34583417442644981 0 -0.25496865658164691 -0.35081232725434908 0 -0.24748049984531889 -0.36877365697948111 0 -0.23380709406709291 -0.34583417442644981 0 -0.25496865658164691 -0.35081232725434908 0 -0.23380709406709291 -0.34583417442644981 0 -0.24826554150090119 -0.32906349466359353 0 -0.23380709406709291 -0.34583417442644981 0 -0.24826554150090119 -0.32906349466359353 0 -0.2229666847049023 -0.32947381908473777 0 -0.24826554150090119 -0.32906349466359353 0 -0.23342401808281041 -0.31391721194656191 0 -0.2229666847049023 -0.32947381908473777 0 -0.2520801468119348 -0.30734102622534332 0 -0.24826554150090119 -0.32906349466359353 0 -0.23342401808281041 -0.31391721194656191 0 -0.23342401808281041 -0.31391721194656191 0 -0.2229666847049023 -0.32947381908473777 0 -0.21812549088950389 -0.31450353296313949 0 -0.23380709406709291 -0.34583417442644981 0 -0.2229666847049023 -0.32947381908473777 0 -0.21347561029611589 -0.34014130749153881 0 -0.2229666847049023 -0.32947381908473777 0 -0.21347561029611589 -0.34014130749153881 0 -0.2066787752701951 -0.32119265767742322 0 -0.21347561029611589 -0.34014130749153881 0 -0.2066787752701951 -0.32119265767742322 0 -0.19399145664110259 -0.33185551304290728 0 -0.2229666847049023 -0.32947381908473777 0 -0.21812549088950389 -0.31450353296313949 0 -0.2066787752701951 -0.32119265767742322 0 -0.21812549088950389 -0.31450353296313949 0 -0.2066787752701951 -0.32119265767742322 0 -0.2102169147180912 -0.30928304817186669 0 -0.2066787752701951 -0.32119265767742322 0 -0.2102169147180912 -0.30928304817186669 0 -0.19957035496403661 -0.30965027692039149 0 -0.2066787752701951 -0.32119265767742322 0 -0.19402111183834209 -0.31905306592751548 0 -0.19957035496403661 -0.30965027692039149 0 -0.2066787752701951 -0.32119265767742322 0 -0.19402111183834209 -0.31905306592751548 0 -0.19399145664110259 -0.33185551304290728 0 -0.19402111183834209 -0.31905306592751548 0 -0.19399145664110259 -0.33185551304290728 0 -0.18068027104034259 -0.32304136628957542 0 -0.19402111183834209 -0.31905306592751548 0 -0.18918470127603401 -0.30952551570728037 0 -0.18068027104034259 -0.32304136628957542 0 -0.19402111183834209 -0.31905306592751548 0 -0.19957035496403661 -0.30965027692039149 0 -0.18918470127603401 -0.30952551570728037 0 -0.21347561029611589 -0.34014130749153881 0 -0.19399145664110259 -0.33185551304290728 0 -0.20092756840057341 -0.35267528257461389 0 -0.19399145664110259 -0.33185551304290728 0 -0.20092756840057341 -0.35267528257461389 0 -0.1776511026782007 -0.34462609537218031 0 -0.20092756840057341 -0.35267528257461389 0 -0.1776511026782007 -0.34462609537218031 0 -0.20092756840057341 -0.35267528257461389 0 -0.19783539778963999 -0.36976431993652858 0 -0.17651572252402831 -0.36437963190415879 0 -0.21001491563913169 -0.3829008931263217 0 -0.22420403412294621 -0.36072446977704742 0 -0.19783539778963999 -0.36976431993652858 0 -0.22420403412294621 -0.36072446977704742 0 -0.20092756840057341 -0.35267528257461389 0 -0.19783539778963999 -0.36976431993652858 0 -0.22420403412294621 -0.36072446977704742 0 -0.21347561029611589 -0.34014130749153881 0 -0.20092756840057341 -0.35267528257461389 0 -0.22420403412294621 -0.36072446977704742 0 -0.20092756840057341 -0.35267528257461389 0 -0.2454770400230725 -0.25067841925105527 0 -0.23445644638527199 -0.2722109027264199 0 -0.2166332192151364 -0.25846258581905962 0 -0.26155346297422272 -0.26431275471601712 0 -0.2454770400230725 -0.25067841925105527 0 -0.23445644638527199 -0.2722109027264199 0 -0.26155346297422272 -0.26431275471601712 0 -0.23445644638527199 -0.2722109027264199 0 -0.25129365032097989 -0.27799071898506628 0 -0.23445644638527199 -0.2722109027264199 0 -0.24213299377120481 -0.29265971187443057 0 -0.25129365032097989 -0.27799071898506628 0 -0.26155346297422272 -0.26431275471601712 0 -0.23445644638527199 -0.2722109027264199 0 -0.23445644638527199 -0.2722109027264199 0 -0.2073594297963213 -0.28010905073682257 0 -0.2166332192151364 -0.25846258581905962 0 -0.23445644638527199 -0.2722109027264199 0 -0.2073594297963213 -0.28010905073682257 0 -0.23445644638527199 -0.2722109027264199 0 -0.2232267958364457 -0.28697590263568101 0 -0.2073594297963213 -0.28010905073682257 0 -0.2232267958364457 -0.28697590263568101 0 -0.24213299377120481 -0.29265971187443057 0 -0.22092904453502299 -0.30004588487157352 0 -0.23445644638527199 -0.2722109027264199 0 -0.2232267958364457 -0.28697590263568101 0 -0.24213299377120481 -0.29265971187443057 0 -0.2520801468119348 -0.30734102622534332 0 -0.23342401808281041 -0.31391721194656191 0 -0.24213299377120481 -0.29265971187443057 0 -0.23342401808281041 -0.31391721194656191 0 -0.24213299377120481 -0.29265971187443057 0 -0.22092904453502299 -0.30004588487157352 0 -0.23342401808281041 -0.31391721194656191 0 -0.21812549088950389 -0.31450353296313949 0 -0.22092904453502299 -0.30004588487157352 0 -0.21812549088950389 -0.31450353296313949 0 -0.22092904453502299 -0.30004588487157352 0 -0.2102169147180912 -0.30928304817186669 0 -0.22092904453502299 -0.30004588487157352 0 -0.20578090793169729 -0.30102288842680569 0 -0.21125606469440761 -0.28985396296915861 0 -0.22092904453502299 -0.30004588487157352 0 -0.20578090793169729 -0.30102288842680569 0 -0.2102169147180912 -0.30928304817186669 0 -0.20578090793169729 -0.30102288842680569 0 -0.2102169147180912 -0.30928304817186669 0 -0.19957035496403661 -0.30965027692039149 0 -0.20578090793169729 -0.30102288842680569 0 -0.19957035496403661 -0.30965027692039149 0 -0.18918470127603401 -0.30952551570728037 0 -0.20578090793169729 -0.30102288842680569 0 -0.18918470127603401 -0.30952551570728037 0 -0.202282658536931 -0.29609910446660359 0 -0.19957035496403661 -0.30965027692039149 0 -0.18918470127603401 -0.30952551570728037 0 -0.18918470127603401 -0.30952551570728037 0 -0.19062359711571489 -0.29421841228969758 0 -0.18486884897831141 -0.29973712338933212 0 -0.18918470127603401 -0.30952551570728037 0 -0.19062359711571489 -0.29421841228969758 0 -0.20290896024558519 -0.28399405076317003 0 -0.18918470127603401 -0.30952551570728037 0 -0.20290896024558519 -0.28399405076317003 0 -0.18918470127603401 -0.30952551570728037 0 -0.202282658536931 -0.29609910446660359 0 -0.20290896024558519 -0.28399405076317003 0 -0.19062359711571489 -0.29421841228969758 0 -0.19209271444912121 -0.28419829570374527 0 -0.18126204560836809 -0.29222828625125957 0 -0.19062359711571489 -0.29421841228969758 0 -0.19209271444912121 -0.28419829570374527 0 -0.20290896024558519 -0.28399405076317003 0 -0.19209271444912121 -0.28419829570374527 0 -0.20290896024558519 -0.28399405076317003 0 -0.19705739106812609 -0.27684796400323902 0 -0.20290896024558519 -0.28399405076317003 0 -0.21125606469440761 -0.28985396296915861 0 -0.2073594297963213 -0.28010905073682257 0 -0.2232267958364457 -0.28697590263568101 0 -0.21125606469440761 -0.28985396296915861 0 -0.2073594297963213 -0.28010905073682257 0 -0.202282658536931 -0.29609910446660359 0 -0.20290896024558519 -0.28399405076317003 0 -0.21125606469440761 -0.28985396296915861 0 -0.20578090793169729 -0.30102288842680569 0 -0.202282658536931 -0.29609910446660359 0 -0.21125606469440761 -0.28985396296915861 0 -0.2232267958364457 -0.28697590263568101 0 -0.22092904453502299 -0.30004588487157352 0 -0.21125606469440761 -0.28985396296915861 0 -0.20290896024558519 -0.28399405076317003 0 -0.2073594297963213 -0.28010905073682257 0 -0.2166332192151364 -0.25846258581905962 0 -0.20290896024558519 -0.28399405076317003 0 -0.2166332192151364 -0.25846258581905962 0 -0.20290896024558519 -0.28399405076317003 0 -0.2022669845266987 -0.26611776308428642 0 -0.2166332192151364 -0.25846258581905962 0 -0.20290896024558519 -0.28399405076317003 0 -0.19705739106812609 -0.27684796400323902 0 -0.2022669845266987 -0.26611776308428642 0 -0.19209271444912121 -0.28419829570374527 0 -0.19705739106812609 -0.27684796400323902 0 -0.1909609050510995 -0.27308174646175448 0 -0.19209271444912121 -0.28419829570374527 0 -0.1909609050510995 -0.27308174646175448 0 -0.18091246971218269 -0.28090607163274578 0 -0.1909609050510995 -0.27308174646175448 0 -0.2022669845266987 -0.26611776308428642 0 -0.19119064508213651 -0.26012694849549262 0 -0.19705739106812609 -0.27684796400323902 0 -0.1909609050510995 -0.27308174646175448 0 -0.2022669845266987 -0.26611776308428642 0 -0.2022669845266987 -0.26611776308428642 0 -0.19119064508213651 -0.26012694849549262 0 -0.2036326699395852 -0.24618504672217681 0 -0.19119064508213651 -0.26012694849549262 0 -0.18369286884473701 -0.2469666327907081 0 -0.2036326699395852 -0.24618504672217681 0 -0.2022669845266987 -0.26611776308428642 0 -0.2166332192151364 -0.25846258581905962 0 -0.2036326699395852 -0.24618504672217681 0 -0.15751912007306729 -0.27316015174712988 0 -0.16676059682331729 -0.24951829579525139 0 -0.1754675810031304 -0.2647696175478404 0 -0.15751912007306729 -0.27316015174712988 0 -0.16676059682331729 -0.24951829579525139 0 -0.15751912007306729 -0.27316015174712988 0 -0.14567130693763439 -0.2584212471758579 0 -0.16676059682331729 -0.24951829579525139 0 -0.1754675810031304 -0.2647696175478404 0 -0.18369286884473701 -0.2469666327907081 0 -0.16676059682331729 -0.24951829579525139 0 -0.19119064508213651 -0.26012694849549262 0 -0.1754675810031304 -0.2647696175478404 0 -0.18369286884473701 -0.2469666327907081 0 -0.1909609050510995 -0.27308174646175448 0 -0.1754675810031304 -0.2647696175478404 0 -0.18091246971218269 -0.28090607163274578 0 -0.1909609050510995 -0.27308174646175448 0 -0.19119064508213651 -0.26012694849549262 0 -0.1754675810031304 -0.2647696175478404 0 -0.1754675810031304 -0.2647696175478404 0 -0.18091246971218269 -0.28090607163274578 0 -0.15751912007306729 -0.27316015174712988 0 -0.15751912007306729 -0.27316015174712988 0 -0.1694728151832337 -0.2919927533070813 0 -0.15353217986492529 -0.29335272764218268 0 -0.18091246971218269 -0.28090607163274578 0 -0.15751912007306729 -0.27316015174712988 0 -0.1694728151832337 -0.2919927533070813 0 -0.18091246971218269 -0.28090607163274578 0 -0.1694728151832337 -0.2919927533070813 0 -0.18126204560836809 -0.29222828625125957 0 -0.19209271444912121 -0.28419829570374527 0 -0.18091246971218269 -0.28090607163274578 0 -0.18126204560836809 -0.29222828625125957 0 -0.19062359711571489 -0.29421841228969758 0 -0.18126204560836809 -0.29222828625125957 0 -0.18486884897831141 -0.29973712338933212 0 -0.1694728151832337 -0.2919927533070813 0 -0.18126204560836809 -0.29222828625125957 0 -0.17840505191312861 -0.30297627930909082 0 -0.18918470127603401 -0.30952551570728037 0 -0.17840505191312861 -0.30297627930909082 0 -0.16622691435590409 -0.30955394764884642 0 -0.18918470127603401 -0.30952551570728037 0 -0.16622691435590409 -0.30955394764884642 0 -0.18918470127603401 -0.30952551570728037 0 -0.17840505191312861 -0.30297627930909082 0 -0.18486884897831141 -0.29973712338933212 0 -0.18126204560836809 -0.29222828625125957 0 -0.17840505191312861 -0.30297627930909082 0 -0.18486884897831141 -0.29973712338933212 0 -0.17840505191312861 -0.30297627930909082 0 -0.16622691435590409 -0.30955394764884642 0 -0.1694728151832337 -0.2919927533070813 0 -0.16622691435590409 -0.30955394764884642 0 -0.15353217986492529 -0.29335272764218268 0 -0.1694728151832337 -0.2919927533070813 0 -0.17840505191312861 -0.30297627930909082 0 -0.16622691435590409 -0.30955394764884642 0 -0.16622691435590409 -0.30955394764884642 0 -0.14074404734364621 -0.30948032759130628 0 -0.15353217986492529 -0.29335272764218268 0 -0.16622691435590409 -0.30955394764884642 0 -0.14074404734364621 -0.30948032759130628 0 -0.14074404734364621 -0.30948032759130628 0 -0.14046126622689151 -0.29466446667193891 0 -0.15353217986492529 -0.29335272764218268 0 -0.14074404734364621 -0.30948032759130628 0 -0.12845336459871931 -0.29479546796896627 0 -0.11526118033138839 -0.30940670753376581 0 -0.14074404734364621 -0.30948032759130628 0 -0.11526118033138839 -0.30940670753376581 0 -0.14074404734364621 -0.30948032759130628 0 -0.1258188910477919 -0.31769523633570967 0 -0.11526118033138839 -0.30940670753376581 0 -0.14074404734364621 -0.30948032759130628 0 -0.14046126622689151 -0.29466446667193891 0 -0.12845336459871931 -0.29479546796896627 0 -0.14046126622689151 -0.29466446667193891 0 -0.12845336459871931 -0.29479546796896627 0 -0.1384296921505658 -0.27815315213176273 0 -0.12845336459871931 -0.29479546796896627 0 -0.1384296921505658 -0.27815315213176273 0 -0.11854372035067109 -0.27824610021778262 0 -0.15751912007306729 -0.27316015174712988 0 -0.15353217986492529 -0.29335272764218268 0 -0.1384296921505658 -0.27815315213176273 0 -0.14046126622689151 -0.29466446667193891 0 -0.15353217986492529 -0.29335272764218268 0 -0.1384296921505658 -0.27815315213176273 0 -0.15751912007306729 -0.27316015174712988 0 -0.1384296921505658 -0.27815315213176273 0 -0.14567130693763439 -0.2584212471758579 0 -0.1384296921505658 -0.27815315213176273 0 -0.1256358615914096 -0.25313023496321863 0 -0.11854372035067109 -0.27824610021778262 0 -0.1256358615914096 -0.25313023496321863 0 -0.14567130693763439 -0.2584212471758579 0 -0.14595168492785671 -0.2405249663332811 0 -0.1384296921505658 -0.27815315213176273 0 -0.1256358615914096 -0.25313023496321863 0 -0.14567130693763439 -0.2584212471758579 0 -0.1776511026782007 -0.34462609537218031 0 -0.15437463695582801 -0.33657690816974672 0 -0.1533046745128131 -0.35398520947106998 0 -0.17651572252402831 -0.36437963190415879 0 -0.1776511026782007 -0.34462609537218031 0 -0.1533046745128131 -0.35398520947106998 0 -0.16736453125713899 -0.37961701938412712 0 -0.15704254493008149 -0.36972234119821779 0 -0.17651572252402831 -0.36437963190415879 0 -0.15704254493008149 -0.36972234119821779 0 -0.17651572252402831 -0.36437963190415879 0 -0.1533046745128131 -0.35398520947106998 0 -0.18371332849374639 -0.3817384175146703 0 -0.19783539778963999 -0.36976431993652858 0 -0.17651572252402831 -0.36437963190415879 0 -0.20092756840057341 -0.35267528257461389 0 -0.17651572252402831 -0.36437963190415879 0 -0.1776511026782007 -0.34462609537218031 0 -0.19399145664110259 -0.33185551304290728 0 -0.1776511026782007 -0.34462609537218031 0 -0.18068027104034259 -0.32304136628957542 0 -0.1776511026782007 -0.34462609537218031 0 -0.18068027104034259 -0.32304136628957542 0 -0.16551909356499109 -0.32656783035768588 0 -0.18918470127603401 -0.30952551570728037 0 -0.16622691435590409 -0.30955394764884642 0 -0.18068027104034259 -0.32304136628957542 0 -0.16622691435590409 -0.30955394764884642 0 -0.16551909356499109 -0.32656783035768588 0 -0.14866254279467991 -0.319040834308081 0 -0.16622691435590409 -0.30955394764884642 0 -0.18068027104034259 -0.32304136628957542 0 -0.16551909356499109 -0.32656783035768588 0 -0.16622691435590409 -0.30955394764884642 0 -0.14866254279467991 -0.319040834308081 0 -0.1776511026782007 -0.34462609537218031 0 -0.15437463695582801 -0.33657690816974672 0 -0.1776511026782007 -0.34462609537218031 0 -0.16551909356499109 -0.32656783035768588 0 -0.15437463695582801 -0.33657690816974672 0 -0.15437463695582801 -0.33657690816974672 0 -0.13109817123345499 -0.32852772096731431 0 -0.13883100341076959 -0.34381586371854761 0 -0.15437463695582801 -0.33657690816974672 0 -0.13109817123345499 -0.32852772096731431 0 -0.16551909356499109 -0.32656783035768588 0 -0.15437463695582801 -0.33657690816974672 0 -0.14866254279467991 -0.319040834308081 0 -0.16622691435590409 -0.30955394764884642 0 -0.14074404734364621 -0.30948032759130628 0 -0.14866254279467991 -0.319040834308081 0 -0.15437463695582801 -0.33657690816974672 0 -0.14866254279467991 -0.319040834308081 0 -0.13109817123345499 -0.32852772096731431 0 -0.14866254279467991 -0.319040834308081 0 -0.13109817123345499 -0.32852772096731431 0 -0.14074404734364621 -0.30948032759130628 0 -0.1258188910477919 -0.31769523633570967 0 -0.13109817123345499 -0.32852772096731431 0 -0.14074404734364621 -0.30948032759130628 0 -0.14866254279467991 -0.319040834308081 0 -0.13109817123345499 -0.32852772096731431 0 -0.13109817123345499 -0.32852772096731431 0 -0.13883100341076959 -0.34381586371854761 0 -0.124632676721265 -0.34522180258083329 0 -0.13253767407795791 -0.35668959442372122 0 -0.13883100341076959 -0.34381586371854761 0 -0.124632676721265 -0.34522180258083329 0 -0.13253767407795791 -0.35668959442372122 0 -0.13883100341076959 -0.34381586371854761 0 -0.1533046745128131 -0.35398520947106998 0 -0.15437463695582801 -0.33657690816974672 0 -0.13883100341076959 -0.34381586371854761 0 -0.1533046745128131 -0.35398520947106998 0 -0.13253767407795791 -0.35668959442372122 0 -0.1533046745128131 -0.35398520947106998 0 -0.1431036369069317 -0.36810080163240272 0 -0.1484675852943699 -0.38535783995607198 0 -0.15704254493008149 -0.36972234119821779 0 -0.1431036369069317 -0.36810080163240272 0 -0.15704254493008149 -0.36972234119821779 0 -0.1533046745128131 -0.35398520947106998 0 -0.1431036369069317 -0.36810080163240272 0 -0.12797313340181179 -0.37601582804419398 0 -0.13253767407795791 -0.35668959442372122 0 -0.1431036369069317 -0.36810080163240272 0 -0.12797313340181179 -0.37601582804419398 0 -0.1116625556721025 -0.3603357809619257 0 -0.10787608744702409 -0.3785041412934092 0 -0.12797313340181179 -0.37601582804419398 0 -0.13253767407795791 -0.35668959442372122 0 -0.1116625556721025 -0.3603357809619257 0 -0.1116625556721025 -0.3603357809619257 0 -0.091720592455495353 -0.37325451032718038 0 -0.092586322674763202 -0.35010635785675248 0 -0.1116625556721025 -0.3603357809619257 0 -0.091720592455495353 -0.37325451032718038 0 -0.10787608744702409 -0.3785041412934092 0 -0.1116625556721025 -0.3603357809619257 0 -0.1074457347793543 -0.34130289957662002 0 -0.092586322674763202 -0.35010635785675248 0 -0.1116625556721025 -0.3603357809619257 0 -0.124632676721265 -0.34522180258083329 0 -0.1074457347793543 -0.34130289957662002 0 -0.13253767407795791 -0.35668959442372122 0 -0.1116625556721025 -0.3603357809619257 0 -0.124632676721265 -0.34522180258083329 0 -0.13109817123345499 -0.32852772096731431 0 -0.124632676721265 -0.34522180258083329 0 -0.1074457347793543 -0.34130289957662002 0 -0.13109817123345499 -0.32852772096731431 0 -0.1074457347793543 -0.34130289957662002 0 -0.13109817123345499 -0.32852772096731431 0 -0.116172165282678 -0.32336618925045257 0 -0.1074457347793543 -0.34130289957662002 0 -0.1258188910477919 -0.31769523633570967 0 -0.116172165282678 -0.32336618925045257 0 -0.11526118033138839 -0.30940670753376581 0 -0.13109817123345499 -0.32852772096731431 0 -0.116172165282678 -0.32336618925045257 0 -0.1258188910477919 -0.31769523633570967 0 -0.13109817123345499 -0.32852772096731431 0 -0.116172165282678 -0.32336618925045257 0 -0.116172165282678 -0.32336618925045257 0 -0.1012461593319005 -0.31820465753359201 0 -0.11526118033138839 -0.30940670753376581 0 -0.116172165282678 -0.32336618925045257 0 -0.1012461593319005 -0.31820465753359201 0 -0.098293973152130537 -0.331275365423704 0 -0.116172165282678 -0.32336618925045257 0 -0.1012461593319005 -0.31820465753359201 0 -0.1012461593319005 -0.31820465753359201 0 -0.098293973152130537 -0.331275365423704 0 -0.088350529545858675 -0.32096313710099 0 -0.1074457347793543 -0.34130289957662002 0 -0.098293973152130537 -0.331275365423704 0 -0.092586322674763202 -0.35010635785675248 0 -0.116172165282678 -0.32336618925045257 0 -0.1074457347793543 -0.34130289957662002 0 -0.098293973152130537 -0.331275365423704 0 -0.098293973152130537 -0.331275365423704 0 -0.088350529545858675 -0.32096313710099 0 -0.076261429196339783 -0.33402393640597572 0 -0.098293973152130537 -0.331275365423704 0 -0.076261429196339783 -0.33402393640597572 0 -0.092586322674763202 -0.35010635785675248 0 -0.088350529545858675 -0.32096313710099 0 -0.076261429196339783 -0.33402393640597572 0 -0.075721061364018655 -0.31199711330310759 0 -0.1012461593319005 -0.31820465753359201 0 -0.088350529545858675 -0.32096313710099 0 -0.089778313319130637 -0.3093330874762254 0 -0.088350529545858675 -0.32096313710099 0 -0.089778313319130637 -0.3093330874762254 0 -0.075721061364018655 -0.31199711330310759 0 -0.076261429196339783 -0.33402393640597572 0 -0.075721061364018655 -0.31199711330310759 0 -0.057626503398922599 -0.31647197186128923 0 -0.076261429196339783 -0.33402393640597572 0 -0.06067834543619554 -0.34243036514589548 0 -0.057626503398922599 -0.31647197186128923 0 -0.076261429196339783 -0.33402393640597572 0 -0.069681939427383432 -0.36046412908276382 0 -0.06067834543619554 -0.34243036514589548 0 -0.069681939427383432 -0.36046412908276382 0 -0.047654612860682038 -0.38114588334283889 0 -0.073404669792439467 -0.38254249638221771 0 -0.069681939427383432 -0.36046412908276382 0 -0.091720592455495353 -0.37325451032718038 0 -0.073404669792439467 -0.38254249638221771 0 -0.069681939427383432 -0.36046412908276382 0 -0.091720592455495353 -0.37325451032718038 0 -0.092586322674763202 -0.35010635785675248 0 -0.076261429196339783 -0.33402393640597572 0 -0.069681939427383432 -0.36046412908276382 0 -0.092586322674763202 -0.35010635785675248 0 -0.1003737946551861 -0.2504423464660977 0 -0.098902119932659682 -0.26582601989642241 0 -0.086124697569764902 -0.27245222159782823 0 -0.1003737946551861 -0.2504423464660977 0 -0.1104612214491703 -0.26429498492549608 0 -0.098902119932659682 -0.26582601989642241 0 -0.1256358615914096 -0.25313023496321863 0 -0.1003737946551861 -0.2504423464660977 0 -0.1104612214491703 -0.26429498492549608 0 -0.1256358615914096 -0.25313023496321863 0 -0.1104612214491703 -0.26429498492549608 0 -0.11854372035067109 -0.27824610021778262 0 -0.1104612214491703 -0.26429498492549608 0 -0.11854372035067109 -0.27824610021778262 0 -0.10355528727637869 -0.27610785895644141 0 -0.11854372035067109 -0.27824610021778262 0 -0.10355528727637869 -0.27610785895644141 0 -0.1091209407170424 -0.28574695915708342 0 -0.1104612214491703 -0.26429498492549608 0 -0.10355528727637869 -0.27610785895644141 0 -0.098902119932659682 -0.26582601989642241 0 -0.10355528727637869 -0.27610785895644141 0 -0.098902119932659682 -0.26582601989642241 0 -0.095261540939200307 -0.27408663278766332 0 -0.10355528727637869 -0.27610785895644141 0 -0.095261540939200307 -0.27408663278766332 0 -0.092464058977997948 -0.2819604306999613 0 -0.1000421340411478 -0.28840017692009529 0 -0.090164151004657717 -0.29188369645956908 0 -0.092464058977997948 -0.2819604306999613 0 -0.10355528727637869 -0.27610785895644141 0 -0.1000421340411478 -0.28840017692009529 0 -0.092464058977997948 -0.2819604306999613 0 -0.1000421340411478 -0.28840017692009529 0 -0.097468609128324168 -0.29914144367340501 0 -0.090164151004657717 -0.29188369645956908 0 -0.1000421340411478 -0.28840017692009529 0 -0.10755642068566 -0.29621295417939242 0 -0.1091209407170424 -0.28574695915708342 0 -0.1000421340411478 -0.28840017692009529 0 -0.10755642068566 -0.29621295417939242 0 -0.097468609128324168 -0.29914144367340501 0 -0.10355528727637869 -0.27610785895644141 0 -0.1000421340411478 -0.28840017692009529 0 -0.1091209407170424 -0.28574695915708342 0 -0.12845336459871931 -0.29479546796896627 0 -0.11854372035067109 -0.27824610021778262 0 -0.116575647327835 -0.29545560110975078 0 -0.11854372035067109 -0.27824610021778262 0 -0.1091209407170424 -0.28574695915708342 0 -0.116575647327835 -0.29545560110975078 0 -0.10755642068566 -0.29621295417939242 0 -0.1091209407170424 -0.28574695915708342 0 -0.116575647327835 -0.29545560110975078 0 -0.10755642068566 -0.29621295417939242 0 -0.116575647327835 -0.29545560110975078 0 -0.11526118033138839 -0.30940670753376581 0 -0.12845336459871931 -0.29479546796896627 0 -0.116575647327835 -0.29545560110975078 0 -0.11526118033138839 -0.30940670753376581 0 -0.11526118033138839 -0.30940670753376581 0 -0.097468609128324168 -0.29914144367340501 0 -0.089778313319130637 -0.3093330874762254 0 -0.10755642068566 -0.29621295417939242 0 -0.11526118033138839 -0.30940670753376581 0 -0.097468609128324168 -0.29914144367340501 0 -0.11526118033138839 -0.30940670753376581 0 -0.089778313319130637 -0.3093330874762254 0 -0.1012461593319005 -0.31820465753359201 0 -0.11526118033138839 -0.30940670753376581 0 -0.089778313319130637 -0.3093330874762254 0 -0.097468609128324168 -0.29914144367340501 0 -0.082522699918440606 -0.29985614101286012 0 -0.090164151004657717 -0.29188369645956908 0 -0.097468609128324168 -0.29914144367340501 0 -0.089778313319130637 -0.3093330874762254 0 -0.082522699918440606 -0.29985614101286012 0 -0.089778313319130637 -0.3093330874762254 0 -0.082522699918440606 -0.29985614101286012 0 -0.075721061364018655 -0.31199711330310759 0 -0.082522699918440606 -0.29985614101286012 0 -0.075721061364018655 -0.31199711330310759 0 -0.071875600484343771 -0.2944620967295587 0 -0.075721061364018655 -0.31199711330310759 0 -0.071875600484343771 -0.2944620967295587 0 -0.057626503398922599 -0.31647197186128923 0 -0.071875600484343771 -0.2944620967295587 0 -0.057626503398922599 -0.31647197186128923 0 -0.071875600484343771 -0.2944620967295587 0 -0.064179453990812985 -0.28910247966744312 0 -0.055070742614712363 -0.29911275989495639 0 -0.071875600484343771 -0.2944620967295587 0 -0.072381521921284164 -0.28232330538821288 0 -0.086124697569764902 -0.27245222159782823 0 -0.064179453990812985 -0.28910247966744312 0 -0.06730431338173043 -0.28168282713529091 0 -0.072381521921284164 -0.28232330538821288 0 -0.071875600484343771 -0.2944620967295587 0 -0.064179453990812985 -0.28910247966744312 0 -0.072381521921284164 -0.28232330538821288 0 -0.064179453990812985 -0.28910247966744312 0 -0.06730431338173043 -0.28168282713529091 0 -0.05953399333164501 -0.28215938369790827 0 -0.071875600484343771 -0.2944620967295587 0 -0.084630241591040989 -0.28812291729995548 0 -0.086124697569764902 -0.27245222159782823 0 -0.071875600484343771 -0.2944620967295587 0 -0.086124697569764902 -0.27245222159782823 0 -0.082522699918440606 -0.29985614101286012 0 -0.084630241591040989 -0.28812291729995548 0 -0.090164151004657717 -0.29188369645956908 0 -0.082522699918440606 -0.29985614101286012 0 -0.071875600484343771 -0.2944620967295587 0 -0.084630241591040989 -0.28812291729995548 0 -0.084630241591040989 -0.28812291729995548 0 -0.090164151004657717 -0.29188369645956908 0 -0.092464058977997948 -0.2819604306999613 0 -0.084630241591040989 -0.28812291729995548 0 -0.092464058977997948 -0.2819604306999613 0 -0.086124697569764902 -0.27245222159782823 0 -0.095261540939200307 -0.27408663278766332 0 -0.092464058977997948 -0.2819604306999613 0 -0.086124697569764902 -0.27245222159782823 0 -0.098902119932659682 -0.26582601989642241 0 -0.095261540939200307 -0.27408663278766332 0 -0.086124697569764902 -0.27245222159782823 0 -0.073122284283179573 -0.27314613978759938 0 -0.086710575234714898 -0.26413289587729172 0 -0.073122284283179573 -0.27314613978759938 0 -0.075800335894097251 -0.26240029010673238 0 -0.086710575234714898 -0.26413289587729172 0 -0.086124697569764902 -0.27245222159782823 0 -0.073122284283179573 -0.27314613978759938 0 -0.086710575234714898 -0.26413289587729172 0 -0.06730431338173043 -0.28168282713529091 0 -0.072381521921284164 -0.28232330538821288 0 -0.073122284283179573 -0.27314613978759938 0 -0.073122284283179573 -0.27314613978759938 0 -0.063403993032308315 -0.26426202207344351 0 -0.05953399333164501 -0.28215938369790827 0 -0.072381521921284164 -0.28232330538821288 0 -0.086124697569764902 -0.27245222159782823 0 -0.073122284283179573 -0.27314613978759938 0 -0.073122284283179573 -0.27314613978759938 0 -0.05953399333164501 -0.28215938369790827 0 -0.06730431338173043 -0.28168282713529091 0 -0.073122284283179573 -0.27314613978759938 0 -0.05953399333164501 -0.28215938369790827 0 -0.073122284283179573 -0.27314613978759938 0 -0.075800335894097251 -0.26240029010673238 0 -0.063403993032308315 -0.26426202207344351 0 -0.075800335894097251 -0.26240029010673238 0 -0.063403993032308315 -0.26426202207344351 0 -0.06909872736724397 -0.25429262262412072 0 -0.063403993032308315 -0.26426202207344351 0 -0.06909872736724397 -0.25429262262412072 0 -0.057335586015369713 -0.25229427039049701 0 -0.075800335894097251 -0.26240029010673238 0 -0.06909872736724397 -0.25429262262412072 0 -0.082228689083216996 -0.24931553955201399 0 -0.1003737946551861 -0.2504423464660977 0 -0.086124697569764902 -0.27245222159782823 0 -0.1003737946551861 -0.2504423464660977 0 -0.086124697569764902 -0.27245222159782823 0 -0.086710575234714898 -0.26413289587729172 0 -0.1003737946551861 -0.2504423464660977 0 -0.086710575234714898 -0.26413289587729172 0 -0.082228689083216996 -0.24931553955201399 0 -0.075800335894097251 -0.26240029010673238 0 -0.086710575234714898 -0.26413289587729172 0 -0.082228689083216996 -0.24931553955201399 0 -0.044608570787768101 -0.25985187778813812 0 -0.036409164500291531 -0.2713761257264341 0 -0.019053327831755219 -0.25386731011331343 0 -0.063403993032308315 -0.26426202207344351 0 -0.044608570787768101 -0.25985187778813812 0 -0.057335586015369713 -0.25229427039049701 0 -0.044608570787768101 -0.25985187778813812 0 -0.057335586015369713 -0.25229427039049701 0 -0.048850891934537288 -0.24086656556142649 0 -0.044608570787768101 -0.25985187778813812 0 -0.05953399333164501 -0.28215938369790827 0 -0.044608570787768101 -0.25985187778813812 0 -0.044422062695525871 -0.28081661127708091 0 -0.05953399333164501 -0.28215938369790827 0 -0.063403993032308315 -0.26426202207344351 0 -0.044608570787768101 -0.25985187778813812 0 -0.05953399333164501 -0.28215938369790827 0 -0.044608570787768101 -0.25985187778813812 0 -0.044422062695525871 -0.28081661127708091 0 -0.036409164500291531 -0.2713761257264341 0 -0.044422062695525871 -0.28081661127708091 0 -0.036409164500291531 -0.2713761257264341 0 -0.032312993405745817 -0.28289308623113713 0 -0.044422062695525871 -0.28081661127708091 0 -0.032312993405745817 -0.28289308623113713 0 -0.039963221254729918 -0.29514086480332419 0 -0.044422062695525871 -0.28081661127708091 0 -0.039963221254729918 -0.29514086480332419 0 -0.05953399333164501 -0.28215938369790827 0 -0.039963221254729918 -0.29514086480332419 0 -0.05953399333164501 -0.28215938369790827 0 -0.064179453990812985 -0.28910247966744312 0 -0.05953399333164501 -0.28215938369790827 0 -0.055070742614712363 -0.29911275989495639 0 -0.039963221254729918 -0.29514086480332419 0 -0.05953399333164501 -0.28215938369790827 0 -0.055070742614712363 -0.29911275989495639 0 -0.064179453990812985 -0.28910247966744312 0 -0.05953399333164501 -0.28215938369790827 0 -0.055070742614712363 -0.29911275989495639 0 -0.057626503398922599 -0.31647197186128923 0 -0.037245683227819827 -0.31733976261021563 0 -0.071875600484343771 -0.2944620967295587 0 -0.055070742614712363 -0.29911275989495639 0 -0.057626503398922599 -0.31647197186128923 0 -0.039963221254729918 -0.29514086480332419 0 -0.055070742614712363 -0.29911275989495639 0 -0.037245683227819827 -0.31733976261021563 0 -0.039963221254729918 -0.29514086480332419 0 -0.020392449177815752 -0.30812234590874132 0 -0.037245683227819827 -0.31733976261021563 0 -0.039963221254729918 -0.29514086480332419 0 -0.020392449177815752 -0.30812234590874132 0 -0.01879253787417702 -0.28907765731950741 0 -0.039963221254729918 -0.29514086480332419 0 -0.020392449177815752 -0.30812234590874132 0 -0.020392449177815752 -0.30812234590874132 0 -7.3965096506438529e-05 -0.29955426747308123 0 -0.01879253787417702 -0.28907765731950741 0 -0.020392449177815752 -0.30812234590874132 0 -7.3965096506438529e-05 -0.29955426747308123 0 -0.00082167710090171292 -0.32110382701415863 0 -7.3965096506438529e-05 -0.29955426747308123 0 -0.00082167710090171292 -0.32110382701415863 0 -7.3965096506438529e-05 -0.29955426747308123 0 -0.01879253787417702 -0.28907765731950741 0 0.00067374690788935866 -0.27800470793200388 0 -0.032312993405745817 -0.28289308623113713 0 -0.039963221254729918 -0.29514086480332419 0 -0.01879253787417702 -0.28907765731950741 0 -0.032312993405745817 -0.28289308623113713 0 -0.01879253787417702 -0.28907765731950741 0 -0.019317756088831791 -0.27070147118785171 0 -0.036409164500291531 -0.2713761257264341 0 -0.032312993405745817 -0.28289308623113713 0 -0.019317756088831791 -0.27070147118785171 0 -0.019317756088831791 -0.27070147118785171 0 0.00067374690788935866 -0.27800470793200388 0 0.001421458912285158 -0.25645514839092642 0 -0.01879253787417702 -0.28907765731950741 0 -0.019317756088831791 -0.27070147118785171 0 0.00067374690788935866 -0.27800470793200388 0 -0.019317756088831791 -0.27070147118785171 0 -0.019053327831755219 -0.25386731011331343 0 0.001421458912285158 -0.25645514839092642 0 -0.036409164500291531 -0.2713761257264341 0 -0.019317756088831791 -0.27070147118785171 0 -0.019053327831755219 -0.25386731011331343 0 -0.036409164500291531 -0.2713761257264341 0 -0.019053327831755219 -0.25386731011331343 0 -0.044608570787768101 -0.25985187778813812 0 -0.019053327831755219 -0.25386731011331343 0 -0.029683148243891219 -0.23754437187836799 0 -0.043377406313501433 -0.3384818469930197 0 -0.027958213025946348 -0.33597548217802797 0 -0.029128309228081031 -0.36049172212475072 0 -0.048720951662171247 -0.35708043763598568 0 -0.043377406313501433 -0.3384818469930197 0 -0.029128309228081031 -0.36049172212475072 0 -0.043377406313501433 -0.3384818469930197 0 -0.029128309228081031 -0.36049172212475072 0 -0.029128309228081031 -0.36049172212475072 0 -0.019369586462573519 -0.37556553825684308 0 -0.047654612860682038 -0.38114588334283889 0 -0.048720951662171247 -0.35708043763598568 0 -0.029128309228081031 -0.36049172212475072 0 -0.047654612860682038 -0.38114588334283889 0 -0.029128309228081031 -0.36049172212475072 0 -0.047654612860682038 -0.38114588334283889 0 -0.069681939427383432 -0.36046412908276382 0 -0.048720951662171247 -0.35708043763598568 0 -0.047654612860682038 -0.38114588334283889 0 -0.069681939427383432 -0.36046412908276382 0 -0.048720951662171247 -0.35708043763598568 0 -0.06067834543619554 -0.34243036514589548 0 -0.048720951662171247 -0.35708043763598568 0 -0.06067834543619554 -0.34243036514589548 0 -0.043377406313501433 -0.3384818469930197 0 -0.06067834543619554 -0.34243036514589548 0 -0.057626503398922599 -0.31647197186128923 0 -0.043377406313501433 -0.3384818469930197 0 -0.057626503398922599 -0.31647197186128923 0 -0.043377406313501433 -0.3384818469930197 0 -0.057626503398922599 -0.31647197186128923 0 -0.037245683227819827 -0.31733976261021563 0 -0.043377406313501433 -0.3384818469930197 0 -0.037245683227819827 -0.31733976261021563 0 -0.043377406313501433 -0.3384818469930197 0 -0.027958213025946348 -0.33597548217802797 0 -0.027958213025946348 -0.33597548217802797 0 -0.0170630484167653 -0.32597019786607362 0 -0.01511630062222118 -0.3448703499139677 0 -0.037245683227819827 -0.31733976261021563 0 -0.027958213025946348 -0.33597548217802797 0 -0.0170630484167653 -0.32597019786607362 0 -0.020392449177815752 -0.30812234590874132 0 -0.037245683227819827 -0.31733976261021563 0 -0.0170630484167653 -0.32597019786607362 0 -0.020392449177815752 -0.30812234590874132 0 -0.00082167710090171292 -0.32110382701415863 0 -0.020392449177815752 -0.30812234590874132 0 -0.0170630484167653 -0.32597019786607362 0 -0.00082167710090171292 -0.32110382701415863 0 -0.0170630484167653 -0.32597019786607362 0 -0.00082167710090171292 -0.32110382701415863 0 -0.001104292016358239 -0.32924897770318751 0 -0.00082167710090171292 -0.32110382701415863 0 -0.001104292016358239 -0.32924897770318751 0 -0.0170630484167653 -0.32597019786607362 0 -0.001104292016358239 -0.32924897770318751 0 -0.01511630062222118 -0.3448703499139677 0 -0.001104292016358239 -0.32924897770318751 0 -0.002081236590364105 -0.35740517305931258 0 -0.001104292016358239 -0.32924897770318751 0 -0.01511630062222118 -0.3448703499139677 0 -0.001104292016358239 -0.32924897770318751 0 -0.002081236590364105 -0.35740517305931258 0 -0.01511630062222118 -0.3448703499139677 0 -0.002081236590364105 -0.35740517305931258 0 -0.01511630062222118 -0.3448703499139677 0 -0.01523454147436277 -0.36219274285483699 0 -0.01511630062222118 -0.3448703499139677 0 -0.029128309228081031 -0.36049172212475072 0 -0.01523454147436277 -0.36219274285483699 0 -0.027958213025946348 -0.33597548217802797 0 -0.01511630062222118 -0.3448703499139677 0 -0.029128309228081031 -0.36049172212475072 0 -0.01511630062222118 -0.3448703499139677 0 -0.029128309228081031 -0.36049172212475072 0 -0.029128309228081031 -0.36049172212475072 0 -0.019369586462573519 -0.37556553825684308 0 -0.029128309228081031 -0.36049172212475072 0 -0.01523454147436277 -0.36219274285483699 0 -0.019369586462573519 -0.37556553825684308 0 -0.002081236590364105 -0.35740517305931258 0 -0.01523454147436277 -0.36219274285483699 0 -0.0030581811643707242 -0.38556136841543798 0 -0.002081236590364105 -0.35740517305931258 0 -0.0030581811643707242 -0.38556136841543798 0 -0.01523454147436277 -0.36219274285483699 0 -0.0030581811643707242 -0.38556136841543798 0 -0.019369586462573519 -0.37556553825684308 0 -0.0030581811643707242 -0.38556136841543798 0 -0.01157774641205662 -0.39361381497231468 0 -0.019369586462573519 -0.37556553825684308 0 -0.0030581811643707242 -0.38556136841543798 0 -0.01157774641205662 -0.39361381497231468 0 -0.004035125738377515 -0.41371756377156321 0 -0.0030581811643707242 -0.38556136841543798 0 -0.004035125738377515 -0.41371756377156321 0 0.0068965194962131732 -0.39975189355206808 0 -0.01157774641205662 -0.39361381497231468 0 -0.01209838407597052 -0.4053250840745023 0 -0.004035125738377515 -0.41371756377156321 0 -0.0030581811643707242 -0.38556136841543798 0 -0.004035125738377515 -0.41371756377156321 0 -0.025492528912424681 -0.39421848412716748 0 -0.042873318830479741 -0.40475077392917269 0 -0.024826184795649429 -0.40957335539333412 0 -0.01209838407597052 -0.4053250840745023 0 -0.025492528912424681 -0.39421848412716748 0 -0.024826184795649429 -0.40957335539333412 0 -0.01157774641205662 -0.39361381497231468 0 -0.01209838407597052 -0.4053250840745023 0 -0.025492528912424681 -0.39421848412716748 0 -0.01157774641205662 -0.39361381497231468 0 -0.025492528912424681 -0.39421848412716748 0 -0.019369586462573519 -0.37556553825684308 0 -0.025492528912424681 -0.39421848412716748 0 -0.019369586462573519 -0.37556553825684308 0 -0.047654612860682038 -0.38114588334283889 0 -0.025492528912424681 -0.39421848412716748 0 -0.042873318830479741 -0.40475077392917269 0 -0.047654612860682038 -0.38114588334283889 0 -0.047654612860682038 -0.38114588334283889 0 -0.06618091649328034 -0.40180004456092938 0 -0.042873318830479741 -0.40475077392917269 0 -0.047654612860682038 -0.38114588334283889 0 -0.06618091649328034 -0.40180004456092938 0 -0.047654612860682038 -0.38114588334283889 0 -0.073404669792439467 -0.38254249638221771 0 -0.06618091649328034 -0.40180004456092938 0 -0.054470076364346427 -0.41589896585508113 0 -0.040884201874355458 -0.42781105413151849 0 -0.065433484778616324 -0.42982329148279652 0 -0.040884201874355458 -0.42781105413151849 0 -0.058717427411668632 -0.44670694927519378 0 -0.065433484778616324 -0.42982329148279652 0 -0.042873318830479741 -0.40475077392917269 0 -0.054470076364346427 -0.41589896585508113 0 -0.06618091649328034 -0.40180004456092938 0 -0.042873318830479741 -0.40475077392917269 0 -0.040884201874355458 -0.42781105413151849 0 -0.024826184795649429 -0.40957335539333412 0 -0.042873318830479741 -0.40475077392917269 0 -0.054470076364346427 -0.41589896585508113 0 -0.040884201874355458 -0.42781105413151849 0 -0.021696001951967591 -0.42618739445059273 0 -0.004754487519860259 -0.43445005094644579 0 -0.022387293022594131 -0.44636088210796587 0 -0.040884201874355458 -0.42781105413151849 0 -0.021696001951967591 -0.42618739445059273 0 -0.022387293022594131 -0.44636088210796587 0 -0.040884201874355458 -0.42781105413151849 0 -0.021696001951967591 -0.42618739445059273 0 -0.024826184795649429 -0.40957335539333412 0 -0.021696001951967591 -0.42618739445059273 0 -0.024826184795649429 -0.40957335539333412 0 -0.013482036816365081 -0.41785068972728762 0 -0.01209838407597052 -0.4053250840745023 0 -0.024826184795649429 -0.40957335539333412 0 -0.013482036816365081 -0.41785068972728762 0 -0.01209838407597052 -0.4053250840745023 0 -0.004035125738377515 -0.41371756377156321 0 -0.01209838407597052 -0.4053250840745023 0 -0.013482036816365081 -0.41785068972728762 0 -0.004035125738377515 -0.41371756377156321 0 -0.013482036816365081 -0.41785068972728762 0 -0.004035125738377515 -0.41371756377156321 0 -0.004754487519860259 -0.43445005094644579 0 -0.004035125738377515 -0.41371756377156321 0 -0.004754487519860259 -0.43445005094644579 0 -0.021696001951967591 -0.42618739445059273 0 -0.013482036816365081 -0.41785068972728762 0 -0.004754487519860259 -0.43445005094644579 0 -0.004754487519860259 -0.43445005094644579 0 -0.005473849301343179 -0.45518253812132858 0 -0.004754487519860259 -0.43445005094644579 0 -0.005473849301343179 -0.45518253812132858 0 0.00083590723546803081 -0.43932372207652282 0 -0.004754487519860259 -0.43445005094644579 0 -0.005473849301343179 -0.45518253812132858 0 -0.022387293022594131 -0.44636088210796587 0 -0.005473849301343179 -0.45518253812132858 0 -0.0061932110828259532 -0.47591502529621121 0 -0.005473849301343179 -0.45518253812132858 0 -0.0061932110828259532 -0.47591502529621121 0 0.0106673374481414 -0.4537995905657215 0 -0.005473849301343179 -0.45518253812132858 0 -0.015337016011683489 -0.46432716894048243 0 -0.022387293022594131 -0.44636088210796587 0 -0.005473849301343179 -0.45518253812132858 0 -0.015337016011683489 -0.46432716894048243 0 -0.0061932110828259532 -0.47591502529621121 0 -0.015337016011683489 -0.46432716894048243 0 -0.028836844433924789 -0.46416513750627453 0 -0.022387293022594131 -0.44636088210796587 0 -0.028836844433924789 -0.46416513750627453 0 -0.022387293022594131 -0.44636088210796587 0 -0.040795948701257502 -0.45314916786438431 0 -0.0070288952032950321 -0.49999999999999079 0 -0.01507823055531135 -0.48683284573698288 0 -0.021846396327420879 -0.49182074940574011 0 -0.0066667916830795409 -0.48956393461245012 0 0.002442620829101056 -0.50000000000000178 0 -0.0070288952032950321 -0.49999999999999079 0 -0.0066667916830795409 -0.48956393461245012 0 0.002442620829101056 -0.50000000000000178 0 -0.0070288952032950321 -0.49999999999999079 0 -0.0066667916830795409 -0.48956393461245012 0 -0.0070288952032950321 -0.49999999999999079 0 -0.0066667916830795409 -0.48956393461245012 0 -0.01507823055531135 -0.48683284573698288 0 -0.0066667916830795409 -0.48956393461245012 0 -0.01507823055531135 -0.48683284573698288 0 -0.0166476509175746 -0.47812950901630369 0 -0.0066667916830795409 -0.48956393461245012 0 -0.0061932110828259532 -0.47591502529621121 0 0.0092662984364932626 -0.48518669974128548 0 -0.0061932110828259532 -0.47591502529621121 0 -0.0166476509175746 -0.47812950901630369 0 -0.0066667916830795409 -0.48956393461245012 0 -0.0061932110828259532 -0.47591502529621121 0 -0.0166476509175746 -0.47812950901630369 0 -0.0066667916830795409 -0.48956393461245012 0 -0.0166476509175746 -0.47812950901630369 0 -0.0066667916830795409 -0.48956393461245012 0 -0.0061932110828259532 -0.47591502529621121 0 -0.015337016011683489 -0.46432716894048243 0 -0.0061932110828259532 -0.47591502529621121 0 -0.0166476509175746 -0.47812950901630369 0 -0.0166476509175746 -0.47812950901630369 0 -0.021846396327420879 -0.49182074940574011 0 -0.036720259734308737 -0.48238133562270991 0 -0.0166476509175746 -0.47812950901630369 0 -0.036720259734308737 -0.48238133562270991 0 -0.028836844433924789 -0.46416513750627453 0 -0.0166476509175746 -0.47812950901630369 0 -0.036720259734308737 -0.48238133562270991 0 -0.015337016011683489 -0.46432716894048243 0 -0.028836844433924789 -0.46416513750627453 0 -0.0166476509175746 -0.47812950901630369 0 -0.028836844433924789 -0.46416513750627453 0 -0.0166476509175746 -0.47812950901630369 0 -0.0070288952032950321 -0.49999999999999079 0 -0.021846396327420879 -0.49182074940574011 0 -0.035257263288962337 -0.5 0 -0.01507823055531135 -0.48683284573698288 0 -0.0166476509175746 -0.47812950901630369 0 -0.021846396327420879 -0.49182074940574011 0 -0.035257263288962337 -0.5 0 -0.036720259734308737 -0.48238133562270991 0 -0.054443306754524627 -0.48199651532501853 0 -0.021846396327420879 -0.49182074940574011 0 -0.035257263288962337 -0.5 0 -0.036720259734308737 -0.48238133562270991 0 -0.028836844433924789 -0.46416513750627453 0 -0.036720259734308737 -0.48238133562270991 0 -0.040945986296198257 -0.46973861998748512 0 -0.036720259734308737 -0.48238133562270991 0 -0.040945986296198257 -0.46973861998748512 0 -0.054443306754524627 -0.48199651532501853 0 -0.040945986296198257 -0.46973861998748512 0 -0.054443306754524627 -0.48199651532501853 0 -0.053003939168803783 -0.46411236417786861 0 -0.054443306754524627 -0.48199651532501853 0 -0.053003939168803783 -0.46411236417786861 0 -0.067083752857452633 -0.46536351152892519 0 -0.035257263288962337 -0.5 0 -0.054443306754524627 -0.48199651532501853 0 -0.063485631374629592 -0.5 0 -0.040884201874355458 -0.42781105413151849 0 -0.022387293022594131 -0.44636088210796587 0 -0.040795948701257502 -0.45314916786438431 0 -0.040884201874355458 -0.42781105413151849 0 -0.040795948701257502 -0.45314916786438431 0 -0.058717427411668632 -0.44670694927519378 0 -0.028836844433924789 -0.46416513750627453 0 -0.040945986296198257 -0.46973861998748512 0 -0.040795948701257502 -0.45314916786438431 0 -0.040945986296198257 -0.46973861998748512 0 -0.040795948701257502 -0.45314916786438431 0 -0.053003939168803783 -0.46411236417786861 0 -0.040795948701257502 -0.45314916786438431 0 -0.053003939168803783 -0.46411236417786861 0 -0.058717427411668632 -0.44670694927519378 0 -0.053003939168803783 -0.46411236417786861 0 -0.058717427411668632 -0.44670694927519378 0 -0.067083752857452633 -0.46536351152892519 0 -0.058717427411668632 -0.44670694927519378 0 -0.077991722804268471 -0.43853903658331361 0 -0.077488807717458405 -0.45391507156294031 0 -0.058717427411668632 -0.44670694927519378 0 -0.077991722804268471 -0.43853903658331361 0 -0.065433484778616324 -0.42982329148279652 0 -0.058717427411668632 -0.44670694927519378 0 -0.067083752857452633 -0.46536351152892519 0 -0.077488807717458405 -0.45391507156294031 0 -0.067083752857452633 -0.46536351152892519 0 -0.077488807717458405 -0.45391507156294031 0 -0.081112093834373344 -0.46767224471709401 0 -0.081112093834373344 -0.46767224471709401 0 -0.092688389422343351 -0.45933639672616211 0 -0.093028248913230541 -0.47748941120649291 0 -0.077488807717458405 -0.45391507156294031 0 -0.081112093834373344 -0.46767224471709401 0 -0.092688389422343351 -0.45933639672616211 0 -0.077488807717458405 -0.45391507156294031 0 -0.092688389422343351 -0.45933639672616211 0 -0.090904187620608756 -0.44538605241962681 0 -0.077991722804268471 -0.43853903658331361 0 -0.090904187620608756 -0.44538605241962681 0 -0.091762776576353358 -0.43423970966593378 0 -0.077991722804268471 -0.43853903658331361 0 -0.077488807717458405 -0.45391507156294031 0 -0.090904187620608756 -0.44538605241962681 0 -0.054443306754524627 -0.48199651532501853 0 -0.063485631374629592 -0.5 0 -0.075271270261381779 -0.48225683256094981 0 -0.063485631374629592 -0.5 0 -0.075271270261381779 -0.48225683256094981 0 -0.091713999460296902 -0.5 0 -0.067083752857452633 -0.46536351152892519 0 -0.081112093834373344 -0.46767224471709401 0 -0.075271270261381779 -0.48225683256094981 0 -0.054443306754524627 -0.48199651532501853 0 -0.067083752857452633 -0.46536351152892519 0 -0.075271270261381779 -0.48225683256094981 0 -0.081112093834373344 -0.46767224471709401 0 -0.075271270261381779 -0.48225683256094981 0 -0.093028248913230541 -0.47748941120649291 0 -0.075271270261381779 -0.48225683256094981 0 -0.093028248913230541 -0.47748941120649291 0 -0.091713999460296902 -0.5 0 -0.093028248913230541 -0.47748941120649291 0 -0.091713999460296902 -0.5 0 -0.11132193305868809 -0.48168238983001949 0 -0.091713999460296902 -0.5 0 -0.11132193305868809 -0.48168238983001949 0 -0.1199423675459642 -0.5 0 -0.093028248913230541 -0.47748941120649291 0 -0.11132193305868809 -0.48168238983001949 0 -0.1065887688317361 -0.46515629047840379 0 -0.13343349479690139 -0.481363103274419 0 -0.11132193305868809 -0.48168238983001949 0 -0.1239278340235323 -0.4657325013730691 0 -0.11132193305868809 -0.48168238983001949 0 -0.1065887688317361 -0.46515629047840379 0 -0.1239278340235323 -0.4657325013730691 0 -0.13343349479690139 -0.481363103274419 0 -0.11132193305868809 -0.48168238983001949 0 -0.1199423675459642 -0.5 0 -0.10520011516954381 -0.44860788001971008 0 -0.1001821280719711 -0.4387863872512025 0 -0.1092127315377478 -0.43632421542607841 0 -0.090904187620608756 -0.44538605241962681 0 -0.1001821280719711 -0.4387863872512025 0 -0.091762776576353358 -0.43423970966593378 0 -0.090904187620608756 -0.44538605241962681 0 -0.10520011516954381 -0.44860788001971008 0 -0.1001821280719711 -0.4387863872512025 0 -0.092688389422343351 -0.45933639672616211 0 -0.090904187620608756 -0.44538605241962681 0 -0.10520011516954381 -0.44860788001971008 0 -0.10520011516954381 -0.44860788001971008 0 -0.1065887688317361 -0.46515629047840379 0 -0.11477246044599131 -0.45541891210367802 0 -0.092688389422343351 -0.45933639672616211 0 -0.10520011516954381 -0.44860788001971008 0 -0.1065887688317361 -0.46515629047840379 0 -0.092688389422343351 -0.45933639672616211 0 -0.093028248913230541 -0.47748941120649291 0 -0.1065887688317361 -0.46515629047840379 0 -0.1065887688317361 -0.46515629047840379 0 -0.11477246044599131 -0.45541891210367802 0 -0.1239278340235323 -0.4657325013730691 0 -0.11477246044599131 -0.45541891210367802 0 -0.1239278340235323 -0.4657325013730691 0 -0.12496120325886489 -0.45167609106350898 0 -0.11477246044599131 -0.45541891210367802 0 -0.12496120325886489 -0.45167609106350898 0 -0.116527352937914 -0.44400107245061637 0 -0.12801870348117109 -0.44191499541921669 0 -0.12496120325886489 -0.45167609106350898 0 -0.116527352937914 -0.44400107245061637 0 -0.10520011516954381 -0.44860788001971008 0 -0.11477246044599131 -0.45541891210367802 0 -0.116527352937914 -0.44400107245061637 0 -0.10520011516954381 -0.44860788001971008 0 -0.116527352937914 -0.44400107245061637 0 -0.1092127315377478 -0.43632421542607841 0 -0.12801870348117109 -0.44191499541921669 0 -0.116527352937914 -0.44400107245061637 0 -0.1169096243795008 -0.43145412036622371 0 -0.1237724601436556 -0.43129133148899301 0 -0.12014991016422399 -0.42331499977506049 0 -0.1169096243795008 -0.43145412036622371 0 -0.12014991016422399 -0.42331499977506049 0 -0.11243487191832829 -0.42517773352151222 0 -0.1169096243795008 -0.43145412036622371 0 -0.116527352937914 -0.44400107245061637 0 -0.1169096243795008 -0.43145412036622371 0 -0.1092127315377478 -0.43632421542607841 0 -0.11243487191832829 -0.42517773352151222 0 -0.1169096243795008 -0.43145412036622371 0 -0.1092127315377478 -0.43632421542607841 0 -0.1001821280719711 -0.4387863872512025 0 -0.1092127315377478 -0.43632421542607841 0 -0.10383082945560181 -0.42937407872466332 0 -0.11243487191832829 -0.42517773352151222 0 -0.1092127315377478 -0.43632421542607841 0 -0.10383082945560181 -0.42937407872466332 0 -0.10383082945560181 -0.42937407872466332 0 -0.095090732112383308 -0.42224970010546492 0 -0.10858165370623631 -0.41764891905879781 0 -0.11243487191832829 -0.42517773352151222 0 -0.10383082945560181 -0.42937407872466332 0 -0.10858165370623631 -0.41764891905879781 0 -0.10383082945560181 -0.42937407872466332 0 -0.095090732112383308 -0.42224970010546492 0 -0.091762776576353358 -0.43423970966593378 0 -0.1001821280719711 -0.4387863872512025 0 -0.10383082945560181 -0.42937407872466332 0 -0.091762776576353358 -0.43423970966593378 0 -0.098194113623603224 -0.40833393702498011 0 -0.10858165370623631 -0.41764891905879781 0 -0.116429547829388 -0.40765673305246392 0 -0.095090732112383308 -0.42224970010546492 0 -0.098194113623603224 -0.40833393702498011 0 -0.10858165370623631 -0.41764891905879781 0 -0.10858165370623631 -0.41764891905879781 0 -0.116429547829388 -0.40765673305246392 0 -0.11706769178529509 -0.41661414231610289 0 -0.13028534393200469 -0.3982014945926558 0 -0.12534060311460279 -0.41625798605401149 0 -0.116429547829388 -0.40765673305246392 0 -0.11243487191832829 -0.42517773352151222 0 -0.10858165370623631 -0.41764891905879781 0 -0.11706769178529509 -0.41661414231610289 0 -0.12014991016422399 -0.42331499977506049 0 -0.11243487191832829 -0.42517773352151222 0 -0.11706769178529509 -0.41661414231610289 0 -0.12534060311460279 -0.41625798605401149 0 -0.12014991016422399 -0.42331499977506049 0 -0.11706769178529509 -0.41661414231610289 0 -0.12534060311460279 -0.41625798605401149 0 -0.116429547829388 -0.40765673305246392 0 -0.11706769178529509 -0.41661414231610289 0 -0.13028534393200469 -0.3982014945926558 0 -0.116429547829388 -0.40765673305246392 0 -0.1135762316698456 -0.39356743103234371 0 -0.098194113623603224 -0.40833393702498011 0 -0.116429547829388 -0.40765673305246392 0 -0.1135762316698456 -0.39356743103234371 0 -0.12797313340181179 -0.37601582804419398 0 -0.1135762316698456 -0.39356743103234371 0 -0.10787608744702409 -0.3785041412934092 0 -0.12797313340181179 -0.37601582804419398 0 -0.13028534393200469 -0.3982014945926558 0 -0.1135762316698456 -0.39356743103234371 0 -0.091720592455495353 -0.37325451032718038 0 -0.10787608744702409 -0.3785041412934092 0 -0.094447924035865452 -0.38934715610140219 0 -0.1135762316698456 -0.39356743103234371 0 -0.10787608744702409 -0.3785041412934092 0 -0.094447924035865452 -0.38934715610140219 0 -0.098194113623603224 -0.40833393702498011 0 -0.1135762316698456 -0.39356743103234371 0 -0.094447924035865452 -0.38934715610140219 0 -0.094447924035865452 -0.38934715610140219 0 -0.082538246119257086 -0.40037833533739731 0 -0.073404669792439467 -0.38254249638221771 0 -0.098194113623603224 -0.40833393702498011 0 -0.094447924035865452 -0.38934715610140219 0 -0.082538246119257086 -0.40037833533739731 0 -0.091720592455495353 -0.37325451032718038 0 -0.094447924035865452 -0.38934715610140219 0 -0.073404669792439467 -0.38254249638221771 0 -0.082538246119257086 -0.40037833533739731 0 -0.073404669792439467 -0.38254249638221771 0 -0.06618091649328034 -0.40180004456092938 0 -0.082538246119257086 -0.40037833533739731 0 -0.06618091649328034 -0.40180004456092938 0 -0.080463606651096919 -0.41986804261745669 0 -0.054470076364346427 -0.41589896585508113 0 -0.065433484778616324 -0.42982329148279652 0 -0.080463606651096919 -0.41986804261745669 0 -0.054470076364346427 -0.41589896585508113 0 -0.06618091649328034 -0.40180004456092938 0 -0.080463606651096919 -0.41986804261745669 0 -0.077991722804268471 -0.43853903658331361 0 -0.065433484778616324 -0.42982329148279652 0 -0.080463606651096919 -0.41986804261745669 0 -0.077991722804268471 -0.43853903658331361 0 -0.091762776576353358 -0.43423970966593378 0 -0.080463606651096919 -0.41986804261745669 0 -0.095090732112383308 -0.42224970010546492 0 -0.091762776576353358 -0.43423970966593378 0 -0.080463606651096919 -0.41986804261745669 0 -0.095090732112383308 -0.42224970010546492 0 -0.098194113623603224 -0.40833393702498011 0 -0.080463606651096919 -0.41986804261745669 0 -0.098194113623603224 -0.40833393702498011 0 -0.082538246119257086 -0.40037833533739731 0 -0.080463606651096919 -0.41986804261745669 0 -0.08530618032563933 -0.079398793141425852 0 -0.081436695029226361 -0.093028606073920758 0 -0.07339382755700144 -0.082132529164992044 0 -0.083304856707223332 -0.09880873404253232 0 -0.096575470504932731 -0.085321341965115094 0 -0.081436695029226361 -0.093028606073920758 0 -0.083304856707223332 -0.09880873404253232 0 -0.096575470504932731 -0.085321341965115094 0 -0.081436695029226361 -0.093028606073920758 0 -0.096575470504932731 -0.085321341965115094 0 -0.08530618032563933 -0.079398793141425852 0 -0.081436695029226361 -0.093028606073920758 0 -0.096575470504932731 -0.085321341965115094 0 -0.08530618032563933 -0.079398793141425852 0 -0.096575470504932731 -0.085321341965115094 0 -0.094443867950809418 -0.075432793058229808 0 -0.08530618032563933 -0.079398793141425852 0 -0.087646422006692926 -0.066995470912557253 0 -0.094443867950809418 -0.075432793058229808 0 -0.087646422006692926 -0.066995470912557253 0 -0.09838138049682324 -0.067987776539774697 0 -0.094443867950809418 -0.075432793058229808 0 -0.087646422006692926 -0.066995470912557253 0 -0.077557661633600006 -0.072108688839561494 0 -0.075869596351065799 -0.061340224108103088 0 -0.08530618032563933 -0.079398793141425852 0 -0.087646422006692926 -0.066995470912557253 0 -0.077557661633600006 -0.072108688839561494 0 -0.08530618032563933 -0.079398793141425852 0 -0.077557661633600006 -0.072108688839561494 0 -0.07339382755700144 -0.082132529164992044 0 -0.077557661633600006 -0.072108688839561494 0 -0.065572281927600576 -0.070676426870729267 0 -0.07339382755700144 -0.082132529164992044 0 -0.077557661633600006 -0.072108688839561494 0 -0.065572281927600576 -0.070676426870729267 0 -0.075869596351065799 -0.061340224108103088 0 -0.065572281927600576 -0.070676426870729267 0 -0.075869596351065799 -0.061340224108103088 0 -0.065466783750138535 -0.057802930830246013 0 -0.065572281927600576 -0.070676426870729267 0 -0.07339382755700144 -0.082132529164992044 0 -0.061632410211970148 -0.086300695031385502 0 -0.081436695029226361 -0.093028606073920758 0 -0.07339382755700144 -0.082132529164992044 0 -0.070690213087929388 -0.090549425113256032 0 -0.07339382755700144 -0.082132529164992044 0 -0.070690213087929388 -0.090549425113256032 0 -0.061632410211970148 -0.086300695031385502 0 -0.070690213087929388 -0.090549425113256032 0 -0.066297919553519685 -0.1007358701827259 0 -0.061632410211970148 -0.086300695031385502 0 -0.066297919553519685 -0.1007358701827259 0 -0.061632410211970148 -0.086300695031385502 0 -0.081436695029226361 -0.093028606073920758 0 -0.066297919553519685 -0.1007358701827259 0 -0.083304856707223332 -0.09880873404253232 0 -0.066297919553519685 -0.1007358701827259 0 -0.070034242909513905 -0.11229612611994939 0 -0.083304856707223332 -0.09880873404253232 0 -0.066297919553519685 -0.1007358701827259 0 -0.070034242909513905 -0.11229612611994939 0 -0.066297919553519685 -0.1007358701827259 0 -0.070034242909513905 -0.11229612611994939 0 -0.055310000605268618 -0.1063299021092991 0 -0.070034242909513905 -0.11229612611994939 0 -0.083304856707223332 -0.09880873404253232 0 -0.081436695029226361 -0.093028606073920758 0 -0.070690213087929388 -0.090549425113256032 0 -0.066297919553519685 -0.1007358701827259 0 -0.081436695029226361 -0.093028606073920758 0 -0.066297919553519685 -0.1007358701827259 0 -0.070034242909513905 -0.11229612611994939 0 -0.077867050426668472 -0.13653098241525649 0 -0.070034242909513905 -0.11229612611994939 0 -0.090354314601913011 -0.1165622464668904 0 -0.077867050426668472 -0.13653098241525649 0 -0.090354314601913011 -0.1165622464668904 0 -0.083304856707223332 -0.09880873404253232 0 -0.098704603500972599 -0.1006886100280347 0 -0.070034242909513905 -0.11229612611994939 0 -0.090354314601913011 -0.1165622464668904 0 -0.083304856707223332 -0.09880873404253232 0 -0.083304856707223332 -0.09880873404253232 0 -0.098704603500972599 -0.1006886100280347 0 -0.096575470504932731 -0.085321341965115094 0 -0.098704603500972599 -0.1006886100280347 0 -0.1131934835960233 -0.1155006163360337 0 -0.1138806459392139 -0.097011454226139951 0 -0.098704603500972599 -0.1006886100280347 0 -0.1138806459392139 -0.097011454226139951 0 -0.1048538646573015 -0.09239523700683111 0 -0.090354314601913011 -0.1165622464668904 0 -0.098704603500972599 -0.1006886100280347 0 -0.1131934835960233 -0.1155006163360337 0 -0.090354314601913011 -0.1165622464668904 0 -0.1131934835960233 -0.1155006163360337 0 -0.099021650471076569 -0.13554840985953609 0 -0.1131934835960233 -0.1155006163360337 0 -0.13264821069410851 -0.1143473212797332 0 -0.1274261146807629 -0.124200943596945 0 -0.1131934835960233 -0.1155006163360337 0 -0.1158045831533048 -0.13189046347610639 0 -0.1274261146807629 -0.124200943596945 0 -0.1131934835960233 -0.1155006163360337 0 -0.1261571266481088 -0.1054182677452063 0 -0.13264821069410851 -0.1143473212797332 0 -0.1131934835960233 -0.1155006163360337 0 -0.1138806459392139 -0.097011454226139951 0 -0.1261571266481088 -0.1054182677452063 0 -0.1138806459392139 -0.097011454226139951 0 -0.12317387986982881 -0.094785097849230907 0 -0.1261571266481088 -0.1054182677452063 0 -0.1138806459392139 -0.097011454226139951 0 -0.12317387986982881 -0.094785097849230907 0 -0.1206258420790894 -0.087008987036709839 0 -0.1206258420790894 -0.087008987036709839 0 -0.1151445216217697 -0.075867698806391257 0 -0.1281356888908026 -0.079178393911978395 0 -0.1206258420790894 -0.087008987036709839 0 -0.11025473868408681 -0.086559541808034809 0 -0.1151445216217697 -0.075867698806391257 0 -0.1138806459392139 -0.097011454226139951 0 -0.1206258420790894 -0.087008987036709839 0 -0.11025473868408681 -0.086559541808034809 0 -0.1138806459392139 -0.097011454226139951 0 -0.11025473868408681 -0.086559541808034809 0 -0.1048538646573015 -0.09239523700683111 0 -0.11025473868408681 -0.086559541808034809 0 -0.096575470504932731 -0.085321341965115094 0 -0.1151445216217697 -0.075867698806391257 0 -0.096575470504932731 -0.085321341965115094 0 -0.1151445216217697 -0.075867698806391257 0 -0.11025473868408681 -0.086559541808034809 0 -0.1048538646573015 -0.09239523700683111 0 -0.096575470504932731 -0.085321341965115094 0 -0.096575470504932731 -0.085321341965115094 0 -0.104309886419959 -0.077460582732276337 0 -0.1151445216217697 -0.075867698806391257 0 -0.096575470504932731 -0.085321341965115094 0 -0.104309886419959 -0.077460582732276337 0 -0.096575470504932731 -0.085321341965115094 0 -0.094443867950809418 -0.075432793058229808 0 -0.104309886419959 -0.077460582732276337 0 -0.098704603500972599 -0.1006886100280347 0 -0.1048538646573015 -0.09239523700683111 0 -0.096575470504932731 -0.085321341965115094 0 -0.087646422006692926 -0.066995470912557253 0 -0.09838138049682324 -0.067987776539774697 0 -0.096360532362394238 -0.058491332564970203 0 -0.09838138049682324 -0.067987776539774697 0 -0.094443867950809418 -0.075432793058229808 0 -0.104309886419959 -0.077460582732276337 0 -0.09838138049682324 -0.067987776539774697 0 -0.104309886419959 -0.077460582732276337 0 -0.10900456270446519 -0.069670902950860411 0 -0.09838138049682324 -0.067987776539774697 0 -0.10900456270446519 -0.069670902950860411 0 -0.10764128746391211 -0.060961214038457938 0 -0.10900456270446519 -0.069670902950860411 0 -0.1151445216217697 -0.075867698806391257 0 -0.1206714171501669 -0.063760058749526616 0 -0.1151445216217697 -0.075867698806391257 0 -0.13371357273860671 -0.06641405564766717 0 -0.1151445216217697 -0.075867698806391257 0 -0.1206714171501669 -0.063760058749526616 0 -0.13371357273860671 -0.06641405564766717 0 -0.10900456270446519 -0.069670902950860411 0 -0.1206714171501669 -0.063760058749526616 0 -0.10764128746391211 -0.060961214038457938 0 -0.104309886419959 -0.077460582732276337 0 -0.10900456270446519 -0.069670902950860411 0 -0.1151445216217697 -0.075867698806391257 0 -0.1239751728301063 -0.04584895474015141 0 -0.1005224546568506 -0.048458105579532368 0 -0.10764128746391211 -0.060961214038457938 0 -0.1206714171501669 -0.063760058749526616 0 -0.1239751728301063 -0.04584895474015141 0 -0.10764128746391211 -0.060961214038457938 0 -0.1239751728301063 -0.04584895474015141 0 -0.1045136679240217 -0.035688520652697453 0 -0.1142367729216075 -0.02528385383263498 0 -0.1239751728301063 -0.04584895474015141 0 -0.1142367729216075 -0.02528385383263498 0 -0.13265211904447149 -0.024070734940253549 0 -0.1239751728301063 -0.04584895474015141 0 -0.1045136679240217 -0.035688520652697453 0 -0.1005224546568506 -0.048458105579532368 0 -0.1239751728301063 -0.04584895474015141 0 -0.1142367729216075 -0.02528385383263498 0 -0.1045136679240217 -0.035688520652697453 0 -0.096312441271970001 -0.021199038678905258 0 -0.087521497939574297 -0.037652650432263207 0 -0.1045136679240217 -0.035688520652697453 0 -0.1005224546568506 -0.048458105579532368 0 -0.087521497939574297 -0.037652650432263207 0 -0.1005224546568506 -0.048458105579532368 0 -0.096360532362394238 -0.058491332564970203 0 -0.087082484234019514 -0.05338435695522234 0 -0.09838138049682324 -0.067987776539774697 0 -0.096360532362394238 -0.058491332564970203 0 -0.10764128746391211 -0.060961214038457938 0 -0.1005224546568506 -0.048458105579532368 0 -0.096360532362394238 -0.058491332564970203 0 -0.10764128746391211 -0.060961214038457938 0 -0.1142367729216075 -0.02528385383263498 0 -0.1044983730131086 -0.004718752925118504 0 -0.12559974333760679 -0.0068890451810183044 0 -0.1044983730131086 -0.004718752925118504 0 -0.12559974333760679 -0.0068890451810183044 0 -0.11601858921095939 0.0096605820066830734 0 -0.1142367729216075 -0.02528385383263498 0 -0.12559974333760679 -0.0068890451810183044 0 -0.13265211904447149 -0.024070734940253549 0 -0.1045136679240217 -0.035688520652697453 0 -0.1142367729216075 -0.02528385383263498 0 -0.096312441271970001 -0.021199038678905258 0 -0.1142367729216075 -0.02528385383263498 0 -0.096312441271970001 -0.021199038678905258 0 -0.1044983730131086 -0.004718752925118504 0 -0.1142367729216075 -0.02528385383263498 0 -0.1044983730131086 -0.004718752925118504 0 -0.096312441271970001 -0.021199038678905258 0 -0.1044983730131086 -0.004718752925118504 0 -0.08517218805136309 -0.0117940462225218 0 -0.1044983730131086 -0.004718752925118504 0 -0.08517218805136309 -0.0117940462225218 0 -0.087554471175268961 0.0045918173266670829 0 -0.08517218805136309 -0.0117940462225218 0 -0.074002323677253221 -0.0026823802442761391 0 -0.087554471175268961 0.0045918173266670829 0 -0.096312441271970001 -0.021199038678905258 0 -0.078778130417433076 -0.024412945004633049 0 -0.087521497939574297 -0.037652650432263207 0 -0.096312441271970001 -0.021199038678905258 0 -0.08517218805136309 -0.0117940462225218 0 -0.078778130417433076 -0.024412945004633049 0 -0.08517218805136309 -0.0117940462225218 0 -0.078778130417433076 -0.024412945004633049 0 -0.072630150196750495 -0.014161621591747759 0 -0.064705673924384394 -0.0224711012350894 0 -0.069814112022890812 -0.035544557996413588 0 -0.05324911542324396 -0.03278947250572059 0 -0.078778130417433076 -0.024412945004633049 0 -0.064705673924384394 -0.0224711012350894 0 -0.069814112022890812 -0.035544557996413588 0 -0.078778130417433076 -0.024412945004633049 0 -0.064705673924384394 -0.0224711012350894 0 -0.072630150196750495 -0.014161621591747759 0 -0.074002323677253221 -0.0026823802442761391 0 -0.062406300699629172 -0.008764516494169098 0 -0.066877308297120658 0.0069600457306166381 0 -0.08517218805136309 -0.0117940462225218 0 -0.072630150196750495 -0.014161621591747759 0 -0.074002323677253221 -0.0026823802442761391 0 -0.072630150196750495 -0.014161621591747759 0 -0.074002323677253221 -0.0026823802442761391 0 -0.062406300699629172 -0.008764516494169098 0 -0.064705673924384394 -0.0224711012350894 0 -0.072630150196750495 -0.014161621591747759 0 -0.062406300699629172 -0.008764516494169098 0 -0.087082484234019514 -0.05338435695522234 0 -0.074464270222190709 -0.048478829217385763 0 -0.075869596351065799 -0.061340224108103088 0 -0.087646422006692926 -0.066995470912557253 0 -0.087082484234019514 -0.05338435695522234 0 -0.075869596351065799 -0.061340224108103088 0 -0.087646422006692926 -0.066995470912557253 0 -0.096360532362394238 -0.058491332564970203 0 -0.087082484234019514 -0.05338435695522234 0 -0.078778130417433076 -0.024412945004633049 0 -0.087521497939574297 -0.037652650432263207 0 -0.069814112022890812 -0.035544557996413588 0 -0.1005224546568506 -0.048458105579532368 0 -0.087082484234019514 -0.05338435695522234 0 -0.087521497939574297 -0.037652650432263207 0 -0.087082484234019514 -0.05338435695522234 0 -0.087521497939574297 -0.037652650432263207 0 -0.074464270222190709 -0.048478829217385763 0 -0.087521497939574297 -0.037652650432263207 0 -0.069814112022890812 -0.035544557996413588 0 -0.074464270222190709 -0.048478829217385763 0 -0.069814112022890812 -0.035544557996413588 0 -0.074464270222190709 -0.048478829217385763 0 -0.060351547399719513 -0.04753270901241699 0 -0.074464270222190709 -0.048478829217385763 0 -0.065466783750138535 -0.057802930830246013 0 -0.060351547399719513 -0.04753270901241699 0 -0.074464270222190709 -0.048478829217385763 0 -0.075869596351065799 -0.061340224108103088 0 -0.065466783750138535 -0.057802930830246013 0 -0.065466783750138535 -0.057802930830246013 0 -0.053154377237324142 -0.060827795638758793 0 -0.060351547399719513 -0.04753270901241699 0 -0.053154377237324142 -0.060827795638758793 0 -0.04103735995667504 -0.056054468532224622 0 -0.046803010084008563 -0.046902110655990412 0 -0.053154377237324142 -0.060827795638758793 0 -0.060351547399719513 -0.04753270901241699 0 -0.046803010084008563 -0.046902110655990412 0 -0.069814112022890812 -0.035544557996413588 0 -0.060351547399719513 -0.04753270901241699 0 -0.05324911542324396 -0.03278947250572059 0 -0.060351547399719513 -0.04753270901241699 0 -0.05324911542324396 -0.03278947250572059 0 -0.046803010084008563 -0.046902110655990412 0 -0.038779357249636749 -0.035098064490358419 0 -0.034294590481174198 -0.047247203986938907 0 -0.046803010084008563 -0.046902110655990412 0 -0.05324911542324396 -0.03278947250572059 0 -0.038779357249636749 -0.035098064490358419 0 -0.046803010084008563 -0.046902110655990412 0 -0.038779357249636749 -0.035098064490358419 0 -0.034294590481174198 -0.047247203986938907 0 -0.025185330303555482 -0.037994633778215367 0 -0.034294590481174198 -0.047247203986938907 0 -0.04103735995667504 -0.056054468532224622 0 -0.030887552028962161 -0.058824255853864693 0 -0.04103735995667504 -0.056054468532224622 0 -0.030887552028962161 -0.058824255853864693 0 -0.040047269951906127 -0.066470976525570366 0 -0.053154377237324142 -0.060827795638758793 0 -0.04103735995667504 -0.056054468532224622 0 -0.040047269951906127 -0.066470976525570366 0 -0.034294590481174198 -0.047247203986938907 0 -0.04103735995667504 -0.056054468532224622 0 -0.046803010084008563 -0.046902110655990412 0 -0.062406300699629172 -0.008764516494169098 0 -0.038702193094620363 -0.01056046054620538 0 -0.055881222903095752 0.0031794992203708771 0 -0.062406300699629172 -0.008764516494169098 0 -0.051801586440441277 -0.019322356447518101 0 -0.038702193094620363 -0.01056046054620538 0 -0.062406300699629172 -0.008764516494169098 0 -0.038702193094620363 -0.01056046054620538 0 -0.064705673924384394 -0.0224711012350894 0 -0.062406300699629172 -0.008764516494169098 0 -0.051801586440441277 -0.019322356447518101 0 -0.064705673924384394 -0.0224711012350894 0 -0.05324911542324396 -0.03278947250572059 0 -0.051801586440441277 -0.019322356447518101 0 -0.05324911542324396 -0.03278947250572059 0 -0.051801586440441277 -0.019322356447518101 0 -0.0408991579700013 -0.022924969389973671 0 -0.05324911542324396 -0.03278947250572059 0 -0.038779357249636749 -0.035098064490358419 0 -0.0408991579700013 -0.022924969389973671 0 -0.038779357249636749 -0.035098064490358419 0 -0.0408991579700013 -0.022924969389973671 0 -0.028668744324577909 -0.02407795351965648 0 -0.0408991579700013 -0.022924969389973671 0 -0.038702193094620363 -0.01056046054620538 0 -0.028668744324577909 -0.02407795351965648 0 -0.051801586440441277 -0.019322356447518101 0 -0.0408991579700013 -0.022924969389973671 0 -0.038702193094620363 -0.01056046054620538 0 -0.038702193094620363 -0.01056046054620538 0 -0.055881222903095752 0.0031794992203708771 0 -0.043645596178405299 0.0038954635122720009 0 -0.038702193094620363 -0.01056046054620538 0 -0.027455706450280028 -0.0012869457993565649 0 -0.043645596178405299 0.0038954635122720009 0 -0.038702193094620363 -0.01056046054620538 0 -0.027455706450280028 -0.0012869457993565649 0 -0.0149980854896115 -0.012356404598241669 0 -0.038702193094620363 -0.01056046054620538 0 -0.0149980854896115 -0.012356404598241669 0 -0.027455706450280028 -0.0012869457993565649 0 -0.0149980854896115 -0.012356404598241669 0 -0.018587792590070849 0.003123942763754689 0 -0.028668744324577909 -0.02407795351965648 0 -0.011683072045496311 -0.02808942124238523 0 -0.025185330303555482 -0.037994633778215367 0 -0.028668744324577909 -0.02407795351965648 0 -0.011683072045496311 -0.02808942124238523 0 -0.0149980854896115 -0.012356404598241669 0 -0.038702193094620363 -0.01056046054620538 0 -0.028668744324577909 -0.02407795351965648 0 -0.0149980854896115 -0.012356404598241669 0 -0.011683072045496311 -0.02808942124238523 0 -0.0149980854896115 -0.012356404598241669 0 0.0087060221153974129 -0.014152348650278 0 -0.0149980854896115 -0.012356404598241669 0 0.0087060221153974129 -0.014152348650278 0 -0.0149980854896115 -0.012356404598241669 0 -0.0032302248502834052 -0.0014363109070051629 0 0.0087060221153974129 -0.014152348650278 0 -0.0149980854896115 -0.012356404598241669 0 -0.0032302248502834052 -0.0014363109070051629 0 -0.018587792590070849 0.003123942763754689 0 -0.023133204319487032 -0.050396954973274663 0 -0.01455301340096068 -0.0430582044566786 0 -0.014068005231211661 -0.054035211951270083 0 -0.023133204319487032 -0.050396954973274663 0 -0.020100923000514821 -0.061141008205011317 0 -0.014068005231211661 -0.054035211951270083 0 -0.023133204319487032 -0.050396954973274663 0 -0.020100923000514821 -0.061141008205011317 0 -0.030887552028962161 -0.058824255853864693 0 -0.034294590481174198 -0.047247203986938907 0 -0.023133204319487032 -0.050396954973274663 0 -0.030887552028962161 -0.058824255853864693 0 -0.034294590481174198 -0.047247203986938907 0 -0.023133204319487032 -0.050396954973274663 0 -0.025185330303555482 -0.037994633778215367 0 -0.038779357249636749 -0.035098064490358419 0 -0.028668744324577909 -0.02407795351965648 0 -0.025185330303555482 -0.037994633778215367 0 -0.011683072045496311 -0.02808942124238523 0 -0.025185330303555482 -0.037994633778215367 0 -0.01455301340096068 -0.0430582044566786 0 -0.023133204319487032 -0.050396954973274663 0 -0.025185330303555482 -0.037994633778215367 0 -0.01455301340096068 -0.0430582044566786 0 -0.01455301340096068 -0.0430582044566786 0 -0.0067188264185047064 -0.050701381646842139 0 0.0043105306008735071 -0.036815770843572251 0 -0.011683072045496311 -0.02808942124238523 0 -0.01455301340096068 -0.0430582044566786 0 0.0043105306008735071 -0.036815770843572251 0 -0.0067188264185047064 -0.050701381646842139 0 -8.4960913650737775e-05 -0.059479193036866357 0 0.0043105306008735071 -0.036815770843572251 0 -0.01455301340096068 -0.0430582044566786 0 -0.0067188264185047064 -0.050701381646842139 0 -0.014068005231211661 -0.054035211951270083 0 -0.0067188264185047064 -0.050701381646842139 0 -0.014068005231211661 -0.054035211951270083 0 -0.0073975986169696507 -0.057648260248408488 0 -0.020100923000514821 -0.061141008205011317 0 -0.014068005231211661 -0.054035211951270083 0 -0.011422566484202879 -0.061789668406834128 0 -0.014068005231211661 -0.054035211951270083 0 -0.011422566484202879 -0.061789668406834128 0 -0.0073975986169696507 -0.057648260248408488 0 -0.011422566484202879 -0.061789668406834128 0 -0.0073975986169696507 -0.057648260248408488 0 -0.005991814731510013 -0.062773629461545855 0 -0.0073975986169696507 -0.057648260248408488 0 -8.4960913650737775e-05 -0.059479193036866357 0 -0.005991814731510013 -0.062773629461545855 0 -0.0067188264185047064 -0.050701381646842139 0 -0.0073975986169696507 -0.057648260248408488 0 -8.4960913650737775e-05 -0.059479193036866357 0 -8.4960913650737775e-05 -0.059479193036866357 0 -0.005991814731510013 -0.062773629461545855 0 -0.0056459100286735519 -0.069941182428627985 0 -8.4960913650737775e-05 -0.059479193036866357 0 -0.0044804524281749506 -0.082142615230160518 0 -8.4960913650737775e-05 -0.059479193036866357 0 -0.0044804524281749506 -0.082142615230160518 0 0.002510802647565528 -0.063043425969637495 0 -8.4960913650737775e-05 -0.059479193036866357 0 -0.0056459100286735519 -0.069941182428627985 0 -0.0044804524281749506 -0.082142615230160518 0 -0.005991814731510013 -0.062773629461545855 0 -0.0056459100286735519 -0.069941182428627985 0 -0.0086128166311250608 -0.066131956844424689 0 -0.0056459100286735519 -0.069941182428627985 0 -0.0090589425736331466 -0.075492321318047978 0 -0.0044804524281749506 -0.082142615230160518 0 -0.0090589425736331466 -0.075492321318047978 0 -0.013727298973969791 -0.070202088078323982 0 -0.012382108863714301 -0.079683399535079441 0 -0.013727298973969791 -0.070202088078323982 0 -0.012382108863714301 -0.079683399535079441 0 -0.019137451635014659 -0.077259604762948186 0 -0.0056459100286735519 -0.069941182428627985 0 -0.0090589425736331466 -0.075492321318047978 0 -0.013727298973969791 -0.070202088078323982 0 -0.0056459100286735519 -0.069941182428627985 0 -0.013727298973969791 -0.070202088078323982 0 -0.0086128166311250608 -0.066131956844424689 0 -0.020100923000514821 -0.061141008205011317 0 -0.011422566484202879 -0.061789668406834128 0 -0.013727298973969791 -0.070202088078323982 0 -0.011422566484202879 -0.061789668406834128 0 -0.013727298973969791 -0.070202088078323982 0 -0.0086128166311250608 -0.066131956844424689 0 -0.011422566484202879 -0.061789668406834128 0 -0.005991814731510013 -0.062773629461545855 0 -0.0086128166311250608 -0.066131956844424689 0 -0.0044804524281749506 -0.082142615230160518 0 -0.01031338439081377 -0.086960357030617247 0 -0.0070169398095897041 -0.095220898790261216 0 -0.0044804524281749506 -0.082142615230160518 0 -0.0070169398095897041 -0.095220898790261216 0 -0.0044804524281749506 -0.082142615230160518 0 -0.0070169398095897041 -0.095220898790261216 0 0.0025495365457082479 -0.090291170229082507 0 -0.0044804524281749506 -0.082142615230160518 0 -0.012382108863714301 -0.079683399535079441 0 -0.0044804524281749506 -0.082142615230160518 0 -0.012382108863714301 -0.079683399535079441 0 -0.01031338439081377 -0.086960357030617247 0 -0.012382108863714301 -0.079683399535079441 0 -0.01031338439081377 -0.086960357030617247 0 -0.017023360805825751 -0.089100521354483458 0 -0.0090589425736331466 -0.075492321318047978 0 -0.0044804524281749506 -0.082142615230160518 0 -0.012382108863714301 -0.079683399535079441 0 -0.01031338439081377 -0.086960357030617247 0 -0.017023360805825751 -0.089100521354483458 0 -0.0070169398095897041 -0.095220898790261216 0 -0.025598868763190619 -0.080940411693133762 0 -0.024127602777753769 -0.099165962632623547 0 -0.025598868763190619 -0.080940411693133762 0 -0.034600677524782707 -0.090436269366911737 0 -0.024127602777753769 -0.099165962632623547 0 -0.017023360805825751 -0.089100521354483458 0 -0.025598868763190619 -0.080940411693133762 0 -0.024127602777753769 -0.099165962632623547 0 -0.012382108863714301 -0.079683399535079441 0 -0.017023360805825751 -0.089100521354483458 0 -0.019137451635014659 -0.077259604762948186 0 -0.017023360805825751 -0.089100521354483458 0 -0.025598868763190619 -0.080940411693133762 0 -0.019137451635014659 -0.077259604762948186 0 -0.020100923000514821 -0.061141008205011317 0 -0.013727298973969791 -0.070202088078323982 0 -0.025904215835085329 -0.070192579072058753 0 -0.013727298973969791 -0.070202088078323982 0 -0.019137451635014659 -0.077259604762948186 0 -0.025904215835085329 -0.070192579072058753 0 -0.025598868763190619 -0.080940411693133762 0 -0.025904215835085329 -0.070192579072058753 0 -0.035465389255084891 -0.077470016104679559 0 -0.025598868763190619 -0.080940411693133762 0 -0.019137451635014659 -0.077259604762948186 0 -0.025904215835085329 -0.070192579072058753 0 -0.020100923000514821 -0.061141008205011317 0 -0.030887552028962161 -0.058824255853864693 0 -0.025904215835085329 -0.070192579072058753 0 -0.030887552028962161 -0.058824255853864693 0 -0.025904215835085329 -0.070192579072058753 0 -0.040047269951906127 -0.066470976525570366 0 -0.040047269951906127 -0.066470976525570366 0 -0.035465389255084891 -0.077470016104679559 0 -0.051921867278812928 -0.074743035842584682 0 -0.025904215835085329 -0.070192579072058753 0 -0.040047269951906127 -0.066470976525570366 0 -0.035465389255084891 -0.077470016104679559 0 -0.035465389255084891 -0.077470016104679559 0 -0.034600677524782707 -0.090436269366911737 0 -0.044830058431200401 -0.084353198077828123 0 -0.035465389255084891 -0.077470016104679559 0 -0.044830058431200401 -0.084353198077828123 0 -0.051921867278812928 -0.074743035842584682 0 -0.025598868763190619 -0.080940411693133762 0 -0.035465389255084891 -0.077470016104679559 0 -0.034600677524782707 -0.090436269366911737 0 -0.034600677524782707 -0.090436269366911737 0 -0.044830058431200401 -0.084353198077828123 0 -0.050948010714525933 -0.094728724373531525 0 -0.044830058431200401 -0.084353198077828123 0 -0.061632410211970148 -0.086300695031385502 0 -0.051921867278812928 -0.074743035842584682 0 -0.044830058431200401 -0.084353198077828123 0 -0.061632410211970148 -0.086300695031385502 0 -0.050948010714525933 -0.094728724373531525 0 -0.065572281927600576 -0.070676426870729267 0 -0.061632410211970148 -0.086300695031385502 0 -0.051921867278812928 -0.074743035842584682 0 -0.065572281927600576 -0.070676426870729267 0 -0.065466783750138535 -0.057802930830246013 0 -0.053154377237324142 -0.060827795638758793 0 -0.065572281927600576 -0.070676426870729267 0 -0.053154377237324142 -0.060827795638758793 0 -0.051921867278812928 -0.074743035842584682 0 -0.053154377237324142 -0.060827795638758793 0 -0.040047269951906127 -0.066470976525570366 0 -0.051921867278812928 -0.074743035842584682 0 -0.070034242909513905 -0.11229612611994939 0 -0.054377176367166838 -0.12820895415170991 0 -0.070034242909513905 -0.11229612611994939 0 -0.055310000605268618 -0.1063299021092991 0 -0.054377176367166838 -0.12820895415170991 0 -0.055310000605268618 -0.1063299021092991 0 -0.040151417384989063 -0.11892647927419039 0 -0.054377176367166838 -0.12820895415170991 0 -0.066297919553519685 -0.1007358701827259 0 -0.055310000605268618 -0.1063299021092991 0 -0.066297919553519685 -0.1007358701827259 0 -0.061632410211970148 -0.086300695031385502 0 -0.050948010714525933 -0.094728724373531525 0 -0.066297919553519685 -0.1007358701827259 0 -0.055310000605268618 -0.1063299021092991 0 -0.050948010714525933 -0.094728724373531525 0 -0.055310000605268618 -0.1063299021092991 0 -0.050948010714525933 -0.094728724373531525 0 -0.04211776493504682 -0.1029924723849389 0 -0.034600677524782707 -0.090436269366911737 0 -0.050948010714525933 -0.094728724373531525 0 -0.04211776493504682 -0.1029924723849389 0 -0.034600677524782707 -0.090436269366911737 0 -0.04211776493504682 -0.1029924723849389 0 -0.024127602777753769 -0.099165962632623547 0 -0.040151417384989063 -0.11892647927419039 0 -0.022656336792316632 -0.1173915135721133 0 -0.034310598984480897 -0.1304117287602968 0 -0.04211776493504682 -0.1029924723849389 0 -0.022656336792316632 -0.1173915135721133 0 -0.055310000605268618 -0.1063299021092991 0 -0.04211776493504682 -0.1029924723849389 0 -0.040151417384989063 -0.11892647927419039 0 -0.04211776493504682 -0.1029924723849389 0 -0.040151417384989063 -0.11892647927419039 0 -0.022656336792316632 -0.1173915135721133 0 -0.022656336792316632 -0.1173915135721133 0 -0.024127602777753769 -0.099165962632623547 0 -0.0046185716921284883 -0.1120858073703396 0 -0.017023360805825751 -0.089100521354483458 0 -0.024127602777753769 -0.099165962632623547 0 -0.0070169398095897041 -0.095220898790261216 0 -0.04211776493504682 -0.1029924723849389 0 -0.022656336792316632 -0.1173915135721133 0 -0.024127602777753769 -0.099165962632623547 0 -0.022656336792316632 -0.1173915135721133 0 -0.024127602777753769 -0.099165962632623547 0 -0.0070169398095897041 -0.095220898790261216 0 -0.0046185716921284883 -0.1120858073703396 0 0.008870302288897949 -0.1067994391357744 0 -0.024127602777753769 -0.099165962632623547 0 -0.0070169398095897041 -0.095220898790261216 0 -0.0046185716921284883 -0.1120858073703396 0 -0.022656336792316632 -0.1173915135721133 0 -0.0046185716921284883 -0.1120858073703396 0 0.0015642383778857951 -0.1353117328332607 0 -0.022656336792316632 -0.1173915135721133 0 0.0015642383778857951 -0.1353117328332607 0 -0.022656336792316632 -0.1173915135721133 0 -0.020769887561912202 -0.14076021568568359 0 0.0015642383778857951 -0.1353117328332607 0 -0.022656336792316632 -0.1173915135721133 0 -0.020769887561912202 -0.14076021568568359 0 -0.034310598984480897 -0.1304117287602968 0 -0.022656336792316632 -0.1173915135721133 0 -0.020769887561912202 -0.14076021568568359 0 -0.020769887561912202 -0.14076021568568359 0 -0.018883438331507501 -0.16412891779925379 0 -0.020769887561912202 -0.14076021568568359 0 -0.018883438331507501 -0.16412891779925379 0 -0.038720109824819507 -0.1441217821834701 0 -0.020769887561912202 -0.14076021568568359 0 0.003736562744908955 -0.15557199018408921 0 0.0015642383778857951 -0.1353117328332607 0 -0.020769887561912202 -0.14076021568568359 0 -0.018883438331507501 -0.16412891779925379 0 0.003736562744908955 -0.15557199018408921 0 -0.004632225236523106 -0.17490638196502761 0 -0.018883438331507501 -0.16412891779925379 0 0.003736562744908955 -0.15557199018408921 0 -0.004632225236523106 -0.17490638196502761 0 -0.0169969891011028 -0.18749761991282399 0 -0.018883438331507501 -0.16412891779925379 0 -0.004632225236523106 -0.17490638196502761 0 -0.0169969891011028 -0.18749761991282399 0 -0.002042600455204898 -0.19273323465178799 0 -0.0169969891011028 -0.18749761991282399 0 -0.018883438331507501 -0.16412891779925379 0 -0.035919188202567787 -0.18061062467713529 0 -0.0169969891011028 -0.18749761991282399 0 -0.018883438331507501 -0.16412891779925379 0 -0.018883438331507501 -0.16412891779925379 0 -0.041763618105999038 -0.16267696204014101 0 -0.038720109824819507 -0.1441217821834701 0 -0.018883438331507501 -0.16412891779925379 0 -0.041763618105999038 -0.16267696204014101 0 -0.035919188202567787 -0.18061062467713529 0 -0.041763618105999038 -0.16267696204014101 0 -0.035919188202567787 -0.18061062467713529 0 -0.054868023765514071 -0.1731930196119888 0 -0.035919188202567787 -0.18061062467713529 0 -0.054868023765514071 -0.1731930196119888 0 -0.053193882951911513 -0.19239307061085789 0 -0.054868023765514071 -0.1731930196119888 0 -0.053193882951911513 -0.19239307061085789 0 -0.074796333953027275 -0.18025692804128601 0 -0.054868023765514071 -0.1731930196119888 0 -0.060427330405586309 -0.15133046592885721 0 -0.068947886516987716 -0.1663865630731739 0 -0.041763618105999038 -0.16267696204014101 0 -0.054868023765514071 -0.1731930196119888 0 -0.060427330405586309 -0.15133046592885721 0 -0.060427330405586309 -0.15133046592885721 0 -0.054377176367166838 -0.12820895415170991 0 -0.038720109824819507 -0.1441217821834701 0 -0.041763618105999038 -0.16267696204014101 0 -0.060427330405586309 -0.15133046592885721 0 -0.038720109824819507 -0.1441217821834701 0 -0.054377176367166838 -0.12820895415170991 0 -0.034310598984480897 -0.1304117287602968 0 -0.038720109824819507 -0.1441217821834701 0 -0.020769887561912202 -0.14076021568568359 0 -0.034310598984480897 -0.1304117287602968 0 -0.038720109824819507 -0.1441217821834701 0 -0.040151417384989063 -0.11892647927419039 0 -0.054377176367166838 -0.12820895415170991 0 -0.034310598984480897 -0.1304117287602968 0 -0.054377176367166838 -0.12820895415170991 0 -0.038720109824819507 -0.1441217821834701 0 -0.019053327831755219 -0.25386731011331343 0 -0.029683148243891219 -0.23754437187836799 0 -0.014194758297086191 -0.23423553851110571 0 -0.019053327831755219 -0.25386731011331343 0 -0.0016974911632189271 -0.23635849450019281 0 -0.019053327831755219 -0.25386731011331343 0 -0.0016974911632189271 -0.23635849450019281 0 -0.014194758297086191 -0.23423553851110571 0 -0.019053327831755219 -0.25386731011331343 0 -0.0016974911632189271 -0.23635849450019281 0 0.001421458912285158 -0.25645514839092642 0 -0.0016974911632189271 -0.23635849450019281 0 -0.0061917958297214408 -0.22309545718089291 0 0.0032521757064200118 -0.21884623482471441 0 -0.0016974911632189271 -0.23635849450019281 0 -0.014194758297086191 -0.23423553851110571 0 -0.0061917958297214408 -0.22309545718089291 0 -0.014194758297086191 -0.23423553851110571 0 -0.0061917958297214408 -0.22309545718089291 0 -0.014348028416844129 -0.2203120588827612 0 -0.0061917958297214408 -0.22309545718089291 0 -0.014348028416844129 -0.2203120588827612 0 -0.0096942971931888271 -0.21752578223796959 0 -0.029683148243891219 -0.23754437187836799 0 -0.014348028416844129 -0.2203120588827612 0 -0.01475772570001321 -0.21523686596859851 0 -0.027770407601463969 -0.2255128596775762 0 -0.019332835527846488 -0.21672518421102041 0 -0.01475772570001321 -0.21523686596859851 0 -0.029683148243891219 -0.23754437187836799 0 -0.027770407601463969 -0.2255128596775762 0 -0.01475772570001321 -0.21523686596859851 0 -0.029683148243891219 -0.23754437187836799 0 -0.014194758297086191 -0.23423553851110571 0 -0.014348028416844129 -0.2203120588827612 0 -0.029683148243891219 -0.23754437187836799 0 -0.01475772570001321 -0.21523686596859851 0 -0.027770407601463969 -0.2255128596775762 0 -0.02961553121053179 -0.21449183405752981 0 -0.019332835527846488 -0.21672518421102041 0 -0.02961553121053179 -0.21449183405752981 0 -0.026043767780723311 -0.2074379605574419 0 -0.019332835527846488 -0.21672518421102041 0 -0.02961553121053179 -0.21449183405752981 0 -0.026043767780723311 -0.2074379605574419 0 -0.035339501398255972 -0.20073882095551029 0 -0.019332835527846488 -0.21672518421102041 0 -0.015110539870699271 -0.2108663220263943 0 -0.019332835527846488 -0.21672518421102041 0 -0.01475772570001321 -0.21523686596859851 0 -0.015110539870699271 -0.2108663220263943 0 -0.026043767780723311 -0.2074379605574419 0 -0.019332835527846488 -0.21672518421102041 0 -0.015110539870699271 -0.2108663220263943 0 -0.0089607582147507928 -0.20657273025946751 0 -0.015110539870699271 -0.2108663220263943 0 -0.002042600455204898 -0.19273323465178799 0 -0.01475772570001321 -0.21523686596859851 0 -0.0056027664488914157 -0.21326156707992691 0 -0.0089607582147507928 -0.20657273025946751 0 -0.01475772570001321 -0.21523686596859851 0 -0.0096942971931888271 -0.21752578223796959 0 -0.0056027664488914157 -0.21326156707992691 0 -0.014348028416844129 -0.2203120588827612 0 -0.01475772570001321 -0.21523686596859851 0 -0.014348028416844129 -0.2203120588827612 0 -0.01475772570001321 -0.21523686596859851 0 -0.0096942971931888271 -0.21752578223796959 0 -0.0056027664488914157 -0.21326156707992691 0 -0.0089607582147507928 -0.20657273025946751 0 0.0042959151593344102 -0.1943300646874771 0 -0.0056027664488914157 -0.21326156707992691 0 0.0042959151593344102 -0.1943300646874771 0 -0.01475772570001321 -0.21523686596859851 0 -0.015110539870699271 -0.2108663220263943 0 -0.0061917958297214408 -0.22309545718089291 0 -0.0056027664488914157 -0.21326156707992691 0 0.0032521757064200118 -0.21884623482471441 0 -0.0061917958297214408 -0.22309545718089291 0 -0.0096942971931888271 -0.21752578223796959 0 -0.0056027664488914157 -0.21326156707992691 0 -0.01475772570001321 -0.21523686596859851 0 -0.0089607582147507928 -0.20657273025946751 0 -0.015110539870699271 -0.2108663220263943 0 -0.01475772570001321 -0.21523686596859851 0 -0.0089607582147507928 -0.20657273025946751 0 -0.0169969891011028 -0.18749761991282399 0 -0.015110539870699271 -0.2108663220263943 0 -0.002042600455204898 -0.19273323465178799 0 -0.015110539870699271 -0.2108663220263943 0 -0.002042600455204898 -0.19273323465178799 0 -0.0089607582147507928 -0.20657273025946751 0 -0.002042600455204898 -0.19273323465178799 0 0.0042959151593344102 -0.1943300646874771 0 -0.0169969891011028 -0.18749761991282399 0 -0.015110539870699271 -0.2108663220263943 0 -0.0169969891011028 -0.18749761991282399 0 -0.026043767780723311 -0.2074379605574419 0 -0.035339501398255972 -0.20073882095551029 0 -0.0169969891011028 -0.18749761991282399 0 -0.035919188202567787 -0.18061062467713529 0 -0.035339501398255972 -0.20073882095551029 0 -0.0169969891011028 -0.18749761991282399 0 -0.026043767780723311 -0.2074379605574419 0 -0.015110539870699271 -0.2108663220263943 0 -0.035339501398255972 -0.20073882095551029 0 -0.053193882951911513 -0.19239307061085789 0 -0.050692985680801057 -0.2089633513659459 0 -0.035919188202567787 -0.18061062467713529 0 -0.035339501398255972 -0.20073882095551029 0 -0.053193882951911513 -0.19239307061085789 0 -0.053193882951911513 -0.19239307061085789 0 -0.050692985680801057 -0.2089633513659459 0 -0.071181834137833799 -0.2061151960631849 0 -0.050692985680801057 -0.2089633513659459 0 -0.056805266583651662 -0.22410955349669809 0 -0.071181834137833799 -0.2061151960631849 0 -0.050692985680801057 -0.2089633513659459 0 -0.0395911437443692 -0.22204434488609981 0 -0.056805266583651662 -0.22410955349669809 0 -0.02961553121053179 -0.21449183405752981 0 -0.035339501398255972 -0.20073882095551029 0 -0.0395911437443692 -0.22204434488609981 0 -0.035339501398255972 -0.20073882095551029 0 -0.050692985680801057 -0.2089633513659459 0 -0.0395911437443692 -0.22204434488609981 0 -0.029683148243891219 -0.23754437187836799 0 -0.0395911437443692 -0.22204434488609981 0 -0.048850891934537288 -0.24086656556142649 0 -0.027770407601463969 -0.2255128596775762 0 -0.02961553121053179 -0.21449183405752981 0 -0.0395911437443692 -0.22204434488609981 0 -0.029683148243891219 -0.23754437187836799 0 -0.027770407601463969 -0.2255128596775762 0 -0.0395911437443692 -0.22204434488609981 0 -0.0395911437443692 -0.22204434488609981 0 -0.056805266583651662 -0.22410955349669809 0 -0.048850891934537288 -0.24086656556142649 0 -0.057335586015369713 -0.25229427039049701 0 -0.048850891934537288 -0.24086656556142649 0 -0.067471280582144175 -0.24006659242182651 0 -0.056805266583651662 -0.22410955349669809 0 -0.048850891934537288 -0.24086656556142649 0 -0.067471280582144175 -0.24006659242182651 0 -0.044608570787768101 -0.25985187778813812 0 -0.029683148243891219 -0.23754437187836799 0 -0.044608570787768101 -0.25985187778813812 0 -0.029683148243891219 -0.23754437187836799 0 -0.048850891934537288 -0.24086656556142649 0 -0.1003737946551861 -0.2504423464660977 0 -0.082228689083216996 -0.24931553955201399 0 -0.093964628441894904 -0.2363570550357203 0 -0.081081667653126993 -0.23563380451979621 0 -0.082228689083216996 -0.24931553955201399 0 -0.093964628441894904 -0.2363570550357203 0 -0.06909872736724397 -0.25429262262412072 0 -0.082228689083216996 -0.24931553955201399 0 -0.067471280582144175 -0.24006659242182651 0 -0.06909872736724397 -0.25429262262412072 0 -0.057335586015369713 -0.25229427039049701 0 -0.067471280582144175 -0.24006659242182651 0 -0.081081667653126993 -0.23563380451979621 0 -0.082228689083216996 -0.24931553955201399 0 -0.067471280582144175 -0.24006659242182651 0 -0.081081667653126993 -0.23563380451979621 0 -0.067471280582144175 -0.24006659242182651 0 -0.072924032064705518 -0.2246333797661956 0 -0.056805266583651662 -0.22410955349669809 0 -0.067471280582144175 -0.24006659242182651 0 -0.072924032064705518 -0.2246333797661956 0 -0.081081667653126993 -0.23563380451979621 0 -0.072924032064705518 -0.2246333797661956 0 -0.088901218363635903 -0.22131100887959471 0 -0.081081667653126993 -0.23563380451979621 0 -0.088901218363635903 -0.22131100887959471 0 -0.093964628441894904 -0.2363570550357203 0 -0.088901218363635903 -0.22131100887959471 0 -0.071181834137833799 -0.2061151960631849 0 -0.099912930800694244 -0.20687174442950809 0 -0.056805266583651662 -0.22410955349669809 0 -0.072924032064705518 -0.2246333797661956 0 -0.071181834137833799 -0.2061151960631849 0 -0.072924032064705518 -0.2246333797661956 0 -0.088901218363635903 -0.22131100887959471 0 -0.071181834137833799 -0.2061151960631849 0 -0.053193882951911513 -0.19239307061085789 0 -0.071181834137833799 -0.2061151960631849 0 -0.074796333953027275 -0.18025692804128601 0 -0.071181834137833799 -0.2061151960631849 0 -0.090999498905477733 -0.1905653603133742 0 -0.099912930800694244 -0.20687174442950809 0 -0.071181834137833799 -0.2061151960631849 0 -0.090999498905477733 -0.1905653603133742 0 -0.074796333953027275 -0.18025692804128601 0 -0.090999498905477733 -0.1905653603133742 0 -0.11888882816169349 -0.19465465348026509 0 -0.099912930800694244 -0.20687174442950809 0 -0.1176097175655202 -0.21165139951838399 0 -0.099912930800694244 -0.20687174442950809 0 -0.11462289174060721 -0.2284324713343672 0 -0.11888882816169349 -0.19465465348026509 0 -0.1176097175655202 -0.21165139951838399 0 -0.099912930800694244 -0.20687174442950809 0 -0.11888882816169349 -0.19465465348026509 0 -0.1176097175655202 -0.21165139951838399 0 -0.13460620058643871 -0.2129340002829182 0 -0.088901218363635903 -0.22131100887959471 0 -0.099912930800694244 -0.20687174442950809 0 -0.11462289174060721 -0.2284324713343672 0 -0.088901218363635903 -0.22131100887959471 0 -0.11462289174060721 -0.2284324713343672 0 -0.093964628441894904 -0.2363570550357203 0 -0.1176097175655202 -0.21165139951838399 0 -0.11462289174060721 -0.2284324713343672 0 -0.13288486704295729 -0.22746085238661501 0 -0.1256358615914096 -0.25313023496321863 0 -0.11462289174060721 -0.2284324713343672 0 -0.13288486704295729 -0.22746085238661501 0 -0.1256358615914096 -0.25313023496321863 0 -0.1003737946551861 -0.2504423464660977 0 -0.11462289174060721 -0.2284324713343672 0 -0.1003737946551861 -0.2504423464660977 0 -0.11462289174060721 -0.2284324713343672 0 -0.1003737946551861 -0.2504423464660977 0 -0.11462289174060721 -0.2284324713343672 0 -0.093964628441894904 -0.2363570550357203 0 -0.077867050426668472 -0.13653098241525649 0 -0.085699857943823218 -0.1607658387105636 0 -0.099021650471076569 -0.13554840985953609 0 -0.077867050426668472 -0.13653098241525649 0 -0.085699857943823218 -0.1607658387105636 0 -0.090354314601913011 -0.1165622464668904 0 -0.077867050426668472 -0.13653098241525649 0 -0.099021650471076569 -0.13554840985953609 0 -0.070034242909513905 -0.11229612611994939 0 -0.054377176367166838 -0.12820895415170991 0 -0.077867050426668472 -0.13653098241525649 0 -0.060427330405586309 -0.15133046592885721 0 -0.054377176367166838 -0.12820895415170991 0 -0.077867050426668472 -0.13653098241525649 0 -0.060427330405586309 -0.15133046592885721 0 -0.077867050426668472 -0.13653098241525649 0 -0.085699857943823218 -0.1607658387105636 0 -0.060427330405586309 -0.15133046592885721 0 -0.068947886516987716 -0.1663865630731739 0 -0.085699857943823218 -0.1607658387105636 0 -0.068947886516987716 -0.1663865630731739 0 -0.074796333953027275 -0.18025692804128601 0 -0.085699857943823218 -0.1607658387105636 0 -0.054868023765514071 -0.1731930196119888 0 -0.068947886516987716 -0.1663865630731739 0 -0.074796333953027275 -0.18025692804128601 0 -0.074796333953027275 -0.18025692804128601 0 -0.085699857943823218 -0.1607658387105636 0 -0.09918894847452614 -0.17484606815023571 0 -0.090999498905477733 -0.1905653603133742 0 -0.074796333953027275 -0.18025692804128601 0 -0.09918894847452614 -0.17484606815023571 0 -0.09918894847452614 -0.17484606815023571 0 -0.1152050701183794 -0.16913466880272729 0 -0.10954410176475569 -0.15369895955319809 0 -0.085699857943823218 -0.1607658387105636 0 -0.09918894847452614 -0.17484606815023571 0 -0.10954410176475569 -0.15369895955319809 0 -0.090999498905477733 -0.1905653603133742 0 -0.11888882816169349 -0.19465465348026509 0 -0.09918894847452614 -0.17484606815023571 0 -0.11888882816169349 -0.19465465348026509 0 -0.1152050701183794 -0.16913466880272729 0 -0.12852278866160341 -0.17730181390083019 0 -0.11888882816169349 -0.19465465348026509 0 -0.09918894847452614 -0.17484606815023571 0 -0.1152050701183794 -0.16913466880272729 0 -0.1152050701183794 -0.16913466880272729 0 -0.10954410176475569 -0.15369895955319809 0 -0.1292302076888123 -0.16043458726822801 0 -0.1152050701183794 -0.16913466880272729 0 -0.1292302076888123 -0.16043458726822801 0 -0.12852278866160341 -0.17730181390083019 0 -0.10954410176475569 -0.15369895955319809 0 -0.1237619490498825 -0.1448231343144005 0 -0.1158045831533048 -0.13189046347610639 0 -0.10954410176475569 -0.15369895955319809 0 -0.1237619490498825 -0.1448231343144005 0 -0.1292302076888123 -0.16043458726822801 0 -0.085699857943823218 -0.1607658387105636 0 -0.10954410176475569 -0.15369895955319809 0 -0.099021650471076569 -0.13554840985953609 0 -0.1131934835960233 -0.1155006163360337 0 -0.099021650471076569 -0.13554840985953609 0 -0.1158045831533048 -0.13189046347610639 0 -0.10954410176475569 -0.15369895955319809 0 -0.099021650471076569 -0.13554840985953609 0 -0.1158045831533048 -0.13189046347610639 0 -0.1237619490498825 -0.1448231343144005 0 -0.1158045831533048 -0.13189046347610639 0 -0.13383813405434219 -0.13420698911946291 0 -0.1158045831533048 -0.13189046347610639 0 -0.13383813405434219 -0.13420698911946291 0 -0.1274261146807629 -0.124200943596945 0 -0.13383813405434219 -0.13420698911946291 0 -0.1274261146807629 -0.124200943596945 0 -0.13786167432960481 -0.1222024776637782 0 -0.13383813405434219 -0.13420698911946291 0 -0.15291997320823941 -0.12893752875221071 0 -0.14113864150603109 -0.14671441845230121 0 -0.13383813405434219 -0.13420698911946291 0 -0.15291997320823941 -0.12893752875221071 0 -0.13786167432960481 -0.1222024776637782 0 -0.15291997320823941 -0.12893752875221071 0 -0.1531780479669316 -0.14961596358233659 0 -0.14113864150603109 -0.14671441845230121 0 -0.1531780479669316 -0.14961596358233659 0 -0.14737364435847741 -0.1590171289679321 0 -0.1609992581588055 -0.1562271000794557 0 -0.1531780479669316 -0.14961596358233659 0 -0.14113864150603109 -0.14671441845230121 0 -0.14737364435847741 -0.1590171289679321 0 -0.1237619490498825 -0.1448231343144005 0 -0.14113864150603109 -0.14671441845230121 0 -0.1292302076888123 -0.16043458726822801 0 -0.1237619490498825 -0.1448231343144005 0 -0.13383813405434219 -0.13420698911946291 0 -0.14113864150603109 -0.14671441845230121 0 -0.14113864150603109 -0.14671441845230121 0 -0.1292302076888123 -0.16043458726822801 0 -0.14737364435847741 -0.1590171289679321 0 -0.1292302076888123 -0.16043458726822801 0 -0.12852278866160341 -0.17730181390083019 0 -0.1414341916333382 -0.17323915170212459 0 -0.1292302076888123 -0.16043458726822801 0 -0.1414341916333382 -0.17323915170212459 0 -0.14737364435847741 -0.1590171289679321 0 -0.11888882816169349 -0.19465465348026509 0 -0.12852278866160341 -0.17730181390083019 0 -0.13785564570579351 -0.18904600825080611 0 -0.12852278866160341 -0.17730181390083019 0 -0.1414341916333382 -0.17323915170212459 0 -0.13785564570579351 -0.18904600825080611 0 -0.1504086483096565 -0.18095074152982829 0 -0.16703185366514911 -0.17656276083510231 0 -0.14734934094399729 -0.19905154759043481 0 -0.1414341916333382 -0.17323915170212459 0 -0.1504086483096565 -0.18095074152982829 0 -0.13785564570579351 -0.18904600825080611 0 -0.1414341916333382 -0.17323915170212459 0 -0.1504086483096565 -0.18095074152982829 0 -0.15722902750159259 -0.16840816136647349 0 -0.1414341916333382 -0.17323915170212459 0 -0.14737364435847741 -0.1590171289679321 0 -0.15722902750159259 -0.16840816136647349 0 -0.14737364435847741 -0.1590171289679321 0 -0.15722902750159259 -0.16840816136647349 0 -0.1609992581588055 -0.1562271000794557 0 -0.15722902750159259 -0.16840816136647349 0 -0.17019974030923349 -0.16139559401401959 0 -0.1609992581588055 -0.1562271000794557 0 -0.15722902750159259 -0.16840816136647349 0 -0.17019974030923349 -0.16139559401401959 0 -0.16703185366514911 -0.17656276083510231 0 -0.1504086483096565 -0.18095074152982829 0 -0.15722902750159259 -0.16840816136647349 0 -0.16703185366514911 -0.17656276083510231 0 -0.16703185366514911 -0.17656276083510231 0 -0.18389880463273101 -0.1785150887366426 0 -0.16314319583191689 -0.1930078402807367 0 -0.18389880463273101 -0.1785150887366426 0 -0.16314319583191689 -0.1930078402807367 0 -0.17019974030923349 -0.16139559401401959 0 -0.16703185366514911 -0.17656276083510231 0 -0.18671436638630079 -0.1540739740797698 0 -0.16703185366514911 -0.17656276083510231 0 -0.18671436638630079 -0.1540739740797698 0 -0.16703185366514911 -0.17656276083510231 0 -0.18389880463273101 -0.1785150887366426 0 -0.18671436638630079 -0.1540739740797698 0 -0.18671436638630079 -0.1540739740797698 0 -0.18040965264673839 -0.14015747128725159 0 -0.1880575481874609 -0.13539194244972691 0 -0.17019974030923349 -0.16139559401401959 0 -0.18671436638630079 -0.1540739740797698 0 -0.17521679683878741 -0.14814353411354411 0 -0.17521679683878741 -0.14814353411354411 0 -0.18040965264673839 -0.14015747128725159 0 -0.17414887156267439 -0.13697371044223641 0 -0.18671436638630079 -0.1540739740797698 0 -0.17521679683878741 -0.14814353411354411 0 -0.18040965264673839 -0.14015747128725159 0 -0.17911962588387309 -0.1287328443394494 0 -0.17414887156267439 -0.13697371044223641 0 -0.1720721323295932 -0.1203048158446809 0 -0.17911962588387309 -0.1287328443394494 0 -0.1880575481874609 -0.13539194244972691 0 -0.18144646832526609 -0.1178672151698925 0 -0.18040965264673839 -0.14015747128725159 0 -0.17911962588387309 -0.1287328443394494 0 -0.1880575481874609 -0.13539194244972691 0 -0.18040965264673839 -0.14015747128725159 0 -0.17911962588387309 -0.1287328443394494 0 -0.17414887156267439 -0.13697371044223641 0 -0.15291997320823941 -0.12893752875221071 0 -0.16336400740590959 -0.14855545193388109 0 -0.17414887156267439 -0.13697371044223641 0 -0.16336400740590959 -0.14855545193388109 0 -0.1720721323295932 -0.1203048158446809 0 -0.16336400740590959 -0.14855545193388109 0 -0.1720721323295932 -0.1203048158446809 0 -0.15291997320823941 -0.12893752875221071 0 -0.16253505623312769 -0.1306275206589313 0 -0.16336400740590959 -0.14855545193388109 0 -0.16253505623312769 -0.1306275206589313 0 -0.16336400740590959 -0.14855545193388109 0 -0.1720721323295932 -0.1203048158446809 0 -0.16253505623312769 -0.1306275206589313 0 -0.1720721323295932 -0.1203048158446809 0 -0.16178411198876849 -0.12471228610495259 0 -0.15291997320823941 -0.12893752875221071 0 -0.16253505623312769 -0.1306275206589313 0 -0.16178411198876849 -0.12471228610495259 0 -0.15291997320823941 -0.12893752875221071 0 -0.1531780479669316 -0.14961596358233659 0 -0.16336400740590959 -0.14855545193388109 0 -0.1531780479669316 -0.14961596358233659 0 -0.1609992581588055 -0.1562271000794557 0 -0.16336400740590959 -0.14855545193388109 0 -0.1609992581588055 -0.1562271000794557 0 -0.16336400740590959 -0.14855545193388109 0 -0.17019974030923349 -0.16139559401401959 0 -0.16336400740590959 -0.14855545193388109 0 -0.17019974030923349 -0.16139559401401959 0 -0.1609992581588055 -0.1562271000794557 0 -0.16336400740590959 -0.14855545193388109 0 -0.17019974030923349 -0.16139559401401959 0 -0.17521679683878741 -0.14814353411354411 0 -0.16336400740590959 -0.14855545193388109 0 -0.17521679683878741 -0.14814353411354411 0 -0.17414887156267439 -0.13697371044223641 0 -0.16336400740590959 -0.14855545193388109 0 -0.14567130693763439 -0.2584212471758579 0 -0.14595168492785671 -0.2405249663332811 0 -0.16676059682331729 -0.24951829579525139 0 -0.1256358615914096 -0.25313023496321863 0 -0.14595168492785671 -0.2405249663332811 0 -0.13288486704295729 -0.22746085238661501 0 -0.13288486704295729 -0.22746085238661501 0 -0.14596817952090749 -0.2209172023489902 0 -0.13460620058643871 -0.2129340002829182 0 -0.14595168492785671 -0.2405249663332811 0 -0.14596817952090749 -0.2209172023489902 0 -0.15937418303459219 -0.23152903626404681 0 -0.14595168492785671 -0.2405249663332811 0 -0.13288486704295729 -0.22746085238661501 0 -0.14596817952090749 -0.2209172023489902 0 -0.14596817952090749 -0.2209172023489902 0 -0.15919483030233519 -0.21668851583410101 0 -0.15937418303459219 -0.23152903626404681 0 -0.14238758703110249 -0.2075005918248303 0 -0.15919483030233519 -0.21668851583410101 0 -0.14238758703110249 -0.2075005918248303 0 -0.16314319583191689 -0.1930078402807367 0 -0.15919483030233519 -0.21668851583410101 0 -0.14596817952090749 -0.2209172023489902 0 -0.14238758703110249 -0.2075005918248303 0 -0.15919483030233519 -0.21668851583410101 0 -0.14596817952090749 -0.2209172023489902 0 -0.14238758703110249 -0.2075005918248303 0 -0.13460620058643871 -0.2129340002829182 0 -0.11888882816169349 -0.19465465348026509 0 -0.14238758703110249 -0.2075005918248303 0 -0.13460620058643871 -0.2129340002829182 0 -0.1176097175655202 -0.21165139951838399 0 -0.13288486704295729 -0.22746085238661501 0 -0.13460620058643871 -0.2129340002829182 0 -0.14238758703110249 -0.2075005918248303 0 -0.13460620058643871 -0.2129340002829182 0 -0.11888882816169349 -0.19465465348026509 0 -0.14238758703110249 -0.2075005918248303 0 -0.11888882816169349 -0.19465465348026509 0 -0.14238758703110249 -0.2075005918248303 0 -0.13785564570579351 -0.18904600825080611 0 -0.1504086483096565 -0.18095074152982829 0 -0.13785564570579351 -0.18904600825080611 0 -0.14734934094399729 -0.19905154759043481 0 -0.14238758703110249 -0.2075005918248303 0 -0.16314319583191689 -0.1930078402807367 0 -0.14238758703110249 -0.2075005918248303 0 -0.13785564570579351 -0.18904600825080611 0 -0.14734934094399729 -0.19905154759043481 0 -0.14238758703110249 -0.2075005918248303 0 -0.14734934094399729 -0.19905154759043481 0 -0.16314319583191689 -0.1930078402807367 0 -0.16703185366514911 -0.17656276083510231 0 -0.14734934094399729 -0.19905154759043481 0 -0.16703185366514911 -0.17656276083510231 0 -0.14734934094399729 -0.19905154759043481 0 -0.16314319583191689 -0.1930078402807367 0 -0.16314319583191689 -0.1930078402807367 0 -0.1852497500616056 -0.20221872351423081 0 -0.17062681205795391 -0.2072002160493373 0 -0.18389880463273101 -0.1785150887366426 0 -0.16314319583191689 -0.1930078402807367 0 -0.1852497500616056 -0.20221872351423081 0 -0.1852497500616056 -0.20221872351423081 0 -0.17600207357356731 -0.2258764398433728 0 -0.1852497500616056 -0.20221872351423081 0 -0.17600207357356731 -0.2258764398433728 0 -0.19302166193399031 -0.2177022050439881 0 -0.1852497500616056 -0.20221872351423081 0 -0.17062681205795391 -0.2072002160493373 0 -0.17600207357356731 -0.2258764398433728 0 -0.16314319583191689 -0.1930078402807367 0 -0.17062681205795391 -0.2072002160493373 0 -0.15919483030233519 -0.21668851583410101 0 -0.17062681205795391 -0.2072002160493373 0 -0.15919483030233519 -0.21668851583410101 0 -0.17600207357356731 -0.2258764398433728 0 -0.15919483030233519 -0.21668851583410101 0 -0.17600207357356731 -0.2258764398433728 0 -0.15919483030233519 -0.21668851583410101 0 -0.15937418303459219 -0.23152903626404681 0 -0.17600207357356731 -0.2258764398433728 0 -0.17600207357356731 -0.2258764398433728 0 -0.19211084594591049 -0.23468253457593849 0 -0.17600207357356731 -0.2258764398433728 0 -0.19211084594591049 -0.23468253457593849 0 -0.19302166193399031 -0.2177022050439881 0 -0.17600207357356731 -0.2258764398433728 0 -0.18369286884473701 -0.2469666327907081 0 -0.19211084594591049 -0.23468253457593849 0 -0.17600207357356731 -0.2258764398433728 0 -0.18369286884473701 -0.2469666327907081 0 -0.16676059682331729 -0.24951829579525139 0 -0.17600207357356731 -0.2258764398433728 0 -0.16676059682331729 -0.24951829579525139 0 -0.15937418303459219 -0.23152903626404681 0 -0.17600207357356731 -0.2258764398433728 0 -0.16676059682331729 -0.24951829579525139 0 -0.14595168492785671 -0.2405249663332811 0 -0.15937418303459219 -0.23152903626404681 0 -0.16676059682331729 -0.24951829579525139 0 -0.2166332192151364 -0.25846258581905962 0 -0.2036326699395852 -0.24618504672217681 0 -0.23035747818468769 -0.23293112087494899 0 -0.2036326699395852 -0.24618504672217681 0 -0.2086054051235551 -0.22453126648673119 0 -0.23035747818468769 -0.23293112087494899 0 -0.2036326699395852 -0.24618504672217681 0 -0.19211084594591049 -0.23468253457593849 0 -0.2086054051235551 -0.22453126648673119 0 -0.18369286884473701 -0.2469666327907081 0 -0.2036326699395852 -0.24618504672217681 0 -0.19211084594591049 -0.23468253457593849 0 -0.19211084594591049 -0.23468253457593849 0 -0.2086054051235551 -0.22453126648673119 0 -0.19302166193399031 -0.2177022050439881 0 -0.2086054051235551 -0.22453126648673119 0 -0.2076564217708389 -0.200585794489793 0 -0.2250932403832531 -0.2123195090575738 0 -0.2086054051235551 -0.22453126648673119 0 -0.19302166193399031 -0.2177022050439881 0 -0.2076564217708389 -0.200585794489793 0 -0.1852497500616056 -0.20221872351423081 0 -0.19302166193399031 -0.2177022050439881 0 -0.2076564217708389 -0.200585794489793 0 -0.1852497500616056 -0.20221872351423081 0 -0.19449742654964389 -0.17856100718508891 0 -0.1852497500616056 -0.20221872351423081 0 -0.2076564217708389 -0.200585794489793 0 -0.19449742654964389 -0.17856100718508891 0 -0.2076564217708389 -0.200585794489793 0 -0.2319653174987148 -0.19198389444005209 0 -0.21327174726032699 -0.1803120763366193 0 -0.2076564217708389 -0.200585794489793 0 -0.2319653174987148 -0.19198389444005209 0 -0.2250932403832531 -0.2123195090575738 0 -0.2319653174987148 -0.19198389444005209 0 -0.24688157933846899 -0.21156546899634349 0 -0.25840804183948862 -0.1916404977831534 0 -0.2319653174987148 -0.19198389444005209 0 -0.24688157933846899 -0.21156546899634349 0 -0.2250932403832531 -0.2123195090575738 0 -0.24688157933846899 -0.21156546899634349 0 -0.2250932403832531 -0.2123195090575738 0 -0.23035747818468769 -0.23293112087494899 0 -0.2086054051235551 -0.22453126648673119 0 -0.2250932403832531 -0.2123195090575738 0 -0.23035747818468769 -0.23293112087494899 0 -0.24688157933846899 -0.21156546899634349 0 -0.23035747818468769 -0.23293112087494899 0 -0.25851301087809769 -0.22866648355981281 0 -0.2454770400230725 -0.25067841925105527 0 -0.23035747818468769 -0.23293112087494899 0 -0.25851301087809769 -0.22866648355981281 0 -0.2454770400230725 -0.25067841925105527 0 -0.2166332192151364 -0.25846258581905962 0 -0.23035747818468769 -0.23293112087494899 0 -0.2166332192151364 -0.25846258581905962 0 -0.23035747818468769 -0.23293112087494899 0 -0.2166058658354536 -0.15369209535443229 0 -0.20639687910745291 -0.13158518732443761 0 -0.22915638691297821 -0.1440985802722706 0 -0.20359288119068811 -0.1508433984877971 0 -0.2166058658354536 -0.15369209535443229 0 -0.20639687910745291 -0.13158518732443761 0 -0.20359288119068811 -0.1508433984877971 0 -0.2166058658354536 -0.15369209535443229 0 -0.2046544134335451 -0.16402233719254861 0 -0.20639687910745291 -0.13158518732443761 0 -0.22384811745454941 -0.12652241071825951 0 -0.21281228664355281 -0.1242550900918383 0 -0.20639687910745291 -0.13158518732443761 0 -0.22915638691297821 -0.1440985802722706 0 -0.20639687910745291 -0.13158518732443761 0 -0.20591055202408151 -0.12250143764167019 0 -0.21281228664355281 -0.1242550900918383 0 -0.20639687910745291 -0.13158518732443761 0 -0.21281228664355281 -0.1242550900918383 0 -0.18671436638630079 -0.1540739740797698 0 -0.20639687910745291 -0.13158518732443761 0 -0.1880575481874609 -0.13539194244972691 0 -0.20639687910745291 -0.13158518732443761 0 -0.1880575481874609 -0.13539194244972691 0 -0.18144646832526609 -0.1178672151698925 0 -0.18671436638630079 -0.1540739740797698 0 -0.20359288119068811 -0.1508433984877971 0 -0.20639687910745291 -0.13158518732443761 0 -0.18671436638630079 -0.1540739740797698 0 -0.20639687910745291 -0.13158518732443761 0 -0.18389880463273101 -0.1785150887366426 0 -0.2046544134335451 -0.16402233719254861 0 -0.18671436638630079 -0.1540739740797698 0 -0.20359288119068811 -0.1508433984877971 0 -0.2046544134335451 -0.16402233719254861 0 -0.18389880463273101 -0.1785150887366426 0 -0.18671436638630079 -0.1540739740797698 0 -0.2046544134335451 -0.16402233719254861 0 -0.18389880463273101 -0.1785150887366426 0 -0.19449742654964389 -0.17856100718508891 0 -0.2046544134335451 -0.16402233719254861 0 -0.18389880463273101 -0.1785150887366426 0 -0.1852497500616056 -0.20221872351423081 0 -0.19449742654964389 -0.17856100718508891 0 -0.19449742654964389 -0.17856100718508891 0 -0.21327174726032699 -0.1803120763366193 0 -0.2046544134335451 -0.16402233719254861 0 -0.2076564217708389 -0.200585794489793 0 -0.19449742654964389 -0.17856100718508891 0 -0.21327174726032699 -0.1803120763366193 0 -0.21327174726032699 -0.1803120763366193 0 -0.2046544134335451 -0.16402233719254861 0 -0.22758515704889229 -0.16640734837561411 0 -0.2166058658354536 -0.15369209535443229 0 -0.2046544134335451 -0.16402233719254861 0 -0.22758515704889229 -0.16640734837561411 0 -0.2319653174987148 -0.19198389444005209 0 -0.21327174726032699 -0.1803120763366193 0 -0.22758515704889229 -0.16640734837561411 0 -0.2319653174987148 -0.19198389444005209 0 -0.22758515704889229 -0.16640734837561411 0 -0.24822677170951979 -0.1749030052645168 0 -0.2319653174987148 -0.19198389444005209 0 -0.24822677170951979 -0.1749030052645168 0 -0.25840804183948862 -0.1916404977831534 0 -0.22758515704889229 -0.16640734837561411 0 -0.24822677170951979 -0.1749030052645168 0 -0.25191589471850329 -0.15661197322010331 0 -0.22915638691297821 -0.1440985802722706 0 -0.24723738274645199 -0.13289646357618701 0 -0.25191589471850329 -0.15661197322010331 0 -0.22915638691297821 -0.1440985802722706 0 -0.25191589471850329 -0.15661197322010331 0 -0.22758515704889229 -0.16640734837561411 0 -0.22915638691297821 -0.1440985802722706 0 -0.25191589471850329 -0.15661197322010331 0 -0.2166058658354536 -0.15369209535443229 0 -0.22758515704889229 -0.16640734837561411 0 -0.22915638691297821 -0.1440985802722706 0 -0.20639687910745291 -0.13158518732443761 0 -0.22915638691297821 -0.1440985802722706 0 -0.22384811745454941 -0.12652241071825951 0 -0.22915638691297821 -0.1440985802722706 0 -0.22384811745454941 -0.12652241071825951 0 -0.24723738274645199 -0.13289646357618701 0 -0.24723738274645199 -0.13289646357618701 0 -0.23674142497091019 -0.1139208902099673 0 -0.2627385055958702 -0.1154635275850782 0 -0.23674142497091019 -0.1139208902099673 0 -0.2627385055958702 -0.1154635275850782 0 -0.22384811745454941 -0.12652241071825951 0 -0.24723738274645199 -0.13289646357618701 0 -0.23674142497091019 -0.1139208902099673 0 -0.23674142497091019 -0.1139208902099673 0 -0.2410828542573655 -0.08659116668940342 0 -0.26079575203578942 -0.094467501842856516 0 -0.23674142497091019 -0.1139208902099673 0 -0.2410828542573655 -0.08659116668940342 0 -0.21741714873808329 -0.094325484624806055 0 -0.23674142497091019 -0.1139208902099673 0 -0.2107443443459501 -0.1123782528348564 0 -0.21741714873808329 -0.094325484624806055 0 -0.23674142497091019 -0.1139208902099673 0 -0.2107443443459501 -0.1123782528348564 0 -0.22384811745454941 -0.12652241071825951 0 -0.23674142497091019 -0.1139208902099673 0 -0.2107443443459501 -0.1123782528348564 0 -0.2410828542573655 -0.08659116668940342 0 -0.22751832345363879 -0.058860194887652331 0 -0.24729250746293249 -0.055481828750362977 0 -0.2410828542573655 -0.08659116668940342 0 -0.24729250746293249 -0.055481828750362977 0 -0.26120652312141218 -0.071796200602566307 0 -0.2410828542573655 -0.08659116668940342 0 -0.21528561821716169 -0.075197355177840777 0 -0.2410828542573655 -0.08659116668940342 0 -0.21528561821716169 -0.075197355177840777 0 -0.21741714873808329 -0.094325484624806055 0 -0.2410828542573655 -0.08659116668940342 0 -0.21528561821716169 -0.075197355177840777 0 -0.22751832345363879 -0.058860194887652331 0 -0.21528561821716169 -0.075197355177840777 0 -0.20852536413041989 -0.057800382538588692 0 -0.22751832345363879 -0.058860194887652331 0 -0.21528561821716169 -0.075197355177840777 0 -0.18948838217695729 -0.063803543666279688 0 -0.20852536413041989 -0.057800382538588692 0 -0.21528561821716169 -0.075197355177840777 0 -0.2066733337090195 -0.087274126724927251 0 -0.19544394511652249 -0.081462418616091894 0 -0.2066733337090195 -0.087274126724927251 0 -0.21741714873808329 -0.094325484624806055 0 -0.1985466227643104 -0.098111248480970262 0 -0.21528561821716169 -0.075197355177840777 0 -0.2066733337090195 -0.087274126724927251 0 -0.21741714873808329 -0.094325484624806055 0 -0.2066733337090195 -0.087274126724927251 0 -0.19544394511652249 -0.081462418616091894 0 -0.1985466227643104 -0.098111248480970262 0 -0.19544394511652249 -0.081462418616091894 0 -0.18948838217695729 -0.063803543666279688 0 -0.18078025725327521 -0.092054179755480248 0 -0.19544394511652249 -0.081462418616091894 0 -0.1985466227643104 -0.098111248480970262 0 -0.18078025725327521 -0.092054179755480248 0 -0.21528561821716169 -0.075197355177840777 0 -0.18948838217695729 -0.063803543666279688 0 -0.21528561821716169 -0.075197355177840777 0 -0.19544394511652249 -0.081462418616091894 0 -0.18948838217695729 -0.063803543666279688 0 -0.2107443443459501 -0.1123782528348564 0 -0.20591055202408151 -0.12250143764167019 0 -0.21281228664355281 -0.1242550900918383 0 -0.2107443443459501 -0.1123782528348564 0 -0.20591055202408151 -0.12250143764167019 0 -0.19623497242433791 -0.1205187460653262 0 -0.22384811745454941 -0.12652241071825951 0 -0.2107443443459501 -0.1123782528348564 0 -0.21281228664355281 -0.1242550900918383 0 -0.2107443443459501 -0.1123782528348564 0 -0.21741714873808329 -0.094325484624806055 0 -0.1985466227643104 -0.098111248480970262 0 -0.2107443443459501 -0.1123782528348564 0 -0.1985466227643104 -0.098111248480970262 0 -0.18474726372099021 -0.1108356154597456 0 -0.1985466227643104 -0.098111248480970262 0 -0.18474726372099021 -0.1108356154597456 0 -0.18078025725327521 -0.092054179755480248 0 -0.2107443443459501 -0.1123782528348564 0 -0.19026218075779891 -0.11674197829867219 0 -0.19623497242433791 -0.1205187460653262 0 -0.2107443443459501 -0.1123782528348564 0 -0.18474726372099021 -0.1108356154597456 0 -0.2107443443459501 -0.1123782528348564 0 -0.19026218075779891 -0.11674197829867219 0 -0.18474726372099021 -0.1108356154597456 0 -0.20639687910745291 -0.13158518732443761 0 -0.19623497242433791 -0.1205187460653262 0 -0.18144646832526609 -0.1178672151698925 0 -0.20639687910745291 -0.13158518732443761 0 -0.18144646832526609 -0.1178672151698925 0 -0.20639687910745291 -0.13158518732443761 0 -0.20591055202408151 -0.12250143764167019 0 -0.19623497242433791 -0.1205187460653262 0 -0.19026218075779891 -0.11674197829867219 0 -0.19623497242433791 -0.1205187460653262 0 -0.18144646832526609 -0.1178672151698925 0 -0.19026218075779891 -0.11674197829867219 0 -0.18144646832526609 -0.1178672151698925 0 -0.18474726372099021 -0.1108356154597456 0 -0.18144646832526609 -0.1178672151698925 0 -0.18474726372099021 -0.1108356154597456 0 -0.1720721323295932 -0.1203048158446809 0 -0.17911962588387309 -0.1287328443394494 0 -0.18144646832526609 -0.1178672151698925 0 -0.1720721323295932 -0.1203048158446809 0 -0.1720721323295932 -0.1203048158446809 0 -0.15857456641184289 -0.1151034650433332 0 -0.16178411198876849 -0.12471228610495259 0 -0.1720721323295932 -0.1203048158446809 0 -0.15857456641184289 -0.1151034650433332 0 -0.1673050593064975 -0.10409090164535099 0 -0.15291997320823941 -0.12893752875221071 0 -0.15857456641184289 -0.1151034650433332 0 -0.16178411198876849 -0.12471228610495259 0 -0.1673050593064975 -0.10409090164535099 0 -0.16733461510393419 -0.091838248663558414 0 -0.15459042085139579 -0.10426120845197689 0 -0.15857456641184289 -0.1151034650433332 0 -0.1673050593064975 -0.10409090164535099 0 -0.15459042085139579 -0.10426120845197689 0 -0.1673050593064975 -0.10409090164535099 0 -0.18078025725327521 -0.092054179755480248 0 -0.16733461510393419 -0.091838248663558414 0 -0.18474726372099021 -0.1108356154597456 0 -0.1720721323295932 -0.1203048158446809 0 -0.18078025725327521 -0.092054179755480248 0 -0.1720721323295932 -0.1203048158446809 0 -0.18078025725327521 -0.092054179755480248 0 -0.1720721323295932 -0.1203048158446809 0 -0.1673050593064975 -0.10409090164535099 0 -0.18078025725327521 -0.092054179755480248 0 -0.18948838217695729 -0.063803543666279688 0 -0.18078025725327521 -0.092054179755480248 0 -0.17389469703315699 -0.078704759744800346 0 -0.18078025725327521 -0.092054179755480248 0 -0.17389469703315699 -0.078704759744800346 0 -0.16733461510393419 -0.091838248663558414 0 -0.18948838217695729 -0.063803543666279688 0 -0.17389469703315699 -0.078704759744800346 0 -0.1726101848525303 -0.067439682010313085 0 -0.18948838217695729 -0.063803543666279688 0 -0.18078025725327521 -0.092054179755480248 0 -0.15926004577908789 -0.078388144628370293 0 -0.16392967070678049 -0.052515080804763747 0 -0.1726101848525303 -0.067439682010313085 0 -0.15926004577908789 -0.078388144628370293 0 -0.16392967070678049 -0.052515080804763747 0 -0.17389469703315699 -0.078704759744800346 0 -0.1726101848525303 -0.067439682010313085 0 -0.15926004577908789 -0.078388144628370293 0 -0.15926004577908789 -0.078388144628370293 0 -0.15459042085139579 -0.10426120845197689 0 -0.16733461510393419 -0.091838248663558414 0 -0.15926004577908789 -0.078388144628370293 0 -0.15459042085139579 -0.10426120845197689 0 -0.17389469703315699 -0.078704759744800346 0 -0.16733461510393419 -0.091838248663558414 0 -0.15926004577908789 -0.078388144628370293 0 -0.15926004577908789 -0.078388144628370293 0 -0.14708275609335689 -0.090134386636642305 0 -0.15459042085139579 -0.10426120845197689 0 -0.15926004577908789 -0.078388144628370293 0 -0.14708275609335689 -0.090134386636642305 0 -0.14846442707616131 -0.076564462420539339 0 -0.14708275609335689 -0.090134386636642305 0 -0.14846442707616131 -0.076564462420539339 0 -0.13919008275513331 -0.077979095301937529 0 -0.14708275609335689 -0.090134386636642305 0 -0.132031904812903 -0.08970168238886754 0 -0.14404525519205669 -0.098354220762006464 0 -0.15926004577908789 -0.078388144628370293 0 -0.14867333221146981 -0.066409203047359561 0 -0.15747841312525121 -0.054315197212425857 0 -0.15926004577908789 -0.078388144628370293 0 -0.14867333221146981 -0.066409203047359561 0 -0.14846442707616131 -0.076564462420539339 0 -0.14867333221146981 -0.066409203047359561 0 -0.14846442707616131 -0.076564462420539339 0 -0.14251035369534279 -0.071841704104375889 0 -0.14846442707616131 -0.076564462420539339 0 -0.14251035369534279 -0.071841704104375889 0 -0.13919008275513331 -0.077979095301937529 0 -0.14867333221146981 -0.066409203047359561 0 -0.14251035369534279 -0.071841704104375889 0 -0.13371357273860671 -0.06641405564766717 0 -0.1151445216217697 -0.075867698806391257 0 -0.13371357273860671 -0.06641405564766717 0 -0.1281356888908026 -0.079178393911978395 0 -0.14251035369534279 -0.071841704104375889 0 -0.13371357273860671 -0.06641405564766717 0 -0.13919008275513331 -0.077979095301937529 0 -0.13371357273860671 -0.06641405564766717 0 -0.13919008275513331 -0.077979095301937529 0 -0.1281356888908026 -0.079178393911978395 0 -0.13371357273860671 -0.06641405564766717 0 -0.13919008275513331 -0.077979095301937529 0 -0.14708275609335689 -0.090134386636642305 0 -0.13919008275513331 -0.077979095301937529 0 -0.132031904812903 -0.08970168238886754 0 -0.13919008275513331 -0.077979095301937529 0 -0.1281356888908026 -0.079178393911978395 0 -0.132031904812903 -0.08970168238886754 0 -0.1206258420790894 -0.087008987036709839 0 -0.1281356888908026 -0.079178393911978395 0 -0.132031904812903 -0.08970168238886754 0 -0.12317387986982881 -0.094785097849230907 0 -0.1206258420790894 -0.087008987036709839 0 -0.132031904812903 -0.08970168238886754 0 -0.132031904812903 -0.08970168238886754 0 -0.1261571266481088 -0.1054182677452063 0 -0.14247593901057121 -0.1093196055705391 0 -0.132031904812903 -0.08970168238886754 0 -0.14247593901057121 -0.1093196055705391 0 -0.12317387986982881 -0.094785097849230907 0 -0.132031904812903 -0.08970168238886754 0 -0.1261571266481088 -0.1054182677452063 0 -0.132031904812903 -0.08970168238886754 0 -0.14404525519205669 -0.098354220762006464 0 -0.14247593901057121 -0.1093196055705391 0 -0.1261571266481088 -0.1054182677452063 0 -0.13264821069410851 -0.1143473212797332 0 -0.14247593901057121 -0.1093196055705391 0 -0.13264821069410851 -0.1143473212797332 0 -0.1274261146807629 -0.124200943596945 0 -0.13786167432960481 -0.1222024776637782 0 -0.13264821069410851 -0.1143473212797332 0 -0.13786167432960481 -0.1222024776637782 0 -0.14247593901057121 -0.1093196055705391 0 -0.15291997320823941 -0.12893752875221071 0 -0.15857456641184289 -0.1151034650433332 0 -0.14247593901057121 -0.1093196055705391 0 -0.15857456641184289 -0.1151034650433332 0 -0.15459042085139579 -0.10426120845197689 0 -0.14247593901057121 -0.1093196055705391 0 -0.15291997320823941 -0.12893752875221071 0 -0.14247593901057121 -0.1093196055705391 0 -0.15291997320823941 -0.12893752875221071 0 -0.13786167432960481 -0.1222024776637782 0 -0.14247593901057121 -0.1093196055705391 0 -0.14708275609335689 -0.090134386636642305 0 -0.15459042085139579 -0.10426120845197689 0 -0.14404525519205669 -0.098354220762006464 0 -0.15459042085139579 -0.10426120845197689 0 -0.14404525519205669 -0.098354220762006464 0 -0.14247593901057121 -0.1093196055705391 0 -0.15110124433383421 -0.024546556681389969 0 -0.14213521096484391 -0.0086296124228413887 0 -0.13265211904447149 -0.024070734940253549 0 -0.15110124433383421 -0.024546556681389969 0 -0.13265211904447149 -0.024070734940253549 0 -0.1421527870315272 -0.037650678253338191 0 -0.15110124433383421 -0.024546556681389969 0 -0.14213521096484391 -0.0086296124228413887 0 -0.15600626827183339 -0.0044429451341588041 0 -0.14213521096484391 -0.0086296124228413887 0 -0.15600626827183339 -0.0044429451341588041 0 -0.15077535841711009 0.0077548010875751368 0 -0.14213521096484391 -0.0086296124228413887 0 -0.12559974333760679 -0.0068890451810183044 0 -0.13265211904447149 -0.024070734940253549 0 -0.14213521096484391 -0.0086296124228413887 0 -0.12559974333760679 -0.0068890451810183044 0 -0.13468871814559299 0.0049617579715853259 0 -0.1239751728301063 -0.04584895474015141 0 -0.13265211904447149 -0.024070734940253549 0 -0.1421527870315272 -0.037650678253338191 0 -0.1239751728301063 -0.04584895474015141 0 -0.14007842589175801 -0.049942273077438933 0 -0.1421527870315272 -0.037650678253338191 0 -0.1206714171501669 -0.063760058749526616 0 -0.1239751728301063 -0.04584895474015141 0 -0.13371357273860671 -0.06641405564766717 0 -0.1239751728301063 -0.04584895474015141 0 -0.13371357273860671 -0.06641405564766717 0 -0.13371357273860671 -0.06641405564766717 0 -0.14007842589175801 -0.049942273077438933 0 -0.14728861945092231 -0.052993051360705527 0 -0.1239751728301063 -0.04584895474015141 0 -0.13371357273860671 -0.06641405564766717 0 -0.14007842589175801 -0.049942273077438933 0 -0.13371357273860671 -0.06641405564766717 0 -0.14728861945092231 -0.052993051360705527 0 -0.15747841312525121 -0.054315197212425857 0 -0.14867333221146981 -0.066409203047359561 0 -0.13371357273860671 -0.06641405564766717 0 -0.15747841312525121 -0.054315197212425857 0 -0.13371357273860671 -0.06641405564766717 0 -0.15747841312525121 -0.054315197212425857 0 -0.14007842589175801 -0.049942273077438933 0 -0.14728861945092231 -0.052993051360705527 0 -0.14816446121306709 -0.045868462128151571 0 -0.14728861945092231 -0.052993051360705527 0 -0.1562109900807305 -0.049105987209071611 0 -0.15747841312525121 -0.054315197212425857 0 -0.14728861945092231 -0.052993051360705527 0 -0.1562109900807305 -0.049105987209071611 0 -0.14816446121306709 -0.045868462128151571 0 -0.14007842589175801 -0.049942273077438933 0 -0.1421527870315272 -0.037650678253338191 0 -0.14816446121306709 -0.045868462128151571 0 -0.1562109900807305 -0.049105987209071611 0 -0.14816446121306709 -0.045868462128151571 0 -0.15509148361039771 -0.039650320740203582 0 -0.1421527870315272 -0.037650678253338191 0 -0.14816446121306709 -0.045868462128151571 0 -0.15509148361039771 -0.039650320740203582 0 -0.15110124433383421 -0.024546556681389969 0 -0.1421527870315272 -0.037650678253338191 0 -0.15509148361039771 -0.039650320740203582 0 -0.16392967070678049 -0.052515080804763747 0 -0.17909265845133679 -0.04185482655477063 0 -0.16819251409124891 -0.028895877835733871 0 -0.15509148361039771 -0.039650320740203582 0 -0.16392967070678049 -0.052515080804763747 0 -0.16819251409124891 -0.028895877835733871 0 -0.16392967070678049 -0.052515080804763747 0 -0.16819251409124891 -0.028895877835733871 0 -0.15926004577908789 -0.078388144628370293 0 -0.16392967070678049 -0.052515080804763747 0 -0.15747841312525121 -0.054315197212425857 0 -0.1562109900807305 -0.049105987209071611 0 -0.15509148361039771 -0.039650320740203582 0 -0.16392967070678049 -0.052515080804763747 0 -0.1562109900807305 -0.049105987209071611 0 -0.16392967070678049 -0.052515080804763747 0 -0.15747841312525121 -0.054315197212425857 0 -0.1562109900807305 -0.049105987209071611 0 -0.16392967070678049 -0.052515080804763747 0 -0.18948838217695729 -0.063803543666279688 0 -0.1726101848525303 -0.067439682010313085 0 -0.16392967070678049 -0.052515080804763747 0 -0.16392967070678049 -0.052515080804763747 0 -0.18181061181408481 -0.051241666176344458 0 -0.17909265845133679 -0.04185482655477063 0 -0.18948838217695729 -0.063803543666279688 0 -0.16392967070678049 -0.052515080804763747 0 -0.18948838217695729 -0.063803543666279688 0 -0.16392967070678049 -0.052515080804763747 0 -0.18181061181408481 -0.051241666176344458 0 -0.18181061181408481 -0.051241666176344458 0 -0.17909265845133679 -0.04185482655477063 0 -0.1947317359212645 -0.04679321367956378 0 -0.17909265845133679 -0.04185482655477063 0 -0.18531902413033799 -0.02998285308775888 0 -0.1947317359212645 -0.04679321367956378 0 -0.17909265845133679 -0.04185482655477063 0 -0.18531902413033799 -0.02998285308775888 0 -0.16819251409124891 -0.028895877835733871 0 -0.18531902413033799 -0.02998285308775888 0 -0.18019934014795719 -0.01699717563521054 0 -0.16819251409124891 -0.028895877835733871 0 -0.18019934014795719 -0.01699717563521054 0 -0.16819251409124891 -0.028895877835733871 0 -0.17245535747571961 -0.0052766748667044767 0 -0.18531902413033799 -0.02998285308775888 0 -0.18019934014795719 -0.01699717563521054 0 -0.19192676804086509 -0.01572332284873483 0 -0.15110124433383421 -0.024546556681389969 0 -0.16819251409124891 -0.028895877835733871 0 -0.17245535747571961 -0.0052766748667044767 0 -0.16819251409124891 -0.028895877835733871 0 -0.17245535747571961 -0.0052766748667044767 0 -0.15110124433383421 -0.024546556681389969 0 -0.15509148361039771 -0.039650320740203582 0 -0.16819251409124891 -0.028895877835733871 0 -0.15110124433383421 -0.024546556681389969 0 -0.15600626827183339 -0.0044429451341588041 0 -0.17245535747571961 -0.0052766748667044767 0 -0.15110124433383421 -0.024546556681389969 0 -0.17245535747571961 -0.0052766748667044767 0 -0.15600626827183339 -0.0044429451341588041 0 -0.17245535747571961 -0.0052766748667044767 0 -0.16356417016765931 0.0084833172125666767 0 -0.18019934014795719 -0.01699717563521054 0 -0.17245535747571961 -0.0052766748667044767 0 -0.1846699614690992 -0.0063669509730055352 0 -0.18019934014795719 -0.01699717563521054 0 -0.1846699614690992 -0.0063669509730055352 0 -0.19192676804086509 -0.01572332284873483 0 -0.17245535747571961 -0.0052766748667044767 0 -0.1846699614690992 -0.0063669509730055352 0 -0.18436137129957561 0.0054672730437162198 0 -0.1846699614690992 -0.0063669509730055352 0 -0.1975408193163474 -0.001824457429863872 0 -0.18436137129957561 0.0054672730437162198 0 -0.1975408193163474 -0.001824457429863872 0 -0.19192676804086509 -0.01572332284873483 0 -0.206480988499052 -0.01471278620883586 0 -0.1846699614690992 -0.0063669509730055352 0 -0.1975408193163474 -0.001824457429863872 0 -0.19192676804086509 -0.01572332284873483 0 -0.18531902413033799 -0.02998285308775888 0 -0.19192676804086509 -0.01572332284873483 0 -0.1999750896655719 -0.02978288369284797 0 -0.19192676804086509 -0.01572332284873483 0 -0.1999750896655719 -0.02978288369284797 0 -0.206480988499052 -0.01471278620883586 0 -0.1999750896655719 -0.02978288369284797 0 -0.206480988499052 -0.01471278620883586 0 -0.22207139791596461 -0.02167387782876325 0 -0.206480988499052 -0.01471278620883586 0 -0.22207139791596461 -0.02167387782876325 0 -0.2231053659335471 0.0029180200176536011 0 -0.1975408193163474 -0.001824457429863872 0 -0.206480988499052 -0.01471278620883586 0 -0.2231053659335471 0.0029180200176536011 0 -0.18948838217695729 -0.063803543666279688 0 -0.18181061181408481 -0.051241666176344458 0 -0.1947317359212645 -0.04679321367956378 0 -0.18948838217695729 -0.063803543666279688 0 -0.1947317359212645 -0.04679321367956378 0 -0.18948838217695729 -0.063803543666279688 0 -0.1947317359212645 -0.04679321367956378 0 -0.20852536413041989 -0.057800382538588692 0 -0.1999750896655719 -0.02978288369284797 0 -0.1947317359212645 -0.04679321367956378 0 -0.18531902413033799 -0.02998285308775888 0 -0.1999750896655719 -0.02978288369284797 0 -0.1947317359212645 -0.04679321367956378 0 -0.1999750896655719 -0.02978288369284797 0 -0.1947317359212645 -0.04679321367956378 0 -0.21474209407408401 -0.04259252388727211 0 -0.1999750896655719 -0.02978288369284797 0 -0.21474209407408401 -0.04259252388727211 0 -0.22207139791596461 -0.02167387782876325 0 -0.1947317359212645 -0.04679321367956378 0 -0.21474209407408401 -0.04259252388727211 0 -0.20852536413041989 -0.057800382538588692 0 -0.21474209407408401 -0.04259252388727211 0 -0.20852536413041989 -0.057800382538588692 0 -0.22751832345363879 -0.058860194887652331 0 -0.21474209407408401 -0.04259252388727211 0 -0.23818150257986931 -0.035497912282446129 0 -0.22207139791596461 -0.02167387782876325 0 -0.21474209407408401 -0.04259252388727211 0 -0.22751832345363879 -0.058860194887652331 0 -0.23818150257986931 -0.035497912282446129 0 -0.23818150257986931 -0.035497912282446129 0 -0.24729250746293249 -0.055481828750362977 0 -0.26208933163148751 -0.039251569297700253 0 -0.22751832345363879 -0.058860194887652331 0 -0.23818150257986931 -0.035497912282446129 0 -0.24729250746293249 -0.055481828750362977 0 -0.22207139791596461 -0.02167387782876325 0 -0.2499433467436635 -0.01037518091883103 0 -0.2231053659335471 0.0029180200176536011 0 -0.23818150257986931 -0.035497912282446129 0 -0.22207139791596461 -0.02167387782876325 0 -0.2499433467436635 -0.01037518091883103 0 -0.2499433467436635 -0.01037518091883103 0 -0.2231053659335471 0.0029180200176536011 0 -0.2499433467436635 -0.01037518091883103 0 -0.27678132755377999 -0.023668381855315671 0 -0.2499433467436635 -0.01037518091883103 0 -0.27678132755377999 -0.023668381855315671 0 -0.26208933163148751 -0.039251569297700253 0 -0.23818150257986931 -0.035497912282446129 0 -0.2499433467436635 -0.01037518091883103 0 -0.26208933163148751 -0.039251569297700253 0 -0.2499433467436635 -0.01037518091883103 0 -0.27678132755377999 -0.023668381855315671 0 -0.2745189729490457 -0.0034833185995958899 0 -0.27678132755377999 -0.023668381855315671 0 -0.2745189729490457 -0.0034833185995958899 0 -0.29369393012299527 -0.013853908260933729 0 -0.2745189729490457 -0.0034833185995958899 0 -0.29369393012299527 -0.013853908260933729 0 -0.28784535188820792 0.0088812860194839409 0 -0.27678132755377999 -0.023668381855315671 0 -0.29369393012299527 -0.013853908260933729 0 -0.29103002419932161 -0.027274889396533129 0 -0.29369393012299527 -0.013853908260933729 0 -0.29103002419932161 -0.027274889396533129 0 -0.30764767843740382 -0.0285720411569272 0 -0.30764767843740382 -0.0285720411569272 0 -0.31135979533983399 -0.003837019978649579 0 -0.29369393012299527 -0.013853908260933729 0 -0.31135979533983399 -0.003837019978649579 0 -0.28784535188820792 0.0088812860194839409 0 -0.29369393012299527 -0.013853908260933729 0 -0.30764767843740382 -0.0285720411569272 0 -0.31135979533983399 -0.003837019978649579 0 -0.30764767843740382 -0.0285720411569272 0 -0.31135979533983399 -0.003837019978649579 0 -0.31692622257775271 -0.0068477450708177151 0 -0.30503307686670822 -0.045993966953943949 0 -0.30109296727705148 -0.072248176265391068 0 -0.30503307686670822 -0.045993966953943949 0 -0.28616557504758677 -0.061436143834069201 0 -0.30109296727705148 -0.072248176265391068 0 -0.30503307686670822 -0.045993966953943949 0 -0.31751468535928312 -0.047953646236350581 0 -0.31441001762313131 -0.06231257936071935 0 -0.30503307686670822 -0.045993966953943949 0 -0.30109296727705148 -0.072248176265391068 0 -0.31441001762313131 -0.06231257936071935 0 -0.30503307686670822 -0.045993966953943949 0 -0.31751468535928312 -0.047953646236350581 0 -0.30764767843740382 -0.0285720411569272 0 -0.30503307686670822 -0.045993966953943949 0 -0.31319109535624629 -0.038924454174016312 0 -0.30764767843740382 -0.0285720411569272 0 -0.30503307686670822 -0.045993966953943949 0 -0.28599716068310549 -0.043005226312955218 0 -0.30503307686670822 -0.045993966953943949 0 -0.31319109535624629 -0.038924454174016312 0 -0.31751468535928312 -0.047953646236350581 0 -0.30764767843740382 -0.0285720411569272 0 -0.30503307686670822 -0.045993966953943949 0 -0.27678132755377999 -0.023668381855315671 0 -0.29103002419932161 -0.027274889396533129 0 -0.28599716068310549 -0.043005226312955218 0 -0.29103002419932161 -0.027274889396533129 0 -0.30764767843740382 -0.0285720411569272 0 -0.28599716068310549 -0.043005226312955218 0 -0.30764767843740382 -0.0285720411569272 0 -0.28599716068310549 -0.043005226312955218 0 -0.30503307686670822 -0.045993966953943949 0 -0.28599716068310549 -0.043005226312955218 0 -0.30503307686670822 -0.045993966953943949 0 -0.28599716068310549 -0.043005226312955218 0 -0.28616557504758677 -0.061436143834069201 0 -0.28616557504758677 -0.061436143834069201 0 -0.26921742374325042 -0.054191335249050197 0 -0.26120652312141218 -0.071796200602566307 0 -0.28599716068310549 -0.043005226312955218 0 -0.26921742374325042 -0.054191335249050197 0 -0.28599716068310549 -0.043005226312955218 0 -0.28616557504758677 -0.061436143834069201 0 -0.26921742374325042 -0.054191335249050197 0 -0.27678132755377999 -0.023668381855315671 0 -0.28599716068310549 -0.043005226312955218 0 -0.26208933163148751 -0.039251569297700253 0 -0.28599716068310549 -0.043005226312955218 0 -0.26921742374325042 -0.054191335249050197 0 -0.26208933163148751 -0.039251569297700253 0 -0.28599716068310549 -0.043005226312955218 0 -0.26208933163148751 -0.039251569297700253 0 -0.23818150257986931 -0.035497912282446129 0 -0.26208933163148751 -0.039251569297700253 0 -0.24729250746293249 -0.055481828750362977 0 -0.26921742374325042 -0.054191335249050197 0 -0.26120652312141218 -0.071796200602566307 0 -0.24729250746293249 -0.055481828750362977 0 -0.26921742374325042 -0.054191335249050197 0 -0.26208933163148751 -0.039251569297700253 0 -0.2410828542573655 -0.08659116668940342 0 -0.26120652312141218 -0.071796200602566307 0 -0.26079575203578942 -0.094467501842856516 0 -0.2777785292985932 -0.080143272748184349 0 -0.26079575203578942 -0.094467501842856516 0 -0.28452882235644761 -0.098156537084223949 0 -0.26120652312141218 -0.071796200602566307 0 -0.2777785292985932 -0.080143272748184349 0 -0.26079575203578942 -0.094467501842856516 0 -0.28616557504758677 -0.061436143834069201 0 -0.26120652312141218 -0.071796200602566307 0 -0.2777785292985932 -0.080143272748184349 0 -0.23674142497091019 -0.1139208902099673 0 -0.2627385055958702 -0.1154635275850782 0 -0.26079575203578942 -0.094467501842856516 0 -0.2627385055958702 -0.1154635275850782 0 -0.26079575203578942 -0.094467501842856516 0 -0.28452882235644761 -0.098156537084223949 0 -0.2627385055958702 -0.1154635275850782 0 -0.28873558622083029 -0.1170061649601891 0 -0.27428367981663571 -0.13937006900881341 0 -0.2627385055958702 -0.1154635275850782 0 -0.28873558622083029 -0.1170061649601891 0 -0.2627385055958702 -0.1154635275850782 0 -0.28873558622083029 -0.1170061649601891 0 -0.28452882235644761 -0.098156537084223949 0 -0.28873558622083029 -0.1170061649601891 0 -0.28452882235644761 -0.098156537084223949 0 -0.3041334857805531 -0.097106127322048902 0 -0.28873558622083029 -0.1170061649601891 0 -0.30917395190234492 -0.11422888100919661 0 -0.30119950488604103 -0.13086737013987421 0 -0.30917395190234492 -0.11422888100919661 0 -0.32418374732956762 -0.12263764097933599 0 -0.30119950488604103 -0.13086737013987421 0 -0.28873558622083029 -0.1170061649601891 0 -0.3041334857805531 -0.097106127322048902 0 -0.30917395190234492 -0.11422888100919661 0 -0.28616557504758677 -0.061436143834069201 0 -0.2777785292985932 -0.080143272748184349 0 -0.30109296727705148 -0.072248176265391068 0 -0.2777785292985932 -0.080143272748184349 0 -0.28452882235644761 -0.098156537084223949 0 -0.30109296727705148 -0.072248176265391068 0 -0.28452882235644761 -0.098156537084223949 0 -0.3041334857805531 -0.097106127322048902 0 -0.30109296727705148 -0.072248176265391068 0 -0.3041334857805531 -0.097106127322048902 0 -0.30109296727705148 -0.072248176265391068 0 -0.31909817243730543 -0.080625176853759667 0 -0.30109296727705148 -0.072248176265391068 0 -0.31909817243730543 -0.080625176853759667 0 -0.31441001762313131 -0.06231257936071935 0 -0.31909817243730543 -0.080625176853759667 0 -0.32931118617530802 -0.064741930494151445 0 -0.31441001762313131 -0.06231257936071935 0 -0.33866125499663802 -0.08300610671043876 0 -0.32761743529473247 -0.1035271016445347 0 -0.31909817243730543 -0.080625176853759667 0 -0.33866125499663802 -0.08300610671043876 0 -0.32761743529473247 -0.1035271016445347 0 -0.33866125499663802 -0.08300610671043876 0 -0.32931118617530802 -0.064741930494151445 0 -0.34970507469854339 -0.062485111776342847 0 -0.31909817243730543 -0.080625176853759667 0 -0.33866125499663802 -0.08300610671043876 0 -0.32931118617530802 -0.064741930494151445 0 -0.30917395190234492 -0.11422888100919661 0 -0.32418374732956762 -0.12263764097933599 0 -0.32761743529473247 -0.1035271016445347 0 -0.3041334857805531 -0.097106127322048902 0 -0.31909817243730543 -0.080625176853759667 0 -0.32761743529473247 -0.1035271016445347 0 -0.3041334857805531 -0.097106127322048902 0 -0.30917395190234492 -0.11422888100919661 0 -0.32761743529473247 -0.1035271016445347 0 -0.33866125499663802 -0.08300610671043876 0 -0.32761743529473247 -0.1035271016445347 0 -0.3567185967267133 -0.097707144617483171 0 -0.32418374732956762 -0.12263764097933599 0 -0.32761743529473247 -0.1035271016445347 0 -0.34734609224086482 -0.1173693259091754 0 -0.34734609224086482 -0.1173693259091754 0 -0.37207337651625699 -0.1184835565399931 0 -0.3571802679669151 -0.1330144696014427 0 -0.34734609224086482 -0.1173693259091754 0 -0.3567185967267133 -0.097707144617483171 0 -0.37207337651625699 -0.1184835565399931 0 -0.32761743529473247 -0.1035271016445347 0 -0.34734609224086482 -0.1173693259091754 0 -0.3567185967267133 -0.097707144617483171 0 -0.3567185967267133 -0.097707144617483171 0 -0.37207337651625699 -0.1184835565399931 0 -0.38098934984132787 -0.1017617871931942 0 -0.33866125499663802 -0.08300610671043876 0 -0.34970507469854339 -0.062485111776342847 0 -0.35612673436057352 -0.078330402706364738 0 -0.37012294133868079 -0.060579518736960491 0 -0.34970507469854339 -0.062485111776342847 0 -0.33866125499663802 -0.08300610671043876 0 -0.35612673436057352 -0.078330402706364738 0 -0.34970507469854339 -0.062485111776342847 0 -0.33866125499663802 -0.08300610671043876 0 -0.3567185967267133 -0.097707144617483171 0 -0.35612673436057352 -0.078330402706364738 0 -0.3567185967267133 -0.097707144617483171 0 -0.35612673436057352 -0.078330402706364738 0 -0.37488144941763429 -0.080986995089917094 0 -0.3567185967267133 -0.097707144617483171 0 -0.37488144941763429 -0.080986995089917094 0 -0.38098934984132787 -0.1017617871931942 0 -0.35612673436057352 -0.078330402706364738 0 -0.37488144941763429 -0.080986995089917094 0 -0.37012294133868079 -0.060579518736960491 0 -0.37012294133868079 -0.060579518736960491 0 -0.36074889440044883 -0.041964116842246928 0 -0.37640703411220622 -0.039937662582346559 0 -0.37012294133868079 -0.060579518736960491 0 -0.34970507469854339 -0.062485111776342847 0 -0.36074889440044883 -0.041964116842246928 0 -0.34970507469854339 -0.062485111776342847 0 -0.34707681937173562 -0.04782823588676835 0 -0.36074889440044883 -0.041964116842246928 0 -0.34970507469854339 -0.062485111776342847 0 -0.36074889440044883 -0.041964116842246928 0 -0.36074889440044883 -0.041964116842246928 0 -0.34821740673709811 -0.019341168309603279 0 -0.34048514578726052 -0.03636136210649419 0 -0.34707681937173562 -0.04782823588676835 0 -0.36074889440044883 -0.041964116842246928 0 -0.34048514578726052 -0.03636136210649419 0 -0.36074889440044883 -0.041964116842246928 0 -0.37179271410235432 -0.021443121908151008 0 -0.37640703411220622 -0.039937662582346559 0 -0.36074889440044883 -0.041964116842246928 0 -0.37179271410235432 -0.021443121908151008 0 -0.36074889440044883 -0.041964116842246928 0 -0.37179271410235432 -0.021443121908151008 0 -0.34821740673709811 -0.019341168309603279 0 -0.37179271410235432 -0.021443121908151008 0 -0.36757837345989042 -0.0048102241571663529 0 -0.38255326748894908 -0.014083345114371631 0 -0.37179271410235432 -0.021443121908151008 0 -0.36757837345989042 -0.0048102241571663529 0 -0.34821740673709811 -0.019341168309603279 0 -0.36757837345989042 -0.0048102241571663529 0 -0.34821740673709811 -0.019341168309603279 0 -0.35077790856688001 0.00018046279450458991 0 -0.34821740673709811 -0.019341168309603279 0 -0.33512107169702221 -0.025769120486537841 0 -0.34048514578726052 -0.03636136210649419 0 -0.34821740673709811 -0.019341168309603279 0 -0.33512107169702221 -0.025769120486537841 0 -0.32921279350214128 -0.01419578918121054 0 -0.33512107169702221 -0.025769120486537841 0 -0.32921279350214128 -0.01419578918121054 0 -0.32256894076158898 -0.033178162348843347 0 -0.32921279350214128 -0.01419578918121054 0 -0.35077790856688001 0.00018046279450458991 0 -0.34821740673709811 -0.019341168309603279 0 -0.32921279350214128 -0.01419578918121054 0 -0.35077790856688001 0.00018046279450458991 0 -0.32921279350214128 -0.01419578918121054 0 -0.32865409209584129 -0.002311661141454144 0 -0.35077790856688001 0.00018046279450458991 0 -0.32921279350214128 -0.01419578918121054 0 -0.32865409209584129 -0.002311661141454144 0 -0.31692622257775271 -0.0068477450708177151 0 -0.32865409209584129 -0.002311661141454144 0 -0.31692622257775271 -0.0068477450708177151 0 -0.31985769127824287 0.004388881641175936 0 -0.31135979533983399 -0.003837019978649579 0 -0.31692622257775271 -0.0068477450708177151 0 -0.31985769127824287 0.004388881641175936 0 -0.31135979533983399 -0.003837019978649579 0 -0.31692622257775271 -0.0068477450708177151 0 -0.30764767843740382 -0.0285720411569272 0 -0.32921279350214128 -0.01419578918121054 0 -0.32256894076158898 -0.033178162348843347 0 -0.30764767843740382 -0.0285720411569272 0 -0.32921279350214128 -0.01419578918121054 0 -0.31692622257775271 -0.0068477450708177151 0 -0.30764767843740382 -0.0285720411569272 0 -0.32921279350214128 -0.01419578918121054 0 -0.30764767843740382 -0.0285720411569272 0 -0.31319109535624629 -0.038924454174016312 0 -0.32256894076158898 -0.033178162348843347 0 -0.32256894076158898 -0.033178162348843347 0 -0.31751468535928312 -0.047953646236350581 0 -0.33290821789784469 -0.04971775717801917 0 -0.31319109535624629 -0.038924454174016312 0 -0.32256894076158898 -0.033178162348843347 0 -0.31751468535928312 -0.047953646236350581 0 -0.32931118617530802 -0.064741930494151445 0 -0.31751468535928312 -0.047953646236350581 0 -0.33290821789784469 -0.04971775717801917 0 -0.32931118617530802 -0.064741930494151445 0 -0.31751468535928312 -0.047953646236350581 0 -0.31441001762313131 -0.06231257936071935 0 -0.32931118617530802 -0.064741930494151445 0 -0.34970507469854339 -0.062485111776342847 0 -0.33290821789784469 -0.04971775717801917 0 -0.34970507469854339 -0.062485111776342847 0 -0.34707681937173562 -0.04782823588676835 0 -0.33290821789784469 -0.04971775717801917 0 -0.33512107169702221 -0.025769120486537841 0 -0.32256894076158898 -0.033178162348843347 0 -0.34048514578726052 -0.03636136210649419 0 -0.34707681937173562 -0.04782823588676835 0 -0.33290821789784469 -0.04971775717801917 0 -0.34048514578726052 -0.03636136210649419 0 -0.32256894076158898 -0.033178162348843347 0 -0.33290821789784469 -0.04971775717801917 0 -0.34048514578726052 -0.03636136210649419 0 -0.28865047956317352 -0.25641460670561439 0 -0.31165457360289223 -0.2376621753647476 0 -0.28665790927573293 -0.22243740578473009 0 -0.28865047956317352 -0.25641460670561439 0 -0.28665790927573293 -0.22243740578473009 0 -0.26907844967376238 -0.24535471509105369 0 -0.31165457360289223 -0.2376621753647476 0 -0.28665790927573293 -0.22243740578473009 0 -0.31052799911020901 -0.21605703775645821 0 -0.2454770400230725 -0.25067841925105527 0 -0.26907844967376238 -0.24535471509105369 0 -0.25851301087809769 -0.22866648355981281 0 -0.28665790927573293 -0.22243740578473009 0 -0.25851301087809769 -0.22866648355981281 0 -0.26667230297266997 -0.2083919382423341 0 -0.28665790927573293 -0.22243740578473009 0 -0.26907844967376238 -0.24535471509105369 0 -0.25851301087809769 -0.22866648355981281 0 -0.28665790927573293 -0.22243740578473009 0 -0.26667230297266997 -0.2083919382423341 0 -0.28308470278720788 -0.19570615480298781 0 -0.24688157933846899 -0.21156546899634349 0 -0.26667230297266997 -0.2083919382423341 0 -0.25840804183948862 -0.1916404977831534 0 -0.24688157933846899 -0.21156546899634349 0 -0.25851301087809769 -0.22866648355981281 0 -0.26667230297266997 -0.2083919382423341 0 -0.26667230297266997 -0.2083919382423341 0 -0.25840804183948862 -0.1916404977831534 0 -0.28308470278720788 -0.19570615480298781 0 -0.28665790927573293 -0.22243740578473009 0 -0.28308470278720788 -0.19570615480298781 0 -0.30323144844190592 -0.19214496409834789 0 -0.28665790927573293 -0.22243740578473009 0 -0.31052799911020901 -0.21605703775645821 0 -0.30323144844190592 -0.19214496409834789 0 -0.31052799911020901 -0.21605703775645821 0 -0.30323144844190592 -0.19214496409834789 0 -0.32131970343724497 -0.19923892592472489 0 -0.30323144844190592 -0.19214496409834789 0 -0.29678438430132781 -0.17134998352843731 0 -0.32751992683226261 -0.17113785101720749 0 -0.29678438430132781 -0.17134998352843731 0 -0.29148540746869611 -0.15154132021978961 0 -0.31048406581544769 -0.14699381225388669 0 -0.29678438430132781 -0.17134998352843731 0 -0.31048406581544769 -0.14699381225388669 0 -0.29678438430132781 -0.17134998352843731 0 -0.31048406581544769 -0.14699381225388669 0 -0.32751992683226261 -0.17113785101720749 0 -0.29678438430132781 -0.17134998352843731 0 -0.27467540252402839 -0.16912536616793611 0 -0.29148540746869611 -0.15154132021978961 0 -0.28308470278720788 -0.19570615480298781 0 -0.29678438430132781 -0.17134998352843731 0 -0.27467540252402839 -0.16912536616793611 0 -0.28308470278720788 -0.19570615480298781 0 -0.29678438430132781 -0.17134998352843731 0 -0.28308470278720788 -0.19570615480298781 0 -0.30323144844190592 -0.19214496409834789 0 -0.29678438430132781 -0.17134998352843731 0 -0.25840804183948862 -0.1916404977831534 0 -0.28308470278720788 -0.19570615480298781 0 -0.27467540252402839 -0.16912536616793611 0 -0.24822677170951979 -0.1749030052645168 0 -0.25840804183948862 -0.1916404977831534 0 -0.27467540252402839 -0.16912536616793611 0 -0.24822677170951979 -0.1749030052645168 0 -0.25191589471850329 -0.15661197322010331 0 -0.27467540252402839 -0.16912536616793611 0 -0.25191589471850329 -0.15661197322010331 0 -0.27467540252402839 -0.16912536616793611 0 -0.25191589471850329 -0.15661197322010331 0 -0.27467540252402839 -0.16912536616793611 0 -0.27428367981663571 -0.13937006900881341 0 -0.27467540252402839 -0.16912536616793611 0 -0.27428367981663571 -0.13937006900881341 0 -0.29148540746869611 -0.15154132021978961 0 -0.24723738274645199 -0.13289646357618701 0 -0.25191589471850329 -0.15661197322010331 0 -0.27428367981663571 -0.13937006900881341 0 -0.24723738274645199 -0.13289646357618701 0 -0.2627385055958702 -0.1154635275850782 0 -0.27428367981663571 -0.13937006900881341 0 -0.27428367981663571 -0.13937006900881341 0 -0.29148540746869611 -0.15154132021978961 0 -0.30119950488604103 -0.13086737013987421 0 -0.28873558622083029 -0.1170061649601891 0 -0.27428367981663571 -0.13937006900881341 0 -0.30119950488604103 -0.13086737013987421 0 -0.29148540746869611 -0.15154132021978961 0 -0.31048406581544769 -0.14699381225388669 0 -0.30119950488604103 -0.13086737013987421 0 -0.32418374732956762 -0.12263764097933599 0 -0.31048406581544769 -0.14699381225388669 0 -0.30119950488604103 -0.13086737013987421 0 -0.32418374732956762 -0.12263764097933599 0 -0.31048406581544769 -0.14699381225388669 0 -0.33982345703933281 -0.13590939799984311 0 -0.32418374732956762 -0.12263764097933599 0 -0.31048406581544769 -0.14699381225388669 0 -0.31048406581544769 -0.14699381225388669 0 -0.33223531325071548 -0.15302196953854999 0 -0.33982345703933281 -0.13590939799984311 0 -0.33223531325071548 -0.15302196953854999 0 -0.33982345703933281 -0.13590939799984311 0 -0.35095446010956738 -0.15313846718153501 0 -0.32418374732956762 -0.12263764097933599 0 -0.34734609224086482 -0.1173693259091754 0 -0.33982345703933281 -0.13590939799984311 0 -0.34734609224086482 -0.1173693259091754 0 -0.33982345703933281 -0.13590939799984311 0 -0.3571802679669151 -0.1330144696014427 0 -0.37207337651625699 -0.1184835565399931 0 -0.3571802679669151 -0.1330144696014427 0 -0.37570395392855321 -0.1401716003766669 0 -0.3571802679669151 -0.1330144696014427 0 -0.35095446010956738 -0.15313846718153501 0 -0.37570395392855321 -0.1401716003766669 0 -0.35095446010956738 -0.15313846718153501 0 -0.37748643276789479 -0.16137795023613269 0 -0.37570395392855321 -0.1401716003766669 0 -0.33982345703933281 -0.13590939799984311 0 -0.3571802679669151 -0.1330144696014427 0 -0.35095446010956738 -0.15313846718153501 0 -0.35095446010956738 -0.15313846718153501 0 -0.35707287084595091 -0.17354258743899059 0 -0.32751992683226261 -0.17113785101720749 0 -0.35707287084595091 -0.17354258743899059 0 -0.37784038550767052 -0.17885221301110071 0 -0.37748643276789479 -0.16137795023613269 0 -0.35095446010956738 -0.15313846718153501 0 -0.35707287084595091 -0.17354258743899059 0 -0.37748643276789479 -0.16137795023613269 0 -0.35707287084595091 -0.17354258743899059 0 -0.35791243408330198 -0.1931204388681195 0 -0.37784038550767052 -0.17885221301110071 0 -0.35707287084595091 -0.17354258743899059 0 -0.34054613604450168 -0.1937206810010397 0 -0.35791243408330198 -0.1931204388681195 0 -0.35707287084595091 -0.17354258743899059 0 -0.32751992683226261 -0.17113785101720749 0 -0.34054613604450168 -0.1937206810010397 0 -0.33223531325071548 -0.15302196953854999 0 -0.35095446010956738 -0.15313846718153501 0 -0.32751992683226261 -0.17113785101720749 0 -0.31048406581544769 -0.14699381225388669 0 -0.33223531325071548 -0.15302196953854999 0 -0.32751992683226261 -0.17113785101720749 0 -0.30323144844190592 -0.19214496409834789 0 -0.32751992683226261 -0.17113785101720749 0 -0.32131970343724497 -0.19923892592472489 0 -0.31052799911020901 -0.21605703775645821 0 -0.32131970343724497 -0.19923892592472489 0 -0.33176027514257911 -0.21923079164719739 0 -0.34054613604450168 -0.1937206810010397 0 -0.35378771825386129 -0.21824428273447799 0 -0.33176027514257911 -0.21923079164719739 0 -0.32131970343724497 -0.19923892592472489 0 -0.34054613604450168 -0.1937206810010397 0 -0.33176027514257911 -0.21923079164719739 0 -0.32751992683226261 -0.17113785101720749 0 -0.32131970343724497 -0.19923892592472489 0 -0.34054613604450168 -0.1937206810010397 0 -0.34054613604450168 -0.1937206810010397 0 -0.35791243408330198 -0.1931204388681195 0 -0.35378771825386129 -0.21824428273447799 0 -0.35791243408330198 -0.1931204388681195 0 -0.3868189686856417 -0.1931622299386081 0 -0.37784038550767052 -0.17885221301110071 0 -0.35791243408330198 -0.1931204388681195 0 -0.35378771825386129 -0.21824428273447799 0 -0.38057966586861619 -0.20852432294104081 0 -0.35791243408330198 -0.1931204388681195 0 -0.35378771825386129 -0.21824428273447799 0 -0.35378771825386129 -0.21824428273447799 0 -0.3700806370814762 -0.2297817449180192 0 -0.34966300242442072 -0.24336812660083651 0 -0.35378771825386129 -0.21824428273447799 0 -0.34966300242442072 -0.24336812660083651 0 -0.35378771825386129 -0.21824428273447799 0 -0.34966300242442072 -0.24336812660083651 0 -0.33176027514257911 -0.21923079164719739 0 -0.35378771825386129 -0.21824428273447799 0 -0.3700806370814762 -0.2297817449180192 0 -0.38057966586861619 -0.20852432294104081 0 -0.3700806370814762 -0.2297817449180192 0 -0.34966300242442072 -0.24336812660083651 0 -0.37604061671614919 -0.24878734238839381 0 -0.34966300242442072 -0.24336812660083651 0 -0.33016850951032167 -0.2488591399558098 0 -0.33176027514257911 -0.21923079164719739 0 -0.31165457360289223 -0.2376621753647476 0 -0.31052799911020901 -0.21605703775645821 0 -0.33176027514257911 -0.21923079164719739 0 -0.31165457360289223 -0.2376621753647476 0 -0.33016850951032167 -0.2488591399558098 0 -0.33176027514257911 -0.21923079164719739 0 -0.43357277536023853 -0.2446274102914045 0 -0.43304408722517501 -0.23110315869979489 0 -0.4196482281114669 -0.24329947577913641 0 -0.42942343752306211 -0.25580878815679958 0 -0.43357277536023853 -0.2446274102914045 0 -0.4196482281114669 -0.24329947577913641 0 -0.43357277536023853 -0.2446274102914045 0 -0.43304408722517501 -0.23110315869979489 0 -0.44510226710071238 -0.24133728135806709 0 -0.43304408722517501 -0.23110315869979489 0 -0.41053621235967469 -0.22589902737525319 0 -0.42809903855783771 -0.21472545809907739 0 -0.43304408722517501 -0.23110315869979489 0 -0.42809903855783771 -0.21472545809907739 0 -0.4429637911425629 -0.21818831555210719 0 -0.43304408722517501 -0.23110315869979489 0 -0.41053621235967469 -0.22589902737525319 0 -0.4196482281114669 -0.24329947577913641 0 -0.39950754495903501 -0.25058251419761129 0 -0.41053621235967469 -0.22589902737525319 0 -0.4196482281114669 -0.24329947577913641 0 -0.39950754495903501 -0.25058251419761129 0 -0.39004360541382549 -0.22955341856932601 0 -0.39950754495903501 -0.25058251419761129 0 -0.41053621235967469 -0.22589902737525319 0 -0.39004360541382549 -0.22955341856932601 0 -0.39950754495903501 -0.25058251419761129 0 -0.37604061671614919 -0.24878734238839381 0 -0.39004360541382549 -0.22955341856932601 0 -0.3700806370814762 -0.2297817449180192 0 -0.37604061671614919 -0.24878734238839381 0 -0.39004360541382549 -0.22955341856932601 0 -0.3700806370814762 -0.2297817449180192 0 -0.39004360541382549 -0.22955341856932601 0 -0.38057966586861619 -0.20852432294104081 0 -0.39004360541382549 -0.22955341856932601 0 -0.38057966586861619 -0.20852432294104081 0 -0.41053621235967469 -0.22589902737525319 0 -0.39004360541382549 -0.22955341856932601 0 -0.39884397914412612 -0.2097993254445199 0 -0.39884397914412612 -0.2097993254445199 0 -0.38057966586861619 -0.20852432294104081 0 -0.3868189686856417 -0.1931622299386081 0 -0.39004360541382549 -0.22955341856932601 0 -0.39884397914412612 -0.2097993254445199 0 -0.38057966586861619 -0.20852432294104081 0 -0.35791243408330198 -0.1931204388681195 0 -0.38057966586861619 -0.20852432294104081 0 -0.3868189686856417 -0.1931622299386081 0 -0.39884397914412612 -0.2097993254445199 0 -0.3868189686856417 -0.1931622299386081 0 -0.40771585665155202 -0.19366666158600521 0 -0.40771585665155202 -0.19366666158600521 0 -0.41458073354676678 -0.20726665884850939 0 -0.42666104733509019 -0.1984149478626491 0 -0.40771585665155202 -0.19366666158600521 0 -0.42666104733509019 -0.1984149478626491 0 -0.41708693954396647 -0.18329379790082531 0 -0.41053621235967469 -0.22589902737525319 0 -0.41458073354676678 -0.20726665884850939 0 -0.42809903855783771 -0.21472545809907739 0 -0.41053621235967469 -0.22589902737525319 0 -0.39884397914412612 -0.2097993254445199 0 -0.41458073354676678 -0.20726665884850939 0 -0.39884397914412612 -0.2097993254445199 0 -0.40771585665155202 -0.19366666158600521 0 -0.41458073354676678 -0.20726665884850939 0 -0.42809903855783771 -0.21472545809907739 0 -0.42666104733509019 -0.1984149478626491 0 -0.44164251111434288 -0.20611442007825961 0 -0.41458073354676678 -0.20726665884850939 0 -0.42809903855783771 -0.21472545809907739 0 -0.42666104733509019 -0.1984149478626491 0 -0.42666104733509019 -0.1984149478626491 0 -0.43690041603102348 -0.1854724165161554 0 -0.41708693954396647 -0.18329379790082531 0 -0.42666104733509019 -0.1984149478626491 0 -0.43690041603102348 -0.1854724165161554 0 -0.44164251111434288 -0.20611442007825961 0 -0.43690041603102348 -0.1854724165161554 0 -0.41613588684358349 -0.16390454575845409 0 -0.43690041603102348 -0.1854724165161554 0 -0.41613588684358349 -0.16390454575845409 0 -0.41708693954396647 -0.18329379790082531 0 -0.43690041603102348 -0.1854724165161554 0 -0.41613588684358349 -0.16390454575845409 0 -0.43956303937435831 -0.16564974934282151 0 -0.41613588684358349 -0.16390454575845409 0 -0.42993937995646492 -0.14969446865847241 0 -0.43956303937435831 -0.16564974934282151 0 -0.41613588684358349 -0.16390454575845409 0 -0.41708693954396647 -0.18329379790082531 0 -0.39802149085858368 -0.17501041778086271 0 -0.40771585665155202 -0.19366666158600521 0 -0.41708693954396647 -0.18329379790082531 0 -0.39802149085858368 -0.17501041778086271 0 -0.3868189686856417 -0.1931622299386081 0 -0.40771585665155202 -0.19366666158600521 0 -0.39802149085858368 -0.17501041778086271 0 -0.3868189686856417 -0.1931622299386081 0 -0.39802149085858368 -0.17501041778086271 0 -0.37784038550767052 -0.17885221301110071 0 -0.39802149085858368 -0.17501041778086271 0 -0.37784038550767052 -0.17885221301110071 0 -0.37748643276789479 -0.16137795023613269 0 -0.39802149085858368 -0.17501041778086271 0 -0.37748643276789479 -0.16137795023613269 0 -0.39588473089492449 -0.1532588127567614 0 -0.41613588684358349 -0.16390454575845409 0 -0.39802149085858368 -0.17501041778086271 0 -0.39588473089492449 -0.1532588127567614 0 -0.37748643276789479 -0.16137795023613269 0 -0.39588473089492449 -0.1532588127567614 0 -0.37570395392855321 -0.1401716003766669 0 -0.39588473089492449 -0.1532588127567614 0 -0.37570395392855321 -0.1401716003766669 0 -0.39806242767068523 -0.12324079277664279 0 -0.37207337651625699 -0.1184835565399931 0 -0.37570395392855321 -0.1401716003766669 0 -0.39806242767068523 -0.12324079277664279 0 -0.39588473089492449 -0.1532588127567614 0 -0.39806242767068523 -0.12324079277664279 0 -0.39588473089492449 -0.1532588127567614 0 -0.41418770982620517 -0.14280495634832829 0 -0.39806242767068523 -0.12324079277664279 0 -0.42194733871046958 -0.1276128709888264 0 -0.39806242767068523 -0.12324079277664279 0 -0.41418770982620517 -0.14280495634832829 0 -0.42194733871046958 -0.1276128709888264 0 -0.39806242767068523 -0.12324079277664279 0 -0.41418770982620517 -0.14280495634832829 0 -0.42194733871046958 -0.1276128709888264 0 -0.42894911943223751 -0.137850175613079 0 -0.41613588684358349 -0.16390454575845409 0 -0.41418770982620517 -0.14280495634832829 0 -0.42993937995646492 -0.14969446865847241 0 -0.41613588684358349 -0.16390454575845409 0 -0.39588473089492449 -0.1532588127567614 0 -0.41418770982620517 -0.14280495634832829 0 -0.41418770982620517 -0.14280495634832829 0 -0.42993937995646492 -0.14969446865847241 0 -0.42894911943223751 -0.137850175613079 0 -0.42993937995646492 -0.14969446865847241 0 -0.43738899846190699 -0.14185872270125691 0 -0.42894911943223751 -0.137850175613079 0 -0.43738899846190699 -0.14185872270125691 0 -0.42894911943223751 -0.137850175613079 0 -0.44583224975025348 -0.131984949201012 0 -0.42194733871046958 -0.1276128709888264 0 -0.44583224975025348 -0.131984949201012 0 -0.43385122713749252 -0.116761248397552 0 -0.42194733871046958 -0.1276128709888264 0 -0.44583224975025348 -0.131984949201012 0 -0.42194733871046958 -0.1276128709888264 0 -0.42894911943223751 -0.137850175613079 0 -0.44583224975025348 -0.131984949201012 0 -0.44795674941888891 -0.13237383399516159 0 -0.44583224975025348 -0.131984949201012 0 -0.46157386985936671 -0.15198705773953339 0 -0.45064245263606051 -0.13007637314168871 0 -0.44795674941888891 -0.13237383399516159 0 -0.45580970579630498 -0.13544671761632879 0 -0.45064245263606051 -0.13007637314168871 0 -0.45117469869236099 -0.12596585324262019 0 -0.4484092431254143 -0.1279959629606047 0 -0.45064245263606051 -0.13007637314168871 0 -0.45117469869236099 -0.12596585324262019 0 -0.45482725413348968 -0.12944176421894571 0 -0.4484092431254143 -0.1279959629606047 0 -0.44737467960365762 -0.12987977560732089 0 -0.44448440810547241 -0.12514733795847099 0 -0.44766065804060201 -0.12558495987423199 0 -0.4484092431254143 -0.1279959629606047 0 -0.44448440810547241 -0.12514733795847099 0 -0.45117469869236099 -0.12596585324262019 0 -0.44766065804060201 -0.12558495987423199 0 -0.4484092431254143 -0.1279959629606047 0 -0.44737467960365762 -0.12987977560732089 0 -0.44583224975025348 -0.131984949201012 0 -0.44448440810547241 -0.12514733795847099 0 -0.45064245263606051 -0.13007637314168871 0 -0.4484092431254143 -0.1279959629606047 0 -0.44737467960365762 -0.12987977560732089 0 -0.45064245263606051 -0.13007637314168871 0 -0.44795674941888891 -0.13237383399516159 0 -0.44737467960365762 -0.12987977560732089 0 -0.44795674941888891 -0.13237383399516159 0 -0.44583224975025348 -0.131984949201012 0 -0.44795674941888891 -0.13237383399516159 0 -0.44737467960365762 -0.12987977560732089 0 -0.44583224975025348 -0.131984949201012 0 -0.42993937995646492 -0.14969446865847241 0 -0.44578317794702887 -0.14888552438090211 0 -0.43956303937435831 -0.16564974934282151 0 -0.43738899846190699 -0.14185872270125691 0 -0.44583224975025348 -0.131984949201012 0 -0.44578317794702887 -0.14888552438090211 0 -0.42993937995646492 -0.14969446865847241 0 -0.43738899846190699 -0.14185872270125691 0 -0.44578317794702887 -0.14888552438090211 0 -0.44583224975025348 -0.131984949201012 0 -0.44578317794702887 -0.14888552438090211 0 -0.46157386985936671 -0.15198705773953339 0 -0.46157386985936671 -0.15198705773953339 0 -0.4614280418440293 -0.13712118313817759 0 -0.45580970579630498 -0.13544671761632879 0 -0.44578317794702887 -0.14888552438090211 0 -0.46157386985936671 -0.15198705773953339 0 -0.4540391255115912 -0.16572924042745171 0 -0.44583224975025348 -0.131984949201012 0 -0.46157386985936671 -0.15198705773953339 0 -0.46157386985936671 -0.15198705773953339 0 -0.4614280418440293 -0.13712118313817759 0 -0.47325804743776861 -0.14148521104532741 0 -0.4614280418440293 -0.13712118313817759 0 -0.47009013168122388 -0.13222575247845911 0 -0.47325804743776861 -0.14148521104532741 0 -0.44795674941888891 -0.13237383399516159 0 -0.46157386985936671 -0.15198705773953339 0 -0.45580970579630498 -0.13544671761632879 0 -0.4614280418440293 -0.13712118313817759 0 -0.46294375792541748 -0.13057643860773879 0 -0.47009013168122388 -0.13222575247845911 0 -0.4614280418440293 -0.13712118313817759 0 -0.45842986688599507 -0.13168009346446591 0 -0.46294375792541748 -0.13057643860773879 0 -0.4614280418440293 -0.13712118313817759 0 -0.45580970579630498 -0.13544671761632879 0 -0.45842986688599507 -0.13168009346446591 0 -0.45539653733217222 -0.12545559542262799 0 -0.45482725413348968 -0.12944176421894571 0 -0.45916854946443608 -0.1279746936611858 0 -0.45117469869236099 -0.12596585324262019 0 -0.45539653733217222 -0.12545559542262799 0 -0.45482725413348968 -0.12944176421894571 0 -0.45064245263606051 -0.13007637314168871 0 -0.45580970579630498 -0.13544671761632879 0 -0.45482725413348968 -0.12944176421894571 0 -0.45580970579630498 -0.13544671761632879 0 -0.45482725413348968 -0.12944176421894571 0 -0.45842986688599507 -0.13168009346446591 0 -0.45482725413348968 -0.12944176421894571 0 -0.45842986688599507 -0.13168009346446591 0 -0.45916854946443608 -0.1279746936611858 0 -0.45842986688599507 -0.13168009346446591 0 -0.45916854946443608 -0.1279746936611858 0 -0.46294375792541748 -0.13057643860773879 0 -0.45916854946443608 -0.1279746936611858 0 -0.4626261759020317 -0.12531455756019599 0 -0.45909299246572871 -0.1222415758641663 0 -0.45539653733217222 -0.12545559542262799 0 -0.45916854946443608 -0.1279746936611858 0 -0.45909299246572871 -0.1222415758641663 0 -0.4626261759020317 -0.12531455756019599 0 -0.46294375792541748 -0.13057643860773879 0 -0.46726250346820047 -0.12635147961206439 0 -0.45916854946443608 -0.1279746936611858 0 -0.4626261759020317 -0.12531455756019599 0 -0.46294375792541748 -0.13057643860773879 0 -0.46294375792541748 -0.13057643860773879 0 -0.46726250346820047 -0.12635147961206439 0 -0.47009013168122388 -0.13222575247845911 0 -0.46726250346820047 -0.12635147961206439 0 -0.47180153323375063 -0.12730264353818041 0 -0.47009013168122388 -0.13222575247845911 0 -0.47009013168122388 -0.13222575247845911 0 -0.47572143821727941 -0.1290871937649315 0 -0.47815989699718892 -0.13374217928749199 0 -0.46726250346820047 -0.12635147961206439 0 -0.47180153323375063 -0.12730264353818041 0 -0.4711255946834868 -0.1221130577205941 0 -0.47180153323375063 -0.12730264353818041 0 -0.47009013168122388 -0.13222575247845911 0 -0.47572143821727941 -0.1290871937649315 0 -0.47180153323375063 -0.12730264353818041 0 -0.47572143821727941 -0.1290871937649315 0 -0.47718082283958008 -0.12518982884347879 0 -0.47009013168122388 -0.13222575247845911 0 -0.47815989699718892 -0.13374217928749199 0 -0.47325804743776861 -0.14148521104532741 0 -0.47815989699718892 -0.13374217928749199 0 -0.48415595282737989 -0.1305301026937655 0 -0.48518171837724872 -0.13895635356646871 0 -0.47815989699718892 -0.13374217928749199 0 -0.48518171837724872 -0.13895635356646871 0 -0.47325804743776861 -0.14148521104532741 0 -0.48415595282737989 -0.1305301026937655 0 -0.4818767811562561 -0.1254679332663548 0 -0.48441318156654811 -0.1223206888271833 0 -0.47941897840753689 -0.12880344757120449 0 -0.47718082283958008 -0.12518982884347879 0 -0.4818767811562561 -0.1254679332663548 0 -0.47572143821727941 -0.1290871937649315 0 -0.47941897840753689 -0.12880344757120449 0 -0.47718082283958008 -0.12518982884347879 0 -0.47572143821727941 -0.1290871937649315 0 -0.47815989699718892 -0.13374217928749199 0 -0.47941897840753689 -0.12880344757120449 0 -0.47815989699718892 -0.13374217928749199 0 -0.47941897840753689 -0.12880344757120449 0 -0.48415595282737989 -0.1305301026937655 0 -0.47941897840753689 -0.12880344757120449 0 -0.48415595282737989 -0.1305301026937655 0 -0.4818767811562561 -0.1254679332663548 0 -0.5 -0.14635027766612871 0 -0.4958523778598759 -0.1233217440671501 0 -0.5 -0.1204203958867144 0 -0.49111410203263739 -0.13269734713052489 0 -0.5 -0.14635027766612871 0 -0.4958523778598759 -0.1233217440671501 0 -0.48415595282737989 -0.1305301026937655 0 -0.49111410203263739 -0.13269734713052489 0 -0.48441318156654811 -0.1223206888271833 0 -0.49111410203263739 -0.13269734713052489 0 -0.4958523778598759 -0.1233217440671501 0 -0.48441318156654811 -0.1223206888271833 0 -0.49111410203263739 -0.13269734713052489 0 -0.48518171837724872 -0.13895635356646871 0 -0.5 -0.14635027766612871 0 -0.48415595282737989 -0.1305301026937655 0 -0.49111410203263739 -0.13269734713052489 0 -0.48518171837724872 -0.13895635356646871 0 -0.48518171837724872 -0.13895635356646871 0 -0.5 -0.14635027766612871 0 -0.48311741550781911 -0.15463054165150761 0 -0.46157386985936671 -0.15198705773953339 0 -0.48311741550781911 -0.15463054165150761 0 -0.47325804743776861 -0.14148521104532741 0 -0.48518171837724872 -0.13895635356646871 0 -0.48311741550781911 -0.15463054165150761 0 -0.47325804743776861 -0.14148521104532741 0 -0.46157386985936671 -0.15198705773953339 0 -0.48311741550781911 -0.15463054165150761 0 -0.47731548996848089 -0.1719891662780538 0 -0.46157386985936671 -0.15198705773953339 0 -0.47731548996848089 -0.1719891662780538 0 -0.48311741550781911 -0.15463054165150761 0 -0.5 -0.1722801594455432 0 -0.47731548996848089 -0.1719891662780538 0 -0.5 -0.14635027766612871 0 -0.48311741550781911 -0.15463054165150761 0 -0.5 -0.1722801594455432 0 -0.5 -0.1722801594455432 0 -0.47731548996848089 -0.1719891662780538 0 -0.49305711007759517 -0.1919912748165743 0 -0.47731548996848089 -0.1719891662780538 0 -0.49305711007759517 -0.1919912748165743 0 -0.5 -0.1722801594455432 0 -0.49305711007759517 -0.1919912748165743 0 -0.50000000000000144 -0.19821004122495761 0 -0.47731548996848089 -0.1719891662780538 0 -0.4737016414541646 -0.18715829888746491 0 -0.49305711007759517 -0.1919912748165743 0 -0.47731548996848089 -0.1719891662780538 0 -0.4737016414541646 -0.18715829888746491 0 -0.45745088033504289 -0.17989763075643311 0 -0.4737016414541646 -0.18715829888746491 0 -0.45745088033504289 -0.17989763075643311 0 -0.46379272433600061 -0.19182157185383869 0 -0.47731548996848089 -0.1719891662780538 0 -0.45745088033504289 -0.17989763075643311 0 -0.4540391255115912 -0.16572924042745171 0 -0.45745088033504289 -0.17989763075643311 0 -0.45298200645236802 -0.1897913198415796 0 -0.46379272433600061 -0.19182157185383869 0 -0.46157386985936671 -0.15198705773953339 0 -0.47731548996848089 -0.1719891662780538 0 -0.4540391255115912 -0.16572924042745171 0 -0.44578317794702887 -0.14888552438090211 0 -0.4540391255115912 -0.16572924042745171 0 -0.43956303937435831 -0.16564974934282151 0 -0.45745088033504289 -0.17989763075643311 0 -0.4540391255115912 -0.16572924042745171 0 -0.43956303937435831 -0.16564974934282151 0 -0.43690041603102348 -0.1854724165161554 0 -0.45745088033504289 -0.17989763075643311 0 -0.43956303937435831 -0.16564974934282151 0 -0.43690041603102348 -0.1854724165161554 0 -0.45745088033504289 -0.17989763075643311 0 -0.45298200645236802 -0.1897913198415796 0 -0.43690041603102348 -0.1854724165161554 0 -0.45326660766625881 -0.20247178610446459 0 -0.43690041603102348 -0.1854724165161554 0 -0.44164251111434288 -0.20611442007825961 0 -0.45326660766625881 -0.20247178610446459 0 -0.43690041603102348 -0.1854724165161554 0 -0.45298200645236802 -0.1897913198415796 0 -0.45326660766625881 -0.20247178610446459 0 -0.44164251111434288 -0.20611442007825961 0 -0.44874068397567168 -0.212357729204674 0 -0.4576649452184634 -0.20704028727385659 0 -0.44164251111434288 -0.20611442007825961 0 -0.4576649452184634 -0.20704028727385659 0 -0.45326660766625881 -0.20247178610446459 0 -0.44164251111434288 -0.20611442007825961 0 -0.4429637911425629 -0.21818831555210719 0 -0.44874068397567168 -0.212357729204674 0 -0.42809903855783771 -0.21472545809907739 0 -0.44164251111434288 -0.20611442007825961 0 -0.4429637911425629 -0.21818831555210719 0 -0.4429637911425629 -0.21818831555210719 0 -0.44874068397567168 -0.212357729204674 0 -0.45269148842731782 -0.21808789391447261 0 -0.44874068397567168 -0.212357729204674 0 -0.45269148842731782 -0.21808789391447261 0 -0.4576649452184634 -0.20704028727385659 0 -0.45269148842731782 -0.21808789391447261 0 -0.4576649452184634 -0.20704028727385659 0 -0.46152142778569638 -0.22392292644956749 0 -0.4576649452184634 -0.20704028727385659 0 -0.46651021137349641 -0.2058779646648628 0 -0.47483427158538932 -0.2135769991541715 0 -0.4576649452184634 -0.20704028727385659 0 -0.47842947440590328 -0.2286081580315579 0 -0.4576649452184634 -0.20704028727385659 0 -0.46651021137349641 -0.2058779646648628 0 -0.45326660766625881 -0.20247178610446459 0 -0.4576649452184634 -0.20704028727385659 0 -0.45326660766625881 -0.20247178610446459 0 -0.45326660766625881 -0.20247178610446459 0 -0.46379272433600061 -0.19182157185383869 0 -0.47689200255370318 -0.20009185073242439 0 -0.46651021137349641 -0.2058779646648628 0 -0.45326660766625881 -0.20247178610446459 0 -0.47689200255370318 -0.20009185073242439 0 -0.45326660766625881 -0.20247178610446459 0 -0.47689200255370318 -0.20009185073242439 0 -0.45298200645236802 -0.1897913198415796 0 -0.45326660766625881 -0.20247178610446459 0 -0.46379272433600061 -0.19182157185383869 0 -0.4737016414541646 -0.18715829888746491 0 -0.46379272433600061 -0.19182157185383869 0 -0.47689200255370318 -0.20009185073242439 0 -0.4737016414541646 -0.18715829888746491 0 -0.47689200255370318 -0.20009185073242439 0 -0.49305711007759517 -0.1919912748165743 0 -0.47689200255370318 -0.20009185073242439 0 -0.50000000000000144 -0.19821004122495761 0 -0.47689200255370318 -0.20009185073242439 0 -0.49305711007759517 -0.1919912748165743 0 -0.50000000000000144 -0.19821004122495761 0 -0.50000000000000144 -0.19821004122495761 0 -0.48707392577684222 -0.2129137874648257 0 -0.5 -0.22539803638217171 0 -0.47689200255370318 -0.20009185073242439 0 -0.50000000000000144 -0.19821004122495761 0 -0.48707392577684222 -0.2129137874648257 0 -0.4576649452184634 -0.20704028727385659 0 -0.47483427158538932 -0.2135769991541715 0 -0.47842947440590328 -0.2286081580315579 0 -0.48707392577684222 -0.2129137874648257 0 -0.47483427158538932 -0.2135769991541715 0 -0.47842947440590328 -0.2286081580315579 0 -0.47689200255370318 -0.20009185073242439 0 -0.48707392577684222 -0.2129137874648257 0 -0.47483427158538932 -0.2135769991541715 0 -0.46651021137349641 -0.2058779646648628 0 -0.47689200255370318 -0.20009185073242439 0 -0.47483427158538932 -0.2135769991541715 0 -0.47842947440590328 -0.2286081580315579 0 -0.5 -0.22539803638217171 0 -0.4824752312733584 -0.2457244592886825 0 -0.48707392577684222 -0.2129137874648257 0 -0.47842947440590328 -0.2286081580315579 0 -0.5 -0.22539803638217171 0 -0.5 -0.25258603153938591 0 -0.5 -0.22539803638217171 0 -0.4824752312733584 -0.2457244592886825 0 -0.46676211514085431 -0.25406199841660582 0 -0.4824752312733584 -0.2457244592886825 0 -0.46209949601792322 -0.23959417438541869 0 -0.47842947440590328 -0.2286081580315579 0 -0.4824752312733584 -0.2457244592886825 0 -0.46209949601792322 -0.23959417438541869 0 -0.45222185260284259 -0.25288006385438788 0 -0.46209949601792322 -0.23959417438541869 0 -0.44510226710071238 -0.24133728135806709 0 -0.45222185260284259 -0.25288006385438788 0 -0.46676211514085431 -0.25406199841660582 0 -0.46209949601792322 -0.23959417438541869 0 -0.4576649452184634 -0.20704028727385659 0 -0.47842947440590328 -0.2286081580315579 0 -0.46152142778569638 -0.22392292644956749 0 -0.46209949601792322 -0.23959417438541869 0 -0.46152142778569638 -0.22392292644956749 0 -0.45021857286942668 -0.2295046923564126 0 -0.47842947440590328 -0.2286081580315579 0 -0.46209949601792322 -0.23959417438541869 0 -0.46152142778569638 -0.22392292644956749 0 -0.45269148842731782 -0.21808789391447261 0 -0.46152142778569638 -0.22392292644956749 0 -0.45021857286942668 -0.2295046923564126 0 -0.43304408722517501 -0.23110315869979489 0 -0.45021857286942668 -0.2295046923564126 0 -0.44510226710071238 -0.24133728135806709 0 -0.43304408722517501 -0.23110315869979489 0 -0.4429637911425629 -0.21818831555210719 0 -0.45021857286942668 -0.2295046923564126 0 -0.4429637911425629 -0.21818831555210719 0 -0.45269148842731782 -0.21808789391447261 0 -0.45021857286942668 -0.2295046923564126 0 -0.46209949601792322 -0.23959417438541869 0 -0.45021857286942668 -0.2295046923564126 0 -0.44510226710071238 -0.24133728135806709 0 -0.44064585684077578 -0.25158834746322473 0 -0.43357277536023853 -0.2446274102914045 0 -0.44510226710071238 -0.24133728135806709 0 -0.45222185260284259 -0.25288006385438788 0 -0.44064585684077578 -0.25158834746322473 0 -0.44510226710071238 -0.24133728135806709 0 -0.41457185250098721 -0.04534712977763572 0 -0.42028237900371151 -0.036100812545344051 0 -0.42604690897767777 -0.045316717746571242 0 -0.42028237900371151 -0.036100812545344051 0 -0.40971233996319739 -0.034702654766181368 0 -0.41512013397319808 -0.025064126837107459 0 -0.41457185250098721 -0.04534712977763572 0 -0.42028237900371151 -0.036100812545344051 0 -0.40971233996319739 -0.034702654766181368 0 -0.41457185250098721 -0.04534712977763572 0 -0.40971233996319739 -0.034702654766181368 0 -0.39930924348250307 -0.042359207074795728 0 -0.41457185250098721 -0.04534712977763572 0 -0.42613933571991958 -0.056889191408767387 0 -0.40594090785891412 -0.056714195124154543 0 -0.42613933571991958 -0.056889191408767387 0 -0.40594090785891412 -0.056714195124154543 0 -0.42133385568652021 -0.070424678223932183 0 -0.41457185250098721 -0.04534712977763572 0 -0.39930924348250307 -0.042359207074795728 0 -0.40594090785891412 -0.056714195124154543 0 -0.41457185250098721 -0.04534712977763572 0 -0.42613933571991958 -0.056889191408767387 0 -0.42604690897767777 -0.045316717746571242 0 -0.42613933571991958 -0.056889191408767387 0 -0.44068846754382912 -0.04694728957848298 0 -0.4376373697566559 -0.061843225749982862 0 -0.42613933571991958 -0.056889191408767387 0 -0.42604690897767777 -0.045316717746571242 0 -0.44068846754382912 -0.04694728957848298 0 -0.43092736375567542 -0.036743435165223617 0 -0.44068846754382912 -0.04694728957848298 0 -0.43952720652379601 -0.028532599250374019 0 -0.42604690897767777 -0.045316717746571242 0 -0.43092736375567542 -0.036743435165223617 0 -0.44068846754382912 -0.04694728957848298 0 -0.42028237900371151 -0.036100812545344051 0 -0.42604690897767777 -0.045316717746571242 0 -0.43092736375567542 -0.036743435165223617 0 -0.42028237900371151 -0.036100812545344051 0 -0.43092736375567542 -0.036743435165223617 0 -0.42655061155996138 -0.026553572400419809 0 -0.43092736375567542 -0.036743435165223617 0 -0.42655061155996138 -0.026553572400419809 0 -0.43952720652379601 -0.028532599250374019 0 -0.43136631061012443 -0.01748849875514601 0 -0.42655061155996138 -0.026553572400419809 0 -0.43952720652379601 -0.028532599250374019 0 -0.43136631061012443 -0.01748849875514601 0 -0.44132492131447798 -0.015348435013613059 0 -0.43952720652379601 -0.028532599250374019 0 -0.43136631061012443 -0.01748849875514601 0 -0.42655061155996138 -0.026553572400419809 0 -0.42144072227326412 -0.016316731397541188 0 -0.43472867890711497 -0.007515699242180123 0 -0.42709396837958219 -0.0091186678794108605 0 -0.42767961460457921 -0.0008947937139205266 0 -0.43472867890711497 -0.007515699242180123 0 -0.42767961460457921 -0.0008947937139205266 0 -0.43696864363888321 0.00011989224019765 0 -0.43136631061012443 -0.01748849875514601 0 -0.43472867890711497 -0.007515699242180123 0 -0.42709396837958219 -0.0091186678794108605 0 -0.43136631061012443 -0.01748849875514601 0 -0.43472867890711497 -0.007515699242180123 0 -0.44132492131447798 -0.015348435013613059 0 -0.42709396837958219 -0.0091186678794108605 0 -0.41804932878605622 -0.0051965064190636883 0 -0.42144072227326412 -0.016316731397541188 0 -0.43136631061012443 -0.01748849875514601 0 -0.42709396837958219 -0.0091186678794108605 0 -0.42144072227326412 -0.016316731397541188 0 -0.42767961460457921 -0.0008947937139205266 0 -0.41804932878605622 -0.0051965064190636883 0 -0.42066772791175849 0.0029035805033775812 0 -0.42709396837958219 -0.0091186678794108605 0 -0.42767961460457921 -0.0008947937139205266 0 -0.41804932878605622 -0.0051965064190636883 0 -0.41804932878605622 -0.0051965064190636883 0 -0.41050858580236099 -0.0147759107861615 0 -0.42144072227326412 -0.016316731397541188 0 -0.41804932878605622 -0.0051965064190636883 0 -0.41050858580236099 -0.0147759107861615 0 -0.4069384354289769 -0.003533196189176393 0 -0.41804932878605622 -0.0051965064190636883 0 -0.4069384354289769 -0.003533196189176393 0 -0.41289550855865331 0.00484831356943876 0 -0.42028237900371151 -0.036100812545344051 0 -0.42655061155996138 -0.026553572400419809 0 -0.41512013397319808 -0.025064126837107459 0 -0.41050858580236099 -0.0147759107861615 0 -0.41512013397319808 -0.025064126837107459 0 -0.42144072227326412 -0.016316731397541188 0 -0.42655061155996138 -0.026553572400419809 0 -0.41512013397319808 -0.025064126837107459 0 -0.42144072227326412 -0.016316731397541188 0 -0.41050858580236099 -0.0147759107861615 0 -0.41512013397319808 -0.025064126837107459 0 -0.40145458640720549 -0.024690645646832061 0 -0.40971233996319739 -0.034702654766181368 0 -0.41512013397319808 -0.025064126837107459 0 -0.40145458640720549 -0.024690645646832061 0 -0.40145458640720549 -0.024690645646832061 0 -0.39569485357262513 -0.012062461908013789 0 -0.38871314886362479 -0.030433281309539099 0 -0.41050858580236099 -0.0147759107861615 0 -0.40145458640720549 -0.024690645646832061 0 -0.39569485357262513 -0.012062461908013789 0 -0.4069384354289769 -0.003533196189176393 0 -0.39569485357262513 -0.012062461908013789 0 -0.39832696262503192 0.003233367117420117 0 -0.41050858580236099 -0.0147759107861615 0 -0.4069384354289769 -0.003533196189176393 0 -0.39569485357262513 -0.012062461908013789 0 -0.39569485357262513 -0.012062461908013789 0 -0.38456135371287048 -0.001773788138237574 0 -0.39832696262503192 0.003233367117420117 0 -0.36757837345989042 -0.0048102241571663529 0 -0.38456135371287048 -0.001773788138237574 0 -0.38255326748894908 -0.014083345114371631 0 -0.39569485357262513 -0.012062461908013789 0 -0.38456135371287048 -0.001773788138237574 0 -0.38255326748894908 -0.014083345114371631 0 -0.37179271410235432 -0.021443121908151008 0 -0.38255326748894908 -0.014083345114371631 0 -0.38871314886362479 -0.030433281309539099 0 -0.39569485357262513 -0.012062461908013789 0 -0.38255326748894908 -0.014083345114371631 0 -0.38871314886362479 -0.030433281309539099 0 -0.37179271410235432 -0.021443121908151008 0 -0.38871314886362479 -0.030433281309539099 0 -0.37640703411220622 -0.039937662582346559 0 -0.38871314886362479 -0.030433281309539099 0 -0.37640703411220622 -0.039937662582346559 0 -0.38699786748869303 -0.051647406580055101 0 -0.40145458640720549 -0.024690645646832061 0 -0.38871314886362479 -0.030433281309539099 0 -0.39930924348250307 -0.042359207074795728 0 -0.38871314886362479 -0.030433281309539099 0 -0.39930924348250307 -0.042359207074795728 0 -0.38699786748869303 -0.051647406580055101 0 -0.40971233996319739 -0.034702654766181368 0 -0.40145458640720549 -0.024690645646832061 0 -0.39930924348250307 -0.042359207074795728 0 -0.39930924348250307 -0.042359207074795728 0 -0.40594090785891412 -0.056714195124154543 0 -0.38699786748869303 -0.051647406580055101 0 -0.40594090785891412 -0.056714195124154543 0 -0.38699786748869303 -0.051647406580055101 0 -0.38789292340967418 -0.065097740565350323 0 -0.37012294133868079 -0.060579518736960491 0 -0.37640703411220622 -0.039937662582346559 0 -0.38699786748869303 -0.051647406580055101 0 -0.37012294133868079 -0.060579518736960491 0 -0.38699786748869303 -0.051647406580055101 0 -0.38789292340967418 -0.065097740565350323 0 -0.37488144941763429 -0.080986995089917094 0 -0.37012294133868079 -0.060579518736960491 0 -0.38789292340967418 -0.065097740565350323 0 -0.37488144941763429 -0.080986995089917094 0 -0.38789292340967418 -0.065097740565350323 0 -0.40152145094444891 -0.075560587295664339 0 -0.37488144941763429 -0.080986995089917094 0 -0.40152145094444891 -0.075560587295664339 0 -0.38098934984132787 -0.1017617871931942 0 -0.40152145094444891 -0.075560587295664339 0 -0.38098934984132787 -0.1017617871931942 0 -0.39979193930756712 -0.099400690036153566 0 -0.40152145094444891 -0.075560587295664339 0 -0.39979193930756712 -0.099400690036153566 0 -0.4136309985960791 -0.085559071077590476 0 -0.40152145094444891 -0.075560587295664339 0 -0.39979193930756712 -0.099400690036153566 0 -0.40594090785891412 -0.056714195124154543 0 -0.38789292340967418 -0.065097740565350323 0 -0.40152145094444891 -0.075560587295664339 0 -0.37207337651625699 -0.1184835565399931 0 -0.39806242767068523 -0.12324079277664279 0 -0.37207337651625699 -0.1184835565399931 0 -0.38098934984132787 -0.1017617871931942 0 -0.39806242767068523 -0.12324079277664279 0 -0.38098934984132787 -0.1017617871931942 0 -0.39979193930756712 -0.099400690036153566 0 -0.39806242767068523 -0.12324079277664279 0 -0.39979193930756712 -0.099400690036153566 0 -0.39806242767068523 -0.12324079277664279 0 -0.41581418259300401 -0.1132407315955252 0 -0.39979193930756712 -0.099400690036153566 0 -0.39806242767068523 -0.12324079277664279 0 -0.42194733871046958 -0.1276128709888264 0 -0.39806242767068523 -0.12324079277664279 0 -0.41581418259300401 -0.1132407315955252 0 -0.39979193930756712 -0.099400690036153566 0 -0.41581418259300401 -0.1132407315955252 0 -0.4194518258947037 -0.098043970561960514 0 -0.39979193930756712 -0.099400690036153566 0 -0.4194518258947037 -0.098043970561960514 0 -0.4136309985960791 -0.085559071077590476 0 -0.41581418259300401 -0.1132407315955252 0 -0.4194518258947037 -0.098043970561960514 0 -0.42469066172540021 -0.1073629175202313 0 -0.4194518258947037 -0.098043970561960514 0 -0.43178433375654829 -0.1018248632692417 0 -0.4294077863300364 -0.093697354599508745 0 -0.43178433375654829 -0.1018248632692417 0 -0.4294077863300364 -0.093697354599508745 0 -0.43896896068185182 -0.094220264276766524 0 -0.43178433375654829 -0.1018248632692417 0 -0.43902178152770011 -0.1011652457877541 0 -0.43896896068185182 -0.094220264276766524 0 -0.43178433375654829 -0.1018248632692417 0 -0.43278669566013872 -0.1084438371504917 0 -0.42469066172540021 -0.1073629175202313 0 -0.43178433375654829 -0.1018248632692417 0 -0.43726072697709339 -0.10551265917860229 0 -0.43278669566013872 -0.1084438371504917 0 -0.43178433375654829 -0.1018248632692417 0 -0.43726072697709339 -0.10551265917860229 0 -0.43902178152770011 -0.1011652457877541 0 -0.43726072697709339 -0.10551265917860229 0 -0.43278669566013872 -0.1084438371504917 0 -0.43857282765770128 -0.11048304916081531 0 -0.4194518258947037 -0.098043970561960514 0 -0.43178433375654829 -0.1018248632692417 0 -0.42469066172540021 -0.1073629175202313 0 -0.41581418259300401 -0.1132407315955252 0 -0.42469066172540021 -0.1073629175202313 0 -0.43143380359034789 -0.11368954625772219 0 -0.43278669566013872 -0.1084438371504917 0 -0.42469066172540021 -0.1073629175202313 0 -0.43143380359034789 -0.11368954625772219 0 -0.43278669566013872 -0.1084438371504917 0 -0.43418444526082839 -0.1123260778756664 0 -0.43143380359034789 -0.11368954625772219 0 -0.43278669566013872 -0.1084438371504917 0 -0.43418444526082839 -0.1123260778756664 0 -0.43857282765770128 -0.11048304916081531 0 -0.43418444526082839 -0.1123260778756664 0 -0.43385122713749252 -0.116761248397552 0 -0.43857282765770128 -0.11048304916081531 0 -0.43418444526082839 -0.1123260778756664 0 -0.43385122713749252 -0.116761248397552 0 -0.43143380359034789 -0.11368954625772219 0 -0.43385122713749252 -0.116761248397552 0 -0.43143380359034789 -0.11368954625772219 0 -0.42194733871046958 -0.1276128709888264 0 -0.41581418259300401 -0.1132407315955252 0 -0.43143380359034789 -0.11368954625772219 0 -0.42194733871046958 -0.1276128709888264 0 -0.43385122713749252 -0.116761248397552 0 -0.43143380359034789 -0.11368954625772219 0 -0.40594090785891412 -0.056714195124154543 0 -0.40152145094444891 -0.075560587295664339 0 -0.42133385568652021 -0.070424678223932183 0 -0.40152145094444891 -0.075560587295664339 0 -0.42133385568652021 -0.070424678223932183 0 -0.4136309985960791 -0.085559071077590476 0 -0.4194518258947037 -0.098043970561960514 0 -0.4136309985960791 -0.085559071077590476 0 -0.42605592114715568 -0.084365429270241737 0 -0.42133385568652021 -0.070424678223932183 0 -0.4136309985960791 -0.085559071077590476 0 -0.42605592114715568 -0.084365429270241737 0 -0.4194518258947037 -0.098043970561960514 0 -0.42605592114715568 -0.084365429270241737 0 -0.4294077863300364 -0.093697354599508745 0 -0.4294077863300364 -0.093697354599508745 0 -0.43506034963618562 -0.086787482227198065 0 -0.43896896068185182 -0.094220264276766524 0 -0.42605592114715568 -0.084365429270241737 0 -0.4294077863300364 -0.093697354599508745 0 -0.43506034963618562 -0.086787482227198065 0 -0.42605592114715568 -0.084365429270241737 0 -0.43506034963618562 -0.086787482227198065 0 -0.43810234091994471 -0.073729752138939481 0 -0.42133385568652021 -0.070424678223932183 0 -0.43810234091994471 -0.073729752138939481 0 -0.4376373697566559 -0.061843225749982862 0 -0.42133385568652021 -0.070424678223932183 0 -0.42605592114715568 -0.084365429270241737 0 -0.43810234091994471 -0.073729752138939481 0 -0.42613933571991958 -0.056889191408767387 0 -0.42133385568652021 -0.070424678223932183 0 -0.4376373697566559 -0.061843225749982862 0 -0.45047383451480721 -0.075399297620012878 0 -0.4376373697566559 -0.061843225749982862 0 -0.44935860203749878 -0.063599764897124988 0 -0.45047383451480721 -0.075399297620012878 0 -0.4376373697566559 -0.061843225749982862 0 -0.44935860203749878 -0.063599764897124988 0 -0.45047383451480721 -0.075399297620012878 0 -0.45765396081351878 -0.076368262872560627 0 -0.45047383451480721 -0.075399297620012878 0 -0.43810234091994471 -0.073729752138939481 0 -0.45047383451480721 -0.075399297620012878 0 -0.43810234091994471 -0.073729752138939481 0 -0.4376373697566559 -0.061843225749982862 0 -0.45047383451480721 -0.075399297620012878 0 -0.43810234091994471 -0.073729752138939481 0 -0.44331315827114098 -0.084044524813731813 0 -0.43506034963618562 -0.086787482227198065 0 -0.43810234091994471 -0.073729752138939481 0 -0.44331315827114098 -0.084044524813731813 0 -0.44331315827114098 -0.084044524813731813 0 -0.44926529662418441 -0.091806989569102201 0 -0.43896896068185182 -0.094220264276766524 0 -0.43506034963618562 -0.086787482227198065 0 -0.44331315827114098 -0.084044524813731813 0 -0.43896896068185182 -0.094220264276766524 0 -0.44926529662418441 -0.091806989569102201 0 -0.45041671880036449 -0.083334120937073403 0 -0.45810922422242201 -0.083462724239588587 0 -0.44331315827114098 -0.084044524813731813 0 -0.44926529662418441 -0.091806989569102201 0 -0.45041671880036449 -0.083334120937073403 0 -0.45047383451480721 -0.075399297620012878 0 -0.44331315827114098 -0.084044524813731813 0 -0.45041671880036449 -0.083334120937073403 0 -0.45047383451480721 -0.075399297620012878 0 -0.45041671880036449 -0.083334120937073403 0 -0.45810922422242201 -0.083462724239588587 0 -0.45047383451480721 -0.075399297620012878 0 -0.45810922422242201 -0.083462724239588587 0 -0.45765396081351878 -0.076368262872560627 0 -0.45047383451480721 -0.075399297620012878 0 -0.45810922422242201 -0.083462724239588587 0 -0.45810922422242201 -0.083462724239588587 0 -0.47614298236278912 -0.102507447692934 0 -0.45810922422242201 -0.083462724239588587 0 -0.45765396081351878 -0.076368262872560627 0 -0.47882698040675931 -0.079225583123467669 0 -0.45810922422242201 -0.083462724239588587 0 -0.45765396081351878 -0.076368262872560627 0 -0.45810922422242201 -0.083462724239588587 0 -0.45907313040108222 -0.098483468301647115 0 -0.44926529662418441 -0.091806989569102201 0 -0.45810922422242201 -0.083462724239588587 0 -0.45907313040108222 -0.098483468301647115 0 -0.45765396081351878 -0.076368262872560627 0 -0.4704499727458894 -0.064119606121257139 0 -0.45621416071271848 -0.053931568001760022 0 -0.44935860203749878 -0.063599764897124988 0 -0.45765396081351878 -0.076368262872560627 0 -0.45621416071271848 -0.053931568001760022 0 -0.45765396081351878 -0.076368262872560627 0 -0.45621416071271848 -0.053931568001760022 0 -0.45765396081351878 -0.076368262872560627 0 -0.47882698040675931 -0.079225583123467669 0 -0.45047383451480721 -0.075399297620012878 0 -0.45765396081351878 -0.076368262872560627 0 -0.43385122713749252 -0.116761248397552 0 -0.43857282765770128 -0.11048304916081531 0 -0.45504371824895762 -0.1095976633132854 0 -0.43385122713749252 -0.116761248397552 0 -0.45504371824895762 -0.1095976633132854 0 -0.43385122713749252 -0.116761248397552 0 -0.44853565327852579 -0.11666691754321031 0 -0.45504371824895762 -0.1095976633132854 0 -0.45117469869236099 -0.12596585324262019 0 -0.45244287129772542 -0.1211232133666839 0 -0.44865149131185839 -0.12312739363448411 0 -0.45117469869236099 -0.12596585324262019 0 -0.45539653733217222 -0.12545559542262799 0 -0.45244287129772542 -0.1211232133666839 0 -0.45244287129772542 -0.1211232133666839 0 -0.44712104520399859 -0.11981681228871879 0 -0.44865149131185839 -0.12312739363448411 0 -0.45244287129772542 -0.1211232133666839 0 -0.44712104520399859 -0.11981681228871879 0 -0.44853565327852579 -0.11666691754321031 0 -0.45244287129772542 -0.1211232133666839 0 -0.44853565327852579 -0.11666691754321031 0 -0.45524067765155363 -0.1171932585115672 0 -0.44712104520399859 -0.11981681228871879 0 -0.44280625931104323 -0.1201210342559401 0 -0.44853565327852579 -0.11666691754321031 0 -0.44712104520399859 -0.11981681228871879 0 -0.44558916528111081 -0.1228665944867183 0 -0.44865149131185839 -0.12312739363448411 0 -0.44766065804060201 -0.12558495987423199 0 -0.44558916528111081 -0.1228665944867183 0 -0.44865149131185839 -0.12312739363448411 0 -0.45117469869236099 -0.12596585324262019 0 -0.44766065804060201 -0.12558495987423199 0 -0.44865149131185839 -0.12312739363448411 0 -0.44766065804060201 -0.12558495987423199 0 -0.44448440810547241 -0.12514733795847099 0 -0.44558916528111081 -0.1228665944867183 0 -0.44448440810547241 -0.12514733795847099 0 -0.43385122713749252 -0.116761248397552 0 -0.44280625931104323 -0.1201210342559401 0 -0.44448440810547241 -0.12514733795847099 0 -0.44558916528111081 -0.1228665944867183 0 -0.44280625931104323 -0.1201210342559401 0 -0.43385122713749252 -0.116761248397552 0 -0.44280625931104323 -0.1201210342559401 0 -0.44853565327852579 -0.11666691754321031 0 -0.44583224975025348 -0.131984949201012 0 -0.44448440810547241 -0.12514733795847099 0 -0.43385122713749252 -0.116761248397552 0 -0.44583224975025348 -0.131984949201012 0 -0.43385122713749252 -0.116761248397552 0 -0.44712104520399859 -0.11981681228871879 0 -0.44558916528111081 -0.1228665944867183 0 -0.44280625931104323 -0.1201210342559401 0 -0.44853565327852579 -0.11666691754321031 0 -0.45504371824895762 -0.1095976633132854 0 -0.45524067765155363 -0.1171932585115672 0 -0.43857282765770128 -0.11048304916081531 0 -0.44395199580770001 -0.10457917465418839 0 -0.45504371824895762 -0.1095976633132854 0 -0.44395199580770001 -0.10457917465418839 0 -0.45042438766525927 -0.10041284379070251 0 -0.45504371824895762 -0.1095976633132854 0 -0.43726072697709339 -0.10551265917860229 0 -0.43857282765770128 -0.11048304916081531 0 -0.44395199580770001 -0.10457917465418839 0 -0.43726072697709339 -0.10551265917860229 0 -0.44395199580770001 -0.10457917465418839 0 -0.43902178152770011 -0.1011652457877541 0 -0.44926529662418441 -0.091806989569102201 0 -0.4443264844613391 -0.098436903615702745 0 -0.43896896068185182 -0.094220264276766524 0 -0.44395199580770001 -0.10457917465418839 0 -0.4443264844613391 -0.098436903615702745 0 -0.43902178152770011 -0.1011652457877541 0 -0.4443264844613391 -0.098436903615702745 0 -0.43902178152770011 -0.1011652457877541 0 -0.43896896068185182 -0.094220264276766524 0 -0.44926529662418441 -0.091806989569102201 0 -0.45042438766525927 -0.10041284379070251 0 -0.45907313040108222 -0.098483468301647115 0 -0.44926529662418441 -0.091806989569102201 0 -0.4443264844613391 -0.098436903615702745 0 -0.45042438766525927 -0.10041284379070251 0 -0.44395199580770001 -0.10457917465418839 0 -0.4443264844613391 -0.098436903615702745 0 -0.45042438766525927 -0.10041284379070251 0 -0.45907313040108222 -0.098483468301647115 0 -0.45504371824895762 -0.1095976633132854 0 -0.47614298236278912 -0.102507447692934 0 -0.45810922422242201 -0.083462724239588587 0 -0.45907313040108222 -0.098483468301647115 0 -0.47614298236278912 -0.102507447692934 0 -0.45504371824895762 -0.1095976633132854 0 -0.46863171190587483 -0.1139699568807138 0 -0.47614298236278912 -0.102507447692934 0 -0.45504371824895762 -0.1095976633132854 0 -0.47614298236278912 -0.102507447692934 0 -0.45042438766525927 -0.10041284379070251 0 -0.45907313040108222 -0.098483468301647115 0 -0.45504371824895762 -0.1095976633132854 0 -0.45504371824895762 -0.1095976633132854 0 -0.46108815296683081 -0.11633692247049029 0 -0.45524067765155363 -0.1171932585115672 0 -0.45504371824895762 -0.1095976633132854 0 -0.46863171190587483 -0.1139699568807138 0 -0.46108815296683081 -0.11633692247049029 0 -0.46863171190587483 -0.1139699568807138 0 -0.46108815296683081 -0.11633692247049029 0 -0.46507328822458682 -0.12087848769126951 0 -0.46108815296683081 -0.11633692247049029 0 -0.46507328822458682 -0.12087848769126951 0 -0.45909299246572871 -0.1222415758641663 0 -0.46863171190587483 -0.1139699568807138 0 -0.46507328822458682 -0.12087848769126951 0 -0.4711255946834868 -0.1221130577205941 0 -0.46726250346820047 -0.12635147961206439 0 -0.46507328822458682 -0.12087848769126951 0 -0.4711255946834868 -0.1221130577205941 0 -0.4626261759020317 -0.12531455756019599 0 -0.46726250346820047 -0.12635147961206439 0 -0.46507328822458682 -0.12087848769126951 0 -0.4626261759020317 -0.12531455756019599 0 -0.46507328822458682 -0.12087848769126951 0 -0.45909299246572871 -0.1222415758641663 0 -0.46108815296683081 -0.11633692247049029 0 -0.45909299246572871 -0.1222415758641663 0 -0.45524067765155363 -0.1171932585115672 0 -0.45244287129772542 -0.1211232133666839 0 -0.45909299246572871 -0.1222415758641663 0 -0.45524067765155363 -0.1171932585115672 0 -0.45539653733217222 -0.12545559542262799 0 -0.45244287129772542 -0.1211232133666839 0 -0.45909299246572871 -0.1222415758641663 0 -0.46863171190587483 -0.1139699568807138 0 -0.47674800578399501 -0.1190720114025564 0 -0.47614298236278912 -0.102507447692934 0 -0.47674800578399501 -0.1190720114025564 0 -0.47614298236278912 -0.102507447692934 0 -0.48441318156654811 -0.1223206888271833 0 -0.4818767811562561 -0.1254679332663548 0 -0.47674800578399501 -0.1190720114025564 0 -0.48441318156654811 -0.1223206888271833 0 -0.47718082283958008 -0.12518982884347879 0 -0.4818767811562561 -0.1254679332663548 0 -0.47674800578399501 -0.1190720114025564 0 -0.47180153323375063 -0.12730264353818041 0 -0.47718082283958008 -0.12518982884347879 0 -0.4711255946834868 -0.1221130577205941 0 -0.47718082283958008 -0.12518982884347879 0 -0.47674800578399501 -0.1190720114025564 0 -0.4711255946834868 -0.1221130577205941 0 -0.46863171190587483 -0.1139699568807138 0 -0.47674800578399501 -0.1190720114025564 0 -0.4711255946834868 -0.1221130577205941 0 -0.50000000000000144 -0.094490514107299917 0 -0.4929988400556663 -0.11018502543852481 0 -0.5 -0.1204203958867144 0 -0.47614298236278912 -0.102507447692934 0 -0.50000000000000144 -0.094490514107299917 0 -0.48838348132257919 -0.088286708740837147 0 -0.47614298236278912 -0.102507447692934 0 -0.50000000000000144 -0.094490514107299917 0 -0.47614298236278912 -0.102507447692934 0 -0.50000000000000144 -0.094490514107299917 0 -0.4929988400556663 -0.11018502543852481 0 -0.47614298236278912 -0.102507447692934 0 -0.4958523778598759 -0.1233217440671501 0 -0.48441318156654811 -0.1223206888271833 0 -0.47614298236278912 -0.102507447692934 0 -0.4929988400556663 -0.11018502543852481 0 -0.4958523778598759 -0.1233217440671501 0 -0.47614298236278912 -0.102507447692934 0 -0.4958523778598759 -0.1233217440671501 0 -0.4929988400556663 -0.11018502543852481 0 -0.4958523778598759 -0.1233217440671501 0 -0.5 -0.1204203958867144 0 -0.45765396081351878 -0.076368262872560627 0 -0.4704499727458894 -0.064119606121257139 0 -0.47882698040675931 -0.079225583123467669 0 -0.4704499727458894 -0.064119606121257139 0 -0.47882698040675931 -0.079225583123467669 0 -0.4853946116554031 -0.064390169477091974 0 -0.47614298236278912 -0.102507447692934 0 -0.47882698040675931 -0.079225583123467669 0 -0.48838348132257919 -0.088286708740837147 0 -0.45810922422242201 -0.083462724239588587 0 -0.47614298236278912 -0.102507447692934 0 -0.47882698040675931 -0.079225583123467669 0 -0.47882698040675931 -0.079225583123467669 0 -0.49999999999999989 -0.082082903374374419 0 -0.47882698040675931 -0.079225583123467669 0 -0.48838348132257919 -0.088286708740837147 0 -0.49999999999999989 -0.082082903374374419 0 -0.50000000000000144 -0.094490514107299917 0 -0.48838348132257919 -0.088286708740837147 0 -0.49999999999999989 -0.082082903374374419 0 -0.47882698040675931 -0.079225583123467669 0 -0.49999999999999989 -0.082082903374374419 0 -0.4853946116554031 -0.064390169477091974 0 -0.49999999999999989 -0.082082903374374419 0 -0.4853946116554031 -0.064390169477091974 0 -0.5 -0.052281400376769198 0 -0.4853946116554031 -0.064390169477091974 0 -0.5 -0.052281400376769198 0 -0.47769610512436672 -0.044241354389591418 0 -0.5 -0.052281400376769198 0 -0.47769610512436672 -0.044241354389591418 0 -0.5 -0.022479897379164119 0 -0.47769610512436672 -0.044241354389591418 0 -0.45477436061191667 -0.0314948731309595 0 -0.47543639000632198 -0.021033181478108141 0 -0.4704499727458894 -0.064119606121257139 0 -0.4853946116554031 -0.064390169477091974 0 -0.47769610512436672 -0.044241354389591418 0 -0.4704499727458894 -0.064119606121257139 0 -0.47769610512436672 -0.044241354389591418 0 -0.45621416071271848 -0.053931568001760022 0 -0.45621416071271848 -0.053931568001760022 0 -0.45477436061191667 -0.0314948731309595 0 -0.47769610512436672 -0.044241354389591418 0 -0.45621416071271848 -0.053931568001760022 0 -0.45477436061191667 -0.0314948731309595 0 -0.45477436061191667 -0.0314948731309595 0 -0.44068846754382912 -0.04694728957848298 0 -0.43952720652379601 -0.028532599250374019 0 -0.45621416071271848 -0.053931568001760022 0 -0.45477436061191667 -0.0314948731309595 0 -0.44068846754382912 -0.04694728957848298 0 -0.44935860203749878 -0.063599764897124988 0 -0.45621416071271848 -0.053931568001760022 0 -0.44068846754382912 -0.04694728957848298 0 -0.44935860203749878 -0.063599764897124988 0 -0.44068846754382912 -0.04694728957848298 0 -0.4376373697566559 -0.061843225749982862 0 -0.44255589452360272 -0.0060819014742082202 0 -0.44132492131447798 -0.015348435013613059 0 -0.45333456051111498 -0.0090581782601590818 0 -0.44916849309052159 -0.0039136370942430424 0 -0.44255589452360272 -0.0060819014742082202 0 -0.45333456051111498 -0.0090581782601590818 0 -0.43472867890711497 -0.007515699242180123 0 -0.44255589452360272 -0.0060819014742082202 0 -0.43696864363888321 0.00011989224019765 0 -0.44916849309052159 -0.0039136370942430424 0 -0.44255589452360272 -0.0060819014742082202 0 -0.44289672174391681 0.001146540527056817 0 -0.44255589452360272 -0.0060819014742082202 0 -0.44289672174391681 0.001146540527056817 0 -0.43696864363888321 0.00011989224019765 0 -0.43472867890711497 -0.007515699242180123 0 -0.44255589452360272 -0.0060819014742082202 0 -0.44132492131447798 -0.015348435013613059 0 -0.45477436061191667 -0.0314948731309595 0 -0.44132492131447798 -0.015348435013613059 0 -0.43952720652379601 -0.028532599250374019 0 -0.45477436061191667 -0.0314948731309595 0 -0.44132492131447798 -0.015348435013613059 0 -0.45333456051111498 -0.0090581782601590818 0 -0.45477436061191667 -0.0314948731309595 0 -0.4660541532313896 -0.0098131270303466554 0 -0.47543639000632198 -0.021033181478108141 0 -0.45477436061191667 -0.0314948731309595 0 -0.45333456051111498 -0.0090581782601590818 0 -0.45477436061191667 -0.0314948731309595 0 -0.4660541532313896 -0.0098131270303466554 0 -0.45333456051111498 -0.0090581782601590818 0 -0.44916849309052159 -0.0039136370942430424 0 -0.45333456051111498 -0.0090581782601590818 0 -0.45797355213958779 -0.00084695390231243691 0 -0.4660541532313896 -0.0098131270303466554 0 -0.45333456051111498 -0.0090581782601590818 0 -0.45797355213958779 -0.00084695390231243691 0 -0.4660541532313896 -0.0098131270303466554 0 -0.45797355213958779 -0.00084695390231243691 0 -0.46437454797946631 0.002863953706282004 0 -0.4660541532313896 -0.0098131270303466554 0 -0.47995313254169419 -6.364902110767993e-06 0 -0.46437454797946631 0.002863953706282004 0 -0.4660541532313896 -0.0098131270303466554 0 -0.47995313254169419 -6.364902110767993e-06 0 -0.47543639000632198 -0.021033181478108141 0 -0.47769610512436672 -0.044241354389591418 0 -0.47543639000632198 -0.021033181478108141 0 -0.5 -0.022479897379164119 0 -0.47995313254169419 -6.364902110767993e-06 0 -0.47543639000632198 -0.021033181478108141 0 -0.5 -0.022479897379164119 0 -0.47995313254169419 -6.364902110767993e-06 0 -0.5 -0.022479897379164119 0 -0.5 0.0073216056184410849 0 -0.47995313254169419 -6.364902110767993e-06 0 -0.5 0.0073216056184410849 0 -0.48206333121684208 0.018401807750296949 0 -0.5 0.0073216056184410849 0 -0.48206333121684208 0.018401807750296949 0 -0.5 0.03712310861604623 0 -0.48206333121684208 0.018401807750296949 0 -0.5 0.03712310861604623 0 -0.47906808977571141 0.035913278402530197 0 -0.48206333121684208 0.018401807750296949 0 -0.469975148281429 0.023441559306123381 0 -0.47906808977571141 0.035913278402530197 0 -0.48206333121684208 0.018401807750296949 0 -0.469975148281429 0.023441559306123381 0 -0.47066043318097572 0.01207743500549923 0 -0.47995313254169419 -6.364902110767993e-06 0 -0.48206333121684208 0.018401807750296949 0 -0.47066043318097572 0.01207743500549923 0 -0.47995313254169419 -6.364902110767993e-06 0 -0.47066043318097572 0.01207743500549923 0 -0.46437454797946631 0.002863953706282004 0 -0.5 0.03712310861604623 0 -0.48746868697797152 0.046250433479170773 0 -0.5 0.066924611613651097 0 -0.48686673200288361 0.061532952036517721 0 -0.48746868697797152 0.046250433479170773 0 -0.5 0.066924611613651097 0 -0.48686673200288361 0.061532952036517721 0 -0.48746868697797152 0.046250433479170773 0 -0.48192391067116491 0.052549223593549237 0 -0.5 0.03712310861604623 0 -0.48746868697797152 0.046250433479170773 0 -0.47906808977571141 0.035913278402530197 0 -0.47218354421684999 0.043660785629519069 0 -0.47247103147529601 0.054885931689199932 0 -0.46470351868037141 0.035286075428052198 0 -0.469975148281429 0.023441559306123381 0 -0.47906808977571141 0.035913278402530197 0 -0.46470351868037141 0.035286075428052198 0 -0.47906808977571141 0.035913278402530197 0 -0.47218354421684999 0.043660785629519069 0 -0.46470351868037141 0.035286075428052198 0 -0.48746868697797152 0.046250433479170773 0 -0.47906808977571141 0.035913278402530197 0 -0.47891564883744647 0.047753891773470447 0 -0.47906808977571141 0.035913278402530197 0 -0.47218354421684999 0.043660785629519069 0 -0.47891564883744647 0.047753891773470447 0 -0.47444457486635799 0.05465961708503804 0 -0.47247103147529601 0.054885931689199932 0 -0.48003796552358718 0.073979665243264603 0 -0.48746868697797152 0.046250433479170773 0 -0.48192391067116491 0.052549223593549237 0 -0.47891564883744647 0.047753891773470447 0 -0.48192391067116491 0.052549223593549237 0 -0.47891564883744647 0.047753891773470447 0 -0.47444457486635799 0.05465961708503804 0 -0.47218354421684999 0.043660785629519069 0 -0.47450369984898771 0.050240056544306883 0 -0.47247103147529601 0.054885931689199932 0 -0.47218354421684999 0.043660785629519069 0 -0.47891564883744647 0.047753891773470447 0 -0.47450369984898771 0.050240056544306883 0 -0.47450369984898771 0.050240056544306883 0 -0.47444457486635799 0.05465961708503804 0 -0.47247103147529601 0.054885931689199932 0 -0.47891564883744647 0.047753891773470447 0 -0.47450369984898771 0.050240056544306883 0 -0.47444457486635799 0.05465961708503804 0 -0.47444457486635799 0.05465961708503804 0 -0.47247103147529601 0.054885931689199932 0 -0.48686673200288361 0.061532952036517721 0 -0.48192391067116491 0.052549223593549237 0 -0.47444457486635799 0.05465961708503804 0 -0.45992424767719581 0.05632472468540857 0 -0.45638298360043478 0.039926112218920777 0 -0.45992424767719581 0.05632472468540857 0 -0.45638298360043478 0.039926112218920777 0 -0.4633704453583245 0.046605711005395373 0 -0.47247103147529601 0.054885931689199932 0 -0.45992424767719581 0.05632472468540857 0 -0.46706764060460337 0.064727216615053845 0 -0.47247103147529601 0.054885931689199932 0 -0.45992424767719581 0.05632472468540857 0 -0.47247103147529601 0.054885931689199932 0 -0.45992424767719581 0.05632472468540857 0 -0.4633704453583245 0.046605711005395373 0 -0.45638298360043478 0.039926112218920777 0 -0.45284171952367669 0.023527499752432419 0 -0.45638298360043478 0.039926112218920777 0 -0.45072765856425778 0.035950805715256287 0 -0.45284171952367669 0.023527499752432419 0 -0.47247103147529601 0.054885931689199932 0 -0.46470351868037141 0.035286075428052198 0 -0.45638298360043478 0.039926112218920777 0 -0.46470351868037141 0.035286075428052198 0 -0.45284171952367669 0.023527499752432419 0 -0.45992424767719581 0.05632472468540857 0 -0.45638298360043478 0.039926112218920777 0 -0.45281865280903449 0.042801314576665313 0 -0.47247103147529601 0.054885931689199932 0 -0.4633704453583245 0.046605711005395373 0 -0.46470351868037141 0.035286075428052198 0 -0.45638298360043478 0.039926112218920777 0 -0.45072765856425778 0.035950805715256287 0 -0.45281865280903449 0.042801314576665313 0 -0.45638298360043478 0.039926112218920777 0 -0.4633704453583245 0.046605711005395373 0 -0.46470351868037141 0.035286075428052198 0 -0.43942456309449202 0.033692434462149222 0 -0.45281865280903449 0.042801314576665313 0 -0.42834040304470361 0.047507242962797638 0 -0.45281865280903449 0.042801314576665313 0 -0.42834040304470361 0.047507242962797638 0 -0.44766561145451012 0.031287343589831561 0 -0.45072765856425778 0.035950805715256287 0 -0.43942456309449202 0.033692434462149222 0 -0.45072765856425778 0.035950805715256287 0 -0.43942456309449202 0.033692434462149222 0 -0.45281865280903449 0.042801314576665313 0 -0.45992424767719581 0.05632472468540857 0 -0.43631302489030122 0.059032323901618597 0 -0.45281865280903449 0.042801314576665313 0 -0.43631302489030122 0.059032323901618597 0 -0.42834040304470361 0.047507242962797638 0 -0.45992424767719581 0.05632472468540857 0 -0.45281865280903449 0.042801314576665313 0 -0.43631302489030122 0.059032323901618597 0 -0.45992424767719581 0.05632472468540857 0 -0.43631302489030122 0.059032323901618597 0 -0.4497782442989755 0.067567928919055525 0 -0.45797355213958779 -0.00084695390231243691 0 -0.46437454797946631 0.002863953706282004 0 -0.45693600588544647 0.015686219166904589 0 -0.44916849309052159 -0.0039136370942430424 0 -0.45797355213958779 -0.00084695390231243691 0 -0.45693600588544647 0.015686219166904589 0 -0.47066043318097572 0.01207743500549923 0 -0.46437454797946631 0.002863953706282004 0 -0.45693600588544647 0.015686219166904589 0 -0.469975148281429 0.023441559306123381 0 -0.47066043318097572 0.01207743500549923 0 -0.45693600588544647 0.015686219166904589 0 -0.469975148281429 0.023441559306123381 0 -0.46470351868037141 0.035286075428052198 0 -0.45693600588544647 0.015686219166904589 0 -0.46470351868037141 0.035286075428052198 0 -0.45693600588544647 0.015686219166904589 0 -0.45284171952367669 0.023527499752432419 0 -0.46470351868037141 0.035286075428052198 0 -0.45693600588544647 0.015686219166904589 0 -0.45284171952367669 0.023527499752432419 0 -0.44428678815386119 0.026516842998435111 0 -0.44252778980976171 0.01917059301448194 0 -0.45693600588544647 0.015686219166904589 0 -0.44846134894337292 0.015845514814816039 0 -0.45284171952367669 0.023527499752432419 0 -0.44846134894337292 0.015845514814816039 0 -0.45284171952367669 0.023527499752432419 0 -0.44252778980976171 0.01917059301448194 0 -0.44766561145451012 0.031287343589831561 0 -0.45072765856425778 0.035950805715256287 0 -0.45284171952367669 0.023527499752432419 0 -0.44766561145451012 0.031287343589831561 0 -0.45284171952367669 0.023527499752432419 0 -0.44428678815386119 0.026516842998435111 0 -0.44766561145451012 0.031287343589831561 0 -0.43942456309449202 0.033692434462149222 0 -0.44428678815386119 0.026516842998435111 0 -0.43942456309449202 0.033692434462149222 0 -0.44428678815386119 0.026516842998435111 0 -0.43974385592081622 0.025428605632503449 0 -0.44428678815386119 0.026516842998435111 0 -0.43974385592081622 0.025428605632503449 0 -0.44252778980976171 0.01917059301448194 0 -0.43974385592081622 0.025428605632503449 0 -0.44252778980976171 0.01917059301448194 0 -0.43273628262515013 0.022334552054947519 0 -0.44846134894337292 0.015845514814816039 0 -0.44252778980976171 0.01917059301448194 0 -0.44251298012526402 0.01281750581483544 0 -0.44916849309052159 -0.0039136370942430424 0 -0.45693600588544647 0.015686219166904589 0 -0.44665056972176742 0.0083862216144253588 0 -0.44252778980976171 0.01917059301448194 0 -0.44251298012526402 0.01281750581483544 0 -0.43578518440660913 0.01346307228134154 0 -0.44916849309052159 -0.0039136370942430424 0 -0.45693600588544647 0.015686219166904589 0 -0.44251298012526402 0.01281750581483544 0 -0.43914000774480899 0.0072221273491123346 0 -0.43578518440660913 0.01346307228134154 0 -0.44251298012526402 0.01281750581483544 0 -0.44665056972176742 0.0083862216144253588 0 -0.43914000774480899 0.0072221273491123346 0 -0.44846134894337292 0.015845514814816039 0 -0.44251298012526402 0.01281750581483544 0 -0.44665056972176742 0.0083862216144253588 0 -0.45693600588544647 0.015686219166904589 0 -0.44846134894337292 0.015845514814816039 0 -0.44665056972176742 0.0083862216144253588 0 -0.44916849309052159 -0.0039136370942430424 0 -0.44665056972176742 0.0083862216144253588 0 -0.44289672174391681 0.001146540527056817 0 -0.44665056972176742 0.0083862216144253588 0 -0.44289672174391681 0.001146540527056817 0 -0.43914000774480899 0.0072221273491123346 0 -0.44289672174391681 0.001146540527056817 0 -0.43914000774480899 0.0072221273491123346 0 -0.43696864363888321 0.00011989224019765 0 -0.42767961460457921 -0.0008947937139205266 0 -0.43696864363888321 0.00011989224019765 0 -0.43236189167207151 0.0065051017336685783 0 -0.43914000774480899 0.0072221273491123346 0 -0.43696864363888321 0.00011989224019765 0 -0.43236189167207151 0.0065051017336685783 0 -0.43236189167207151 0.0065051017336685783 0 -0.43578518440660913 0.01346307228134154 0 -0.42742010512482298 0.01351639346401327 0 -0.43914000774480899 0.0072221273491123346 0 -0.43236189167207151 0.0065051017336685783 0 -0.43578518440660913 0.01346307228134154 0 -0.42742010512482298 0.01351639346401327 0 -0.41943047034804881 0.0098471418849402775 0 -0.42021274324406832 0.01723782976646928 0 -0.42742010512482298 0.01351639346401327 0 -0.42528371726145542 0.0059137471954930822 0 -0.41943047034804881 0.0098471418849402775 0 -0.43236189167207151 0.0065051017336685783 0 -0.42742010512482298 0.01351639346401327 0 -0.42528371726145542 0.0059137471954930822 0 -0.42767961460457921 -0.0008947937139205266 0 -0.43236189167207151 0.0065051017336685783 0 -0.42528371726145542 0.0059137471954930822 0 -0.42767961460457921 -0.0008947937139205266 0 -0.42528371726145542 0.0059137471954930822 0 -0.42066772791175849 0.0029035805033775812 0 -0.41804932878605622 -0.0051965064190636883 0 -0.42066772791175849 0.0029035805033775812 0 -0.41289550855865331 0.00484831356943876 0 -0.42066772791175849 0.0029035805033775812 0 -0.41943047034804881 0.0098471418849402775 0 -0.41289550855865331 0.00484831356943876 0 -0.42528371726145542 0.0059137471954930822 0 -0.42066772791175849 0.0029035805033775812 0 -0.41943047034804881 0.0098471418849402775 0 -0.41943047034804881 0.0098471418849402775 0 -0.41350682688887891 0.015227694689612039 0 -0.41289550855865331 0.00484831356943876 0 -0.41943047034804881 0.0098471418849402775 0 -0.41350682688887891 0.015227694689612039 0 -0.42021274324406832 0.01723782976646928 0 -0.41350682688887891 0.015227694689612039 0 -0.40696984225439747 0.012242573757681421 0 -0.41289550855865331 0.00484831356943876 0 -0.4069384354289769 -0.003533196189176393 0 -0.41289550855865331 0.00484831356943876 0 -0.40551884335910371 0.0048743171964214941 0 -0.40696984225439747 0.012242573757681421 0 -0.41289550855865331 0.00484831356943876 0 -0.40551884335910371 0.0048743171964214941 0 -0.40882112210603561 0.027491616414182421 0 -0.41689038839184872 0.023634481107251141 0 -0.41515369426330018 0.033563807345549743 0 -0.40882112210603561 0.027491616414182421 0 -0.40868918104736501 0.020294329445568571 0 -0.41689038839184872 0.023634481107251141 0 -0.41350682688887891 0.015227694689612039 0 -0.40696984225439747 0.012242573757681421 0 -0.40868918104736501 0.020294329445568571 0 -0.40696984225439747 0.012242573757681421 0 -0.40868918104736501 0.020294329445568571 0 -0.403780443463298 0.016689837378606381 0 -0.41350682688887891 0.015227694689612039 0 -0.40868918104736501 0.020294329445568571 0 -0.41689038839184872 0.023634481107251141 0 -0.40882112210603561 0.027491616414182421 0 -0.40868918104736501 0.020294329445568571 0 -0.40324634998207848 0.02225544641859065 0 -0.41350682688887891 0.015227694689612039 0 -0.42021274324406832 0.01723782976646928 0 -0.41689038839184872 0.023634481107251141 0 -0.42021274324406832 0.01723782976646928 0 -0.41689038839184872 0.023634481107251141 0 -0.42506350343692489 0.02123304860700399 0 -0.41689038839184872 0.023634481107251141 0 -0.42586763877152067 0.029996534916323939 0 -0.41515369426330018 0.033563807345549743 0 -0.42586763877152067 0.029996534916323939 0 -0.42506350343692489 0.02123304860700399 0 -0.43273628262515013 0.022334552054947519 0 -0.41689038839184872 0.023634481107251141 0 -0.42586763877152067 0.029996534916323939 0 -0.42506350343692489 0.02123304860700399 0 -0.42742010512482298 0.01351639346401327 0 -0.42506350343692489 0.02123304860700399 0 -0.43273628262515013 0.022334552054947519 0 -0.42742010512482298 0.01351639346401327 0 -0.42021274324406832 0.01723782976646928 0 -0.42506350343692489 0.02123304860700399 0 -0.44252778980976171 0.01917059301448194 0 -0.43578518440660913 0.01346307228134154 0 -0.43273628262515013 0.022334552054947519 0 -0.43578518440660913 0.01346307228134154 0 -0.42742010512482298 0.01351639346401327 0 -0.43273628262515013 0.022334552054947519 0 -0.43942456309449202 0.033692434462149222 0 -0.43974385592081622 0.025428605632503449 0 -0.43273628262515013 0.022334552054947519 0 -0.43942456309449202 0.033692434462149222 0 -0.42586763877152067 0.029996534916323939 0 -0.43273628262515013 0.022334552054947519 0 -0.43942456309449202 0.033692434462149222 0 -0.42586763877152067 0.029996534916323939 0 -0.42900760825672257 0.037372767310467292 0 -0.43942456309449202 0.033692434462149222 0 -0.42900760825672257 0.037372767310467292 0 -0.42834040304470361 0.047507242962797638 0 -0.42900760825672257 0.037372767310467292 0 -0.42239782811617388 0.038294856900598362 0 -0.42834040304470361 0.047507242962797638 0 -0.42586763877152067 0.029996534916323939 0 -0.42900760825672257 0.037372767310467292 0 -0.42239782811617388 0.038294856900598362 0 -0.43631302489030122 0.059032323901618597 0 -0.41270180210340662 0.06173992311782836 0 -0.43631302489030122 0.059032323901618597 0 -0.42834040304470361 0.047507242962797638 0 -0.41270180210340662 0.06173992311782836 0 -0.42834040304470361 0.047507242962797638 0 -0.41270180210340662 0.06173992311782836 0 -0.40386215328037223 0.052213171348927723 0 -0.42834040304470361 0.047507242962797638 0 -0.41318993949219401 0.041434043103627173 0 -0.40386215328037223 0.052213171348927723 0 -0.42834040304470361 0.047507242962797638 0 -0.40386215328037223 0.052213171348927723 0 -0.41270180210340662 0.06173992311782836 0 -0.40386215328037223 0.052213171348927723 0 -0.41270180210340662 0.06173992311782836 0 -0.40659974626113099 0.056925705763222603 0 -0.40386215328037223 0.052213171348927723 0 -0.41270180210340662 0.06173992311782836 0 -0.40361063412802239 0.062782445968372097 0 -0.41270180210340662 0.06173992311782836 0 -0.40659974626113099 0.056925705763222603 0 -0.40361063412802239 0.062782445968372097 0 -0.42239782811617388 0.038294856900598362 0 -0.41515369426330018 0.033563807345549743 0 -0.41318993949219401 0.041434043103627173 0 -0.42586763877152067 0.029996534916323939 0 -0.42239782811617388 0.038294856900598362 0 -0.41515369426330018 0.033563807345549743 0 -0.42239782811617388 0.038294856900598362 0 -0.42834040304470361 0.047507242962797638 0 -0.41318993949219401 0.041434043103627173 0 -0.41318993949219401 0.041434043103627173 0 -0.40248019526646628 0.041291880068115253 0 -0.40386215328037223 0.052213171348927723 0 -0.41318993949219401 0.041434043103627173 0 -0.40676514211785841 0.03491287239838009 0 -0.40248019526646628 0.041291880068115253 0 -0.40882112210603561 0.027491616414182421 0 -0.41515369426330018 0.033563807345549743 0 -0.40676514211785841 0.03491287239838009 0 -0.41515369426330018 0.033563807345549743 0 -0.41318993949219401 0.041434043103627173 0 -0.40676514211785841 0.03491287239838009 0 -0.40676514211785841 0.03491287239838009 0 -0.39890414560968102 0.036227553286446688 0 -0.40204175596947378 0.029468334172359271 0 -0.40676514211785841 0.03491287239838009 0 -0.39890414560968102 0.036227553286446688 0 -0.40248019526646628 0.041291880068115253 0 -0.39890414560968102 0.036227553286446688 0 -0.40204175596947378 0.029468334172359271 0 -0.39586680152736381 0.030029186368126948 0 -0.40248019526646628 0.041291880068115253 0 -0.3908261708765603 0.038163906393822493 0 -0.40386215328037223 0.052213171348927723 0 -0.3908261708765603 0.038163906393822493 0 -0.40386215328037223 0.052213171348927723 0 -0.39890414560968102 0.036227553286446688 0 -0.3908261708765603 0.038163906393822493 0 -0.39270450612495023 0.036230228855222889 0 -0.39890414560968102 0.036227553286446688 0 -0.40248019526646628 0.041291880068115253 0 -0.3908261708765603 0.038163906393822493 0 -0.3908261708765603 0.038163906393822493 0 -0.39270450612495023 0.036230228855222889 0 -0.39064564326623857 0.031324709184076538 0 -0.3908261708765603 0.038163906393822493 0 -0.39270450612495023 0.036230228855222889 0 -0.39064564326623857 0.031324709184076538 0 -0.39419888888332277 0.033297973300235803 0 -0.39586680152736381 0.030029186368126948 0 -0.39270450612495023 0.036230228855222889 0 -0.39064564326623857 0.031324709184076538 0 -0.39419888888332277 0.033297973300235803 0 -0.39890414560968102 0.036227553286446688 0 -0.39419888888332277 0.033297973300235803 0 -0.39586680152736381 0.030029186368126948 0 -0.39890414560968102 0.036227553286446688 0 -0.39270450612495023 0.036230228855222889 0 -0.39419888888332277 0.033297973300235803 0 -0.40386215328037223 0.052213171348927723 0 -0.39760847185112602 0.058406300618161711 0 -0.38745695127988011 0.055367061292762858 0 -0.39760847185112602 0.058406300618161711 0 -0.38651287430622328 0.064743118717524847 0 -0.40361063412802239 0.062782445968372097 0 -0.40386215328037223 0.052213171348927723 0 -0.38745695127988011 0.055367061292762858 0 -0.3908261708765603 0.038163906393822493 0 -0.40386215328037223 0.052213171348927723 0 -0.38745695127988011 0.055367061292762858 0 -0.40659974626113099 0.056925705763222603 0 -0.40386215328037223 0.052213171348927723 0 -0.39760847185112602 0.058406300618161711 0 -0.40659974626113099 0.056925705763222603 0 -0.39760847185112602 0.058406300618161711 0 -0.40361063412802239 0.062782445968372097 0 -0.40659974626113099 0.056925705763222603 0 -0.40361063412802239 0.062782445968372097 0 -0.38745695127988011 0.055367061292762858 0 -0.38651287430622328 0.064743118717524847 0 -0.37105174927938728 0.058520951236594829 0 -0.3908261708765603 0.038163906393822493 0 -0.38745695127988011 0.055367061292762858 0 -0.37105174927938728 0.058520951236594829 0 -0.38745695127988011 0.055367061292762858 0 -0.37105174927938728 0.058520951236594829 0 -0.3908261708765603 0.038163906393822493 0 -0.37105174927938728 0.058520951236594829 0 -0.39760847185112602 0.058406300618161711 0 -0.38745695127988011 0.055367061292762858 0 -0.38651287430622328 0.064743118717524847 0 -0.3908261708765603 0.038163906393822493 0 -0.37476991224460748 0.042693557913749389 0 -0.37105174927938728 0.058520951236594829 0 -0.3908261708765603 0.038163906393822493 0 -0.38184743579361757 0.028487257236559229 0 -0.37476991224460748 0.042693557913749389 0 -0.3908261708765603 0.038163906393822493 0 -0.39064564326623857 0.031324709184076538 0 -0.38184743579361757 0.028487257236559229 0 -0.3908261708765603 0.038163906393822493 0 -0.38184743579361757 0.028487257236559229 0 -0.38184743579361757 0.028487257236559229 0 -0.37988702350237308 0.02225351683085668 0 -0.36443951401358132 0.03674624378058429 0 -0.38184743579361757 0.028487257236559229 0 -0.38610435942408272 0.023152791862194939 0 -0.37988702350237308 0.02225351683085668 0 -0.39064564326623857 0.031324709184076538 0 -0.38184743579361757 0.028487257236559229 0 -0.3876317245777835 0.027199613511357319 0 -0.38184743579361757 0.028487257236559229 0 -0.3876317245777835 0.027199613511357319 0 -0.38610435942408272 0.023152791862194939 0 -0.3876317245777835 0.027199613511357319 0 -0.38610435942408272 0.023152791862194939 0 -0.39192945982719468 0.02583369576259854 0 -0.39064564326623857 0.031324709184076538 0 -0.3876317245777835 0.027199613511357319 0 -0.39192945982719468 0.02583369576259854 0 -0.38610435942408272 0.023152791862194939 0 -0.38827963036404478 0.015370432237497971 0 -0.39293154306281858 0.019740571007322901 0 -0.38610435942408272 0.023152791862194939 0 -0.39192945982719468 0.02583369576259854 0 -0.39293154306281858 0.019740571007322901 0 -0.38610435942408272 0.023152791862194939 0 -0.38159869212158332 0.015565846507194029 0 -0.38827963036404478 0.015370432237497971 0 -0.37988702350237308 0.02225351683085668 0 -0.38159869212158332 0.015565846507194029 0 -0.37081140760068221 0.018589819304842849 0 -0.38610435942408272 0.023152791862194939 0 -0.37988702350237308 0.02225351683085668 0 -0.38159869212158332 0.015565846507194029 0 -0.36757837345989042 -0.0048102241571663529 0 -0.38456135371287048 -0.001773788138237574 0 -0.37663161885987112 0.0081973106947853033 0 -0.37663161885987112 0.0081973106947853033 0 -0.38159869212158332 0.015565846507194029 0 -0.38692632072728278 0.007921039210331101 0 -0.37663161885987112 0.0081973106947853033 0 -0.38159869212158332 0.015565846507194029 0 -0.37081140760068221 0.018589819304842849 0 -0.38456135371287048 -0.001773788138237574 0 -0.37663161885987112 0.0081973106947853033 0 -0.38692632072728278 0.007921039210331101 0 -0.38456135371287048 -0.001773788138237574 0 -0.38692632072728278 0.007921039210331101 0 -0.39832696262503192 0.003233367117420117 0 -0.38159869212158332 0.015565846507194029 0 -0.38692632072728278 0.007921039210331101 0 -0.38827963036404478 0.015370432237497971 0 -0.38692632072728278 0.007921039210331101 0 -0.38827963036404478 0.015370432237497971 0 -0.39468099967625742 0.010651607925781939 0 -0.38827963036404478 0.015370432237497971 0 -0.39468099967625742 0.010651607925781939 0 -0.39293154306281858 0.019740571007322901 0 -0.39468099967625742 0.010651607925781939 0 -0.39832696262503192 0.003233367117420117 0 -0.4010879809661938 0.01118058148507906 0 -0.39468099967625742 0.010651607925781939 0 -0.4010879809661938 0.01118058148507906 0 -0.39890886306645518 0.017476255786112199 0 -0.38692632072728278 0.007921039210331101 0 -0.39468099967625742 0.010651607925781939 0 -0.39832696262503192 0.003233367117420117 0 -0.39832696262503192 0.003233367117420117 0 -0.40551884335910371 0.0048743171964214941 0 -0.4010879809661938 0.01118058148507906 0 -0.4069384354289769 -0.003533196189176393 0 -0.39832696262503192 0.003233367117420117 0 -0.40551884335910371 0.0048743171964214941 0 -0.4010879809661938 0.01118058148507906 0 -0.403780443463298 0.016689837378606381 0 -0.39890886306645518 0.017476255786112199 0 -0.40696984225439747 0.012242573757681421 0 -0.40551884335910371 0.0048743171964214941 0 -0.4010879809661938 0.01118058148507906 0 -0.40696984225439747 0.012242573757681421 0 -0.4010879809661938 0.01118058148507906 0 -0.403780443463298 0.016689837378606381 0 -0.403780443463298 0.016689837378606381 0 -0.39890886306645518 0.017476255786112199 0 -0.40324634998207848 0.02225544641859065 0 -0.39890886306645518 0.017476255786112199 0 -0.40324634998207848 0.02225544641859065 0 -0.39750223452006272 0.024003812247779172 0 -0.40868918104736501 0.020294329445568571 0 -0.403780443463298 0.016689837378606381 0 -0.40324634998207848 0.02225544641859065 0 -0.40882112210603561 0.027491616414182421 0 -0.40324634998207848 0.02225544641859065 0 -0.40204175596947378 0.029468334172359271 0 -0.40882112210603561 0.027491616414182421 0 -0.40676514211785841 0.03491287239838009 0 -0.40204175596947378 0.029468334172359271 0 -0.40204175596947378 0.029468334172359271 0 -0.39750223452006272 0.024003812247779172 0 -0.39586680152736381 0.030029186368126948 0 -0.40324634998207848 0.02225544641859065 0 -0.40204175596947378 0.029468334172359271 0 -0.39750223452006272 0.024003812247779172 0 -0.39750223452006272 0.024003812247779172 0 -0.39586680152736381 0.030029186368126948 0 -0.39192945982719468 0.02583369576259854 0 -0.39064564326623857 0.031324709184076538 0 -0.39586680152736381 0.030029186368126948 0 -0.39192945982719468 0.02583369576259854 0 -0.39750223452006272 0.024003812247779172 0 -0.39192945982719468 0.02583369576259854 0 -0.39293154306281858 0.019740571007322901 0 -0.39468099967625742 0.010651607925781939 0 -0.39890886306645518 0.017476255786112199 0 -0.39293154306281858 0.019740571007322901 0 -0.39890886306645518 0.017476255786112199 0 -0.39750223452006272 0.024003812247779172 0 -0.39293154306281858 0.019740571007322901 0 -0.38593831909633458 0.097408834459384225 0 -0.40266150012736202 0.088370559295827031 0 -0.40991647370542339 0.099372615596459157 0 -0.39255298546209788 0.1144881206504242 0 -0.38593831909633458 0.097408834459384225 0 -0.40991647370542339 0.099372615596459157 0 -0.38593831909633458 0.097408834459384225 0 -0.40991647370542339 0.099372615596459157 0 -0.39255298546209788 0.1144881206504242 0 -0.40962590581184333 0.107857040899954 0 -0.40991647370542339 0.099372615596459157 0 -0.39255298546209788 0.1144881206504242 0 -0.40962590581184333 0.107857040899954 0 -0.40123936953161982 0.1321380101012978 0 -0.40962590581184333 0.107857040899954 0 -0.40123936953161982 0.1321380101012978 0 -0.39255298546209788 0.1144881206504242 0 -0.38593831909633458 0.097408834459384225 0 -0.37484127188086308 0.11915192059704929 0 -0.39255298546209788 0.1144881206504242 0 -0.38286185680150842 0.13794490544787241 0 -0.37484127188086308 0.11915192059704929 0 -0.38593831909633458 0.097408834459384225 0 -0.37484127188086308 0.11915192059704929 0 -0.38593831909633458 0.097408834459384225 0 -0.36682276976702982 0.095843294666615009 0 -0.38593831909633458 0.097408834459384225 0 -0.36682276976702982 0.095843294666615009 0 -0.37484127188086308 0.11915192059704929 0 -0.38593831909633458 0.097408834459384225 0 -0.37873992976530951 0.086424838189945244 0 -0.39477447661217868 0.080095640213878327 0 -0.38593831909633458 0.097408834459384225 0 -0.39477447661217868 0.080095640213878327 0 -0.37873992976530951 0.086424838189945244 0 -0.38388402814402739 0.076056926422384832 0 -0.39477447661217868 0.080095640213878327 0 -0.38593831909633458 0.097408834459384225 0 -0.37873992976530951 0.086424838189945244 0 -0.36682276976702982 0.095843294666615009 0 -0.37873992976530951 0.086424838189945244 0 -0.38388402814402739 0.076056926422384832 0 -0.37066639131518891 0.075515408551262597 0 -0.3775432773667875 0.068428421516663659 0 -0.38388402814402739 0.076056926422384832 0 -0.38651287430622328 0.064743118717524847 0 -0.3775432773667875 0.068428421516663659 0 -0.38651287430622328 0.064743118717524847 0 -0.37105174927938728 0.058520951236594829 0 -0.3775432773667875 0.068428421516663659 0 -0.38388402814402739 0.076056926422384832 0 -0.37066639131518891 0.075515408551262597 0 -0.38388402814402739 0.076056926422384832 0 -0.38651287430622328 0.064743118717524847 0 -0.39477447661217868 0.080095640213878327 0 -0.38651287430622328 0.064743118717524847 0 -0.40361063412802239 0.062782445968372097 0 -0.40361063412802239 0.062782445968372097 0 -0.39477447661217868 0.080095640213878327 0 -0.40361063412802239 0.062782445968372097 0 -0.39477447661217868 0.080095640213878327 0 -0.40983133191729348 0.076868769345784987 0 -0.38651287430622328 0.064743118717524847 0 -0.40361063412802239 0.062782445968372097 0 -0.39477447661217868 0.080095640213878327 0 -0.38593831909633458 0.097408834459384225 0 -0.39477447661217868 0.080095640213878327 0 -0.40266150012736202 0.088370559295827031 0 -0.39477447661217868 0.080095640213878327 0 -0.40266150012736202 0.088370559295827031 0 -0.40983133191729348 0.076868769345784987 0 -0.41284689930558038 0.088106936863628776 0 -0.40983133191729348 0.076868769345784987 0 -0.42966770471270532 0.080024579661304523 0 -0.41284689930558038 0.088106936863628776 0 -0.42966770471270532 0.080024579661304523 0 -0.4225478592987878 0.092511795403969671 0 -0.40266150012736202 0.088370559295827031 0 -0.41284689930558038 0.088106936863628776 0 -0.40991647370542339 0.099372615596459157 0 -0.40266150012736202 0.088370559295827031 0 -0.41284689930558038 0.088106936863628776 0 -0.40983133191729348 0.076868769345784987 0 -0.41284689930558038 0.088106936863628776 0 -0.4225478592987878 0.092511795403969671 0 -0.40991647370542339 0.099372615596459157 0 -0.41270180210340662 0.06173992311782836 0 -0.42966770471270532 0.080024579661304523 0 -0.41270180210340662 0.06173992311782836 0 -0.40983133191729348 0.076868769345784987 0 -0.42966770471270532 0.080024579661304523 0 -0.41270180210340662 0.06173992311782836 0 -0.40361063412802239 0.062782445968372097 0 -0.40983133191729348 0.076868769345784987 0 -0.41270180210340662 0.06173992311782836 0 -0.43607668613297668 0.070326914507528621 0 -0.42966770471270532 0.080024579661304523 0 -0.43631302489030122 0.059032323901618597 0 -0.41270180210340662 0.06173992311782836 0 -0.43607668613297668 0.070326914507528621 0 -0.42966770471270532 0.080024579661304523 0 -0.4225478592987878 0.092511795403969671 0 -0.43389462831451231 0.1013363967335338 0 -0.42966770471270532 0.080024579661304523 0 -0.43389462831451231 0.1013363967335338 0 -0.4466336073220033 0.098309236204781075 0 -0.43389462831451231 0.1013363967335338 0 -0.40991647370542339 0.099372615596459157 0 -0.43389462831451231 0.1013363967335338 0 -0.40991647370542339 0.099372615596459157 0 -0.42437760012177489 0.1143316487062223 0 -0.4225478592987878 0.092511795403969671 0 -0.43389462831451231 0.1013363967335338 0 -0.40991647370542339 0.099372615596459157 0 -0.43389462831451231 0.1013363967335338 0 -0.42437760012177489 0.1143316487062223 0 -0.43668341356312562 0.1094994434704228 0 -0.40962590581184333 0.107857040899954 0 -0.40991647370542339 0.099372615596459157 0 -0.42437760012177489 0.1143316487062223 0 -0.40962590581184333 0.107857040899954 0 -0.41556591415401639 0.1216826172998681 0 -0.40123936953161982 0.1321380101012978 0 -0.40962590581184333 0.107857040899954 0 -0.41556591415401639 0.1216826172998681 0 -0.42437760012177489 0.1143316487062223 0 -0.41556591415401639 0.1216826172998681 0 -0.42437760012177489 0.1143316487062223 0 -0.42702078115082809 0.13240376949199811 0 -0.42437760012177489 0.1143316487062223 0 -0.44182781849421171 0.1240204922371539 0 -0.42702078115082809 0.13240376949199811 0 -0.42437760012177489 0.1143316487062223 0 -0.43668341356312562 0.1094994434704228 0 -0.44182781849421171 0.1240204922371539 0 -0.44182781849421171 0.1240204922371539 0 -0.4466336073220033 0.098309236204781075 0 -0.45618965176240778 0.10860806878273339 0 -0.44182781849421171 0.1240204922371539 0 -0.4466336073220033 0.098309236204781075 0 -0.44182781849421171 0.1240204922371539 0 -0.45618965176240778 0.10860806878273339 0 -0.45534588744204391 0.12614196800381919 0 -0.43668341356312562 0.1094994434704228 0 -0.44182781849421171 0.1240204922371539 0 -0.4466336073220033 0.098309236204781075 0 -0.43389462831451231 0.1013363967335338 0 -0.43668341356312562 0.1094994434704228 0 -0.4466336073220033 0.098309236204781075 0 -0.4466336073220033 0.098309236204781075 0 -0.45618965176240778 0.10860806878273339 0 -0.46039261761306188 0.099721899498248417 0 -0.46749742804390321 0.091394024031814278 0 -0.47089584431110643 0.1071311478829941 0 -0.4466336073220033 0.098309236204781075 0 -0.45618965176240778 0.10860806878273339 0 -0.46039261761306188 0.099721899498248417 0 -0.4466336073220033 0.098309236204781075 0 -0.46039261761306188 0.099721899498248417 0 -0.45625230982341769 0.091190186389888961 0 -0.46039261761306188 0.099721899498248417 0 -0.45625230982341769 0.091190186389888961 0 -0.46749742804390321 0.091394024031814278 0 -0.45618965176240778 0.10860806878273339 0 -0.46039261761306188 0.099721899498248417 0 -0.47089584431110643 0.1071311478829941 0 -0.45618965176240778 0.10860806878273339 0 -0.46707881097941439 0.1230131470791659 0 -0.47089584431110643 0.1071311478829941 0 -0.45618965176240778 0.10860806878273339 0 -0.46707881097941439 0.1230131470791659 0 -0.45534588744204391 0.12614196800381919 0 -0.43607668613297668 0.070326914507528621 0 -0.42966770471270532 0.080024579661304523 0 -0.45003078033044369 0.080134158577325254 0 -0.43631302489030122 0.059032323901618597 0 -0.43607668613297668 0.070326914507528621 0 -0.4497782442989755 0.067567928919055525 0 -0.43607668613297668 0.070326914507528621 0 -0.4497782442989755 0.067567928919055525 0 -0.45003078033044369 0.080134158577325254 0 -0.4497782442989755 0.067567928919055525 0 -0.45003078033044369 0.080134158577325254 0 -0.45613344900699709 0.073844352351098486 0 -0.4466336073220033 0.098309236204781075 0 -0.45003078033044369 0.080134158577325254 0 -0.42966770471270532 0.080024579661304523 0 -0.4466336073220033 0.098309236204781075 0 -0.45003078033044369 0.080134158577325254 0 -0.42966770471270532 0.080024579661304523 0 -0.4466336073220033 0.098309236204781075 0 -0.4466336073220033 0.098309236204781075 0 -0.45003078033044369 0.080134158577325254 0 -0.45625230982341769 0.091190186389888961 0 -0.46409901177670021 0.075656900180634395 0 -0.4725730647946782 0.098812182260085507 0 -0.46749742804390321 0.091394024031814278 0 -0.46409901177670021 0.075656900180634395 0 -0.4725730647946782 0.098812182260085507 0 -0.46749742804390321 0.091394024031814278 0 -0.45869752032859068 0.082338646653958264 0 -0.46409901177670021 0.075656900180634395 0 -0.46749742804390321 0.091394024031814278 0 -0.46409901177670021 0.075656900180634395 0 -0.45625230982341769 0.091190186389888961 0 -0.46749742804390321 0.091394024031814278 0 -0.45869752032859068 0.082338646653958264 0 -0.45003078033044369 0.080134158577325254 0 -0.45869752032859068 0.082338646653958264 0 -0.45613344900699709 0.073844352351098486 0 -0.45003078033044369 0.080134158577325254 0 -0.45625230982341769 0.091190186389888961 0 -0.45869752032859068 0.082338646653958264 0 -0.45992424767719581 0.05632472468540857 0 -0.46409901177670021 0.075656900180634395 0 -0.45992424767719581 0.05632472468540857 0 -0.46409901177670021 0.075656900180634395 0 -0.46058349952511651 0.066050791077175194 0 -0.45992424767719581 0.05632472468540857 0 -0.46409901177670021 0.075656900180634395 0 -0.46706764060460337 0.064727216615053845 0 -0.45613344900699709 0.073844352351098486 0 -0.46409901177670021 0.075656900180634395 0 -0.46058349952511651 0.066050791077175194 0 -0.45869752032859068 0.082338646653958264 0 -0.45613344900699709 0.073844352351098486 0 -0.46409901177670021 0.075656900180634395 0 -0.46409901177670021 0.075656900180634395 0 -0.46058349952511651 0.066050791077175194 0 -0.46409901177670021 0.075656900180634395 0 -0.46706764060460337 0.064727216615053845 0 -0.47152473560486757 0.070844487572002554 0 -0.4497782442989755 0.067567928919055525 0 -0.45613344900699709 0.073844352351098486 0 -0.46058349952511651 0.066050791077175194 0 -0.45992424767719581 0.05632472468540857 0 -0.4497782442989755 0.067567928919055525 0 -0.46058349952511651 0.066050791077175194 0 -0.47247103147529601 0.054885931689199932 0 -0.47152473560486757 0.070844487572002554 0 -0.48003796552358718 0.073979665243264603 0 -0.48686673200288361 0.061532952036517721 0 -0.47444457486635799 0.05465961708503804 0 -0.48003796552358718 0.073979665243264603 0 -0.47247103147529601 0.054885931689199932 0 -0.46706764060460337 0.064727216615053845 0 -0.47152473560486757 0.070844487572002554 0 -0.47247103147529601 0.054885931689199932 0 -0.48003796552358718 0.073979665243264603 0 -0.46409901177670021 0.075656900180634395 0 -0.47152473560486757 0.070844487572002554 0 -0.47344495687544441 0.08257907946592008 0 -0.47152473560486757 0.070844487572002554 0 -0.48003796552358718 0.073979665243264603 0 -0.47344495687544441 0.08257907946592008 0 -0.48003796552358718 0.073979665243264603 0 -0.48760489957187808 0.093073398797329412 0 -0.48003796552358718 0.073979665243264603 0 -0.47873847079303528 0.0924053397406433 0 -0.48760489957187808 0.093073398797329412 0 -0.47344495687544441 0.08257907946592008 0 -0.47873847079303528 0.0924053397406433 0 -0.4725730647946782 0.098812182260085507 0 -0.46409901177670021 0.075656900180634395 0 -0.47344495687544441 0.08257907946592008 0 -0.4725730647946782 0.098812182260085507 0 -0.48003796552358718 0.073979665243264603 0 -0.47344495687544441 0.08257907946592008 0 -0.47873847079303528 0.0924053397406433 0 -0.48760489957187808 0.093073398797329412 0 -0.5 0.066924611613651097 0 -0.5 0.096726114611255964 0 -0.48003796552358718 0.073979665243264603 0 -0.48760489957187808 0.093073398797329412 0 -0.5 0.066924611613651097 0 -0.48686673200288361 0.061532952036517721 0 -0.48003796552358718 0.073979665243264603 0 -0.5 0.066924611613651097 0 -0.48104711781265602 0.1219674643395367 0 -0.4725730647946782 0.098812182260085507 0 -0.46707881097941439 0.1230131470791659 0 -0.48104711781265602 0.1219674643395367 0 -0.47089584431110643 0.1071311478829941 0 -0.48104711781265602 0.1219674643395367 0 -0.4725730647946782 0.098812182260085507 0 -0.48561527524285131 0.1062152871227688 0 -0.48104711781265602 0.1219674643395367 0 -0.47089584431110643 0.1071311478829941 0 -0.4725730647946782 0.098812182260085507 0 -0.46749742804390321 0.091394024031814278 0 -0.47089584431110643 0.1071311478829941 0 -0.4725730647946782 0.098812182260085507 0 -0.46749742804390321 0.091394024031814278 0 -0.47089584431110643 0.1071311478829941 0 -0.47873847079303528 0.0924053397406433 0 -0.4725730647946782 0.098812182260085507 0 -0.48561527524285131 0.1062152871227688 0 -0.47873847079303528 0.0924053397406433 0 -0.48760489957187808 0.093073398797329412 0 -0.48561527524285131 0.1062152871227688 0 -0.48760489957187808 0.093073398797329412 0 -0.48561527524285131 0.1062152871227688 0 -0.5 0.096726114611255964 0 -0.48104711781265602 0.1219674643395367 0 -0.48561527524285131 0.1062152871227688 0 -0.5 0.1265276176088608 0 -0.48561527524285131 0.1062152871227688 0 -0.5 0.096726114611255964 0 -0.5 0.1265276176088608 0 -0.48104711781265602 0.1219674643395367 0 -0.48952117083063379 0.14512274641898801 0 -0.48104711781265602 0.1219674643395367 0 -0.5 0.1265276176088608 0 -0.48952117083063379 0.14512274641898801 0 -0.48104711781265602 0.1219674643395367 0 -0.47469269051941798 0.13534664498707391 0 -0.48952117083063379 0.14512274641898801 0 -0.46707881097941439 0.1230131470791659 0 -0.48104711781265602 0.1219674643395367 0 -0.47469269051941798 0.13534664498707391 0 -0.47385922771101469 0.14936053706147179 0 -0.48952117083063379 0.14512274641898801 0 -0.48801351552014022 0.1569148325693662 0 -0.47469269051941798 0.13534664498707391 0 -0.47385922771101469 0.14936053706147179 0 -0.48952117083063379 0.14512274641898801 0 -0.47469269051941798 0.13534664498707391 0 -0.47385922771101469 0.14936053706147179 0 -0.46195712526337079 0.13726933003620709 0 -0.5 0.1265276176088608 0 -0.48952117083063379 0.14512274641898801 0 -0.5 0.1563291206064657 0 -0.48952117083063379 0.14512274641898801 0 -0.5 0.1563291206064657 0 -0.48801351552014022 0.1569148325693662 0 -0.5 0.1563291206064657 0 -0.49066145886693741 0.17048296176577721 0 -0.48801351552014022 0.1569148325693662 0 -0.5 0.1563291206064657 0 -0.49066145886693741 0.17048296176577721 0 -0.5 0.18613062360407071 0 -0.49066145886693741 0.17048296176577721 0 -0.48801351552014022 0.1569148325693662 0 -0.48005802009925519 0.16781148509083579 0 -0.49066145886693741 0.17048296176577721 0 -0.5 0.18613062360407071 0 -0.48455138943858711 0.18574855063896251 0 -0.49066145886693741 0.17048296176577721 0 -0.48455138943858711 0.18574855063896251 0 -0.48005802009925519 0.16781148509083579 0 -0.48455138943858711 0.18574855063896251 0 -0.48005802009925519 0.16781148509083579 0 -0.4675799792338009 0.17831609477152391 0 -0.48455138943858711 0.18574855063896251 0 -0.4675799792338009 0.17831609477152391 0 -0.45795479001342559 0.1965331441220993 0 -0.47385922771101469 0.14936053706147179 0 -0.48801351552014022 0.1569148325693662 0 -0.48005802009925519 0.16781148509083579 0 -0.48005802009925519 0.16781148509083579 0 -0.46350296790286438 0.16373356449263551 0 -0.4675799792338009 0.17831609477152391 0 -0.47385922771101469 0.14936053706147179 0 -0.48005802009925519 0.16781148509083579 0 -0.46350296790286438 0.16373356449263551 0 -0.46350296790286438 0.16373356449263551 0 -0.44768119127473671 0.16350150877794331 0 -0.45383198925089779 0.15084549731256841 0 -0.46350296790286438 0.16373356449263551 0 -0.45183272871487251 0.17775372951308621 0 -0.44768119127473671 0.16350150877794331 0 -0.4675799792338009 0.17831609477152391 0 -0.45183272871487251 0.17775372951308621 0 -0.45795479001342559 0.1965331441220993 0 -0.46350296790286438 0.16373356449263551 0 -0.4675799792338009 0.17831609477152391 0 -0.45183272871487251 0.17775372951308621 0 -0.45183272871487251 0.17775372951308621 0 -0.44768119127473671 0.16350150877794331 0 -0.43221624083862831 0.17544300430189949 0 -0.45183272871487251 0.17775372951308621 0 -0.43965305260607918 0.1890848363970801 0 -0.43221624083862831 0.17544300430189949 0 -0.44768119127473671 0.16350150877794331 0 -0.43702202966642012 0.1497317482695267 0 -0.43221624083862831 0.17544300430189949 0 -0.44768119127473671 0.16350150877794331 0 -0.45383198925089779 0.15084549731256841 0 -0.43702202966642012 0.1497317482695267 0 -0.44967603071081458 0.137798801883836 0 -0.45383198925089779 0.15084549731256841 0 -0.43702202966642012 0.1497317482695267 0 -0.44182781849421171 0.1240204922371539 0 -0.43702202966642012 0.1497317482695267 0 -0.44182781849421171 0.1240204922371539 0 -0.44967603071081458 0.137798801883836 0 -0.43702202966642012 0.1497317482695267 0 -0.44182781849421171 0.1240204922371539 0 -0.44967603071081458 0.137798801883836 0 -0.45534588744204391 0.12614196800381919 0 -0.44967603071081458 0.137798801883836 0 -0.45534588744204391 0.12614196800381919 0 -0.46195712526337079 0.13726933003620709 0 -0.46707881097941439 0.1230131470791659 0 -0.45534588744204391 0.12614196800381919 0 -0.46195712526337079 0.13726933003620709 0 -0.46707881097941439 0.1230131470791659 0 -0.47469269051941798 0.13534664498707391 0 -0.46195712526337079 0.13726933003620709 0 -0.47385922771101469 0.14936053706147179 0 -0.46350296790286438 0.16373356449263551 0 -0.45383198925089779 0.15084549731256841 0 -0.47385922771101469 0.14936053706147179 0 -0.46195712526337079 0.13726933003620709 0 -0.45383198925089779 0.15084549731256841 0 -0.44967603071081458 0.137798801883836 0 -0.46195712526337079 0.13726933003620709 0 -0.45383198925089779 0.15084549731256841 0 -0.4773237152744299 0.2364696830861473 0 -0.5 0.24573362959928061 0 -0.48225979214223652 0.26519541286348752 0 -0.4773237152744299 0.2364696830861473 0 -0.5 0.24573362959928061 0 -0.5 0.2159321266016756 0 -0.4773237152744299 0.2364696830861473 0 -0.47922904835508251 0.2069151467608969 0 -0.5 0.2159321266016756 0 -0.4773237152744299 0.2364696830861473 0 -0.47922904835508251 0.2069151467608969 0 -0.45607953015578678 0.2213505981308149 0 -0.5 0.18613062360407071 0 -0.48455138943858711 0.18574855063896251 0 -0.47922904835508251 0.2069151467608969 0 -0.5 0.18613062360407071 0 -0.47922904835508251 0.2069151467608969 0 -0.5 0.2159321266016756 0 -0.48455138943858711 0.18574855063896251 0 -0.45795479001342559 0.1965331441220993 0 -0.48455138943858711 0.18574855063896251 0 -0.47922904835508251 0.2069151467608969 0 -0.45795479001342559 0.1965331441220993 0 -0.45183272871487251 0.17775372951308621 0 -0.45795479001342559 0.1965331441220993 0 -0.43965305260607918 0.1890848363970801 0 -0.45795479001342559 0.1965331441220993 0 -0.43965305260607918 0.1890848363970801 0 -0.4313581905882643 0.2073177376052367 0 -0.45795479001342559 0.1965331441220993 0 -0.4313581905882643 0.2073177376052367 0 -0.45607953015578678 0.2213505981308149 0 -0.4313581905882643 0.2073177376052367 0 -0.45795479001342559 0.1965331441220993 0 -0.45607953015578678 0.2213505981308149 0 -0.4313581905882643 0.2073177376052367 0 -0.45607953015578678 0.2213505981308149 0 -0.42931349112596762 0.2274861869522658 0 -0.4313581905882643 0.2073177376052367 0 -0.47922904835508251 0.2069151467608969 0 -0.45795479001342559 0.1965331441220993 0 -0.45607953015578678 0.2213505981308149 0 -0.4773237152744299 0.2364696830861473 0 -0.45607953015578678 0.2213505981308149 0 -0.45996138382817198 0.24094603944279691 0 -0.45607953015578678 0.2213505981308149 0 -0.44327098132011522 0.23948241105973589 0 -0.45996138382817198 0.24094603944279691 0 -0.45607953015578678 0.2213505981308149 0 -0.44327098132011522 0.23948241105973589 0 -0.42931349112596762 0.2274861869522658 0 -0.44327098132011522 0.23948241105973589 0 -0.42886288795378352 0.24708702642710331 0 -0.44408453137191312 0.2558556248761103 0 -0.44327098132011522 0.23948241105973589 0 -0.45996138382817198 0.24094603944279691 0 -0.44408453137191312 0.2558556248761103 0 -0.4773237152744299 0.2364696830861473 0 -0.45996138382817198 0.24094603944279691 0 -0.46330621084878088 0.25845133626189393 0 -0.41585687831378421 0.23756745926149361 0 -0.42886288795378352 0.24708702642710331 0 -0.40866975023943541 0.25556348607969548 0 -0.41585687831378421 0.23756745926149361 0 -0.39884014783915972 0.24098538012431631 0 -0.40866975023943541 0.25556348607969548 0 -0.41585687831378421 0.23756745926149361 0 -0.40495579967489348 0.23057589038196569 0 -0.39884014783915972 0.24098538012431631 0 -0.41585687831378421 0.23756745926149361 0 -0.42886288795378352 0.24708702642710331 0 -0.42931349112596762 0.2274861869522658 0 -0.44327098132011522 0.23948241105973589 0 -0.42886288795378352 0.24708702642710331 0 -0.42931349112596762 0.2274861869522658 0 -0.42931349112596762 0.2274861869522658 0 -0.41332194560117841 0.22548245157262969 0 -0.41649760018797782 0.2133435239783194 0 -0.41585687831378421 0.23756745926149361 0 -0.42931349112596762 0.2274861869522658 0 -0.41332194560117841 0.22548245157262969 0 -0.41585687831378421 0.23756745926149361 0 -0.41332194560117841 0.22548245157262969 0 -0.40495579967489348 0.23057589038196569 0 -0.41332194560117841 0.22548245157262969 0 -0.40163700978769162 0.21936931035140261 0 -0.40495579967489348 0.23057589038196569 0 -0.41332194560117841 0.22548245157262969 0 -0.41649760018797782 0.2133435239783194 0 -0.40163700978769162 0.21936931035140261 0 -0.41649760018797782 0.2133435239783194 0 -0.40566551157111719 0.19273350440900361 0 -0.40448634419827101 0.2084878803574795 0 -0.41649760018797782 0.2133435239783194 0 -0.4313581905882643 0.2073177376052367 0 -0.40566551157111719 0.19273350440900361 0 -0.41649760018797782 0.2133435239783194 0 -0.40448634419827101 0.2084878803574795 0 -0.40163700978769162 0.21936931035140261 0 -0.41649760018797782 0.2133435239783194 0 -0.40163700978769162 0.21936931035140261 0 -0.42931349112596762 0.2274861869522658 0 -0.41649760018797782 0.2133435239783194 0 -0.4313581905882643 0.2073177376052367 0 -0.41649760018797782 0.2133435239783194 0 -0.4313581905882643 0.2073177376052367 0 -0.43965305260607918 0.1890848363970801 0 -0.4313581905882643 0.2073177376052367 0 -0.42490331287520539 0.18837656644307871 0 -0.4313581905882643 0.2073177376052367 0 -0.42490331287520539 0.18837656644307871 0 -0.40566551157111719 0.19273350440900361 0 -0.4313581905882643 0.2073177376052367 0 -0.40566551157111719 0.19273350440900361 0 -0.40566551157111719 0.19273350440900361 0 -0.3940446412431563 0.18613701508637839 0 -0.40566551157111719 0.19273350440900361 0 -0.39312128436302468 0.2030916042610077 0 -0.39451055062719442 0.19571025980047069 0 -0.39312128436302468 0.2030916042610077 0 -0.39451055062719442 0.19571025980047069 0 -0.38569063658539487 0.1997495174965726 0 -0.39451055062719442 0.19571025980047069 0 -0.38569063658539487 0.1997495174965726 0 -0.3940446412431563 0.18613701508637839 0 -0.40566551157111719 0.19273350440900361 0 -0.39451055062719442 0.19571025980047069 0 -0.3940446412431563 0.18613701508637839 0 -0.38582477689523897 0.18946224649791421 0 -0.38569063658539487 0.1997495174965726 0 -0.3940446412431563 0.18613701508637839 0 -0.38582477689523897 0.18946224649791421 0 -0.37934809993399721 0.1955183169547513 0 -0.38569063658539487 0.1997495174965726 0 -0.38582477689523897 0.18946224649791421 0 -0.37934809993399721 0.1955183169547513 0 -0.38446629697117962 0.18069994850398791 0 -0.38569063658539487 0.1997495174965726 0 -0.3940446412431563 0.18613701508637839 0 -0.37934809993399721 0.1955183169547513 0 -0.38446629697117962 0.18069994850398791 0 -0.37934809993399721 0.1955183169547513 0 -0.37422990289682162 0.21033668540551731 0 -0.37934809993399721 0.1955183169547513 0 -0.38569063658539487 0.1997495174965726 0 -0.37422990289682162 0.21033668540551731 0 -0.38569063658539487 0.1997495174965726 0 -0.38317507295158981 0.21084100974139139 0 -0.38745017383629471 0.21016916157864901 0 -0.39312128436302468 0.2030916042610077 0 -0.38569063658539487 0.1997495174965726 0 -0.38745017383629471 0.21016916157864901 0 -0.38569063658539487 0.1997495174965726 0 -0.37733663192763361 0.21336201990676679 0 -0.38569063658539487 0.1997495174965726 0 -0.38317507295158981 0.21084100974139139 0 -0.37733663192763361 0.21336201990676679 0 -0.38569063658539487 0.1997495174965726 0 -0.37733663192763361 0.21336201990676679 0 -0.37422990289682162 0.21033668540551731 0 -0.38317507295158981 0.21084100974139139 0 -0.37733663192763361 0.21336201990676679 0 -0.38222284945703588 0.22008333998357721 0 -0.38317507295158981 0.21084100974139139 0 -0.38745017383629471 0.21016916157864901 0 -0.38222284945703588 0.22008333998357721 0 -0.38745017383629471 0.21016916157864901 0 -0.39228954919512232 0.21709557802034271 0 -0.38222284945703588 0.22008333998357721 0 -0.40566551157111719 0.19273350440900361 0 -0.39312128436302468 0.2030916042610077 0 -0.39228954919512232 0.21709557802034271 0 -0.40566551157111719 0.19273350440900361 0 -0.39228954919512232 0.21709557802034271 0 -0.40566551157111719 0.19273350440900361 0 -0.39228954919512232 0.21709557802034271 0 -0.40448634419827101 0.2084878803574795 0 -0.39312128436302468 0.2030916042610077 0 -0.38745017383629471 0.21016916157864901 0 -0.39228954919512232 0.21709557802034271 0 -0.39228954919512232 0.21709557802034271 0 -0.40448634419827101 0.2084878803574795 0 -0.40163700978769162 0.21936931035140261 0 -0.40163700978769162 0.21936931035140261 0 -0.40495579967489348 0.23057589038196569 0 -0.39512301683265388 0.22947485059998651 0 -0.40495579967489348 0.23057589038196569 0 -0.39512301683265388 0.22947485059998651 0 -0.39884014783915972 0.24098538012431631 0 -0.39228954919512232 0.21709557802034271 0 -0.40163700978769162 0.21936931035140261 0 -0.39512301683265388 0.22947485059998651 0 -0.39228954919512232 0.21709557802034271 0 -0.37891358681912551 0.24145765163168079 0 -0.38222284945703588 0.22008333998357721 0 -0.37891358681912551 0.24145765163168079 0 -0.37446405205528888 0.22438332801037511 0 -0.39228954919512232 0.21709557802034271 0 -0.39512301683265388 0.22947485059998651 0 -0.37891358681912551 0.24145765163168079 0 -0.39228954919512232 0.21709557802034271 0 -0.38222284945703588 0.22008333998357721 0 -0.37891358681912551 0.24145765163168079 0 -0.37733663192763361 0.21336201990676679 0 -0.38222284945703588 0.22008333998357721 0 -0.37446405205528888 0.22438332801037511 0 -0.37891358681912551 0.24145765163168079 0 -0.39884014783915972 0.24098538012431631 0 -0.38922239706040468 0.25509467607083608 0 -0.39512301683265388 0.22947485059998651 0 -0.37891358681912551 0.24145765163168079 0 -0.39884014783915972 0.24098538012431631 0 -0.41602873451493749 0.15031485135679151 0 -0.42702078115082809 0.13240376949199811 0 -0.41556591415401639 0.1216826172998681 0 -0.42702078115082809 0.13240376949199811 0 -0.40123936953161982 0.1321380101012978 0 -0.41602873451493749 0.15031485135679151 0 -0.42702078115082809 0.13240376949199811 0 -0.40123936953161982 0.1321380101012978 0 -0.44182781849421171 0.1240204922371539 0 -0.42702078115082809 0.13240376949199811 0 -0.43702202966642012 0.1497317482695267 0 -0.41602873451493749 0.15031485135679151 0 -0.43702202966642012 0.1497317482695267 0 -0.42103733564353302 0.16393219160149819 0 -0.41602873451493749 0.15031485135679151 0 -0.42702078115082809 0.13240376949199811 0 -0.43702202966642012 0.1497317482695267 0 -0.43702202966642012 0.1497317482695267 0 -0.43221624083862831 0.17544300430189949 0 -0.43221624083862831 0.17544300430189949 0 -0.4148829853186326 0.17594542085768819 0 -0.42103733564353302 0.16393219160149819 0 -0.43702202966642012 0.1497317482695267 0 -0.43221624083862831 0.17544300430189949 0 -0.42103733564353302 0.16393219160149819 0 -0.42490331287520539 0.18837656644307871 0 -0.43221624083862831 0.17544300430189949 0 -0.4148829853186326 0.17594542085768819 0 -0.43965305260607918 0.1890848363970801 0 -0.42490331287520539 0.18837656644307871 0 -0.43221624083862831 0.17544300430189949 0 -0.40566551157111719 0.19273350440900361 0 -0.4148829853186326 0.17594542085768819 0 -0.40490745650298821 0.1807604683936638 0 -0.40566551157111719 0.19273350440900361 0 -0.4148829853186326 0.17594542085768819 0 -0.42490331287520539 0.18837656644307871 0 -0.40566551157111719 0.19273350440900361 0 -0.4148829853186326 0.17594542085768819 0 -0.4148829853186326 0.17594542085768819 0 -0.40503668787904679 0.16822593322158491 0 -0.40490745650298821 0.1807604683936638 0 -0.41602873451493749 0.15031485135679151 0 -0.42103733564353302 0.16393219160149819 0 -0.40503668787904679 0.16822593322158491 0 -0.4148829853186326 0.17594542085768819 0 -0.42103733564353302 0.16393219160149819 0 -0.40503668787904679 0.16822593322158491 0 -0.41602873451493749 0.15031485135679151 0 -0.40503668787904679 0.16822593322158491 0 -0.41602873451493749 0.15031485135679151 0 -0.39285283325139619 0.15641897930264151 0 -0.40503668787904679 0.16822593322158491 0 -0.39285283325139619 0.15641897930264151 0 -0.40503668787904679 0.16822593322158491 0 -0.39453843978518521 0.1741116044255567 0 -0.40503668787904679 0.16822593322158491 0 -0.40490745650298821 0.1807604683936638 0 -0.3940446412431563 0.18613701508637839 0 -0.40503668787904679 0.16822593322158491 0 -0.39453843978518521 0.1741116044255567 0 -0.3940446412431563 0.18613701508637839 0 -0.40503668787904679 0.16822593322158491 0 -0.3940446412431563 0.18613701508637839 0 -0.40566551157111719 0.19273350440900361 0 -0.40490745650298821 0.1807604683936638 0 -0.3940446412431563 0.18613701508637839 0 -0.39453843978518521 0.1741116044255567 0 -0.3940446412431563 0.18613701508637839 0 -0.38446629697117962 0.18069994850398791 0 -0.38446629697117962 0.18069994850398791 0 -0.37898644509724649 0.16611425805657401 0 -0.36855673721055071 0.17166902068818379 0 -0.38446629697117962 0.18069994850398791 0 -0.37509047319470878 0.18537461309310699 0 -0.36855673721055071 0.17166902068818379 0 -0.38446629697117962 0.18069994850398791 0 -0.36855673721055071 0.17166902068818379 0 -0.3940446412431563 0.18613701508637839 0 -0.38446629697117962 0.18069994850398791 0 -0.38582477689523897 0.18946224649791421 0 -0.3940446412431563 0.18613701508637839 0 -0.38446629697117962 0.18069994850398791 0 -0.37934809993399721 0.1955183169547513 0 -0.38446629697117962 0.18069994850398791 0 -0.37509047319470878 0.18537461309310699 0 -0.39285283325139619 0.15641897930264151 0 -0.39453843978518521 0.1741116044255567 0 -0.38446629697117962 0.18069994850398791 0 -0.39285283325139619 0.15641897930264151 0 -0.38446629697117962 0.18069994850398791 0 -0.39285283325139619 0.15641897930264151 0 -0.38446629697117962 0.18069994850398791 0 -0.37898644509724649 0.16611425805657401 0 -0.39285283325139619 0.15641897930264151 0 -0.37898644509724649 0.16611425805657401 0 -0.37006991295585961 0.15566908373148269 0 -0.39285283325139619 0.15641897930264151 0 -0.38286185680150842 0.13794490544787241 0 -0.37006991295585961 0.15566908373148269 0 -0.39285283325139619 0.15641897930264151 0 -0.40123936953161982 0.1321380101012978 0 -0.38286185680150842 0.13794490544787241 0 -0.39285283325139619 0.15641897930264151 0 -0.40123936953161982 0.1321380101012978 0 -0.41602873451493749 0.15031485135679151 0 -0.39285283325139619 0.15641897930264151 0 -0.40123936953161982 0.1321380101012978 0 -0.39255298546209788 0.1144881206504242 0 -0.40123936953161982 0.1321380101012978 0 -0.38286185680150842 0.13794490544787241 0 -0.36374422466539219 0.14089500673471481 0 -0.37484127188086308 0.11915192059704929 0 -0.35082806579532172 0.1227735086953821 0 -0.38286185680150842 0.13794490544787241 0 -0.36374422466539219 0.14089500673471481 0 -0.37484127188086308 0.11915192059704929 0 -0.36374422466539219 0.14089500673471481 0 -0.37484127188086308 0.11915192059704929 0 -0.34493721274648659 0.139394557071299 0 -0.36374422466539219 0.14089500673471481 0 -0.35082806579532172 0.1227735086953821 0 -0.34493721274648659 0.139394557071299 0 -0.35264717744992141 0.16263809287238029 0 -0.3349152473946963 0.15257271188302879 0 -0.34493721274648659 0.139394557071299 0 -0.36374422466539219 0.14089500673471481 0 -0.35264717744992141 0.16263809287238029 0 -0.36374422466539219 0.14089500673471481 0 -0.35264717744992141 0.16263809287238029 0 -0.37006991295585961 0.15566908373148269 0 -0.36374422466539219 0.14089500673471481 0 -0.35264717744992141 0.16263809287238029 0 -0.38286185680150842 0.13794490544787241 0 -0.37006991295585961 0.15566908373148269 0 -0.36374422466539219 0.14089500673471481 0 -0.36855673721055071 0.17166902068818379 0 -0.35264717744992141 0.16263809287238029 0 -0.37006991295585961 0.15566908373148269 0 -0.36855673721055071 0.17166902068818379 0 -0.35264717744992141 0.16263809287238029 0 -0.37898644509724649 0.16611425805657401 0 -0.37006991295585961 0.15566908373148269 0 -0.36855673721055071 0.17166902068818379 0 -0.37509047319470878 0.18537461309310699 0 -0.36855673721055071 0.17166902068818379 0 -0.36678829155166298 0.18357458704151819 0 -0.37509047319470878 0.18537461309310699 0 -0.36678829155166298 0.18357458704151819 0 -0.37012947863644052 0.1925222531624689 0 -0.36855673721055071 0.17166902068818379 0 -0.36678829155166298 0.18357458704151819 0 -0.35686392063630501 0.17689037089907439 0 -0.36678829155166298 0.18357458704151819 0 -0.35686392063630501 0.17689037089907439 0 -0.35969261259620872 0.1893589919578432 0 -0.35686392063630501 0.17689037089907439 0 -0.34341147986932319 0.18073412906445999 0 -0.35969261259620872 0.1893589919578432 0 -0.35686392063630501 0.17689037089907439 0 -0.35264717744992141 0.16263809287238029 0 -0.34341147986932319 0.18073412906445999 0 -0.36855673721055071 0.17166902068818379 0 -0.35686392063630501 0.17689037089907439 0 -0.35264717744992141 0.16263809287238029 0 -0.35264717744992141 0.16263809287238029 0 -0.34341147986932319 0.18073412906445999 0 -0.35264717744992141 0.16263809287238029 0 -0.3349152473946963 0.15257271188302879 0 -0.35264717744992141 0.16263809287238029 0 -0.33245656286043862 0.16981251739035921 0 -0.3349152473946963 0.15257271188302879 0 -0.35264717744992141 0.16263809287238029 0 -0.33245656286043862 0.16981251739035921 0 -0.34341147986932319 0.18073412906445999 0 -0.33245656286043862 0.16981251739035921 0 -0.34341147986932319 0.18073412906445999 0 -0.32340384050484788 0.18497401023636401 0 -0.33245656286043862 0.16981251739035921 0 -0.32340384050484788 0.18497401023636401 0 -0.30825274169837308 0.16753115674155999 0 -0.3349152473946963 0.15257271188302879 0 -0.30825274169837308 0.16753115674155999 0 -0.33245656286043862 0.16981251739035921 0 -0.3349152473946963 0.15257271188302879 0 -0.30825274169837308 0.16753115674155999 0 -0.32722861187482438 0.14820945786652689 0 -0.30519289554896439 0.1503989700685063 0 -0.30825274169837308 0.16753115674155999 0 -0.32722861187482438 0.14820945786652689 0 -0.3349152473946963 0.15257271188302879 0 -0.30825274169837308 0.16753115674155999 0 -0.32722861187482438 0.14820945786652689 0 -0.30181004629972819 0.13378082286067289 0 -0.32722861187482438 0.14820945786652689 0 -0.30181004629972819 0.13378082286067289 0 -0.33023798394697312 0.1224567191874905 0 -0.34493721274648659 0.139394557071299 0 -0.32722861187482438 0.14820945786652689 0 -0.33023798394697312 0.1224567191874905 0 -0.34493721274648659 0.139394557071299 0 -0.35082806579532172 0.1227735086953821 0 -0.33023798394697312 0.1224567191874905 0 -0.34493721274648659 0.139394557071299 0 -0.32722861187482438 0.14820945786652689 0 -0.3349152473946963 0.15257271188302879 0 -0.32722861187482438 0.14820945786652689 0 -0.3349152473946963 0.15257271188302879 0 -0.35896538070308059 0.24574996998627621 0 -0.34717236271329188 0.22517561523282681 0 -0.33870746076025032 0.24330628348934061 0 -0.37891358681912551 0.24145765163168079 0 -0.35896538070308059 0.24574996998627621 0 -0.36439896408396821 0.22865879660179961 0 -0.37891358681912551 0.24145765163168079 0 -0.36439896408396821 0.22865879660179961 0 -0.37446405205528888 0.22438332801037511 0 -0.36439896408396821 0.22865879660179961 0 -0.36856362801634818 0.21919101237683819 0 -0.37446405205528888 0.22438332801037511 0 -0.37733663192763361 0.21336201990676679 0 -0.36856362801634818 0.21919101237683819 0 -0.37446405205528888 0.22438332801037511 0 -0.36439896408396821 0.22865879660179961 0 -0.36856362801634818 0.21919101237683819 0 -0.35903664677183472 0.2169861038980257 0 -0.34717236271329188 0.22517561523282681 0 -0.34864440911918021 0.21566992054819761 0 -0.35903664677183472 0.2169861038980257 0 -0.35896538070308059 0.24574996998627621 0 -0.36439896408396821 0.22865879660179961 0 -0.34717236271329188 0.22517561523282681 0 -0.36439896408396821 0.22865879660179961 0 -0.34717236271329188 0.22517561523282681 0 -0.35903664677183472 0.2169861038980257 0 -0.34717236271329188 0.22517561523282681 0 -0.34864440911918021 0.21566992054819761 0 -0.34095028876154487 0.21815102929357791 0 -0.34864440911918021 0.21566992054819761 0 -0.34303469259836022 0.20936400027038921 0 -0.34095028876154487 0.21815102929357791 0 -0.34864440911918021 0.21566992054819761 0 -0.3530280547508689 0.20867285404616809 0 -0.34303469259836022 0.20936400027038921 0 -0.3530280547508689 0.20867285404616809 0 -0.34768382280427368 0.20248022150278311 0 -0.34303469259836022 0.20936400027038921 0 -0.3530280547508689 0.20867285404616809 0 -0.35788345697565649 0.20154562861937289 0 -0.34768382280427368 0.20248022150278311 0 -0.3530280547508689 0.20867285404616809 0 -0.36202333820288202 0.2087362717766468 0 -0.35788345697565649 0.20154562861937289 0 -0.34864440911918021 0.21566992054819761 0 -0.3530280547508689 0.20867285404616809 0 -0.35903664677183472 0.2169861038980257 0 -0.3530280547508689 0.20867285404616809 0 -0.35903664677183472 0.2169861038980257 0 -0.36202333820288202 0.2087362717766468 0 -0.36856362801634818 0.21919101237683819 0 -0.35903664677183472 0.2169861038980257 0 -0.36874208513919932 0.2124988539030854 0 -0.35903664677183472 0.2169861038980257 0 -0.36874208513919932 0.2124988539030854 0 -0.36202333820288202 0.2087362717766468 0 -0.37733663192763361 0.21336201990676679 0 -0.36856362801634818 0.21919101237683819 0 -0.36874208513919932 0.2124988539030854 0 -0.37733663192763361 0.21336201990676679 0 -0.36874208513919932 0.2124988539030854 0 -0.37422990289682162 0.21033668540551731 0 -0.37422990289682162 0.21033668540551731 0 -0.3684898426712902 0.2071843805758754 0 -0.37133042224239637 0.2014543250575935 0 -0.36874208513919932 0.2124988539030854 0 -0.37422990289682162 0.21033668540551731 0 -0.3684898426712902 0.2071843805758754 0 -0.3684898426712902 0.2071843805758754 0 -0.36470563761968527 0.20387472915011051 0 -0.37133042224239637 0.2014543250575935 0 -0.3684898426712902 0.2071843805758754 0 -0.36470563761968527 0.20387472915011051 0 -0.36202333820288202 0.2087362717766468 0 -0.36874208513919932 0.2124988539030854 0 -0.3684898426712902 0.2071843805758754 0 -0.36202333820288202 0.2087362717766468 0 -0.36470563761968527 0.20387472915011051 0 -0.36202333820288202 0.2087362717766468 0 -0.35788345697565649 0.20154562861937289 0 -0.36544524146481239 0.19840821531268779 0 -0.35969261259620872 0.1893589919578432 0 -0.35788345697565649 0.20154562861937289 0 -0.36470563761968527 0.20387472915011051 0 -0.36544524146481239 0.19840821531268779 0 -0.35788345697565649 0.20154562861937289 0 -0.36470563761968527 0.20387472915011051 0 -0.36544524146481239 0.19840821531268779 0 -0.37133042224239637 0.2014543250575935 0 -0.37934809993399721 0.1955183169547513 0 -0.37422990289682162 0.21033668540551731 0 -0.37133042224239637 0.2014543250575935 0 -0.36544524146481239 0.19840821531268779 0 -0.37133042224239637 0.2014543250575935 0 -0.37012947863644052 0.1925222531624689 0 -0.37934809993399721 0.1955183169547513 0 -0.37133042224239637 0.2014543250575935 0 -0.37012947863644052 0.1925222531624689 0 -0.37934809993399721 0.1955183169547513 0 -0.37509047319470878 0.18537461309310699 0 -0.37012947863644052 0.1925222531624689 0 -0.36544524146481239 0.19840821531268779 0 -0.37012947863644052 0.1925222531624689 0 -0.35969261259620872 0.1893589919578432 0 -0.36678829155166298 0.18357458704151819 0 -0.37012947863644052 0.1925222531624689 0 -0.35969261259620872 0.1893589919578432 0 -0.34768382280427368 0.20248022150278311 0 -0.35029712740775781 0.19398845932144571 0 -0.33417578228872491 0.1988301652565396 0 -0.34341147986932319 0.18073412906445999 0 -0.35969261259620872 0.1893589919578432 0 -0.35029712740775781 0.19398845932144571 0 -0.35969261259620872 0.1893589919578432 0 -0.35788345697565649 0.20154562861937289 0 -0.35029712740775781 0.19398845932144571 0 -0.35788345697565649 0.20154562861937289 0 -0.34768382280427368 0.20248022150278311 0 -0.35029712740775781 0.19398845932144571 0 -0.34341147986932319 0.18073412906445999 0 -0.32340384050484788 0.18497401023636401 0 -0.33417578228872491 0.1988301652565396 0 -0.34341147986932319 0.18073412906445999 0 -0.33417578228872491 0.1988301652565396 0 -0.34341147986932319 0.18073412906445999 0 -0.35029712740775781 0.19398845932144571 0 -0.33417578228872491 0.1988301652565396 0 -0.32340384050484788 0.18497401023636401 0 -0.31839284688231939 0.2009341389331562 0 -0.30460535380166998 0.1924777150830024 0 -0.32340384050484788 0.18497401023636401 0 -0.33417578228872491 0.1988301652565396 0 -0.31839284688231939 0.2009341389331562 0 -0.31839284688231939 0.2009341389331562 0 -0.32494008470812652 0.21692620144861929 0 -0.30633630505676829 0.21382946270861591 0 -0.33417578228872491 0.1988301652565396 0 -0.31839284688231939 0.2009341389331562 0 -0.32494008470812652 0.21692620144861929 0 -0.33417578228872491 0.1988301652565396 0 -0.32494008470812652 0.21692620144861929 0 -0.33417578228872491 0.1988301652565396 0 -0.32494008470812652 0.21692620144861929 0 -0.33255342561787621 0.21442405057061331 0 -0.33417578228872491 0.1988301652565396 0 -0.33255342561787621 0.21442405057061331 0 -0.34303469259836022 0.20936400027038921 0 -0.34768382280427368 0.20248022150278311 0 -0.33417578228872491 0.1988301652565396 0 -0.34303469259836022 0.20936400027038921 0 -0.33255342561787621 0.21442405057061331 0 -0.34303469259836022 0.20936400027038921 0 -0.34095028876154487 0.21815102929357791 0 -0.34717236271329188 0.22517561523282681 0 -0.33225811193058252 0.22958372106749941 0 -0.33870746076025032 0.24330628348934061 0 -0.34717236271329188 0.22517561523282681 0 -0.34095028876154487 0.21815102929357791 0 -0.33225811193058252 0.22958372106749941 0 -0.33255342561787621 0.21442405057061331 0 -0.34095028876154487 0.21815102929357791 0 -0.33225811193058252 0.22958372106749941 0 -0.33255342561787621 0.21442405057061331 0 -0.33225811193058252 0.22958372106749941 0 -0.3112885246697199 0.23234008676629189 0 -0.32494008470812652 0.21692620144861929 0 -0.33255342561787621 0.21442405057061331 0 -0.3112885246697199 0.23234008676629189 0 -0.33255342561787621 0.21442405057061331 0 -0.3112885246697199 0.23234008676629189 0 -0.32494008470812652 0.21692620144861929 0 -0.3112885246697199 0.23234008676629189 0 -0.30633630505676829 0.21382946270861591 0 -0.321951689388841 0.2419447841382146 0 -0.30949728552569811 0.2485016307122889 0 -0.3112885246697199 0.23234008676629189 0 -0.33225811193058252 0.22958372106749941 0 -0.321951689388841 0.2419447841382146 0 -0.3112885246697199 0.23234008676629189 0 -0.321951689388841 0.2419447841382146 0 -0.33870746076025032 0.24330628348934061 0 -0.32034274732340973 0.25713874279085691 0 -0.321951689388841 0.2419447841382146 0 -0.30949728552569811 0.2485016307122889 0 -0.32034274732340973 0.25713874279085691 0 -0.33225811193058252 0.22958372106749941 0 -0.321951689388841 0.2419447841382146 0 -0.33870746076025032 0.24330628348934061 0 -0.3112885246697199 0.23234008676629189 0 -0.28662804782751983 0.22923703633957271 0 -0.29002362372156348 0.25025612296197042 0 -0.28662804782751983 0.22923703633957271 0 -0.27058041639039909 0.24875647789157929 0 -0.29002362372156348 0.25025612296197042 0 -0.3112885246697199 0.23234008676629189 0 -0.29002362372156348 0.25025612296197042 0 -0.30949728552569811 0.2485016307122889 0 -0.3112885246697199 0.23234008676629189 0 -0.29002362372156348 0.25025612296197042 0 -0.3112885246697199 0.23234008676629189 0 -0.28662804782751983 0.22923703633957271 0 -0.30633630505676829 0.21382946270861591 0 -0.28662804782751983 0.22923703633957271 0 -0.29012663539691369 0.2060302769644751 0 -0.27112556168159219 0.21273005524509611 0 -0.28662804782751983 0.22923703633957271 0 -0.29012663539691369 0.2060302769644751 0 -0.30633630505676829 0.21382946270861591 0 -0.29012663539691369 0.2060302769644751 0 -0.30633630505676829 0.21382946270861591 0 -0.30460535380166998 0.1924777150830024 0 -0.31839284688231939 0.2009341389331562 0 -0.30633630505676829 0.21382946270861591 0 -0.30460535380166998 0.1924777150830024 0 -0.29012663539691369 0.2060302769644751 0 -0.30460535380166998 0.1924777150830024 0 -0.2819379086170184 0.18187711544608859 0 -0.2556230755356651 0.1962230741506191 0 -0.2819379086170184 0.18187711544608859 0 -0.29012663539691369 0.2060302769644751 0 -0.27112556168159219 0.21273005524509611 0 -0.2819379086170184 0.18187711544608859 0 -0.2556230755356651 0.1962230741506191 0 -0.27112556168159219 0.21273005524509611 0 -0.2819379086170184 0.18187711544608859 0 -0.2556230755356651 0.1962230741506191 0 -0.25485563990604909 0.21229483457198939 0 -0.24738665511604621 0.2007132925323058 0 -0.2556230755356651 0.1962230741506191 0 -0.24738665511604621 0.2007132925323058 0 -0.25485563990604909 0.21229483457198939 0 -0.27112556168159219 0.21273005524509611 0 -0.26034351173838038 0.22951217830067111 0 -0.2556230755356651 0.1962230741506191 0 -0.27112556168159219 0.21273005524509611 0 -0.2556230755356651 0.1962230741506191 0 -0.25485563990604909 0.21229483457198939 0 -0.27112556168159219 0.21273005524509611 0 -0.28662804782751983 0.22923703633957271 0 -0.27112556168159219 0.21273005524509611 0 -0.26034351173838038 0.22951217830067111 0 -0.28662804782751983 0.22923703633957271 0 -0.27112556168159219 0.21273005524509611 0 -0.26034351173838038 0.22951217830067111 0 -0.25112824550194612 0.24737796623540509 0 -0.24317098058650391 0.22006873440842811 0 -0.25485563990604909 0.21229483457198939 0 -0.26034351173838038 0.22951217830067111 0 -0.24317098058650391 0.22006873440842811 0 -0.26034351173838038 0.22951217830067111 0 -0.25112824550194612 0.24737796623540509 0 -0.27058041639039909 0.24875647789157929 0 -0.28662804782751983 0.22923703633957271 0 -0.26034351173838038 0.22951217830067111 0 -0.27058041639039909 0.24875647789157929 0 -0.28348018232293182 0.15207444280526539 0 -0.30181004629972819 0.13378082286067289 0 -0.27625695178494608 0.13713896558251559 0 -0.28348018232293182 0.15207444280526539 0 -0.30181004629972819 0.13378082286067289 0 -0.30519289554896439 0.1503989700685063 0 -0.30181004629972819 0.13378082286067289 0 -0.27625695178494608 0.13713896558251559 0 -0.27639148072463487 0.1193521878548135 0 -0.30181004629972819 0.13378082286067289 0 -0.27639148072463487 0.1193521878548135 0 -0.32722861187482438 0.14820945786652689 0 -0.30181004629972819 0.13378082286067289 0 -0.30519289554896439 0.1503989700685063 0 -0.28348018232293182 0.15207444280526539 0 -0.30519289554896439 0.1503989700685063 0 -0.30825274169837308 0.16753115674155999 0 -0.32340384050484788 0.18497401023636401 0 -0.30460535380166998 0.1924777150830024 0 -0.30825274169837308 0.16753115674155999 0 -0.30460535380166998 0.1924777150830024 0 -0.30825274169837308 0.16753115674155999 0 -0.2819379086170184 0.18187711544608859 0 -0.30825274169837308 0.16753115674155999 0 -0.2819379086170184 0.18187711544608859 0 -0.28348018232293182 0.15207444280526539 0 -0.30825274169837308 0.16753115674155999 0 -0.2819379086170184 0.18187711544608859 0 -0.28348018232293182 0.15207444280526539 0 -0.2819379086170184 0.18187711544608859 0 -0.26279419821806588 0.16616993066208491 0 -0.28348018232293182 0.15207444280526539 0 -0.26279419821806588 0.16616993066208491 0 -0.26119313779378611 0.1505149659898441 0 -0.2819379086170184 0.18187711544608859 0 -0.25840524707477069 0.18066379054051851 0 -0.26279419821806588 0.16616993066208491 0 -0.2556230755356651 0.1962230741506191 0 -0.2819379086170184 0.18187711544608859 0 -0.25840524707477069 0.18066379054051851 0 -0.25840524707477069 0.18066379054051851 0 -0.26279419821806588 0.16616993066208491 0 -0.25229620910074341 0.17013615813144101 0 -0.25840524707477069 0.18066379054051851 0 -0.2500191168573222 0.17683348474828031 0 -0.25229620910074341 0.17013615813144101 0 -0.2556230755356651 0.1962230741506191 0 -0.25840524707477069 0.18066379054051851 0 -0.24357738573540949 0.1833968750538395 0 -0.25840524707477069 0.18066379054051851 0 -0.2500191168573222 0.17683348474828031 0 -0.24357738573540949 0.1833968750538395 0 -0.26279419821806588 0.16616993066208491 0 -0.25247212761351989 0.1599626922703464 0 -0.26119313779378611 0.1505149659898441 0 -0.26279419821806588 0.16616993066208491 0 -0.25229620910074341 0.17013615813144101 0 -0.25247212761351989 0.1599626922703464 0 -0.25247212761351989 0.1599626922703464 0 -0.25264144239191072 0.1505710490303068 0 -0.26119313779378611 0.1505149659898441 0 -0.25264144239191072 0.1505710490303068 0 -0.26119313779378611 0.1505149659898441 0 -0.26001313740162812 0.13471821548803281 0 -0.25247212761351989 0.1599626922703464 0 -0.25264144239191072 0.1505710490303068 0 -0.24589401507199701 0.1575751282820573 0 -0.26001313740162812 0.13471821548803281 0 -0.24667217707230199 0.1438726480782736 0 -0.2436347940786226 0.15008424312125351 0 -0.25264144239191072 0.1505710490303068 0 -0.26001313740162812 0.13471821548803281 0 -0.2436347940786226 0.15008424312125351 0 -0.26001313740162812 0.13471821548803281 0 -0.2436347940786226 0.15008424312125351 0 -0.28348018232293182 0.15207444280526539 0 -0.26119313779378611 0.1505149659898441 0 -0.27625695178494608 0.13713896558251559 0 -0.26119313779378611 0.1505149659898441 0 -0.27625695178494608 0.13713896558251559 0 -0.26001313740162812 0.13471821548803281 0 -0.26001313740162812 0.13471821548803281 0 -0.27639148072463487 0.1193521878548135 0 -0.27625695178494608 0.13713896558251559 0 -0.26001313740162812 0.13471821548803281 0 -0.27639148072463487 0.1193521878548135 0 -0.2630700407517188 0.1202402352657191 0 -0.24877222102029911 0.13740767986521479 0 -0.24667217707230199 0.1438726480782736 0 -0.2630700407517188 0.1202402352657191 0 -0.24966194941690531 0.1236110298176695 0 -0.24877222102029911 0.13740767986521479 0 -0.2630700407517188 0.1202402352657191 0 -0.24667217707230199 0.1438726480782736 0 -0.26001313740162812 0.13471821548803281 0 -0.2630700407517188 0.1202402352657191 0 -0.24667217707230199 0.1438726480782736 0 -0.25235736228464678 0.11210445701302491 0 -0.2630700407517188 0.1202402352657191 0 -0.24966194941690531 0.1236110298176695 0 -0.25235736228464678 0.11210445701302491 0 -0.2630700407517188 0.1202402352657191 0 -0.26359137947740319 0.1070308922097786 0 -0.25235736228464678 0.11210445701302491 0 -0.25725827375259952 0.099411594231854306 0 -0.24126612868982009 0.099496398347104567 0 -0.25235736228464678 0.11210445701302491 0 -0.25725827375259952 0.099411594231854306 0 -0.26359137947740319 0.1070308922097786 0 -0.25725827375259952 0.099411594231854306 0 -0.26359137947740319 0.1070308922097786 0 -0.26647374260696088 0.099128839897941204 0 -0.25725827375259952 0.099411594231854306 0 -0.26647374260696088 0.099128839897941204 0 -0.26591262598672799 0.089634294603373035 0 -0.2630700407517188 0.1202402352657191 0 -0.26359137947740319 0.1070308922097786 0 -0.27946790443113573 0.096607822453164599 0 -0.26359137947740319 0.1070308922097786 0 -0.26647374260696088 0.099128839897941204 0 -0.27946790443113573 0.096607822453164599 0 -0.2630700407517188 0.1202402352657191 0 -0.27946790443113573 0.096607822453164599 0 -0.26647374260696088 0.099128839897941204 0 -0.27946790443113573 0.096607822453164599 0 -0.26591262598672799 0.089634294603373035 0 -0.2630700407517188 0.1202402352657191 0 -0.27946790443113573 0.096607822453164599 0 -0.27045378765522748 0.1159817063135961 0 -0.26001313740162812 0.13471821548803281 0 -0.2630700407517188 0.1202402352657191 0 -0.27639148072463487 0.1193521878548135 0 -0.27946790443113573 0.096607822453164599 0 -0.27045378765522748 0.1159817063135961 0 -0.27639148072463487 0.1193521878548135 0 -0.2630700407517188 0.1202402352657191 0 -0.27045378765522748 0.1159817063135961 0 -0.27639148072463487 0.1193521878548135 0 -0.27045378765522748 0.1159817063135961 0 -0.27639148072463487 0.1193521878548135 0 -0.30181004629972819 0.13378082286067289 0 -0.29544248549508823 0.101478691129888 0 -0.31461724321023271 0.1081937940891116 0 -0.27639148072463487 0.1193521878548135 0 -0.29544248549508823 0.101478691129888 0 -0.30181004629972819 0.13378082286067289 0 -0.27639148072463487 0.1193521878548135 0 -0.29544248549508823 0.101478691129888 0 -0.27946790443113573 0.096607822453164599 0 -0.29544248549508823 0.101478691129888 0 -0.29959185970320518 0.087009105552789512 0 -0.27946790443113573 0.096607822453164599 0 -0.27639148072463487 0.1193521878548135 0 -0.29544248549508823 0.101478691129888 0 -0.29544248549508823 0.101478691129888 0 -0.31461724321023271 0.1081937940891116 0 -0.31449349026554302 0.083605194404963667 0 -0.3061640624131442 0.078235815814672149 0 -0.29586576811055321 0.072975409640610445 0 -0.31470513157327529 0.069353553660324987 0 -0.30282884801018012 0.06294029885716379 0 -0.29586576811055321 0.072975409640610445 0 -0.31470513157327529 0.069353553660324987 0 -0.29586576811055321 0.072975409640610445 0 -0.31470513157327529 0.069353553660324987 0 -0.30282884801018012 0.06294029885716379 0 -0.29586576811055321 0.072975409640610445 0 -0.30282884801018012 0.06294029885716379 0 -0.29586576811055321 0.072975409640610445 0 -0.29376654115811751 0.062962397931075845 0 -0.3061640624131442 0.078235815814672149 0 -0.31449349026554302 0.083605194404963667 0 -0.31470513157327529 0.069353553660324987 0 -0.3061640624131442 0.078235815814672149 0 -0.29959185970320518 0.087009105552789512 0 -0.31449349026554302 0.083605194404963667 0 -0.29544248549508823 0.101478691129888 0 -0.29959185970320518 0.087009105552789512 0 -0.31449349026554302 0.083605194404963667 0 -0.29544248549508823 0.101478691129888 0 -0.31449349026554302 0.083605194404963667 0 -0.3061640624131442 0.078235815814672149 0 -0.29959185970320518 0.087009105552789512 0 -0.29586576811055321 0.072975409640610445 0 -0.27946790443113573 0.096607822453164599 0 -0.29586576811055321 0.072975409640610445 0 -0.27946790443113573 0.096607822453164599 0 -0.29959185970320518 0.087009105552789512 0 -0.29586576811055321 0.072975409640610445 0 -0.27946790443113573 0.096607822453164599 0 -0.29586576811055321 0.072975409640610445 0 -0.2745497365944447 0.077073403523226336 0 -0.29586576811055321 0.072975409640610445 0 -0.28322516813285797 0.066162278140635911 0 -0.2745497365944447 0.077073403523226336 0 -0.29586576811055321 0.072975409640610445 0 -0.2745497365944447 0.077073403523226336 0 -0.29586576811055321 0.072975409640610445 0 -0.29376654115811751 0.062962397931075845 0 -0.28322516813285797 0.066162278140635911 0 -0.2745497365944447 0.077073403523226336 0 -0.27231338893584739 0.067770857570011805 0 -0.25854254671211252 0.070223726848228002 0 -0.28322516813285797 0.066162278140635911 0 -0.27231338893584739 0.067770857570011805 0 -0.27578724972574931 0.05758327493184992 0 -0.28322516813285797 0.066162278140635911 0 -0.2745497365944447 0.077073403523226336 0 -0.27231338893584739 0.067770857570011805 0 -0.27946790443113573 0.096607822453164599 0 -0.2745497365944447 0.077073403523226336 0 -0.26591262598672799 0.089634294603373035 0 -0.25725827375259952 0.099411594231854306 0 -0.25323370507833609 0.0811713974058412 0 -0.24126612868982009 0.099496398347104567 0 -0.2745497365944447 0.077073403523226336 0 -0.26591262598672799 0.089634294603373035 0 -0.25323370507833609 0.0811713974058412 0 -0.2745497365944447 0.077073403523226336 0 -0.25323370507833609 0.0811713974058412 0 -0.25725827375259952 0.099411594231854306 0 -0.26591262598672799 0.089634294603373035 0 -0.25323370507833609 0.0811713974058412 0 -0.27231338893584739 0.067770857570011805 0 -0.25340231524761669 0.059237580739312991 0 -0.27231338893584739 0.067770857570011805 0 -0.25854254671211252 0.070223726848228002 0 -0.25340231524761669 0.059237580739312991 0 -0.2745497365944447 0.077073403523226336 0 -0.25323370507833609 0.0811713974058412 0 -0.25854254671211252 0.070223726848228002 0 -0.25323370507833609 0.0811713974058412 0 -0.25854254671211252 0.070223726848228002 0 -0.23919085046805649 0.072208258273933193 0 -0.25854254671211252 0.070223726848228002 0 -0.25340231524761669 0.059237580739312991 0 -0.24528222781891421 0.063559800730396535 0 -0.25340231524761669 0.059237580739312991 0 -0.26436740691919308 0.050757814451108663 0 -0.24780155420359479 0.046428157336030451 0 -0.27231338893584739 0.067770857570011805 0 -0.25340231524761669 0.059237580739312991 0 -0.26646759020710159 0.058837381923070843 0 -0.25340231524761669 0.059237580739312991 0 -0.26436740691919308 0.050757814451108663 0 -0.26646759020710159 0.058837381923070843 0 -0.26436740691919308 0.050757814451108663 0 -0.26056460055048553 0.037008616319220013 0 -0.24780155420359479 0.046428157336030451 0 -0.26056460055048553 0.037008616319220013 0 -0.28102109338663422 0.025798528583680581 0 -0.28144796828050822 0.043880911975259188 0 -0.26436740691919308 0.050757814451108663 0 -0.26056460055048553 0.037008616319220013 0 -0.28144796828050822 0.043880911975259188 0 -0.26436740691919308 0.050757814451108663 0 -0.27578724972574931 0.05758327493184992 0 -0.28144796828050822 0.043880911975259188 0 -0.27231338893584739 0.067770857570011805 0 -0.27578724972574931 0.05758327493184992 0 -0.26646759020710159 0.058837381923070843 0 -0.26436740691919308 0.050757814451108663 0 -0.27578724972574931 0.05758327493184992 0 -0.26646759020710159 0.058837381923070843 0 -0.2499433467436635 -0.01037518091883103 0 -0.26433090843658158 0.021599592017617051 0 -0.24292769664503261 0.014553070900411689 0 -0.2499433467436635 -0.01037518091883103 0 -0.2745189729490457 -0.0034833185995958899 0 -0.26433090843658158 0.021599592017617051 0 -0.26056460055048553 0.037008616319220013 0 -0.26433090843658158 0.021599592017617051 0 -0.24081646498495529 0.034317898015750102 0 -0.26433090843658158 0.021599592017617051 0 -0.24081646498495529 0.034317898015750102 0 -0.26056460055048553 0.037008616319220013 0 -0.26433090843658158 0.021599592017617051 0 -0.28102109338663422 0.025798528583680581 0 -0.26433090843658158 0.021599592017617051 0 -0.28102109338663422 0.025798528583680581 0 -0.28784535188820792 0.0088812860194839409 0 -0.26433090843658158 0.021599592017617051 0 -0.28784535188820792 0.0088812860194839409 0 -0.2745189729490457 -0.0034833185995958899 0 -0.26433090843658158 0.021599592017617051 0 -0.28784535188820792 0.0088812860194839409 0 -0.28102109338663422 0.025798528583680581 0 -0.28784535188820792 0.0088812860194839409 0 -0.29808192336529832 0.029437021250443719 0 -0.28784535188820792 0.0088812860194839409 0 -0.29808192336529832 0.029437021250443719 0 -0.31450464958099189 0.01711814881110511 0 -0.29808192336529832 0.029437021250443719 0 -0.31764950382215112 0.03807331760085967 0 -0.31450464958099189 0.01711814881110511 0 -0.31135979533983399 -0.003837019978649579 0 -0.28784535188820792 0.0088812860194839409 0 -0.31135979533983399 -0.003837019978649579 0 -0.28784535188820792 0.0088812860194839409 0 -0.31450464958099189 0.01711814881110511 0 -0.28652680767031019 0.056938653546749173 0 -0.28144796828050822 0.043880911975259188 0 -0.29950521061532559 0.049793140497512531 0 -0.29376654115811751 0.062962397931075845 0 -0.28652680767031019 0.056938653546749173 0 -0.29950521061532559 0.049793140497512531 0 -0.28322516813285797 0.066162278140635911 0 -0.27578724972574931 0.05758327493184992 0 -0.28652680767031019 0.056938653546749173 0 -0.29376654115811751 0.062962397931075845 0 -0.28322516813285797 0.066162278140635911 0 -0.28652680767031019 0.056938653546749173 0 -0.27578724972574931 0.05758327493184992 0 -0.28652680767031019 0.056938653546749173 0 -0.28144796828050822 0.043880911975259188 0 -0.29808192336529832 0.029437021250443719 0 -0.28144796828050822 0.043880911975259188 0 -0.29950521061532559 0.049793140497512531 0 -0.28102109338663422 0.025798528583680581 0 -0.29808192336529832 0.029437021250443719 0 -0.28144796828050822 0.043880911975259188 0 -0.29808192336529832 0.029437021250443719 0 -0.29950521061532559 0.049793140497512531 0 -0.31764950382215112 0.03807331760085967 0 -0.30282884801018012 0.06294029885716379 0 -0.31551481438750362 0.053651074964334418 0 -0.31470513157327529 0.069353553660324987 0 -0.29950521061532559 0.049793140497512531 0 -0.31551481438750362 0.053651074964334418 0 -0.31764950382215112 0.03807331760085967 0 -0.30282884801018012 0.06294029885716379 0 -0.29950521061532559 0.049793140497512531 0 -0.31551481438750362 0.053651074964334418 0 -0.30282884801018012 0.06294029885716379 0 -0.29376654115811751 0.062962397931075845 0 -0.29950521061532559 0.049793140497512531 0 -0.31551481438750362 0.053651074964334418 0 -0.33404257850927321 0.045082303856898383 0 -0.33354449503599742 0.065731697680039045 0 -0.31551481438750362 0.053651074964334418 0 -0.31764950382215112 0.03807331760085967 0 -0.33404257850927321 0.045082303856898383 0 -0.33404257850927321 0.045082303856898383 0 -0.33817822230689448 0.024563118887270158 0 -0.34852286516464059 0.035661562699266673 0 -0.31764950382215112 0.03807331760085967 0 -0.33404257850927321 0.045082303856898383 0 -0.33817822230689448 0.024563118887270158 0 -0.33404257850927321 0.045082303856898383 0 -0.34899200452478951 0.051238970730311861 0 -0.33354449503599742 0.065731697680039045 0 -0.34899200452478951 0.051238970730311861 0 -0.33354449503599742 0.065731697680039045 0 -0.31135979533983399 -0.003837019978649579 0 -0.31985769127824287 0.004388881641175936 0 -0.31450464958099189 0.01711814881110511 0 -0.31135979533983399 -0.003837019978649579 0 -0.31450464958099189 0.01711814881110511 0 -0.32865409209584129 -0.002311661141454144 0 -0.31985769127824287 0.004388881641175936 0 -0.33003469356992232 0.0085775367471761944 0 -0.31985769127824287 0.004388881641175936 0 -0.31450464958099189 0.01711814881110511 0 -0.33003469356992232 0.0085775367471761944 0 -0.31450464958099189 0.01711814881110511 0 -0.33817822230689448 0.024563118887270158 0 -0.33003469356992232 0.0085775367471761944 0 -0.31764950382215112 0.03807331760085967 0 -0.31450464958099189 0.01711814881110511 0 -0.33817822230689448 0.024563118887270158 0 -0.31764950382215112 0.03807331760085967 0 -0.31450464958099189 0.01711814881110511 0 -0.33817822230689448 0.024563118887270158 0 -0.33003469356992232 0.0085775367471761944 0 -0.35077790856688001 0.00018046279450458991 0 -0.32865409209584129 -0.002311661141454144 0 -0.33003469356992232 0.0085775367471761944 0 -0.35077790856688001 0.00018046279450458991 0 -0.35077790856688001 0.00018046279450458991 0 -0.35696200646866499 0.02067717624126866 0 -0.36534959063801992 0.0080988217743681156 0 -0.33817822230689448 0.024563118887270158 0 -0.35077790856688001 0.00018046279450458991 0 -0.35696200646866499 0.02067717624126866 0 -0.35696200646866499 0.02067717624126866 0 -0.34852286516464059 0.035661562699266673 0 -0.36443951401358132 0.03674624378058429 0 -0.33817822230689448 0.024563118887270158 0 -0.35696200646866499 0.02067717624126866 0 -0.34852286516464059 0.035661562699266673 0 -0.35696200646866499 0.02067717624126866 0 -0.37081140760068221 0.018589819304842849 0 -0.36443951401358132 0.03674624378058429 0 -0.37988702350237308 0.02225351683085668 0 -0.37081140760068221 0.018589819304842849 0 -0.36443951401358132 0.03674624378058429 0 -0.37988702350237308 0.02225351683085668 0 -0.36443951401358132 0.03674624378058429 0 -0.35696200646866499 0.02067717624126866 0 -0.37081140760068221 0.018589819304842849 0 -0.36534959063801992 0.0080988217743681156 0 -0.36757837345989042 -0.0048102241571663529 0 -0.35077790856688001 0.00018046279450458991 0 -0.36534959063801992 0.0080988217743681156 0 -0.37663161885987112 0.0081973106947853033 0 -0.37081140760068221 0.018589819304842849 0 -0.36534959063801992 0.0080988217743681156 0 -0.36757837345989042 -0.0048102241571663529 0 -0.37663161885987112 0.0081973106947853033 0 -0.36534959063801992 0.0080988217743681156 0 -0.35229812215769241 0.062126324458317131 0 -0.34899200452478951 0.051238970730311861 0 -0.33354449503599742 0.065731697680039045 0 -0.35229812215769241 0.062126324458317131 0 -0.34899200452478951 0.051238970730311861 0 -0.36231026044401171 0.050265209623911691 0 -0.34899200452478951 0.051238970730311861 0 -0.34852286516464059 0.035661562699266673 0 -0.36443951401358132 0.03674624378058429 0 -0.33404257850927321 0.045082303856898383 0 -0.34899200452478951 0.051238970730311861 0 -0.34852286516464059 0.035661562699266673 0 -0.34899200452478951 0.051238970730311861 0 -0.36443951401358132 0.03674624378058429 0 -0.34899200452478951 0.051238970730311861 0 -0.36443951401358132 0.03674624378058429 0 -0.36231026044401171 0.050265209623911691 0 -0.38184743579361757 0.028487257236559229 0 -0.36443951401358132 0.03674624378058429 0 -0.37476991224460748 0.042693557913749389 0 -0.36443951401358132 0.03674624378058429 0 -0.37476991224460748 0.042693557913749389 0 -0.36231026044401171 0.050265209623911691 0 -0.37476991224460748 0.042693557913749389 0 -0.36231026044401171 0.050265209623911691 0 -0.37105174927938728 0.058520951236594829 0 -0.35229812215769241 0.062126324458317131 0 -0.37105174927938728 0.058520951236594829 0 -0.35229812215769241 0.062126324458317131 0 -0.36231026044401171 0.050265209623911691 0 -0.37105174927938728 0.058520951236594829 0 -0.37105174927938728 0.058520951236594829 0 -0.35107697966160872 0.079084247049568512 0 -0.37105174927938728 0.058520951236594829 0 -0.37066639131518891 0.075515408551262597 0 -0.35107697966160872 0.079084247049568512 0 -0.3775432773667875 0.068428421516663659 0 -0.37105174927938728 0.058520951236594829 0 -0.37066639131518891 0.075515408551262597 0 -0.35229812215769241 0.062126324458317131 0 -0.35107697966160872 0.079084247049568512 0 -0.33354449503599742 0.065731697680039045 0 -0.35229812215769241 0.062126324458317131 0 -0.37105174927938728 0.058520951236594829 0 -0.35107697966160872 0.079084247049568512 0 -0.3624170872947432 0.084956231718656156 0 -0.36682276976702982 0.095843294666615009 0 -0.3477072204377249 0.094277754873845473 0 -0.35107697966160872 0.079084247049568512 0 -0.3624170872947432 0.084956231718656156 0 -0.3477072204377249 0.094277754873845473 0 -0.37066639131518891 0.075515408551262597 0 -0.35107697966160872 0.079084247049568512 0 -0.3624170872947432 0.084956231718656156 0 -0.37873992976530951 0.086424838189945244 0 -0.37066639131518891 0.075515408551262597 0 -0.3624170872947432 0.084956231718656156 0 -0.37873992976530951 0.086424838189945244 0 -0.3624170872947432 0.084956231718656156 0 -0.36682276976702982 0.095843294666615009 0 -0.36682276976702982 0.095843294666615009 0 -0.37484127188086308 0.11915192059704929 0 -0.3562338742477788 0.10765071356746519 0 -0.37484127188086308 0.11915192059704929 0 -0.35082806579532172 0.1227735086953821 0 -0.3562338742477788 0.10765071356746519 0 -0.35082806579532172 0.1227735086953821 0 -0.3562338742477788 0.10765071356746519 0 -0.34322187089432588 0.1093612478373452 0 -0.36682276976702982 0.095843294666615009 0 -0.3477072204377249 0.094277754873845473 0 -0.36682276976702982 0.095843294666615009 0 -0.3562338742477788 0.10765071356746519 0 -0.3477072204377249 0.094277754873845473 0 -0.3562338742477788 0.10765071356746519 0 -0.3477072204377249 0.094277754873845473 0 -0.34322187089432588 0.1093612478373452 0 -0.3477072204377249 0.094277754873845473 0 -0.33110221004383072 0.099647542862543043 0 -0.34322187089432588 0.1093612478373452 0 -0.33110221004383072 0.099647542862543043 0 -0.34322187089432588 0.1093612478373452 0 -0.33023798394697312 0.1224567191874905 0 -0.35082806579532172 0.1227735086953821 0 -0.34322187089432588 0.1093612478373452 0 -0.33023798394697312 0.1224567191874905 0 -0.33110221004383072 0.099647542862543043 0 -0.33023798394697312 0.1224567191874905 0 -0.31461724321023271 0.1081937940891116 0 -0.30181004629972819 0.13378082286067289 0 -0.33023798394697312 0.1224567191874905 0 -0.31461724321023271 0.1081937940891116 0 -0.33110221004383072 0.099647542862543043 0 -0.31461724321023271 0.1081937940891116 0 -0.31449349026554302 0.083605194404963667 0 -0.33110221004383072 0.099647542862543043 0 -0.31449349026554302 0.083605194404963667 0 -0.332554293751745 0.082017170499278647 0 -0.31449349026554302 0.083605194404963667 0 -0.31470513157327529 0.069353553660324987 0 -0.33354449503599742 0.065731697680039045 0 -0.31551481438750362 0.053651074964334418 0 -0.31470513157327529 0.069353553660324987 0 -0.33354449503599742 0.065731697680039045 0 -0.31449349026554302 0.083605194404963667 0 -0.33354449503599742 0.065731697680039045 0 -0.332554293751745 0.082017170499278647 0 -0.31449349026554302 0.083605194404963667 0 -0.33354449503599742 0.065731697680039045 0 -0.31470513157327529 0.069353553660324987 0 -0.33354449503599742 0.065731697680039045 0 -0.35107697966160872 0.079084247049568512 0 -0.33354449503599742 0.065731697680039045 0 -0.332554293751745 0.082017170499278647 0 -0.35229812215769241 0.062126324458317131 0 -0.33354449503599742 0.065731697680039045 0 -0.35107697966160872 0.079084247049568512 0 -0.3477072204377249 0.094277754873845473 0 -0.33110221004383072 0.099647542862543043 0 -0.35107697966160872 0.079084247049568512 0 -0.33110221004383072 0.099647542862543043 0 -0.332554293751745 0.082017170499278647 0 -0.35107697966160872 0.079084247049568512 0 -0.33110221004383072 0.099647542862543043 0 -0.40000331303073611 0.47860670628297902 0 -0.3972346059726557 0.46663013598081099 0 -0.41375607388437963 0.48215106347969788 0 -0.3972346059726557 0.46663013598081099 0 -0.41375607388437963 0.48215106347969788 0 -0.40000331303073611 0.47860670628297902 0 -0.39847256563318401 0.48850319327512631 0 -0.39055000663272538 0.47714243239628068 0 -0.40000331303073611 0.47860670628297902 0 -0.39055000663272538 0.47714243239628068 0 -0.3972346059726557 0.46663013598081099 0 -0.40000331303073611 0.47860670628297902 0 -0.39847256563318401 0.48850319327512631 0 -0.41375607388437963 0.48215106347969788 0 -0.39847256563318401 0.48850319327512631 0 -0.38955825171131159 0.5 0 -0.41245548503344559 0.5 0 -0.39847256563318401 0.48850319327512631 0 -0.38955825171131159 0.5 0 -0.37451963788401249 0.48664927698790039 0 -0.38955825171131159 0.5 0 -0.37451963788401249 0.48664927698790039 0 -0.36666101838917781 0.5 0 -0.39847256563318401 0.48850319327512631 0 -0.37451963788401249 0.48664927698790039 0 -0.39847256563318401 0.48850319327512631 0 -0.39055000663272538 0.47714243239628068 0 -0.37451963788401249 0.48664927698790039 0 -0.39055000663272538 0.47714243239628068 0 -0.38178084575941051 0.46652638942871649 0 -0.37451963788401249 0.48664927698790039 0 -0.39055000663272538 0.47714243239628068 0 -0.38178084575941051 0.46652638942871649 0 -0.3972346059726557 0.46663013598081099 0 -0.38178084575941051 0.46652638942871649 0 -0.38071313806093182 0.45110920848192398 0 -0.3972346059726557 0.46663013598081099 0 -0.38178084575941051 0.46652638942871649 0 -0.38071313806093182 0.45110920848192398 0 -0.3655968730100545 0.4665128446436213 0 -0.38071313806093182 0.45110920848192398 0 -0.3972346059726557 0.46663013598081099 0 -0.37589839224167271 0.43807903301196932 0 -0.38071313806093182 0.45110920848192398 0 -0.38717575240959262 0.44278055353255191 0 -0.38071313806093182 0.45110920848192398 0 -0.38717575240959262 0.44278055353255191 0 -0.39396822588695202 0.45148053977106378 0 -0.37589839224167271 0.43807903301196932 0 -0.38717575240959262 0.44278055353255191 0 -0.38777985046432678 0.43464519576160021 0 -0.39751915539407928 0.4385887906362016 0 -0.39396822588695202 0.45148053977106378 0 -0.4043037541448416 0.45808827253731638 0 -0.4043037541448416 0.45808827253731638 0 -0.40604005748312388 0.43506120555062222 0 -0.39751915539407928 0.4385887906362016 0 -0.4043037541448416 0.45808827253731638 0 -0.40604005748312388 0.43506120555062222 0 -0.38717575240959262 0.44278055353255191 0 -0.39751915539407928 0.4385887906362016 0 -0.39396822588695202 0.45148053977106378 0 -0.38717575240959262 0.44278055353255191 0 -0.39751915539407928 0.4385887906362016 0 -0.38777985046432678 0.43464519576160021 0 -0.38071313806093182 0.45110920848192398 0 -0.39396822588695202 0.45148053977106378 0 -0.3972346059726557 0.46663013598081099 0 -0.39396822588695202 0.45148053977106378 0 -0.3972346059726557 0.46663013598081099 0 -0.4043037541448416 0.45808827253731638 0 -0.3972346059726557 0.46663013598081099 0 -0.4043037541448416 0.45808827253731638 0 -0.41114977796427649 0.46773491612836038 0 -0.4043037541448416 0.45808827253731638 0 -0.41114977796427649 0.46773491612836038 0 -0.41457428580327682 0.45752059096021069 0 -0.4043037541448416 0.45808827253731638 0 -0.41457428580327682 0.45752059096021069 0 -0.41407864006311051 0.44724633097614591 0 -0.41457428580327682 0.45752059096021069 0 -0.42599741236778238 0.44825170564461891 0 -0.42338039014306772 0.46384842159721601 0 -0.41114977796427649 0.46773491612836038 0 -0.41457428580327682 0.45752059096021069 0 -0.42338039014306772 0.46384842159721601 0 -0.4043037541448416 0.45808827253731638 0 -0.41407864006311051 0.44724633097614591 0 -0.40604005748312388 0.43506120555062222 0 -0.41407864006311051 0.44724633097614591 0 -0.41626419781940399 0.43706040116923428 0 -0.40604005748312388 0.43506120555062222 0 -0.41457428580327682 0.45752059096021069 0 -0.41407864006311051 0.44724633097614591 0 -0.42599741236778238 0.44825170564461891 0 -0.41407864006311051 0.44724633097614591 0 -0.42599741236778238 0.44825170564461891 0 -0.41626419781940399 0.43706040116923428 0 -0.42599741236778238 0.44825170564461891 0 -0.42424307957178131 0.42891281442148849 0 -0.41626419781940399 0.43706040116923428 0 -0.42599741236778238 0.44825170564461891 0 -0.43395716725945899 0.45791002199704839 0 -0.44279341120684418 0.44971818832489402 0 -0.42599741236778238 0.44825170564461891 0 -0.44279341120684418 0.44971818832489402 0 -0.43546449287871908 0.43486590390093249 0 -0.42338039014306772 0.46384842159721601 0 -0.43395716725945899 0.45791002199704839 0 -0.44365745532014172 0.46982177242146489 0 -0.42599741236778238 0.44825170564461891 0 -0.42338039014306772 0.46384842159721601 0 -0.43395716725945899 0.45791002199704839 0 -0.41245548503344559 0.5 0 -0.42242549338235558 0.49035710956235318 0 -0.4482836622549019 0.49235848830538759 0 -0.42287383813884433 0.47478265663781838 0 -0.42242549338235558 0.49035710956235318 0 -0.44365745532014172 0.46982177242146489 0 -0.42242549338235558 0.49035710956235318 0 -0.44365745532014172 0.46982177242146489 0 -0.42338039014306772 0.46384842159721601 0 -0.42287383813884433 0.47478265663781838 0 -0.44365745532014172 0.46982177242146489 0 -0.41114977796427649 0.46773491612836038 0 -0.42287383813884433 0.47478265663781838 0 -0.41375607388437963 0.48215106347969788 0 -0.3972346059726557 0.46663013598081099 0 -0.41114977796427649 0.46773491612836038 0 -0.41375607388437963 0.48215106347969788 0 -0.41114977796427649 0.46773491612836038 0 -0.42338039014306772 0.46384842159721601 0 -0.42287383813884433 0.47478265663781838 0 -0.42287383813884433 0.47478265663781838 0 -0.41375607388437963 0.48215106347969788 0 -0.42242549338235558 0.49035710956235318 0 -0.39847256563318401 0.48850319327512631 0 -0.41375607388437963 0.48215106347969788 0 -0.42242549338235558 0.49035710956235318 0 -0.39847256563318401 0.48850319327512631 0 -0.41245548503344559 0.5 0 -0.42242549338235558 0.49035710956235318 0 -0.39847256563318401 0.48850319327512631 0 -0.42242549338235558 0.49035710956235318 0 -0.41245548503344559 0.5 0 -0.42242549338235558 0.49035710956235318 0 -0.42242549338235558 0.49035710956235318 0 -0.4482836622549019 0.49235848830538759 0 -0.41245548503344559 0.5 0 -0.4482836622549019 0.49235848830538759 0 -0.46389495981001899 0.5 0 -0.42242549338235558 0.49035710956235318 0 -0.4482836622549019 0.49235848830538759 0 -0.44365745532014172 0.46982177242146489 0 -0.4482836622549019 0.49235848830538759 0 -0.44365745532014172 0.46982177242146489 0 -0.46386304407192819 0.47357198524703142 0 -0.4482836622549019 0.49235848830538759 0 -0.47414183112744818 0.49435986704842311 0 -0.4482836622549019 0.49235848830538759 0 -0.46389495981001899 0.5 0 -0.47414183112744818 0.49435986704842311 0 -0.4482836622549019 0.49235848830538759 0 -0.46386304407192819 0.47357198524703142 0 -0.47414183112744818 0.49435986704842311 0 -0.46389495981001899 0.5 0 -0.47414183112744818 0.49435986704842311 0 -0.5 0.5 0 -0.47414183112744818 0.49435986704842311 0 -0.5 0.46875798164213628 0 -0.4788595275779135 0.46603681201082292 0 -0.46386304407192819 0.47357198524703142 0 -0.47414183112744818 0.49435986704842311 0 -0.4788595275779135 0.46603681201082292 0 -0.47414183112744818 0.49435986704842311 0 -0.5 0.46875798164213628 0 -0.49999999999999428 0.49636124579145802 0 -0.47414183112744818 0.49435986704842311 0 -0.49999999999999428 0.49636124579145802 0 -0.5 0.5 0 -0.47414183112744818 0.49435986704842311 0 -0.49999999999999428 0.49636124579145802 0 -0.5 0.46875798164213628 0 -0.5 0.44115471749281471 0 -0.48378099582177941 0.44753197498846747 0 -0.5 0.44115471749281471 0 -0.48378099582177941 0.44753197498846747 0 -0.48612137919571341 0.42875109813968748 0 -0.5 0.46875798164213628 0 -0.4788595275779135 0.46603681201082292 0 -0.48378099582177941 0.44753197498846747 0 -0.46386304407192819 0.47357198524703142 0 -0.4788595275779135 0.46603681201082292 0 -0.46488941725792748 0.44928643528057621 0 -0.4788595275779135 0.46603681201082292 0 -0.48378099582177941 0.44753197498846747 0 -0.46488941725792748 0.44928643528057621 0 -0.48378099582177941 0.44753197498846747 0 -0.46488941725792748 0.44928643528057621 0 -0.48612137919571341 0.42875109813968748 0 -0.46488941725792748 0.44928643528057621 0 -0.48612137919571341 0.42875109813968748 0 -0.44365745532014172 0.46982177242146489 0 -0.46386304407192819 0.47357198524703142 0 -0.46488941725792748 0.44928643528057621 0 -0.44365745532014172 0.46982177242146489 0 -0.46488941725792748 0.44928643528057621 0 -0.43395716725945899 0.45791002199704839 0 -0.44365745532014172 0.46982177242146489 0 -0.44279341120684418 0.44971818832489402 0 -0.44365745532014172 0.46982177242146489 0 -0.46488941725792748 0.44928643528057621 0 -0.44279341120684418 0.44971818832489402 0 -0.44279341120684418 0.44971818832489402 0 -0.45125724792849858 0.43368558415816372 0 -0.43546449287871908 0.43486590390093249 0 -0.46488941725792748 0.44928643528057621 0 -0.44279341120684418 0.44971818832489402 0 -0.45125724792849858 0.43368558415816372 0 -0.45125724792849858 0.43368558415816372 0 -0.43303131331868899 0.41376122695549711 0 -0.45125724792849858 0.43368558415816372 0 -0.43303131331868899 0.41376122695549711 0 -0.43546449287871908 0.43486590390093249 0 -0.45260411517226928 0.41461551561933019 0 -0.44866302010869691 0.39927893264791081 0 -0.43303131331868899 0.41376122695549711 0 -0.45125724792849858 0.43368558415816372 0 -0.45260411517226928 0.41461551561933019 0 -0.43303131331868899 0.41376122695549711 0 -0.45260411517226928 0.41461551561933019 0 -0.46721395508713381 0.42079433926807358 0 -0.46950875496183198 0.40039158846893252 0 -0.46488941725792748 0.44928643528057621 0 -0.45125724792849858 0.43368558415816372 0 -0.46721395508713381 0.42079433926807358 0 -0.45125724792849858 0.43368558415816372 0 -0.45260411517226928 0.41461551561933019 0 -0.46721395508713381 0.42079433926807358 0 -0.46488941725792748 0.44928643528057621 0 -0.46721395508713381 0.42079433926807358 0 -0.48612137919571341 0.42875109813968748 0 -0.46721395508713381 0.42079433926807358 0 -0.48456881784893591 0.40988733368287172 0 -0.46950875496183198 0.40039158846893252 0 -0.46721395508713381 0.42079433926807358 0 -0.48456881784893591 0.40988733368287172 0 -0.48612137919571341 0.42875109813968748 0 -0.48456881784893591 0.40988733368287172 0 -0.5 0.41355145334349308 0 -0.48612137919571341 0.42875109813968748 0 -0.5 0.44115471749281471 0 -0.5 0.41355145334349308 0 -0.48612137919571341 0.42875109813968748 0 -0.48456881784893591 0.40988733368287172 0 -0.5 0.41355145334349308 0 -0.5 0.38594818919417162 0 -0.48456881784893591 0.40988733368287172 0 -0.5 0.38594818919417162 0 -0.46950875496183198 0.40039158846893252 0 -0.5 0.38594818919417162 0 -0.46950875496183198 0.40039158846893252 0 -0.47491431205484991 0.37736187560689821 0 -0.46950875496183198 0.40039158846893252 0 -0.47491431205484991 0.37736187560689821 0 -0.46031312943329028 0.38830244170463291 0 -0.47491431205484991 0.37736187560689821 0 -0.46031312943329028 0.38830244170463291 0 -0.44959273646946379 0.37598735445356862 0 -0.45260411517226928 0.41461551561933019 0 -0.46950875496183198 0.40039158846893252 0 -0.44866302010869691 0.39927893264791081 0 -0.46950875496183198 0.40039158846893252 0 -0.46031312943329028 0.38830244170463291 0 -0.44866302010869691 0.39927893264791081 0 -0.44866302010869691 0.39927893264791081 0 -0.44959273646946379 0.37598735445356862 0 -0.42874278765626778 0.39682743737180498 0 -0.44959273646946379 0.37598735445356862 0 -0.42874278765626778 0.39682743737180498 0 -0.46031312943329028 0.38830244170463291 0 -0.44866302010869691 0.39927893264791081 0 -0.44959273646946379 0.37598735445356862 0 -0.43134171845159158 0.37725913972588432 0 -0.42380868717043219 0.38682466924896708 0 -0.42874278765626778 0.39682743737180498 0 -0.44959273646946379 0.37598735445356862 0 -0.43134171845159158 0.37725913972588432 0 -0.42874278765626778 0.39682743737180498 0 -0.43134171845159158 0.37725913972588432 0 -0.42380868717043219 0.38682466924896708 0 -0.42103946855579422 0.37769757254903408 0 -0.40999846998142342 0.38256425542120831 0 -0.41023523733380751 0.37942421786936559 0 -0.42251067497790401 0.36861643540006922 0 -0.42103946855579422 0.37769757254903408 0 -0.41480537870888029 0.39383686975282972 0 -0.42103946855579422 0.37769757254903408 0 -0.40999846998142342 0.38256425542120831 0 -0.42251067497790401 0.36861643540006922 0 -0.42380868717043219 0.38682466924896708 0 -0.42103946855579422 0.37769757254903408 0 -0.41480537870888029 0.39383686975282972 0 -0.40999846998142342 0.38256425542120831 0 -0.42251067497790401 0.36861643540006922 0 -0.42103946855579422 0.37769757254903408 0 -0.40999846998142342 0.38256425542120831 0 -0.41480537870888029 0.39383686975282972 0 -0.40957926873424161 0.38812375357282147 0 -0.40999846998142342 0.38256425542120831 0 -0.41480537870888029 0.39383686975282972 0 -0.40957926873424161 0.38812375357282147 0 -0.40999846998142342 0.38256425542120831 0 -0.40622135932881093 0.38445293021696442 0 -0.40957926873424161 0.38812375357282147 0 -0.40999846998142342 0.38256425542120831 0 -0.40957926873424161 0.38812375357282147 0 -0.40622135932881093 0.38445293021696442 0 -0.40999846998142342 0.38256425542120831 0 -0.40622135932881093 0.38445293021696442 0 -0.41023523733380751 0.37942421786936559 0 -0.40622135932881093 0.38445293021696442 0 -0.40999846998142342 0.38256425542120831 0 -0.41023523733380751 0.37942421786936559 0 -0.40622135932881093 0.38445293021696442 0 -0.40999846998142342 0.38256425542120831 0 -0.41023523733380751 0.37942421786936559 0 -0.40957926873424161 0.38812375357282147 0 -0.41480537870888029 0.39383686975282972 0 -0.40777636082140639 0.4120341385639279 0 -0.40957926873424161 0.38812375357282147 0 -0.40777636082140639 0.4120341385639279 0 -0.41480537870888029 0.39383686975282972 0 -0.40777636082140639 0.4120341385639279 0 -0.40957926873424161 0.38812375357282147 0 -0.41480537870888029 0.39383686975282972 0 -0.44866302010869691 0.39927893264791081 0 -0.42874278765626778 0.39682743737180498 0 -0.43303131331868899 0.41376122695549711 0 -0.41480537870888029 0.39383686975282972 0 -0.42874278765626778 0.39682743737180498 0 -0.43303131331868899 0.41376122695549711 0 -0.41480537870888029 0.39383686975282972 0 -0.43303131331868899 0.41376122695549711 0 -0.42380868717043219 0.38682466924896708 0 -0.41480537870888029 0.39383686975282972 0 -0.42874278765626778 0.39682743737180498 0 -0.41480537870888029 0.39383686975282972 0 -0.43303131331868899 0.41376122695549711 0 -0.41895779915937131 0.41478463549075772 0 -0.43303131331868899 0.41376122695549711 0 -0.42424307957178131 0.42891281442148849 0 -0.41895779915937131 0.41478463549075772 0 -0.42599741236778238 0.44825170564461891 0 -0.43546449287871908 0.43486590390093249 0 -0.42424307957178131 0.42891281442148849 0 -0.43303131331868899 0.41376122695549711 0 -0.43546449287871908 0.43486590390093249 0 -0.42424307957178131 0.42891281442148849 0 -0.41493286337609703 0.42537812776004441 0 -0.40777636082140639 0.4120341385639279 0 -0.40604005748312388 0.43506120555062222 0 -0.40777636082140639 0.4120341385639279 0 -0.40604005748312388 0.43506120555062222 0 -0.42424307957178131 0.42891281442148849 0 -0.41626419781940399 0.43706040116923428 0 -0.41493286337609703 0.42537812776004441 0 -0.42424307957178131 0.42891281442148849 0 -0.41493286337609703 0.42537812776004441 0 -0.41895779915937131 0.41478463549075772 0 -0.41626419781940399 0.43706040116923428 0 -0.41493286337609703 0.42537812776004441 0 -0.40604005748312388 0.43506120555062222 0 -0.41480537870888029 0.39383686975282972 0 -0.41895779915937131 0.41478463549075772 0 -0.40777636082140639 0.4120341385639279 0 -0.41493286337609703 0.42537812776004441 0 -0.41895779915937131 0.41478463549075772 0 -0.40777636082140639 0.4120341385639279 0 -0.40777636082140639 0.4120341385639279 0 -0.39432666810979028 0.41653516116345018 0 -0.40131381431649449 0.40439185893059659 0 -0.39432666810979028 0.41653516116345018 0 -0.39118764394636402 0.40353338245035097 0 -0.39339387707102808 0.40073328116600582 0 -0.39432666810979028 0.41653516116345018 0 -0.40131381431649449 0.40439185893059659 0 -0.39339387707102808 0.40073328116600582 0 -0.39751915539407928 0.4385887906362016 0 -0.40777636082140639 0.4120341385639279 0 -0.39432666810979028 0.41653516116345018 0 -0.39751915539407928 0.4385887906362016 0 -0.40777636082140639 0.4120341385639279 0 -0.40604005748312388 0.43506120555062222 0 -0.39751915539407928 0.4385887906362016 0 -0.40777636082140639 0.4120341385639279 0 -0.39751915539407928 0.4385887906362016 0 -0.39432666810979028 0.41653516116345018 0 -0.38749171810185712 0.42545996104495609 0 -0.39751915539407928 0.4385887906362016 0 -0.38777985046432678 0.43464519576160021 0 -0.38749171810185712 0.42545996104495609 0 -0.38777985046432678 0.43464519576160021 0 -0.38032938652992831 0.42691738859958822 0 -0.36617299850217211 0.43141813758713449 0 -0.38777985046432678 0.43464519576160021 0 -0.36617299850217211 0.43141813758713449 0 -0.37589839224167271 0.43807903301196932 0 -0.38777985046432678 0.43464519576160021 0 -0.36617299850217211 0.43141813758713449 0 -0.38777985046432678 0.43464519576160021 0 -0.38749171810185712 0.42545996104495609 0 -0.38032938652992831 0.42691738859958822 0 -0.38749171810185712 0.42545996104495609 0 -0.38032938652992831 0.42691738859958822 0 -0.37987297905135609 0.41614626000466121 0 -0.38032938652992831 0.42691738859958822 0 -0.37987297905135609 0.41614626000466121 0 -0.36617299850217211 0.43141813758713449 0 -0.39432666810979028 0.41653516116345018 0 -0.37987297905135609 0.41614626000466121 0 -0.39118764394636402 0.40353338245035097 0 -0.37987297905135609 0.41614626000466121 0 -0.38189910335432398 0.40258250810320217 0 -0.39118764394636402 0.40353338245035097 0 -0.37987297905135609 0.41614626000466121 0 -0.39118764394636402 0.40353338245035097 0 -0.39432666810979028 0.41653516116345018 0 -0.38749171810185712 0.42545996104495609 0 -0.37987297905135609 0.41614626000466121 0 -0.37987297905135609 0.41614626000466121 0 -0.38189910335432398 0.40258250810320217 0 -0.37317317811006201 0.40729195599207868 0 -0.38189910335432398 0.40258250810320217 0 -0.37455722327857988 0.39661531361759561 0 -0.37317317811006201 0.40729195599207868 0 -0.38189910335432398 0.40258250810320217 0 -0.38833847146346562 0.39675119706341638 0 -0.39118764394636402 0.40353338245035097 0 -0.38189910335432398 0.40258250810320217 0 -0.38833847146346562 0.39675119706341638 0 -0.38366951816983902 0.39320878120296487 0 -0.38923798595739328 0.39117541054071708 0 -0.38833847146346562 0.39675119706341638 0 -0.3942306362746959 0.39332002696665741 0 -0.38923798595739328 0.39117541054071708 0 -0.38833847146346562 0.39675119706341638 0 -0.38366951816983902 0.39320878120296487 0 -0.38189910335432398 0.40258250810320217 0 -0.38366951816983902 0.39320878120296487 0 -0.37455722327857988 0.39661531361759561 0 -0.38366951816983902 0.39320878120296487 0 -0.37339363515242208 0.38467613040545212 0 -0.37455722327857988 0.39661531361759561 0 -0.38584201114614919 0.38372076802918281 0 -0.38692370302494461 0.36335698064817912 0 -0.37339363515242208 0.38467613040545212 0 -0.38366951816983902 0.39320878120296487 0 -0.38584201114614919 0.38372076802918281 0 -0.37339363515242208 0.38467613040545212 0 -0.38923798595739328 0.39117541054071708 0 -0.38366951816983902 0.39320878120296487 0 -0.38584201114614919 0.38372076802918281 0 -0.38923798595739328 0.39117541054071708 0 -0.38584201114614919 0.38372076802918281 0 -0.39410929273281681 0.38887627944136433 0 -0.38584201114614919 0.38372076802918281 0 -0.40622135932881093 0.38445293021696442 0 -0.38692370302494461 0.36335698064817912 0 -0.41023523733380751 0.37942421786936559 0 -0.40622135932881093 0.38445293021696442 0 -0.38692370302494461 0.36335698064817912 0 -0.38584201114614919 0.38372076802918281 0 -0.39410929273281681 0.38887627944136433 0 -0.40622135932881093 0.38445293021696442 0 -0.39410929273281681 0.38887627944136433 0 -0.40622135932881093 0.38445293021696442 0 -0.3942306362746959 0.39332002696665741 0 -0.40622135932881093 0.38445293021696442 0 -0.39339387707102808 0.40073328116600582 0 -0.3942306362746959 0.39332002696665741 0 -0.40957926873424161 0.38812375357282147 0 -0.40131381431649449 0.40439185893059659 0 -0.39339387707102808 0.40073328116600582 0 -0.40957926873424161 0.38812375357282147 0 -0.40777636082140639 0.4120341385639279 0 -0.40131381431649449 0.40439185893059659 0 -0.40957926873424161 0.38812375357282147 0 -0.40622135932881093 0.38445293021696442 0 -0.39339387707102808 0.40073328116600582 0 -0.40622135932881093 0.38445293021696442 0 -0.39339387707102808 0.40073328116600582 0 -0.39118764394636402 0.40353338245035097 0 -0.39339387707102808 0.40073328116600582 0 -0.3942306362746959 0.39332002696665741 0 -0.39118764394636402 0.40353338245035097 0 -0.39339387707102808 0.40073328116600582 0 -0.38833847146346562 0.39675119706341638 0 -0.39118764394636402 0.40353338245035097 0 -0.3942306362746959 0.39332002696665741 0 -0.38923798595739328 0.39117541054071708 0 -0.39410929273281681 0.38887627944136433 0 -0.3942306362746959 0.39332002696665741 0 -0.39618689200592222 0.34645310984623662 0 -0.40839803115426299 0.3408469465103206 0 -0.41197966131858238 0.35628945387684557 0 -0.39618689200592222 0.34645310984623662 0 -0.38692370302494461 0.36335698064817912 0 -0.41197966131858238 0.35628945387684557 0 -0.40622135932881093 0.38445293021696442 0 -0.38692370302494461 0.36335698064817912 0 -0.41023523733380751 0.37942421786936559 0 -0.38692370302494461 0.36335698064817912 0 -0.41197966131858238 0.35628945387684557 0 -0.38692370302494461 0.36335698064817912 0 -0.36649829889956798 0.36696763729464033 0 -0.37339363515242208 0.38467613040545212 0 -0.39618689200592222 0.34645310984623662 0 -0.38692370302494461 0.36335698064817912 0 -0.3763997792454038 0.34370350140746142 0 -0.38692370302494461 0.36335698064817912 0 -0.3763997792454038 0.34370350140746142 0 -0.36649829889956798 0.36696763729464033 0 -0.39618689200592222 0.34645310984623662 0 -0.3763997792454038 0.34370350140746142 0 -0.39701164015200141 0.32878054108955163 0 -0.3763997792454038 0.34370350140746142 0 -0.39701164015200141 0.32878054108955163 0 -0.37409993840956651 0.32222821854988859 0 -0.39701164015200141 0.32878054108955163 0 -0.39379137618591809 0.3093861121015466 0 -0.37409993840956651 0.32222821854988859 0 -0.39701164015200141 0.32878054108955163 0 -0.41132260968927631 0.31420031613910099 0 -0.39379137618591809 0.3093861121015466 0 -0.39618689200592222 0.34645310984623662 0 -0.39701164015200141 0.32878054108955163 0 -0.40839803115426299 0.3408469465103206 0 -0.40839803115426299 0.3408469465103206 0 -0.41533964741472917 0.32925313870451262 0 -0.42040841823488367 0.34687548568009779 0 -0.41533964741472917 0.32925313870451262 0 -0.42863815483859319 0.33728704598445253 0 -0.42040841823488367 0.34687548568009779 0 -0.39701164015200141 0.32878054108955163 0 -0.40839803115426299 0.3408469465103206 0 -0.41533964741472917 0.32925313870451262 0 -0.39701164015200141 0.32878054108955163 0 -0.41533964741472917 0.32925313870451262 0 -0.41132260968927631 0.31420031613910099 0 -0.41533964741472917 0.32925313870451262 0 -0.41132260968927631 0.31420031613910099 0 -0.42791623567788711 0.31890245410219092 0 -0.42791623567788711 0.31890245410219092 0 -0.42863815483859319 0.33728704598445253 0 -0.44647861612894602 0.32184906763756121 0 -0.41533964741472917 0.32925313870451262 0 -0.42791623567788711 0.31890245410219092 0 -0.42863815483859319 0.33728704598445253 0 -0.42863815483859319 0.33728704598445253 0 -0.43100891164144212 0.34367708890731852 0 -0.44658096988359192 0.33388914335336067 0 -0.42863815483859319 0.33728704598445253 0 -0.43100891164144212 0.34367708890731852 0 -0.42040841823488367 0.34687548568009779 0 -0.42840810360869952 0.35665668061136291 0 -0.44658096988359192 0.33388914335336067 0 -0.43100891164144212 0.34367708890731852 0 -0.42840810360869952 0.35665668061136291 0 -0.44658096988359192 0.33388914335336067 0 -0.43100891164144212 0.34367708890731852 0 -0.42840810360869952 0.35665668061136291 0 -0.42040841823488367 0.34687548568009779 0 -0.42840810360869952 0.35665668061136291 0 -0.42040841823488367 0.34687548568009779 0 -0.41197966131858238 0.35628945387684557 0 -0.40839803115426299 0.3408469465103206 0 -0.42040841823488367 0.34687548568009779 0 -0.41197966131858238 0.35628945387684557 0 -0.41023523733380751 0.37942421786936559 0 -0.42840810360869952 0.35665668061136291 0 -0.41023523733380751 0.37942421786936559 0 -0.42840810360869952 0.35665668061136291 0 -0.42251067497790401 0.36861643540006922 0 -0.41023523733380751 0.37942421786936559 0 -0.42840810360869952 0.35665668061136291 0 -0.41197966131858238 0.35628945387684557 0 -0.41023523733380751 0.37942421786936559 0 -0.41197966131858238 0.35628945387684557 0 -0.42103946855579422 0.37769757254903408 0 -0.42727355840270559 0.36155827534523749 0 -0.43134171845159158 0.37725913972588432 0 -0.42103946855579422 0.37769757254903408 0 -0.42727355840270559 0.36155827534523749 0 -0.42103946855579422 0.37769757254903408 0 -0.42251067497790401 0.36861643540006922 0 -0.42727355840270559 0.36155827534523749 0 -0.43134171845159158 0.37725913972588432 0 -0.42727355840270559 0.36155827534523749 0 -0.43802720038664078 0.36361099338899727 0 -0.42840810360869952 0.35665668061136291 0 -0.42251067497790401 0.36861643540006922 0 -0.42727355840270559 0.36155827534523749 0 -0.42840810360869952 0.35665668061136291 0 -0.42727355840270559 0.36155827534523749 0 -0.43802720038664078 0.36361099338899727 0 -0.44959273646946379 0.37598735445356862 0 -0.43802720038664078 0.36361099338899727 0 -0.44888649717695023 0.35439013684052412 0 -0.44959273646946379 0.37598735445356862 0 -0.43134171845159158 0.37725913972588432 0 -0.43802720038664078 0.36361099338899727 0 -0.42840810360869952 0.35665668061136291 0 -0.43802720038664078 0.36361099338899727 0 -0.44888649717695023 0.35439013684052412 0 -0.42840810360869952 0.35665668061136291 0 -0.44888649717695023 0.35439013684052412 0 -0.44658096988359192 0.33388914335336067 0 -0.44888649717695023 0.35439013684052412 0 -0.47044268528265998 0.35514727153533221 0 -0.45884909845413441 0.34286684973820991 0 -0.44959273646946379 0.37598735445356862 0 -0.47044268528265998 0.35514727153533221 0 -0.47491431205484991 0.37736187560689821 0 -0.44959273646946379 0.37598735445356862 0 -0.47044268528265998 0.35514727153533221 0 -0.44959273646946379 0.37598735445356862 0 -0.44888649717695023 0.35439013684052412 0 -0.47044268528265998 0.35514727153533221 0 -0.47491431205484991 0.37736187560689821 0 -0.47044268528265998 0.35514727153533221 0 -0.5 0.3583449250448501 0 -0.47044268528265998 0.35514727153533221 0 -0.49129263409585627 0.33430718861709557 0 -0.47044268528265998 0.35514727153533221 0 -0.5 0.3583449250448501 0 -0.49129263409585627 0.33430718861709557 0 -0.5 0.38594818919417162 0 -0.47491431205484991 0.37736187560689821 0 -0.5 0.3583449250448501 0 -0.49062094844285958 0.32185442061024561 0 -0.5 0.33074166089552859 0 -0.5 0.30313839674620702 0 -0.49062094844285958 0.32185442061024561 0 -0.5 0.33074166089552859 0 -0.49129263409585627 0.33430718861709557 0 -0.5 0.3583449250448501 0 -0.5 0.33074166089552859 0 -0.49129263409585627 0.33430718861709557 0 -0.49062094844285958 0.32185442061024561 0 -0.49129263409585627 0.33430718861709557 0 -0.4795624303883268 0.32932491635107719 0 -0.47044268528265998 0.35514727153533221 0 -0.49129263409585627 0.33430718861709557 0 -0.4795624303883268 0.32932491635107719 0 -0.47044268528265998 0.35514727153533221 0 -0.4795624303883268 0.32932491635107719 0 -0.46752869914774442 0.33209916634621139 0 -0.47334296879233773 0.31950167611717822 0 -0.46431907741929879 0.30641108929066979 0 -0.48224967773011468 0.31175994044131933 0 -0.4795624303883268 0.32932491635107719 0 -0.47334296879233773 0.31950167611717822 0 -0.46752869914774442 0.33209916634621139 0 -0.49062094844285958 0.32185442061024561 0 -0.4795624303883268 0.32932491635107719 0 -0.48224967773011468 0.31175994044131933 0 -0.4795624303883268 0.32932491635107719 0 -0.47334296879233773 0.31950167611717822 0 -0.48224967773011468 0.31175994044131933 0 -0.44647861612894602 0.32184906763756121 0 -0.46431907741929879 0.30641108929066979 0 -0.46225682713882987 0.32144393713016722 0 -0.45663665415566512 0.33015045587911229 0 -0.44647861612894602 0.32184906763756121 0 -0.46225682713882987 0.32144393713016722 0 -0.44647861612894602 0.32184906763756121 0 -0.46431907741929879 0.30641108929066979 0 -0.47334296879233773 0.31950167611717822 0 -0.46225682713882987 0.32144393713016722 0 -0.46431907741929879 0.30641108929066979 0 -0.47334296879233773 0.31950167611717822 0 -0.46225682713882987 0.32144393713016722 0 -0.46752869914774442 0.33209916634621139 0 -0.46225682713882987 0.32144393713016722 0 -0.46752869914774442 0.33209916634621139 0 -0.45663665415566512 0.33015045587911229 0 -0.47044268528265998 0.35514727153533221 0 -0.46752869914774442 0.33209916634621139 0 -0.45884909845413441 0.34286684973820991 0 -0.46752869914774442 0.33209916634621139 0 -0.45663665415566512 0.33015045587911229 0 -0.45884909845413441 0.34286684973820991 0 -0.45663665415566512 0.33015045587911229 0 -0.45884909845413441 0.34286684973820991 0 -0.44658096988359192 0.33388914335336067 0 -0.42863815483859319 0.33728704598445253 0 -0.44658096988359192 0.33388914335336067 0 -0.44647861612894602 0.32184906763756121 0 -0.44888649717695023 0.35439013684052412 0 -0.45884909845413441 0.34286684973820991 0 -0.44658096988359192 0.33388914335336067 0 -0.42863815483859319 0.33728704598445253 0 -0.44647861612894602 0.32184906763756121 0 -0.45663665415566512 0.33015045587911229 0 -0.44658096988359192 0.33388914335336067 0 -0.44647861612894602 0.32184906763756121 0 -0.42791623567788711 0.31890245410219092 0 -0.44647861612894602 0.32184906763756121 0 -0.44335223678710078 0.30538953558708021 0 -0.44647861612894602 0.32184906763756121 0 -0.44335223678710078 0.30538953558708021 0 -0.46431907741929879 0.30641108929066979 0 -0.4383781692471545 0.29169537663684808 0 -0.45696346408095168 0.29065702899740842 0 -0.44730242950966398 0.27345265651616102 0 -0.44335223678710078 0.30538953558708021 0 -0.4383781692471545 0.29169537663684808 0 -0.45696346408095168 0.29065702899740842 0 -0.45696346408095168 0.29065702899740842 0 -0.48215953870965172 0.29097311094377842 0 -0.46626933281284078 0.27602040500991282 0 -0.45696346408095168 0.29065702899740842 0 -0.46431907741929879 0.30641108929066979 0 -0.48215953870965172 0.29097311094377842 0 -0.44335223678710078 0.30538953558708021 0 -0.45696346408095168 0.29065702899740842 0 -0.46431907741929879 0.30641108929066979 0 -0.46431907741929879 0.30641108929066979 0 -0.48224967773011468 0.31175994044131933 0 -0.48215953870965172 0.29097311094377842 0 -0.46431907741929879 0.30641108929066979 0 -0.48215953870965172 0.29097311094377842 0 -0.48215953870965172 0.29097311094377842 0 -0.50000000000000311 0.2755351325968855 0 -0.48215953870965172 0.29097311094377842 0 -0.5 0.30313839674620702 0 -0.50000000000000311 0.2755351325968855 0 -0.49062094844285958 0.32185442061024561 0 -0.48224967773011468 0.31175994044131933 0 -0.5 0.30313839674620702 0 -0.48224967773011468 0.31175994044131933 0 -0.48215953870965172 0.29097311094377842 0 -0.5 0.30313839674620702 0 -0.5 0.24573362959928061 0 -0.50000000000000311 0.2755351325968855 0 -0.48225979214223652 0.26519541286348752 0 -0.48215953870965172 0.29097311094377842 0 -0.50000000000000311 0.2755351325968855 0 -0.48225979214223652 0.26519541286348752 0 -0.48215953870965172 0.29097311094377842 0 -0.48225979214223652 0.26519541286348752 0 -0.46626933281284078 0.27602040500991282 0 -0.48225979214223652 0.26519541286348752 0 -0.46330621084878088 0.25845133626189393 0 -0.46626933281284078 0.27602040500991282 0 -0.4773237152744299 0.2364696830861473 0 -0.48225979214223652 0.26519541286348752 0 -0.46330621084878088 0.25845133626189393 0 -0.45996138382817198 0.24094603944279691 0 -0.46330621084878088 0.25845133626189393 0 -0.44408453137191312 0.2558556248761103 0 -0.46330621084878088 0.25845133626189393 0 -0.46626933281284078 0.27602040500991282 0 -0.44730242950966398 0.27345265651616102 0 -0.45696346408095168 0.29065702899740842 0 -0.46626933281284078 0.27602040500991282 0 -0.44730242950966398 0.27345265651616102 0 -0.46330621084878088 0.25845133626189393 0 -0.44730242950966398 0.27345265651616102 0 -0.44408453137191312 0.2558556248761103 0 -0.44730242950966398 0.27345265651616102 0 -0.44408453137191312 0.2558556248761103 0 -0.42752416733857229 0.2634575114489297 0 -0.42886288795378352 0.24708702642710331 0 -0.44408453137191312 0.2558556248761103 0 -0.42752416733857229 0.2634575114489297 0 -0.42752416733857229 0.2634575114489297 0 -0.40866975023943541 0.25556348607969548 0 -0.41372407583369719 0.26997228748084601 0 -0.42886288795378352 0.24708702642710331 0 -0.42752416733857229 0.2634575114489297 0 -0.40866975023943541 0.25556348607969548 0 -0.42752416733857229 0.2634575114489297 0 -0.41372407583369719 0.26997228748084601 0 -0.42280182572190761 0.2819141240503516 0 -0.41372407583369719 0.26997228748084601 0 -0.42280182572190761 0.2819141240503516 0 -0.40707242289995421 0.28244502302336039 0 -0.44730242950966398 0.27345265651616102 0 -0.42752416733857229 0.2634575114489297 0 -0.42280182572190761 0.2819141240503516 0 -0.4383781692471545 0.29169537663684808 0 -0.44730242950966398 0.27345265651616102 0 -0.42280182572190761 0.2819141240503516 0 -0.4383781692471545 0.29169537663684808 0 -0.42280182572190761 0.2819141240503516 0 -0.42642057838260738 0.30191704587182289 0 -0.42791623567788711 0.31890245410219092 0 -0.44335223678710078 0.30538953558708021 0 -0.42642057838260738 0.30191704587182289 0 -0.44335223678710078 0.30538953558708021 0 -0.4383781692471545 0.29169537663684808 0 -0.42642057838260738 0.30191704587182289 0 -0.41132260968927631 0.31420031613910099 0 -0.42791623567788711 0.31890245410219092 0 -0.42642057838260738 0.30191704587182289 0 -0.41132260968927631 0.31420031613910099 0 -0.42642057838260738 0.30191704587182289 0 -0.4106507397744783 0.297694567178102 0 -0.42280182572190761 0.2819141240503516 0 -0.4106507397744783 0.297694567178102 0 -0.40707242289995421 0.28244502302336039 0 -0.42280182572190761 0.2819141240503516 0 -0.42642057838260738 0.30191704587182289 0 -0.4106507397744783 0.297694567178102 0 -0.4106507397744783 0.297694567178102 0 -0.40707242289995421 0.28244502302336039 0 -0.39403459720851358 0.29099699913203381 0 -0.40707242289995421 0.28244502302336039 0 -0.39403459720851358 0.29099699913203381 0 -0.39415087596117387 0.27164713727546891 0 -0.41132260968927631 0.31420031613910099 0 -0.4106507397744783 0.297694567178102 0 -0.39379137618591809 0.3093861121015466 0 -0.4106507397744783 0.297694567178102 0 -0.39403459720851358 0.29099699913203381 0 -0.39379137618591809 0.3093861121015466 0 -0.39379137618591809 0.3093861121015466 0 -0.37562873188167301 0.30241603052060301 0 -0.37409993840956651 0.32222821854988859 0 -0.39403459720851358 0.29099699913203381 0 -0.39379137618591809 0.3093861121015466 0 -0.37562873188167301 0.30241603052060301 0 -0.39403459720851358 0.29099699913203381 0 -0.37562873188167301 0.30241603052060301 0 -0.37611755458566898 0.2837662392963855 0 -0.39403459720851358 0.29099699913203381 0 -0.37611755458566898 0.2837662392963855 0 -0.39415087596117387 0.27164713727546891 0 -0.37611755458566898 0.2837662392963855 0 -0.39415087596117387 0.27164713727546891 0 -0.36553762444312859 0.265819725243019 0 -0.37891358681912551 0.24145765163168079 0 -0.38922239706040468 0.25509467607083608 0 -0.36553762444312859 0.265819725243019 0 -0.38922239706040468 0.25509467607083608 0 -0.39415087596117387 0.27164713727546891 0 -0.36553762444312859 0.265819725243019 0 -0.39884014783915972 0.24098538012431631 0 -0.40866975023943541 0.25556348607969548 0 -0.38922239706040468 0.25509467607083608 0 -0.40866975023943541 0.25556348607969548 0 -0.38922239706040468 0.25509467607083608 0 -0.39415087596117387 0.27164713727546891 0 -0.41372407583369719 0.26997228748084601 0 -0.40707242289995421 0.28244502302336039 0 -0.39415087596117387 0.27164713727546891 0 -0.40866975023943541 0.25556348607969548 0 -0.41372407583369719 0.26997228748084601 0 -0.39415087596117387 0.27164713727546891 0 -0.36553762444312859 0.265819725243019 0 -0.3511758001820412 0.29361911638650878 0 -0.33854884619426567 0.26881525146303842 0 -0.35896538070308059 0.24574996998627621 0 -0.36553762444312859 0.265819725243019 0 -0.33854884619426567 0.26881525146303842 0 -0.35896538070308059 0.24574996998627621 0 -0.33870746076025032 0.24330628348934061 0 -0.33854884619426567 0.26881525146303842 0 -0.37891358681912551 0.24145765163168079 0 -0.36553762444312859 0.265819725243019 0 -0.37891358681912551 0.24145765163168079 0 -0.35896538070308059 0.24574996998627621 0 -0.36553762444312859 0.265819725243019 0 -0.37611755458566898 0.2837662392963855 0 -0.36553762444312859 0.265819725243019 0 -0.3511758001820412 0.29361911638650878 0 -0.37562873188167301 0.30241603052060301 0 -0.37611755458566898 0.2837662392963855 0 -0.3511758001820412 0.29361911638650878 0 -0.37562873188167301 0.30241603052060301 0 -0.3511758001820412 0.29361911638650878 0 -0.35074691518315182 0.31410516529721222 0 -0.3511758001820412 0.29361911638650878 0 -0.32313145856563757 0.29641155422079157 0 -0.3511758001820412 0.29361911638650878 0 -0.32313145856563757 0.29641155422079157 0 -0.33854884619426567 0.26881525146303842 0 -0.32313145856563757 0.29641155422079157 0 -0.33206042055606161 0.32285342218055219 0 -0.35074691518315182 0.31410516529721222 0 -0.3511758001820412 0.29361911638650878 0 -0.32313145856563757 0.29641155422079157 0 -0.35074691518315182 0.31410516529721222 0 -0.32313145856563757 0.29641155422079157 0 -0.31655553444518419 0.31549902075175579 0 -0.33206042055606161 0.32285342218055219 0 -0.33854884619426567 0.26881525146303842 0 -0.32034274732340973 0.25713874279085691 0 -0.30835650876834692 0.27752408063012679 0 -0.32313145856563757 0.29641155422079157 0 -0.33854884619426567 0.26881525146303842 0 -0.30835650876834692 0.27752408063012679 0 -0.33870746076025032 0.24330628348934061 0 -0.33854884619426567 0.26881525146303842 0 -0.32034274732340973 0.25713874279085691 0 -0.30949728552569811 0.2485016307122889 0 -0.32034274732340973 0.25713874279085691 0 -0.30387984252495642 0.26082841690411068 0 -0.32034274732340973 0.25713874279085691 0 -0.30387984252495642 0.26082841690411068 0 -0.30835650876834692 0.27752408063012679 0 -0.30949728552569811 0.2485016307122889 0 -0.30387984252495642 0.26082841690411068 0 -0.29002362372156348 0.25025612296197042 0 -0.30387984252495642 0.26082841690411068 0 -0.30835650876834692 0.27752408063012679 0 -0.29351473055121929 0.27186805156051469 0 -0.30835650876834692 0.27752408063012679 0 -0.29351473055121929 0.27186805156051469 0 -0.28661899150280018 0.28626095049759648 0 -0.29351473055121929 0.27186805156051469 0 -0.28164917444044019 0.27282648070333743 0 -0.28661899150280018 0.28626095049759648 0 -0.30387984252495642 0.26082841690411068 0 -0.29351473055121929 0.27186805156051469 0 -0.29002362372156348 0.25025612296197042 0 -0.29351473055121929 0.27186805156051469 0 -0.28164917444044019 0.27282648070333743 0 -0.29002362372156348 0.25025612296197042 0 -0.29002362372156348 0.25025612296197042 0 -0.2687587227734074 0.2681721591576488 0 -0.27058041639039909 0.24875647789157929 0 -0.29002362372156348 0.25025612296197042 0 -0.2687587227734074 0.2681721591576488 0 -0.28164917444044019 0.27282648070333743 0 -0.29002362372156348 0.25025612296197042 0 -0.2687587227734074 0.2681721591576488 0 -0.2687587227734074 0.2681721591576488 0 -0.2590855104173882 0.27468719806238201 0 -0.27305720283631152 0.28432744731441711 0 -0.28164917444044019 0.27282648070333743 0 -0.2687587227734074 0.2681721591576488 0 -0.27305720283631152 0.28432744731441711 0 -0.28164917444044019 0.27282648070333743 0 -0.27305720283631152 0.28432744731441711 0 -0.28661899150280018 0.28626095049759648 0 -0.25112824550194612 0.24737796623540509 0 -0.2687587227734074 0.2681721591576488 0 -0.2590855104173882 0.27468719806238201 0 -0.25112824550194612 0.24737796623540509 0 -0.27058041639039909 0.24875647789157929 0 -0.2687587227734074 0.2681721591576488 0 -0.25112824550194612 0.24737796623540509 0 -0.2590855104173882 0.27468719806238201 0 -0.25112824550194612 0.24737796623540509 0 -0.2590855104173882 0.27468719806238201 0 -0.24105249241119639 0.26719227896055903 0 -0.25272808453305701 0.2914010939671996 0 -0.26704277533283072 0.30199642988935887 0 -0.2437587580671213 0.30431487157845788 0 -0.26704277533283072 0.30199642988935887 0 -0.2437587580671213 0.30431487157845788 0 -0.26704277533283072 0.30199642988935887 0 -0.25466701898960498 0.32333134410044923 0 -0.2437587580671213 0.30431487157845788 0 -0.2590855104173882 0.27468719806238201 0 -0.25272808453305701 0.2914010939671996 0 -0.26704277533283072 0.30199642988935887 0 -0.2590855104173882 0.27468719806238201 0 -0.25272808453305701 0.2914010939671996 0 -0.24102529431488789 0.28460587633859957 0 -0.2590855104173882 0.27468719806238201 0 -0.26704277533283072 0.30199642988935887 0 -0.2590855104173882 0.27468719806238201 0 -0.27305720283631152 0.28432744731441711 0 -0.26704277533283072 0.30199642988935887 0 -0.27305720283631152 0.28432744731441711 0 -0.26704277533283072 0.30199642988935887 0 -0.28661899150280018 0.28626095049759648 0 -0.26704277533283072 0.30199642988935887 0 -0.29508711694923401 0.29920399205507431 0 -0.29508711694923401 0.29920399205507431 0 -0.29959494850913798 0.31526073363523088 0 -0.28520235944832129 0.31420968035445118 0 -0.26704277533283072 0.30199642988935887 0 -0.29508711694923401 0.29920399205507431 0 -0.28520235944832129 0.31420968035445118 0 -0.30835650876834692 0.27752408063012679 0 -0.29508711694923401 0.29920399205507431 0 -0.28661899150280018 0.28626095049759648 0 -0.26704277533283072 0.30199642988935887 0 -0.29508711694923401 0.29920399205507431 0 -0.28661899150280018 0.28626095049759648 0 -0.32313145856563757 0.29641155422079157 0 -0.30835650876834692 0.27752408063012679 0 -0.29508711694923401 0.29920399205507431 0 -0.29508711694923401 0.29920399205507431 0 -0.29959494850913798 0.31526073363523088 0 -0.31655553444518419 0.31549902075175579 0 -0.32313145856563757 0.29641155422079157 0 -0.29508711694923401 0.29920399205507431 0 -0.32313145856563757 0.29641155422079157 0 -0.29508711694923401 0.29920399205507431 0 -0.31655553444518419 0.31549902075175579 0 -0.29959494850913798 0.31526073363523088 0 -0.30526693613283351 0.33122838528108861 0 -0.29959494850913798 0.31526073363523088 0 -0.30526693613283351 0.33122838528108861 0 -0.29026770717478562 0.32812746549093708 0 -0.29959494850913798 0.31526073363523088 0 -0.30526693613283351 0.33122838528108861 0 -0.31655553444518419 0.31549902075175579 0 -0.30526693613283351 0.33122838528108861 0 -0.3109389237565291 0.34719603692694623 0 -0.31512009004550617 0.3455831895087309 0 -0.30526693613283351 0.33122838528108861 0 -0.3109389237565291 0.34719603692694623 0 -0.30526693613283351 0.33122838528108861 0 -0.2954560505573498 0.34046251714409292 0 -0.3109389237565291 0.34719603692694623 0 -0.30526693613283351 0.33122838528108861 0 -0.2954560505573498 0.34046251714409292 0 -0.29026770717478562 0.32812746549093708 0 -0.29026770717478562 0.32812746549093708 0 -0.28325259763923238 0.33914409724982902 0 -0.27430507867642812 0.32692056245446399 0 -0.2954560505573498 0.34046251714409292 0 -0.29026770717478562 0.32812746549093708 0 -0.28325259763923238 0.33914409724982902 0 -0.29026770717478562 0.32812746549093708 0 -0.28520235944832129 0.31420968035445118 0 -0.27430507867642812 0.32692056245446399 0 -0.29959494850913798 0.31526073363523088 0 -0.29026770717478562 0.32812746549093708 0 -0.28520235944832129 0.31420968035445118 0 -0.26704277533283072 0.30199642988935887 0 -0.27430507867642812 0.32692056245446399 0 -0.26704277533283072 0.30199642988935887 0 -0.28520235944832129 0.31420968035445118 0 -0.27430507867642812 0.32692056245446399 0 -0.28325259763923238 0.33914409724982902 0 -0.27430507867642812 0.32692056245446399 0 -0.26692250638883103 0.34467137546164411 0 -0.27430507867642812 0.32692056245446399 0 -0.25466701898960498 0.32333134410044923 0 -0.26692250638883103 0.34467137546164411 0 -0.25466701898960498 0.32333134410044923 0 -0.26692250638883103 0.34467137546164411 0 -0.24788578750447479 0.34198863989594591 0 -0.26704277533283072 0.30199642988935887 0 -0.27430507867642812 0.32692056245446399 0 -0.25466701898960498 0.32333134410044923 0 -0.2510192599286124 0.37030951016049318 0 -0.26768436704100562 0.36388109446906708 0 -0.2510192599286124 0.37030951016049318 0 -0.26768436704100562 0.36388109446906708 0 -0.2426245612377603 0.35793202738770852 0 -0.2510192599286124 0.37030951016049318 0 -0.26768436704100562 0.36388109446906708 0 -0.26655325896953441 0.37891553108181181 0 -0.26692250638883103 0.34467137546164411 0 -0.26768436704100562 0.36388109446906708 0 -0.24788578750447479 0.34198863989594591 0 -0.26768436704100562 0.36388109446906708 0 -0.24788578750447479 0.34198863989594591 0 -0.26768436704100562 0.36388109446906708 0 -0.2426245612377603 0.35793202738770852 0 -0.24788578750447479 0.34198863989594591 0 -0.26692250638883103 0.34467137546164411 0 -0.26768436704100562 0.36388109446906708 0 -0.28931164539876741 0.35553856569800651 0 -0.28325259763923238 0.33914409724982902 0 -0.26692250638883103 0.34467137546164411 0 -0.28931164539876741 0.35553856569800651 0 -0.26768436704100562 0.36388109446906708 0 -0.28273600798736709 0.38052457967775011 0 -0.26655325896953441 0.37891553108181181 0 -0.26768436704100562 0.36388109446906708 0 -0.28345518723355922 0.36735557683915931 0 -0.28273600798736709 0.38052457967775011 0 -0.26768436704100562 0.36388109446906708 0 -0.28273600798736709 0.38052457967775011 0 -0.26768436704100562 0.36388109446906708 0 -0.28931164539876741 0.35553856569800651 0 -0.26768436704100562 0.36388109446906708 0 -0.28345518723355922 0.36735557683915931 0 -0.28931164539876741 0.35553856569800651 0 -0.28345518723355922 0.36735557683915931 0 -0.28931164539876741 0.35553856569800651 0 -0.30324397618083471 0.3630320985351434 0 -0.28345518723355922 0.36735557683915931 0 -0.2931125751919092 0.37633748712444259 0 -0.28273600798736709 0.38052457967775011 0 -0.28345518723355922 0.36735557683915931 0 -0.30324397618083471 0.3630320985351434 0 -0.2931125751919092 0.37633748712444259 0 -0.2954560505573498 0.34046251714409292 0 -0.28325259763923238 0.33914409724982902 0 -0.28931164539876741 0.35553856569800651 0 -0.2954560505573498 0.34046251714409292 0 -0.28931164539876741 0.35553856569800651 0 -0.3109389237565291 0.34719603692694623 0 -0.28931164539876741 0.35553856569800651 0 -0.3109389237565291 0.34719603692694623 0 -0.28931164539876741 0.35553856569800651 0 -0.3109389237565291 0.34719603692694623 0 -0.30324397618083471 0.3630320985351434 0 -0.30324397618083471 0.3630320985351434 0 -0.31899448727250862 0.36987387767132301 0 -0.30569761012391239 0.37635436647208792 0 -0.3109389237565291 0.34719603692694623 0 -0.30324397618083471 0.3630320985351434 0 -0.31899448727250862 0.36987387767132301 0 -0.30324397618083471 0.3630320985351434 0 -0.30569761012391239 0.37635436647208792 0 -0.2931125751919092 0.37633748712444259 0 -0.31899448727250862 0.36987387767132301 0 -0.33893623571630438 0.35423881229266713 0 -0.34416746123853659 0.37407376390086761 0 -0.33893623571630438 0.35423881229266713 0 -0.32290627715290682 0.35142709586046861 0 -0.33054164897368582 0.34024356290267582 0 -0.3109389237565291 0.34719603692694623 0 -0.31899448727250862 0.36987387767132301 0 -0.31899448727250862 0.36987387767132301 0 -0.33893623571630438 0.35423881229266713 0 -0.32290627715290682 0.35142709586046861 0 -0.32290627715290682 0.35142709586046861 0 -0.31512009004550617 0.3455831895087309 0 -0.33054164897368582 0.34024356290267582 0 -0.3109389237565291 0.34719603692694623 0 -0.31899448727250862 0.36987387767132301 0 -0.32290627715290682 0.35142709586046861 0 -0.3109389237565291 0.34719603692694623 0 -0.32290627715290682 0.35142709586046861 0 -0.31512009004550617 0.3455831895087309 0 -0.3109389237565291 0.34719603692694623 0 -0.31512009004550617 0.3455831895087309 0 -0.30526693613283351 0.33122838528108861 0 -0.31512009004550617 0.3455831895087309 0 -0.31990892603065418 0.33108151612496067 0 -0.31990892603065418 0.33108151612496067 0 -0.33206042055606161 0.32285342218055219 0 -0.33054164897368582 0.34024356290267582 0 -0.31512009004550617 0.3455831895087309 0 -0.31990892603065418 0.33108151612496067 0 -0.33054164897368582 0.34024356290267582 0 -0.30526693613283351 0.33122838528108861 0 -0.31990892603065418 0.33108151612496067 0 -0.31655553444518419 0.31549902075175579 0 -0.31990892603065418 0.33108151612496067 0 -0.31655553444518419 0.31549902075175579 0 -0.33206042055606161 0.32285342218055219 0 -0.33206042055606161 0.32285342218055219 0 -0.33054164897368582 0.34024356290267582 0 -0.35450347064718601 0.33529848119981842 0 -0.33893623571630438 0.35423881229266713 0 -0.33054164897368582 0.34024356290267582 0 -0.35450347064718601 0.33529848119981842 0 -0.33206042055606161 0.32285342218055219 0 -0.35450347064718601 0.33529848119981842 0 -0.35074691518315182 0.31410516529721222 0 -0.37562873188167301 0.30241603052060301 0 -0.35074691518315182 0.31410516529721222 0 -0.37409993840956651 0.32222821854988859 0 -0.35450347064718601 0.33529848119981842 0 -0.35074691518315182 0.31410516529721222 0 -0.37409993840956651 0.32222821854988859 0 -0.3763997792454038 0.34370350140746142 0 -0.35450347064718601 0.33529848119981842 0 -0.37409993840956651 0.32222821854988859 0 -0.3763997792454038 0.34370350140746142 0 -0.35450347064718601 0.33529848119981842 0 -0.35553184337548049 0.35321686126752178 0 -0.3763997792454038 0.34370350140746142 0 -0.36649829889956798 0.36696763729464033 0 -0.35553184337548049 0.35321686126752178 0 -0.33893623571630438 0.35423881229266713 0 -0.34416746123853659 0.37407376390086761 0 -0.35553184337548049 0.35321686126752178 0 -0.36649829889956798 0.36696763729464033 0 -0.34416746123853659 0.37407376390086761 0 -0.35553184337548049 0.35321686126752178 0 -0.33893623571630438 0.35423881229266713 0 -0.35450347064718601 0.33529848119981842 0 -0.35553184337548049 0.35321686126752178 0 -0.34639568594481479 0.39883396493826329 0 -0.36329956461944629 0.40244164980704022 0 -0.35443870891502482 0.41089078250305322 0 -0.34639568594481479 0.39883396493826329 0 -0.36066204887405179 0.3872551213539564 0 -0.36329956461944629 0.40244164980704022 0 -0.36649829889956798 0.36696763729464033 0 -0.34416746123853659 0.37407376390086761 0 -0.36066204887405179 0.3872551213539564 0 -0.34416746123853659 0.37407376390086761 0 -0.34639568594481479 0.39883396493826329 0 -0.36066204887405179 0.3872551213539564 0 -0.36649829889956798 0.36696763729464033 0 -0.36066204887405179 0.3872551213539564 0 -0.37339363515242208 0.38467613040545212 0 -0.36066204887405179 0.3872551213539564 0 -0.37339363515242208 0.38467613040545212 0 -0.37455722327857988 0.39661531361759561 0 -0.36066204887405179 0.3872551213539564 0 -0.37455722327857988 0.39661531361759561 0 -0.36329956461944629 0.40244164980704022 0 -0.37455722327857988 0.39661531361759561 0 -0.36329956461944629 0.40244164980704022 0 -0.37317317811006201 0.40729195599207868 0 -0.37987297905135609 0.41614626000466121 0 -0.37317317811006201 0.40729195599207868 0 -0.36454695913138829 0.41617858616550318 0 -0.37987297905135609 0.41614626000466121 0 -0.36454695913138829 0.41617858616550318 0 -0.36617299850217211 0.43141813758713449 0 -0.36329956461944629 0.40244164980704022 0 -0.37317317811006201 0.40729195599207868 0 -0.36454695913138829 0.41617858616550318 0 -0.36329956461944629 0.40244164980704022 0 -0.36454695913138829 0.41617858616550318 0 -0.35443870891502482 0.41089078250305322 0 -0.37589839224167271 0.43807903301196932 0 -0.36617299850217211 0.43141813758713449 0 -0.36419167014921011 0.43558828098303493 0 -0.37987297905135609 0.41614626000466121 0 -0.36617299850217211 0.43141813758713449 0 -0.36454695913138829 0.41617858616550318 0 -0.36617299850217211 0.43141813758713449 0 -0.3585390466085322 0.43027798043212928 0 -0.36617299850217211 0.43141813758713449 0 -0.36419167014921011 0.43558828098303493 0 -0.36419167014921011 0.43558828098303493 0 -0.3585390466085322 0.43027798043212928 0 -0.36617299850217211 0.43141813758713449 0 -0.3585390466085322 0.43027798043212928 0 -0.36617299850217211 0.43141813758713449 0 -0.36419167014921011 0.43558828098303493 0 -0.3585390466085322 0.43027798043212928 0 -0.3585390466085322 0.43027798043212928 0 -0.34390984515704393 0.41653472370044781 0 -0.33095418923739001 0.42615808644539599 0 -0.3585390466085322 0.43027798043212928 0 -0.33970676752508572 0.44041248370776348 0 -0.35111350522627699 0.43888159102108221 0 -0.3585390466085322 0.43027798043212928 0 -0.33095418923739001 0.42615808644539599 0 -0.36419167014921011 0.43558828098303493 0 -0.3585390466085322 0.43027798043212928 0 -0.35111350522627699 0.43888159102108221 0 -0.3585390466085322 0.43027798043212928 0 -0.34390984515704393 0.41653472370044781 0 -0.34639568594481479 0.39883396493826329 0 -0.35443870891502482 0.41089078250305322 0 -0.34390984515704393 0.41653472370044781 0 -0.3585390466085322 0.43027798043212928 0 -0.35443870891502482 0.41089078250305322 0 -0.34390984515704393 0.41653472370044781 0 -0.36454695913138829 0.41617858616550318 0 -0.3585390466085322 0.43027798043212928 0 -0.35443870891502482 0.41089078250305322 0 -0.34390984515704393 0.41653472370044781 0 -0.3315586730406862 0.40878066159061538 0 -0.33095418923739001 0.42615808644539599 0 -0.34639568594481479 0.39883396493826329 0 -0.34390984515704393 0.41653472370044781 0 -0.3315586730406862 0.40878066159061538 0 -0.3585390466085322 0.43027798043212928 0 -0.33095418923739001 0.42615808644539599 0 -0.33970676752508572 0.44041248370776348 0 -0.33095418923739001 0.42615808644539599 0 -0.32213957086865552 0.44166824700221119 0 -0.33970676752508572 0.44041248370776348 0 -0.33095418923739001 0.42615808644539599 0 -0.30336933186624698 0.42203819245866708 0 -0.32213957086865552 0.44166824700221119 0 -0.33095418923739001 0.42615808644539599 0 -0.30336933186624698 0.42203819245866708 0 -0.33095418923739001 0.42615808644539599 0 -0.31901008131013731 0.41538431800169823 0 -0.30336933186624698 0.42203819245866708 0 -0.3315586730406862 0.40878066159061538 0 -0.33095418923739001 0.42615808644539599 0 -0.31901008131013731 0.41538431800169823 0 -0.3315586730406862 0.40878066159061538 0 -0.31901008131013731 0.41538431800169823 0 -0.32153291397356321 0.40210980090881482 0 -0.31901008131013731 0.41538431800169823 0 -0.31367109183210962 0.40681808031925087 0 -0.32153291397356321 0.40210980090881482 0 -0.31901008131013731 0.41538431800169823 0 -0.31367109183210962 0.40681808031925087 0 -0.3091981309827595 0.41372991677159793 0 -0.3315586730406862 0.40878066159061538 0 -0.3270500507884882 0.39255171841569958 0 -0.32153291397356321 0.40210980090881482 0 -0.31367109183210962 0.40681808031925087 0 -0.32153291397356321 0.40210980090881482 0 -0.31123064640371789 0.39978053280855069 0 -0.32153291397356321 0.40210980090881482 0 -0.31231233348855469 0.38974223965617899 0 -0.31123064640371789 0.39978053280855069 0 -0.3270500507884882 0.39255171841569958 0 -0.32153291397356321 0.40210980090881482 0 -0.31231233348855469 0.38974223965617899 0 -0.34639568594481479 0.39883396493826329 0 -0.3315586730406862 0.40878066159061538 0 -0.3270500507884882 0.39255171841569958 0 -0.34416746123853659 0.37407376390086761 0 -0.34639568594481479 0.39883396493826329 0 -0.3270500507884882 0.39255171841569958 0 -0.31899448727250862 0.36987387767132301 0 -0.34416746123853659 0.37407376390086761 0 -0.3270500507884882 0.39255171841569958 0 -0.31899448727250862 0.36987387767132301 0 -0.3270500507884882 0.39255171841569958 0 -0.31231233348855469 0.38974223965617899 0 -0.31899448727250862 0.36987387767132301 0 -0.3270500507884882 0.39255171841569958 0 -0.30247835343236978 0.38701476722146788 0 -0.2977876489337285 0.39716806488643341 0 -0.2931125751919092 0.37633748712444259 0 -0.31899448727250862 0.36987387767132301 0 -0.30569761012391239 0.37635436647208792 0 -0.31231233348855469 0.38974223965617899 0 -0.30569761012391239 0.37635436647208792 0 -0.31231233348855469 0.38974223965617899 0 -0.30247835343236978 0.38701476722146788 0 -0.30569761012391239 0.37635436647208792 0 -0.30247835343236978 0.38701476722146788 0 -0.2931125751919092 0.37633748712444259 0 -0.31367109183210962 0.40681808031925087 0 -0.31123064640371789 0.39978053280855069 0 -0.30407091855206919 0.4041158458843766 0 -0.31123064640371789 0.39978053280855069 0 -0.30557598016208798 0.39556429009140148 0 -0.30407091855206919 0.4041158458843766 0 -0.31231233348855469 0.38974223965617899 0 -0.30247835343236978 0.38701476722146788 0 -0.30557598016208798 0.39556429009140148 0 -0.31231233348855469 0.38974223965617899 0 -0.31123064640371789 0.39978053280855069 0 -0.30557598016208798 0.39556429009140148 0 -0.30247835343236978 0.38701476722146788 0 -0.30557598016208798 0.39556429009140148 0 -0.2977876489337285 0.39716806488643341 0 -0.30557598016208798 0.39556429009140148 0 -0.2977876489337285 0.39716806488643341 0 -0.30407091855206919 0.4041158458843766 0 -0.2977876489337285 0.39716806488643341 0 -0.30407091855206919 0.4041158458843766 0 -0.3003247632802224 0.40847260479411351 0 -0.2977876489337285 0.39716806488643341 0 -0.3003247632802224 0.40847260479411351 0 -0.2977876489337285 0.39716806488643341 0 -0.30407091855206919 0.4041158458843766 0 -0.2977876489337285 0.39716806488643341 0 -0.2829551939267359 0.39812262112362479 0 -0.3003247632802224 0.40847260479411351 0 -0.2977876489337285 0.39716806488643341 0 -0.2829551939267359 0.39812262112362479 0 -0.28273600798736709 0.38052457967775011 0 -0.2829551939267359 0.39812262112362479 0 -0.27634046629939452 0.41144590237276768 0 -0.3003247632802224 0.40847260479411351 0 -0.2977876489337285 0.39716806488643341 0 -0.2931125751919092 0.37633748712444259 0 -0.28273600798736709 0.38052457967775011 0 -0.2977876489337285 0.39716806488643341 0 -0.2931125751919092 0.37633748712444259 0 -0.2977876489337285 0.39716806488643341 0 -0.28273600798736709 0.38052457967775011 0 -0.28273600798736709 0.38052457967775011 0 -0.26655325896953441 0.37891553108181181 0 -0.27346620949283029 0.38886441769951668 0 -0.2829551939267359 0.39812262112362479 0 -0.28273600798736709 0.38052457967775011 0 -0.27346620949283029 0.38886441769951668 0 -0.26655325896953441 0.37891553108181181 0 -0.27346620949283029 0.38886441769951668 0 -0.26218004708267051 0.39086268473446878 0 -0.2829551939267359 0.39812262112362479 0 -0.26678669195440829 0.40080284060805149 0 -0.27634046629939452 0.41144590237276768 0 -0.2829551939267359 0.39812262112362479 0 -0.27346620949283029 0.38886441769951668 0 -0.26678669195440829 0.40080284060805149 0 -0.27346620949283029 0.38886441769951668 0 -0.26678669195440829 0.40080284060805149 0 -0.26218004708267051 0.39086268473446878 0 -0.26678669195440829 0.40080284060805149 0 -0.26218004708267051 0.39086268473446878 0 -0.25342206560625269 0.40110221776651211 0 -0.26218004708267051 0.39086268473446878 0 -0.25342206560625269 0.40110221776651211 0 -0.25062755571844197 0.38493101417265008 0 -0.26678669195440829 0.40080284060805149 0 -0.25342206560625269 0.40110221776651211 0 -0.25235616931856619 0.41441919995141868 0 -0.2510192599286124 0.37030951016049318 0 -0.26655325896953441 0.37891553108181181 0 -0.25062755571844197 0.38493101417265008 0 -0.26655325896953441 0.37891553108181181 0 -0.26218004708267051 0.39086268473446878 0 -0.25062755571844197 0.38493101417265008 0 -0.25235616931856619 0.41441919995141868 0 -0.25671441962772829 0.43939995006665328 0 -0.24185756048563981 0.42490282813551528 0 -0.25235616931856619 0.41441919995141868 0 -0.27179388738264337 0.43337857795578483 0 -0.25671441962772829 0.43939995006665328 0 -0.25235616931856619 0.41441919995141868 0 -0.27786275059240673 0.41822869620504222 0 -0.26678669195440829 0.40080284060805149 0 -0.25235616931856619 0.41441919995141868 0 -0.27634046629939452 0.41144590237276768 0 -0.25235616931856619 0.41441919995141868 0 -0.27634046629939452 0.41144590237276768 0 -0.25235616931856619 0.41441919995141868 0 -0.27786275059240673 0.41822869620504222 0 -0.27634046629939452 0.41144590237276768 0 -0.25235616931856619 0.41441919995141868 0 -0.27786275059240673 0.41822869620504222 0 -0.27179388738264337 0.43337857795578483 0 -0.27786275059240673 0.41822869620504222 0 -0.27179388738264337 0.43337857795578483 0 -0.28917284538972848 0.4325588776418573 0 -0.27786275059240673 0.41822869620504222 0 -0.28917284538972848 0.4325588776418573 0 -0.30336933186624698 0.42203819245866708 0 -0.27786275059240673 0.41822869620504222 0 -0.3003247632802224 0.40847260479411351 0 -0.30336933186624698 0.42203819245866708 0 -0.27786275059240673 0.41822869620504222 0 -0.27634046629939452 0.41144590237276768 0 -0.3003247632802224 0.40847260479411351 0 -0.27634046629939452 0.41144590237276768 0 -0.3003247632802224 0.40847260479411351 0 -0.27786275059240673 0.41822869620504222 0 -0.30336933186624698 0.42203819245866708 0 -0.31901008131013731 0.41538431800169823 0 -0.3091981309827595 0.41372991677159793 0 -0.30336933186624698 0.42203819245866708 0 -0.3003247632802224 0.40847260479411351 0 -0.30336933186624698 0.42203819245866708 0 -0.3003247632802224 0.40847260479411351 0 -0.3091981309827595 0.41372991677159793 0 -0.30336933186624698 0.42203819245866708 0 -0.31367109183210962 0.40681808031925087 0 -0.30407091855206919 0.4041158458843766 0 -0.3003247632802224 0.40847260479411351 0 -0.31367109183210962 0.40681808031925087 0 -0.3003247632802224 0.40847260479411351 0 -0.31367109183210962 0.40681808031925087 0 -0.3003247632802224 0.40847260479411351 0 -0.3091981309827595 0.41372991677159793 0 -0.30336933186624698 0.42203819245866708 0 -0.30784236766199752 0.44196855615370362 0 -0.30336933186624698 0.42203819245866708 0 -0.30784236766199752 0.44196855615370362 0 -0.32213957086865552 0.44166824700221119 0 -0.28917284538972848 0.4325588776418573 0 -0.30336933186624698 0.42203819245866708 0 -0.30784236766199752 0.44196855615370362 0 -0.30784236766199752 0.44196855615370362 0 -0.31231540345774778 0.4618989198487401 0 -0.30784236766199752 0.44196855615370362 0 -0.31231540345774778 0.4618989198487401 0 -0.29428605231039451 0.46227218906052331 0 -0.31231540345774778 0.4618989198487401 0 -0.29428605231039451 0.46227218906052331 0 -0.30298508422954062 0.48111262295094209 0 -0.29428605231039451 0.46227218906052331 0 -0.28489222480744042 0.4471406436439041 0 -0.27561641835245648 0.46201896241033008 0 -0.29428605231039451 0.46227218906052331 0 -0.27561641835245648 0.46201896241033008 0 -0.28206481535318378 0.47949342935551981 0 -0.28917284538972848 0.4325588776418573 0 -0.30784236766199752 0.44196855615370362 0 -0.28489222480744042 0.4471406436439041 0 -0.27179388738264337 0.43337857795578483 0 -0.28917284538972848 0.4325588776418573 0 -0.28489222480744042 0.4471406436439041 0 -0.30784236766199752 0.44196855615370362 0 -0.29428605231039451 0.46227218906052331 0 -0.28489222480744042 0.4471406436439041 0 -0.27179388738264337 0.43337857795578483 0 -0.28489222480744042 0.4471406436439041 0 -0.26958928664451037 0.44811504539800939 0 -0.27179388738264337 0.43337857795578483 0 -0.26958928664451037 0.44811504539800939 0 -0.25671441962772829 0.43939995006665328 0 -0.28489222480744042 0.4471406436439041 0 -0.26958928664451037 0.44811504539800939 0 -0.27561641835245648 0.46201896241033008 0 -0.26958928664451037 0.44811504539800939 0 -0.27561641835245648 0.46201896241033008 0 -0.25892948305228303 0.45863709291337468 0 -0.25892948305228303 0.45863709291337468 0 -0.26114454647682689 0.47787423576009741 0 -0.27561641835245648 0.46201896241033008 0 -0.25892948305228303 0.45863709291337468 0 -0.26114454647682689 0.47787423576009741 0 -0.25892948305228303 0.45863709291337468 0 -0.25671441962772829 0.43939995006665328 0 -0.26958928664451037 0.44811504539800939 0 -0.25892948305228303 0.45863709291337468 0 -0.25671441962772829 0.43939995006665328 0 -0.25892948305228303 0.45863709291337468 0 -0.25671441962772829 0.43939995006665328 0 -0.23672838442127969 0.44931571149556421 0 -0.26369222060384501 0.500000000000001 0 -0.26114454647682689 0.47787423576009741 0 -0.24759722106789009 0.49025718355751591 0 -0.26369222060384501 0.500000000000001 0 -0.26114454647682689 0.47787423576009741 0 -0.26114454647682689 0.47787423576009741 0 -0.24248495290689881 0.4764300146279456 0 -0.24759722106789009 0.49025718355751591 0 -0.26114454647682689 0.47787423576009741 0 -0.24248495290689881 0.4764300146279456 0 -0.25892948305228303 0.45863709291337468 0 -0.26114454647682689 0.47787423576009741 0 -0.24248495290689881 0.4764300146279456 0 -0.26114454647682689 0.47787423576009741 0 -0.28206481535318378 0.47949342935551981 0 -0.27561641835245648 0.46201896241033008 0 -0.26114454647682689 0.47787423576009741 0 -0.28206481535318378 0.47949342935551981 0 -0.26369222060384501 0.500000000000001 0 -0.26114454647682689 0.47787423576009741 0 -0.28206481535318378 0.47949342935551981 0 -0.26369222060384501 0.500000000000001 0 -0.29381323139545679 0.4999999999999995 0 -0.28206481535318378 0.47949342935551981 0 -0.29381323139545679 0.4999999999999995 0 -0.28206481535318378 0.47949342935551981 0 -0.30298508422954062 0.48111262295094209 0 -0.28206481535318378 0.47949342935551981 0 -0.30298508422954062 0.48111262295094209 0 -0.29428605231039451 0.46227218906052331 0 -0.28206481535318378 0.47949342935551981 0 -0.30298508422954062 0.48111262295094209 0 -0.31231540345774778 0.4618989198487401 0 -0.30298508422954062 0.48111262295094209 0 -0.31686876683807169 0.48218719661409121 0 -0.31231540345774778 0.4618989198487401 0 -0.30298508422954062 0.48111262295094209 0 -0.30298508422954062 0.48111262295094209 0 -0.31686876683807169 0.48218719661409121 0 -0.29381323139545679 0.4999999999999995 0 -0.30298508422954062 0.48111262295094209 0 -0.30913390235612859 0.48995801355666108 0 -0.29381323139545679 0.4999999999999995 0 -0.30913390235612859 0.48995801355666108 0 -0.31399644248898112 0.49884097985152032 0 -0.29381323139545679 0.4999999999999995 0 -0.30298508422954062 0.48111262295094209 0 -0.29381323139545679 0.4999999999999995 0 -0.31399644248898112 0.49884097985152032 0 -0.32086655174491008 0.499999999999997 0 -0.30298508422954062 0.48111262295094209 0 -0.30913390235612859 0.48995801355666108 0 -0.31686876683807169 0.48218719661409121 0 -0.30913390235612859 0.48995801355666108 0 -0.31399644248898112 0.49884097985152032 0 -0.31914915907128327 0.49234786794571672 0 -0.31399644248898112 0.49884097985152032 0 -0.31914915907128327 0.49234786794571672 0 -0.31914915907128327 0.49234786794571672 0 -0.32086655174491008 0.499999999999997 0 -0.31399644248898112 0.49884097985152032 0 -0.31914915907128327 0.49234786794571672 0 -0.32086655174491008 0.499999999999997 0 -0.31914915907128327 0.49234786794571672 0 -0.31686876683807169 0.48218719661409121 0 -0.30913390235612859 0.48995801355666108 0 -0.31914915907128327 0.49234786794571672 0 -0.31686876683807169 0.48218719661409121 0 -0.31914915907128327 0.49234786794571672 0 -0.33119695720172648 0.49314433381717881 0 -0.3266137823856694 0.482941444413445 0 -0.31914915907128327 0.49234786794571672 0 -0.3266137823856694 0.482941444413445 0 -0.31914915907128327 0.49234786794571672 0 -0.3266137823856694 0.482941444413445 0 -0.31686876683807169 0.48218719661409121 0 -0.31914915907128327 0.49234786794571672 0 -0.32086655174491008 0.499999999999997 0 -0.33119695720172648 0.49314433381717881 0 -0.32086655174491008 0.499999999999997 0 -0.33119695720172648 0.49314433381717881 0 -0.34376378506704403 0.5 0 -0.33119695720172648 0.49314433381717881 0 -0.35056671013484081 0.4847953607006743 0 -0.34376378506704403 0.5 0 -0.33119695720172648 0.49314433381717881 0 -0.3266137823856694 0.482941444413445 0 -0.35056671013484081 0.4847953607006743 0 -0.3266137823856694 0.482941444413445 0 -0.35056671013484081 0.4847953607006743 0 -0.3266137823856694 0.482941444413445 0 -0.33913974497351318 0.46715705660330592 0 -0.35056671013484081 0.4847953607006743 0 -0.3266137823856694 0.482941444413445 0 -0.33913974497351318 0.46715705660330592 0 -0.32366923413947662 0.47004661867334058 0 -0.3266137823856694 0.482941444413445 0 -0.33913974497351318 0.46715705660330592 0 -0.31231540345774778 0.4618989198487401 0 -0.32366923413947662 0.47004661867334058 0 -0.31686876683807169 0.48218719661409121 0 -0.31231540345774778 0.4618989198487401 0 -0.31686876683807169 0.48218719661409121 0 -0.3266137823856694 0.482941444413445 0 -0.31686876683807169 0.48218719661409121 0 -0.32366923413947662 0.47004661867334058 0 -0.3266137823856694 0.482941444413445 0 -0.31686876683807169 0.48218719661409121 0 -0.31231540345774778 0.4618989198487401 0 -0.32366923413947662 0.47004661867334058 0 -0.33189175836569629 0.45450009637138972 0 -0.31231540345774778 0.4618989198487401 0 -0.32213957086865552 0.44166824700221119 0 -0.33189175836569629 0.45450009637138972 0 -0.31231540345774778 0.4618989198487401 0 -0.32213957086865552 0.44166824700221119 0 -0.30784236766199752 0.44196855615370362 0 -0.31231540345774778 0.4618989198487401 0 -0.32213957086865552 0.44166824700221119 0 -0.32213957086865552 0.44166824700221119 0 -0.33970676752508572 0.44041248370776348 0 -0.33189175836569629 0.45450009637138972 0 -0.34086770932513649 0.44969277220871828 0 -0.33970676752508572 0.44041248370776348 0 -0.33189175836569629 0.45450009637138972 0 -0.34086770932513649 0.44969277220871828 0 -0.33970676752508572 0.44041248370776348 0 -0.34547901448759122 0.44374623238217048 0 -0.34086770932513649 0.44969277220871828 0 -0.33913974497351318 0.46715705660330592 0 -0.34835558290862328 0.45127987306945178 0 -0.34086770932513649 0.44969277220871828 0 -0.33189175836569629 0.45450009637138972 0 -0.33913974497351318 0.46715705660330592 0 -0.32366923413947662 0.47004661867334058 0 -0.33189175836569629 0.45450009637138972 0 -0.33913974497351318 0.46715705660330592 0 -0.33913974497351318 0.46715705660330592 0 -0.35166570756136167 0.4513726687931704 0 -0.3655968730100545 0.4665128446436213 0 -0.33913974497351318 0.46715705660330592 0 -0.34835558290862328 0.45127987306945178 0 -0.35166570756136167 0.4513726687931704 0 -0.33913974497351318 0.46715705660330592 0 -0.35166570756136167 0.4513726687931704 0 -0.36419167014921011 0.43558828098303493 0 -0.35099159524862461 0.443203515243761 0 -0.34835558290862328 0.45127987306945178 0 -0.36419167014921011 0.43558828098303493 0 -0.34835558290862328 0.45127987306945178 0 -0.35166570756136167 0.4513726687931704 0 -0.36419167014921011 0.43558828098303493 0 -0.34835558290862328 0.45127987306945178 0 -0.36419167014921011 0.43558828098303493 0 -0.35166570756136167 0.4513726687931704 0 -0.33970676752508572 0.44041248370776348 0 -0.35111350522627699 0.43888159102108221 0 -0.34547901448759122 0.44374623238217048 0 -0.34547901448759122 0.44374623238217048 0 -0.35099159524862461 0.443203515243761 0 -0.34664567232989318 0.44725900810587033 0 -0.35111350522627699 0.43888159102108221 0 -0.34547901448759122 0.44374623238217048 0 -0.35099159524862461 0.443203515243761 0 -0.35099159524862461 0.443203515243761 0 -0.34664567232989318 0.44725900810587033 0 -0.34835558290862328 0.45127987306945178 0 -0.34086770932513649 0.44969277220871828 0 -0.34547901448759122 0.44374623238217048 0 -0.34664567232989318 0.44725900810587033 0 -0.34086770932513649 0.44969277220871828 0 -0.34664567232989318 0.44725900810587033 0 -0.34835558290862328 0.45127987306945178 0 -0.36419167014921011 0.43558828098303493 0 -0.35111350522627699 0.43888159102108221 0 -0.35099159524862461 0.443203515243761 0 -0.36419167014921011 0.43558828098303493 0 -0.35166570756136167 0.4513726687931704 0 -0.36554184719538901 0.45114575072543822 0 -0.38071313806093182 0.45110920848192398 0 -0.36419167014921011 0.43558828098303493 0 -0.37589839224167271 0.43807903301196932 0 -0.38071313806093182 0.45110920848192398 0 -0.36419167014921011 0.43558828098303493 0 -0.38071313806093182 0.45110920848192398 0 -0.36419167014921011 0.43558828098303493 0 -0.36554184719538901 0.45114575072543822 0 -0.35166570756136167 0.4513726687931704 0 -0.36554184719538901 0.45114575072543822 0 -0.3655968730100545 0.4665128446436213 0 -0.38071313806093182 0.45110920848192398 0 -0.36554184719538901 0.45114575072543822 0 -0.3655968730100545 0.4665128446436213 0 -0.38178084575941051 0.46652638942871649 0 -0.3655968730100545 0.4665128446436213 0 -0.37451963788401249 0.48664927698790039 0 -0.3655968730100545 0.4665128446436213 0 -0.37451963788401249 0.48664927698790039 0 -0.35056671013484081 0.4847953607006743 0 -0.37451963788401249 0.48664927698790039 0 -0.35056671013484081 0.4847953607006743 0 -0.37451963788401249 0.48664927698790039 0 -0.36666101838917781 0.5 0 -0.35056671013484081 0.4847953607006743 0 -0.36666101838917781 0.5 0 -0.35056671013484081 0.4847953607006743 0 -0.34376378506704403 0.5 0 -0.33913974497351318 0.46715705660330592 0 -0.3655968730100545 0.4665128446436213 0 -0.35056671013484081 0.4847953607006743 0 -0.15507799131250449 0.46966486293485499 0 -0.15166034926331801 0.49389460783981048 0 -0.13482904146400199 0.47340888676571891 0 -0.155057791879607 0.5 0 -0.15166034926331801 0.49389460783981048 0 -0.1278991846985473 0.5 0 -0.15166034926331801 0.49389460783981048 0 -0.12510066362991279 0.49443902896972258 0 -0.13482904146400199 0.47340888676571891 0 -0.15166034926331801 0.49389460783981048 0 -0.12510066362991279 0.49443902896972258 0 -0.15166034926331801 0.49389460783981048 0 -0.1278991846985473 0.5 0 -0.12510066362991279 0.49443902896972258 0 -0.12510066362991279 0.49443902896972258 0 -0.13482904146400199 0.47340888676571891 0 -0.1164082510468516 0.47832653206440962 0 -0.13482904146400199 0.47340888676571891 0 -0.14123504835269679 0.44903082488981139 0 -0.1185615888735196 0.45411270398426368 0 -0.14123504835269679 0.44903082488981139 0 -0.1229481333953132 0.43401422840074178 0 -0.1185615888735196 0.45411270398426368 0 -0.14123504835269679 0.44903082488981139 0 -0.16438039470659291 0.45314518010394711 0 -0.15872337059016961 0.43371668216126902 0 -0.15507799131250449 0.46966486293485499 0 -0.13482904146400199 0.47340888676571891 0 -0.14123504835269679 0.44903082488981139 0 -0.15507799131250449 0.46966486293485499 0 -0.14123504835269679 0.44903082488981139 0 -0.16438039470659291 0.45314518010394711 0 -0.15507799131250449 0.46966486293485499 0 -0.16438039470659291 0.45314518010394711 0 -0.17799378065399329 0.47143850645516733 0 -0.16438039470659291 0.45314518010394711 0 -0.17528662608315729 0.44001180944888052 0 -0.15872337059016961 0.43371668216126902 0 -0.16438039470659291 0.45314518010394711 0 -0.17528662608315729 0.44001180944888052 0 -0.17995143244328379 0.45394380441067278 0 -0.18737111262839251 0.44469903671188232 0 -0.17995143244328379 0.45394380441067278 0 -0.1932236031747713 0.45794673849707562 0 -0.17528662608315729 0.44001180944888052 0 -0.18737111262839251 0.44469903671188232 0 -0.17995143244328379 0.45394380441067278 0 -0.17528662608315729 0.44001180944888052 0 -0.18737111262839251 0.44469903671188232 0 -0.18496887120744759 0.43609056059234153 0 -0.16438039470659291 0.45314518010394711 0 -0.17995143244328379 0.45394380441067278 0 -0.17799378065399329 0.47143850645516733 0 -0.17995143244328379 0.45394380441067278 0 -0.17799378065399329 0.47143850645516733 0 -0.1932236031747713 0.45794673849707562 0 -0.17799378065399329 0.47143850645516733 0 -0.16573803903163481 0.48208704098493282 0 -0.1782200348967232 0.4933501867098985 0 -0.17799378065399329 0.47143850645516733 0 -0.1782200348967232 0.4933501867098985 0 -0.19047577651908171 0.48270165218013289 0 -0.15507799131250449 0.46966486293485499 0 -0.17799378065399329 0.47143850645516733 0 -0.16573803903163481 0.48208704098493282 0 -0.15507799131250449 0.46966486293485499 0 -0.17799378065399329 0.47143850645516733 0 -0.15507799131250449 0.46966486293485499 0 -0.15166034926331801 0.49389460783981048 0 -0.16573803903163481 0.48208704098493282 0 -0.155057791879607 0.5 0 -0.1822163990606667 0.5 0 -0.1782200348967232 0.4933501867098985 0 -0.15166034926331801 0.49389460783981048 0 -0.16573803903163481 0.48208704098493282 0 -0.1782200348967232 0.4933501867098985 0 -0.155057791879607 0.5 0 -0.15166034926331801 0.49389460783981048 0 -0.1782200348967232 0.4933501867098985 0 -0.15166034926331801 0.49389460783981048 0 -0.1782200348967232 0.4933501867098985 0 -0.1782200348967232 0.4933501867098985 0 -0.2047797205301283 0.49280576557998651 0 -0.1782200348967232 0.4933501867098985 0 -0.19047577651908171 0.48270165218013289 0 -0.2047797205301283 0.49280576557998651 0 -0.1822163990606667 0.5 0 -0.1782200348967232 0.4933501867098985 0 -0.2047797205301283 0.49280576557998651 0 -0.1822163990606667 0.5 0 -0.20937500624172611 0.5 0 -0.2047797205301283 0.49280576557998651 0 -0.20090956999548201 0.47321214997547961 0 -0.19047577651908171 0.48270165218013289 0 -0.2047797205301283 0.49280576557998651 0 -0.17799378065399329 0.47143850645516733 0 -0.20090956999548201 0.47321214997547961 0 -0.19047577651908171 0.48270165218013289 0 -0.17799378065399329 0.47143850645516733 0 -0.20090956999548201 0.47321214997547961 0 -0.20090956999548201 0.47321214997547961 0 -0.2047797205301283 0.49280576557998651 0 -0.22382535933697059 0.47498579349579367 0 -0.20090956999548201 0.47321214997547961 0 -0.22382535933697059 0.47498579349579367 0 -0.20937500624172611 0.5 0 -0.2047797205301283 0.49280576557998651 0 -0.2313394061635336 0.49226134445008118 0 -0.2047797205301283 0.49280576557998651 0 -0.2313394061635336 0.49226134445008118 0 -0.2313394061635336 0.49226134445008118 0 -0.22382535933697059 0.47498579349579367 0 -0.23645786895398599 0.48650639887735431 0 -0.20937500624172611 0.5 0 -0.2336816227285336 0.4976463363923237 0 -0.23653361342278559 0.5 0 -0.2047797205301283 0.49280576557998651 0 -0.2313394061635336 0.49226134445008118 0 -0.22382535933697059 0.47498579349579367 0 -0.20937500624172611 0.5 0 -0.2313394061635336 0.49226134445008118 0 -0.2336816227285336 0.4976463363923237 0 -0.2313394061635336 0.49226134445008118 0 -0.2336816227285336 0.4976463363923237 0 -0.2313394061635336 0.49226134445008118 0 -0.23298751548326091 0.49222756146218632 0 -0.2336816227285336 0.4976463363923237 0 -0.2313394061635336 0.49226134445008118 0 -0.23298751548326091 0.49222756146218632 0 -0.2313394061635336 0.49226134445008118 0 -0.23298751548326091 0.49222756146218632 0 -0.23645786895398599 0.48650639887735431 0 -0.22382535933697059 0.47498579349579367 0 -0.24248495290689881 0.4764300146279456 0 -0.2313394061635336 0.49226134445008118 0 -0.22382535933697059 0.47498579349579367 0 -0.22382535933697059 0.47498579349579367 0 -0.24248495290689881 0.4764300146279456 0 -0.23645786895398599 0.48650639887735431 0 -0.22382535933697059 0.47498579349579367 0 -0.24248495290689881 0.4764300146279456 0 -0.23404679956355731 0.46418771241008577 0 -0.26369222060384501 0.500000000000001 0 -0.24759722106789009 0.49025718355751591 0 -0.23653361342278559 0.5 0 -0.24759722106789009 0.49025718355751591 0 -0.23653361342278559 0.5 0 -0.23745156833129119 0.49332749605787601 0 -0.2336816227285336 0.4976463363923237 0 -0.23653361342278559 0.5 0 -0.23745156833129119 0.49332749605787601 0 -0.23298751548326091 0.49222756146218632 0 -0.2336816227285336 0.4976463363923237 0 -0.23745156833129119 0.49332749605787601 0 -0.24248495290689881 0.4764300146279456 0 -0.24759722106789009 0.49025718355751591 0 -0.23645786895398599 0.48650639887735431 0 -0.23298751548326091 0.49222756146218632 0 -0.23745156833129119 0.49332749605787601 0 -0.23645786895398599 0.48650639887735431 0 -0.24759722106789009 0.49025718355751591 0 -0.23745156833129119 0.49332749605787601 0 -0.23645786895398599 0.48650639887735431 0 -0.25671441962772829 0.43939995006665328 0 -0.23672838442127969 0.44931571149556421 0 -0.23739680203602229 0.4364488034243767 0 -0.25892948305228303 0.45863709291337468 0 -0.24248495290689881 0.4764300146279456 0 -0.23404679956355731 0.46418771241008577 0 -0.25892948305228303 0.45863709291337468 0 -0.23672838442127969 0.44931571149556421 0 -0.23404679956355731 0.46418771241008577 0 -0.23672838442127969 0.44931571149556421 0 -0.23404679956355731 0.46418771241008577 0 -0.21395452795280659 0.45229175731606541 0 -0.22382535933697059 0.47498579349579367 0 -0.21395452795280659 0.45229175731606541 0 -0.22382535933697059 0.47498579349579367 0 -0.23404679956355731 0.46418771241008577 0 -0.21395452795280659 0.45229175731606541 0 -0.23672838442127969 0.44931571149556421 0 -0.22308064236093639 0.44037056247065992 0 -0.21395452795280659 0.45229175731606541 0 -0.23672838442127969 0.44931571149556421 0 -0.22308064236093639 0.44037056247065992 0 -0.23739680203602229 0.4364488034243767 0 -0.22308064236093639 0.44037056247065992 0 -0.21395452795280659 0.45229175731606541 0 -0.20408369656864631 0.42959772113633549 0 -0.21395452795280659 0.45229175731606541 0 -0.20408369656864631 0.42959772113633549 0 -0.21395452795280659 0.45229175731606541 0 -0.19857447133148301 0.44287352957670728 0 -0.20408369656864631 0.42959772113633549 0 -0.20090956999548201 0.47321214997547961 0 -0.22382535933697059 0.47498579349579367 0 -0.21395452795280659 0.45229175731606541 0 -0.17799378065399329 0.47143850645516733 0 -0.20090956999548201 0.47321214997547961 0 -0.1932236031747713 0.45794673849707562 0 -0.20090956999548201 0.47321214997547961 0 -0.21395452795280659 0.45229175731606541 0 -0.1932236031747713 0.45794673849707562 0 -0.21395452795280659 0.45229175731606541 0 -0.1932236031747713 0.45794673849707562 0 -0.19857447133148301 0.44287352957670728 0 -0.18737111262839251 0.44469903671188232 0 -0.1932236031747713 0.45794673849707562 0 -0.19857447133148301 0.44287352957670728 0 -0.18737111262839251 0.44469903671188232 0 -0.19857447133148301 0.44287352957670728 0 -0.19222167153021241 0.43732777774561621 0 -0.18737111262839251 0.44469903671188232 0 -0.19222167153021241 0.43732777774561621 0 -0.18496887120744759 0.43609056059234153 0 -0.19222167153021241 0.43732777774561621 0 -0.18865623858462971 0.43090999528431723 0 -0.18496887120744759 0.43609056059234153 0 -0.19222167153021241 0.43732777774561621 0 -0.18865623858462971 0.43090999528431723 0 -0.19903798958314289 0.43085450293587629 0 -0.19903798958314289 0.43085450293587629 0 -0.19389636639452859 0.40927036973077252 0 -0.20408369656864631 0.42959772113633549 0 -0.18865623858462971 0.43090999528431723 0 -0.19903798958314289 0.43085450293587629 0 -0.18599001116479169 0.42099074605441639 0 -0.19857447133148301 0.44287352957670728 0 -0.19903798958314289 0.43085450293587629 0 -0.20408369656864631 0.42959772113633549 0 -0.19857447133148301 0.44287352957670728 0 -0.19222167153021241 0.43732777774561621 0 -0.19903798958314289 0.43085450293587629 0 -0.19389636639452859 0.40927036973077252 0 -0.1933032087474498 0.40633892045256031 0 -0.20408369656864631 0.42959772113633549 0 -0.19903798958314289 0.43085450293587629 0 -0.1870844992481896 0.40467064996224739 0 -0.19903798958314289 0.43085450293587629 0 -0.1919779895530791 0.4102341769159214 0 -0.1870844992481896 0.40467064996224739 0 -0.1933032087474498 0.40633892045256031 0 -0.21140793423450621 0.41757932495504863 0 -0.19903798958314289 0.43085450293587629 0 -0.19389636639452859 0.40927036973077252 0 -0.1919779895530791 0.4102341769159214 0 -0.1933032087474498 0.40633892045256031 0 -0.21140793423450621 0.41757932495504863 0 -0.20408369656864631 0.42959772113633549 0 -0.19903798958314289 0.43085450293587629 0 -0.1870844992481896 0.40467064996224739 0 -0.18599001116479169 0.42099074605441639 0 -0.1933032087474498 0.40633892045256031 0 -0.20408369656864631 0.42959772113633549 0 -0.19389636639452859 0.40927036973077252 0 -0.1933032087474498 0.40633892045256031 0 -0.19389636639452859 0.40927036973077252 0 -0.191880763404503 0.4072994397836911 0 -0.1919779895530791 0.4102341769159214 0 -0.19389636639452859 0.40927036973077252 0 -0.191880763404503 0.4072994397836911 0 -0.1933032087474498 0.40633892045256031 0 -0.191880763404503 0.4072994397836911 0 -0.1933032087474498 0.40633892045256031 0 -0.19173484671590801 0.40536519546272509 0 -0.191880763404503 0.4072994397836911 0 -0.1919779895530791 0.4102341769159214 0 -0.1870844992481896 0.40467064996224739 0 -0.1933032087474498 0.40633892045256031 0 -0.22301276697611669 0.41003666118261828 0 -0.1933032087474498 0.40633892045256031 0 -0.21140793423450621 0.41757932495504863 0 -0.22301276697611669 0.41003666118261828 0 -0.22308064236093639 0.44037056247065992 0 -0.20408369656864631 0.42959772113633549 0 -0.21679014539278821 0.4291986286421865 0 -0.21140793423450621 0.41757932495504863 0 -0.20408369656864631 0.42959772113633549 0 -0.21679014539278821 0.4291986286421865 0 -0.21140793423450621 0.41757932495504863 0 -0.22860300328452759 0.42825496495349069 0 -0.22308064236093639 0.44037056247065992 0 -0.21679014539278821 0.4291986286421865 0 -0.22860300328452759 0.42825496495349069 0 -0.21140793423450621 0.41757932495504863 0 -0.21679014539278821 0.4291986286421865 0 -0.22860300328452759 0.42825496495349069 0 -0.22308064236093639 0.44037056247065992 0 -0.22860300328452759 0.42825496495349069 0 -0.23739680203602229 0.4364488034243767 0 -0.22860300328452759 0.42825496495349069 0 -0.22976698767868881 0.41721954715889659 0 -0.24185756048563981 0.42490282813551528 0 -0.21140793423450621 0.41757932495504863 0 -0.22301276697611669 0.41003666118261828 0 -0.22976698767868881 0.41721954715889659 0 -0.21140793423450621 0.41757932495504863 0 -0.22860300328452759 0.42825496495349069 0 -0.22976698767868881 0.41721954715889659 0 -0.25235616931856619 0.41441919995141868 0 -0.22301276697611669 0.41003666118261828 0 -0.25235616931856619 0.41441919995141868 0 -0.22301276697611669 0.41003666118261828 0 -0.2433482090087003 0.40987692930941588 0 -0.25235616931856619 0.41441919995141868 0 -0.22976698767868881 0.41721954715889659 0 -0.25235616931856619 0.41441919995141868 0 -0.22301276697611669 0.41003666118261828 0 -0.22976698767868881 0.41721954715889659 0 -0.25235616931856619 0.41441919995141868 0 -0.22976698767868881 0.41721954715889659 0 -0.24185756048563981 0.42490282813551528 0 -0.25342206560625269 0.40110221776651211 0 -0.25235616931856619 0.41441919995141868 0 -0.2433482090087003 0.40987692930941588 0 -0.25671441962772829 0.43939995006665328 0 -0.23739680203602229 0.4364488034243767 0 -0.24185756048563981 0.42490282813551528 0 -0.22860300328452759 0.42825496495349069 0 -0.23739680203602229 0.4364488034243767 0 -0.24185756048563981 0.42490282813551528 0 -0.23885118091246149 0.39330742758066822 0 -0.23435415281621999 0.37673792585192117 0 -0.2510192599286124 0.37030951016049318 0 -0.25062755571844197 0.38493101417265008 0 -0.23435415281621999 0.37673792585192117 0 -0.25062755571844197 0.38493101417265008 0 -0.23885118091246149 0.39330742758066822 0 -0.23435415281621999 0.37673792585192117 0 -0.22301276697611669 0.41003666118261828 0 -0.2433482090087003 0.40987692930941588 0 -0.23885118091246149 0.39330742758066822 0 -0.25342206560625269 0.40110221776651211 0 -0.25062755571844197 0.38493101417265008 0 -0.23885118091246149 0.39330742758066822 0 -0.2433482090087003 0.40987692930941588 0 -0.23885118091246149 0.39330742758066822 0 -0.25342206560625269 0.40110221776651211 0 -0.2433482090087003 0.40987692930941588 0 -0.23885118091246149 0.39330742758066822 0 -0.22301276697611669 0.41003666118261828 0 -0.23885118091246149 0.39330742758066822 0 -0.22403269415658181 0.39514014628395489 0 -0.23885118091246149 0.39330742758066822 0 -0.22403269415658181 0.39514014628395489 0 -0.23435415281621999 0.37673792585192117 0 -0.22403269415658181 0.39514014628395489 0 -0.23435415281621999 0.37673792585192117 0 -0.21314960254244469 0.38491739105369221 0 -0.23435415281621999 0.37673792585192117 0 -0.21314960254244469 0.38491739105369221 0 -0.21435766325130329 0.36703120365640601 0 -0.23435415281621999 0.37673792585192117 0 -0.21314960254244469 0.38491739105369221 0 -0.21314960254244469 0.38491739105369221 0 -0.2007841351831213 0.37706751169779218 0 -0.21435766325130329 0.36703120365640601 0 -0.22301276697611669 0.41003666118261828 0 -0.22403269415658181 0.39514014628395489 0 -0.20642251323316371 0.39872158114735751 0 -0.1933032087474498 0.40633892045256031 0 -0.22301276697611669 0.41003666118261828 0 -0.20642251323316371 0.39872158114735751 0 -0.21314960254244469 0.38491739105369221 0 -0.20642251323316371 0.39872158114735751 0 -0.19194505226866959 0.39309685625546331 0 -0.22403269415658181 0.39514014628395489 0 -0.21314960254244469 0.38491739105369221 0 -0.20642251323316371 0.39872158114735751 0 -0.19272559882150189 0.40348430969459781 0 -0.18825749407253919 0.38140245252582272 0 -0.19194505226866959 0.39309685625546331 0 -0.19272559882150189 0.40348430969459781 0 -0.18825749407253919 0.38140245252582272 0 -0.19272559882150189 0.40348430969459781 0 -0.18381275053426979 0.38299277320462433 0 -0.1933032087474498 0.40633892045256031 0 -0.20642251323316371 0.39872158114735751 0 -0.19272559882150189 0.40348430969459781 0 -0.20642251323316371 0.39872158114735751 0 -0.19194505226866959 0.39309685625546331 0 -0.19272559882150189 0.40348430969459781 0 -0.19173484671590801 0.40536519546272509 0 -0.18568757469948469 0.40161071801153231 0 -0.1870844992481896 0.40467064996224739 0 -0.191880763404503 0.4072994397836911 0 -0.19173484671590801 0.40536519546272509 0 -0.1870844992481896 0.40467064996224739 0 -0.19173484671590801 0.40536519546272509 0 -0.18568757469948469 0.40161071801153231 0 -0.19173484671590801 0.40536519546272509 0 -0.1870844992481896 0.40467064996224739 0 -0.19173484671590801 0.40536519546272509 0 -0.19272559882150189 0.40348430969459781 0 -0.18568757469948469 0.40161071801153231 0 -0.1933032087474498 0.40633892045256031 0 -0.19272559882150189 0.40348430969459781 0 -0.1933032087474498 0.40633892045256031 0 -0.19173484671590801 0.40536519546272509 0 -0.19272559882150189 0.40348430969459781 0 -0.1933032087474498 0.40633892045256031 0 -0.19173484671590801 0.40536519546272509 0 -0.19173484671590801 0.40536519546272509 0 -0.19272559882150189 0.40348430969459781 0 -0.21314960254244469 0.38491739105369221 0 -0.19194505226866959 0.39309685625546331 0 -0.2007841351831213 0.37706751169779218 0 -0.21314960254244469 0.38491739105369221 0 -0.19194505226866959 0.39309685625546331 0 -0.19194505226866959 0.39309685625546331 0 -0.2007841351831213 0.37706751169779218 0 -0.18825749407253919 0.38140245252582272 0 -0.19272559882150189 0.40348430969459781 0 -0.18825749407253919 0.38140245252582272 0 -0.18381275053426979 0.38299277320462433 0 -0.2007841351831213 0.37706751169779218 0 -0.18825749407253919 0.38140245252582272 0 -0.1938985746147619 0.36770739597489849 0 -0.18381275053426979 0.38299277320462433 0 -0.17725652268579109 0.38314268732311579 0 -0.18568757469948469 0.40161071801153231 0 -0.18381275053426979 0.38299277320462433 0 -0.17725652268579109 0.38314268732311579 0 -0.174899902247036 0.36250123671465151 0 -0.18825749407253919 0.38140245252582272 0 -0.18381275053426979 0.38299277320462433 0 -0.174899902247036 0.36250123671465151 0 -0.16799118445191261 0.37867454083457608 0 -0.16644552711918659 0.38966420170487759 0 -0.15943721733057639 0.37721661767561082 0 -0.17725652268579109 0.38314268732311579 0 -0.16799118445191261 0.37867454083457608 0 -0.168825470672096 0.36467465663470022 0 -0.16644552711918659 0.38966420170487759 0 -0.1472034795388891 0.37771768539822193 0 -0.16644552711918659 0.38966420170487759 0 -0.15943721733057639 0.37721661767561082 0 -0.1472034795388891 0.37771768539822193 0 -0.17725652268579109 0.38314268732311579 0 -0.16799118445191261 0.37867454083457608 0 -0.16644552711918659 0.38966420170487759 0 -0.16644552711918659 0.38966420170487759 0 -0.15193615875641739 0.38591772825457987 0 -0.15160645720277291 0.39200983174398768 0 -0.16644552711918659 0.38966420170487759 0 -0.16258687851705461 0.40101184546014462 0 -0.18568757469948469 0.40161071801153231 0 -0.16644552711918659 0.38966420170487759 0 -0.16258687851705461 0.40101184546014462 0 -0.15160645720277291 0.39200983174398768 0 -0.16258687851705461 0.40101184546014462 0 -0.1870844992481896 0.40467064996224739 0 -0.17332282902263049 0.41157225884477822 0 -0.16644552711918659 0.38966420170487759 0 -0.18568757469948469 0.40161071801153231 0 -0.17725652268579109 0.38314268732311579 0 -0.18568757469948469 0.40161071801153231 0 -0.16258687851705461 0.40101184546014462 0 -0.18568757469948469 0.40161071801153231 0 -0.1870844992481896 0.40467064996224739 0 -0.17725652268579109 0.38314268732311579 0 -0.16644552711918659 0.38966420170487759 0 -0.18568757469948469 0.40161071801153231 0 -0.16258687851705461 0.40101184546014462 0 -0.1870844992481896 0.40467064996224739 0 -0.19272559882150189 0.40348430969459781 0 -0.18381275053426979 0.38299277320462433 0 -0.18568757469948469 0.40161071801153231 0 -0.18568757469948469 0.40161071801153231 0 -0.1870844992481896 0.40467064996224739 0 -0.1870844992481896 0.40467064996224739 0 -0.18078154780423339 0.41440608381227129 0 -0.17332282902263049 0.41157225884477822 0 -0.1870844992481896 0.40467064996224739 0 -0.18078154780423339 0.41440608381227129 0 -0.18599001116479169 0.42099074605441639 0 -0.18078154780423339 0.41440608381227129 0 -0.18599001116479169 0.42099074605441639 0 -0.17672885178132219 0.42039068038764288 0 -0.18078154780423339 0.41440608381227129 0 -0.17672885178132219 0.42039068038764288 0 -0.17332282902263049 0.41157225884477822 0 -0.17672885178132219 0.42039068038764288 0 -0.17332282902263049 0.41157225884477822 0 -0.1662752251912569 0.42052591477429913 0 -0.17528662608315729 0.44001180944888052 0 -0.18496887120744759 0.43609056059234153 0 -0.18017233852926501 0.42913470876215049 0 -0.18865623858462971 0.43090999528431723 0 -0.18496887120744759 0.43609056059234153 0 -0.18017233852926501 0.42913470876215049 0 -0.18865623858462971 0.43090999528431723 0 -0.18599001116479169 0.42099074605441639 0 -0.18017233852926501 0.42913470876215049 0 -0.18599001116479169 0.42099074605441639 0 -0.17672885178132219 0.42039068038764288 0 -0.18017233852926501 0.42913470876215049 0 -0.17672885178132219 0.42039068038764288 0 -0.18017233852926501 0.42913470876215049 0 -0.170719809977562 0.42844479043531369 0 -0.17528662608315729 0.44001180944888052 0 -0.18017233852926501 0.42913470876215049 0 -0.170719809977562 0.42844479043531369 0 -0.17528662608315729 0.44001180944888052 0 -0.170719809977562 0.42844479043531369 0 -0.15872337059016961 0.43371668216126902 0 -0.170719809977562 0.42844479043531369 0 -0.15872337059016961 0.43371668216126902 0 -0.1662752251912569 0.42052591477429913 0 -0.17672885178132219 0.42039068038764288 0 -0.170719809977562 0.42844479043531369 0 -0.1662752251912569 0.42052591477429913 0 -0.15872337059016961 0.43371668216126902 0 -0.1662752251912569 0.42052591477429913 0 -0.15401025565838539 0.41868290218227627 0 -0.16258687851705461 0.40101184546014462 0 -0.17332282902263049 0.41157225884477822 0 -0.16201118632859349 0.41181211882858992 0 -0.17332282902263049 0.41157225884477822 0 -0.1662752251912569 0.42052591477429913 0 -0.16201118632859349 0.41181211882858992 0 -0.1662752251912569 0.42052591477429913 0 -0.16201118632859349 0.41181211882858992 0 -0.15401025565838539 0.41868290218227627 0 -0.16258687851705461 0.40101184546014462 0 -0.16201118632859349 0.41181211882858992 0 -0.15177739049414651 0.40842723313150131 0 -0.16201118632859349 0.41181211882858992 0 -0.15177739049414651 0.40842723313150131 0 -0.15401025565838539 0.41868290218227627 0 -0.15177739049414651 0.40842723313150131 0 -0.14218937418077951 0.41327625822845321 0 -0.1380892577859196 0.39735304095804241 0 -0.15177739049414651 0.40842723313150131 0 -0.15401025565838539 0.41868290218227627 0 -0.14218937418077951 0.41327625822845321 0 -0.15401025565838539 0.41868290218227627 0 -0.14218937418077951 0.41327625822845321 0 -0.14060379189995251 0.42777227819034042 0 -0.15872337059016961 0.43371668216126902 0 -0.15401025565838539 0.41868290218227627 0 -0.14060379189995251 0.42777227819034042 0 -0.14123504835269679 0.44903082488981139 0 -0.15872337059016961 0.43371668216126902 0 -0.14060379189995251 0.42777227819034042 0 -0.14060379189995251 0.42777227819034042 0 -0.12698454915394841 0.41551890184662221 0 -0.1229481333953132 0.43401422840074178 0 -0.14123504835269679 0.44903082488981139 0 -0.14060379189995251 0.42777227819034042 0 -0.1229481333953132 0.43401422840074178 0 -0.14218937418077951 0.41327625822845321 0 -0.12698454915394841 0.41551890184662221 0 -0.1380892577859196 0.39735304095804241 0 -0.14218937418077951 0.41327625822845321 0 -0.14060379189995251 0.42777227819034042 0 -0.12698454915394841 0.41551890184662221 0 -0.12698454915394841 0.41551890184662221 0 -0.1380892577859196 0.39735304095804241 0 -0.11481957540240351 0.40242378016165742 0 -0.1380892577859196 0.39735304095804241 0 -0.1231885418396135 0.38100346188845968 0 -0.11481957540240351 0.40242378016165742 0 -0.1380892577859196 0.39735304095804241 0 -0.14248917116482121 0.3842791941712328 0 -0.1231885418396135 0.38100346188845968 0 -0.14248917116482121 0.3842791941712328 0 -0.14600700625585511 0.37283905926158101 0 -0.1231885418396135 0.38100346188845968 0 -0.14600700625585511 0.37283905926158101 0 -0.1231885418396135 0.38100346188845968 0 -0.16644552711918659 0.38966420170487759 0 -0.1472034795388891 0.37771768539822193 0 -0.15193615875641739 0.38591772825457987 0 -0.14248917116482121 0.3842791941712328 0 -0.1472034795388891 0.37771768539822193 0 -0.15193615875641739 0.38591772825457987 0 -0.14248917116482121 0.3842791941712328 0 -0.1472034795388891 0.37771768539822193 0 -0.14600700625585511 0.37283905926158101 0 -0.15943721733057639 0.37721661767561082 0 -0.1472034795388891 0.37771768539822193 0 -0.14600700625585511 0.37283905926158101 0 -0.14248917116482121 0.3842791941712328 0 -0.15193615875641739 0.38591772825457987 0 -0.15160645720277291 0.39200983174398768 0 -0.16258687851705461 0.40101184546014462 0 -0.15177739049414651 0.40842723313150131 0 -0.1380892577859196 0.39735304095804241 0 -0.16258687851705461 0.40101184546014462 0 -0.1380892577859196 0.39735304095804241 0 -0.16258687851705461 0.40101184546014462 0 -0.1380892577859196 0.39735304095804241 0 -0.15160645720277291 0.39200983174398768 0 -0.1380892577859196 0.39735304095804241 0 -0.14248917116482121 0.3842791941712328 0 -0.15160645720277291 0.39200983174398768 0 -0.14225632453897069 0.35275970776681997 0 -0.14274903724601939 0.33556029503556251 0 -0.14978756033435309 0.34364279360161731 0 -0.14225632453897069 0.35275970776681997 0 -0.1520245205825396 0.35292875541263191 0 -0.14545415086065919 0.36216939668680342 0 -0.14225632453897069 0.35275970776681997 0 -0.1520245205825396 0.35292875541263191 0 -0.14978756033435309 0.34364279360161731 0 -0.1520245205825396 0.35292875541263191 0 -0.14978756033435309 0.34364279360161731 0 -0.16214041592599551 0.35003119387297282 0 -0.1520245205825396 0.35292875541263191 0 -0.15570926175244321 0.35942294694528398 0 -0.14545415086065919 0.36216939668680342 0 -0.15399897238526339 0.36477651488209212 0 -0.15570926175244321 0.35942294694528398 0 -0.14545415086065919 0.36216939668680342 0 -0.15399897238526339 0.36477651488209212 0 -0.14600700625585511 0.37283905926158101 0 -0.14545415086065919 0.36216939668680342 0 -0.14600700625585511 0.37283905926158101 0 -0.14545415086065919 0.36216939668680342 0 -0.13263628335058289 0.36300821359049179 0 -0.14600700625585511 0.37283905926158101 0 -0.13263628335058289 0.36300821359049179 0 -0.1231885418396135 0.38100346188845968 0 -0.14225632453897069 0.35275970776681997 0 -0.13263628335058289 0.36300821359049179 0 -0.1244443560129702 0.34789646739217978 0 -0.14225632453897069 0.35275970776681997 0 -0.14545415086065919 0.36216939668680342 0 -0.13263628335058289 0.36300821359049179 0 -0.14225632453897069 0.35275970776681997 0 -0.12991654548228729 0.3298391158075395 0 -0.1244443560129702 0.34789646739217978 0 -0.14225632453897069 0.35275970776681997 0 -0.12991654548228729 0.3298391158075395 0 -0.14225632453897069 0.35275970776681997 0 -0.12991654548228729 0.3298391158075395 0 -0.14274903724601939 0.33556029503556251 0 -0.12991654548228729 0.3298391158075395 0 -0.1404847072238197 0.32206863558297449 0 -0.14274903724601939 0.33556029503556251 0 -0.1404847072238197 0.32206863558297449 0 -0.14045968137533699 0.30895125096474929 0 -0.1175767664256038 0.30691852384825907 0 -0.12991654548228729 0.3298391158075395 0 -0.1404847072238197 0.32206863558297449 0 -0.1175767664256038 0.30691852384825907 0 -0.14766253503824789 0.31831771990746582 0 -0.15130004865066629 0.32949122241886108 0 -0.14045968137533699 0.30895125096474929 0 -0.14766253503824789 0.31831771990746582 0 -0.15490147548212169 0.3341744568902193 0 -0.14766253503824789 0.31831771990746582 0 -0.15490147548212169 0.3341744568902193 0 -0.15130004865066629 0.32949122241886108 0 -0.15130004865066629 0.32949122241886108 0 -0.14045968137533699 0.30895125096474929 0 -0.1404847072238197 0.32206863558297449 0 -0.15130004865066629 0.32949122241886108 0 -0.14045968137533699 0.30895125096474929 0 -0.14766253503824789 0.31831771990746582 0 -0.15490147548212169 0.3341744568902193 0 -0.1530418472163691 0.31224736524435898 0 -0.14766253503824789 0.31831771990746582 0 -0.1530418472163691 0.31224736524435898 0 -0.14045968137533699 0.30895125096474929 0 -0.15490147548212169 0.3341744568902193 0 -0.15130004865066629 0.32949122241886108 0 -0.16214041592599551 0.35003119387297282 0 -0.15130004865066629 0.32949122241886108 0 -0.14978756033435309 0.34364279360161731 0 -0.16214041592599551 0.35003119387297282 0 -0.14274903724601939 0.33556029503556251 0 -0.15130004865066629 0.32949122241886108 0 -0.14978756033435309 0.34364279360161731 0 -0.1404847072238197 0.32206863558297449 0 -0.14274903724601939 0.33556029503556251 0 -0.15130004865066629 0.32949122241886108 0 -0.15130004865066629 0.32949122241886108 0 -0.16214041592599551 0.35003119387297282 0 -0.15490147548212169 0.3341744568902193 0 -0.1639708747317033 0.33737430097950499 0 -0.16214041592599551 0.35003119387297282 0 -0.15490147548212169 0.3341744568902193 0 -0.16214041592599551 0.35003119387297282 0 -0.1639708747317033 0.33737430097950499 0 -0.16556524377364151 0.32306654993140321 0 -0.1719508105147628 0.33439281956512018 0 -0.1639708747317033 0.33737430097950499 0 -0.1719508105147628 0.33439281956512018 0 -0.17312411038173409 0.34469983820554401 0 -0.1639708747317033 0.33737430097950499 0 -0.16556524377364151 0.32306654993140321 0 -0.1530418472163691 0.31224736524435898 0 -0.1639708747317033 0.33737430097950499 0 -0.1530418472163691 0.31224736524435898 0 -0.15490147548212169 0.3341744568902193 0 -0.1639708747317033 0.33737430097950499 0 -0.1530418472163691 0.31224736524435898 0 -0.16556524377364151 0.32306654993140321 0 -0.16744993839739941 0.312208289680242 0 -0.1530418472163691 0.31224736524435898 0 -0.16556524377364151 0.32306654993140321 0 -0.17679941934996449 0.32477540735374999 0 -0.1719508105147628 0.33439281956512018 0 -0.16556524377364151 0.32306654993140321 0 -0.17679941934996449 0.32477540735374999 0 -0.16744993839739941 0.312208289680242 0 -0.17679941934996449 0.32477540735374999 0 -0.18580986440225461 0.30973292500826888 0 -0.16744993839739941 0.312208289680242 0 -0.17679941934996449 0.32477540735374999 0 -0.18976917464103549 0.32884481903598289 0 -0.18580986440225461 0.30973292500826888 0 -0.17679941934996449 0.32477540735374999 0 -0.1802944043367706 0.34204800135539881 0 -0.18976917464103549 0.32884481903598289 0 -0.17679941934996449 0.32477540735374999 0 -0.1802944043367706 0.34204800135539881 0 -0.17679941934996449 0.32477540735374999 0 -0.1719508105147628 0.33439281956512018 0 -0.1802944043367706 0.34204800135539881 0 -0.1719508105147628 0.33439281956512018 0 -0.1802944043367706 0.34204800135539881 0 -0.17312411038173409 0.34469983820554401 0 -0.1802944043367706 0.34204800135539881 0 -0.18378938932357691 0.35932059535704758 0 -0.1802944043367706 0.34204800135539881 0 -0.18378938932357691 0.35932059535704758 0 -0.1774807904103301 0.35193707629855708 0 -0.1802944043367706 0.34204800135539881 0 -0.18378938932357691 0.35932059535704758 0 -0.19244192740066501 0.34482615097782071 0 -0.1774807904103301 0.35193707629855708 0 -0.17312411038173409 0.34469983820554401 0 -0.174899902247036 0.36250123671465151 0 -0.18378938932357691 0.35932059535704758 0 -0.1774807904103301 0.35193707629855708 0 -0.174899902247036 0.36250123671465151 0 -0.1802944043367706 0.34204800135539881 0 -0.1774807904103301 0.35193707629855708 0 -0.17312411038173409 0.34469983820554401 0 -0.1639708747317033 0.33737430097950499 0 -0.16214041592599551 0.35003119387297282 0 -0.174899902247036 0.36250123671465151 0 -0.1639708747317033 0.33737430097950499 0 -0.174899902247036 0.36250123671465151 0 -0.1639708747317033 0.33737430097950499 0 -0.17312411038173409 0.34469983820554401 0 -0.174899902247036 0.36250123671465151 0 -0.16214041592599551 0.35003119387297282 0 -0.168825470672096 0.36467465663470022 0 -0.174899902247036 0.36250123671465151 0 -0.16214041592599551 0.35003119387297282 0 -0.168825470672096 0.36467465663470022 0 -0.1520245205825396 0.35292875541263191 0 -0.15570926175244321 0.35942294694528398 0 -0.16214041592599551 0.35003119387297282 0 -0.15570926175244321 0.35942294694528398 0 -0.16214041592599551 0.35003119387297282 0 -0.168825470672096 0.36467465663470022 0 -0.15399897238526339 0.36477651488209212 0 -0.14600700625585511 0.37283905926158101 0 -0.168825470672096 0.36467465663470022 0 -0.14600700625585511 0.37283905926158101 0 -0.168825470672096 0.36467465663470022 0 -0.15943721733057639 0.37721661767561082 0 -0.14600700625585511 0.37283905926158101 0 -0.168825470672096 0.36467465663470022 0 -0.15399897238526339 0.36477651488209212 0 -0.15570926175244321 0.35942294694528398 0 -0.168825470672096 0.36467465663470022 0 -0.168825470672096 0.36467465663470022 0 -0.174899902247036 0.36250123671465151 0 -0.16799118445191261 0.37867454083457608 0 -0.15943721733057639 0.37721661767561082 0 -0.168825470672096 0.36467465663470022 0 -0.17725652268579109 0.38314268732311579 0 -0.168825470672096 0.36467465663470022 0 -0.18825749407253919 0.38140245252582272 0 -0.18378938932357691 0.35932059535704758 0 -0.17725652268579109 0.38314268732311579 0 -0.168825470672096 0.36467465663470022 0 -0.174899902247036 0.36250123671465151 0 -0.18825749407253919 0.38140245252582272 0 -0.18378938932357691 0.35932059535704758 0 -0.174899902247036 0.36250123671465151 0 -0.18381275053426979 0.38299277320462433 0 -0.174899902247036 0.36250123671465151 0 -0.18378938932357691 0.35932059535704758 0 -0.174899902247036 0.36250123671465151 0 -0.18825749407253919 0.38140245252582272 0 -0.18378938932357691 0.35932059535704758 0 -0.1938985746147619 0.36770739597489849 0 -0.18378938932357691 0.35932059535704758 0 -0.1938985746147619 0.36770739597489849 0 -0.19422044082423809 0.35558838521706598 0 -0.1938985746147619 0.36770739597489849 0 -0.20197720040135739 0.36346215922063008 0 -0.19422044082423809 0.35558838521706598 0 -0.2007841351831213 0.37706751169779218 0 -0.1938985746147619 0.36770739597489849 0 -0.20197720040135739 0.36346215922063008 0 -0.18378938932357691 0.35932059535704758 0 -0.19244192740066501 0.34482615097782071 0 -0.19422044082423809 0.35558838521706598 0 -0.18378938932357691 0.35932059535704758 0 -0.19422044082423809 0.35558838521706598 0 -0.20197720040135739 0.36346215922063008 0 -0.19422044082423809 0.35558838521706598 0 -0.20662518813336231 0.34991629955698772 0 -0.19244192740066501 0.34482615097782071 0 -0.19422044082423809 0.35558838521706598 0 -0.20662518813336231 0.34991629955698772 0 -0.20662518813336231 0.34991629955698772 0 -0.22701596457274009 0.34970004212423078 0 -0.2127021125058613 0.33670139239179908 0 -0.20662518813336231 0.34991629955698772 0 -0.21435766325130329 0.36703120365640601 0 -0.22701596457274009 0.34970004212423078 0 -0.20197720040135739 0.36346215922063008 0 -0.20662518813336231 0.34991629955698772 0 -0.21435766325130329 0.36703120365640601 0 -0.2007841351831213 0.37706751169779218 0 -0.20197720040135739 0.36346215922063008 0 -0.21435766325130329 0.36703120365640601 0 -0.23435415281621999 0.37673792585192117 0 -0.21435766325130329 0.36703120365640601 0 -0.22701596457274009 0.34970004212423078 0 -0.23435415281621999 0.37673792585192117 0 -0.22701596457274009 0.34970004212423078 0 -0.22701596457274009 0.34970004212423078 0 -0.2426245612377603 0.35793202738770852 0 -0.24788578750447479 0.34198863989594591 0 -0.23435415281621999 0.37673792585192117 0 -0.22701596457274009 0.34970004212423078 0 -0.2426245612377603 0.35793202738770852 0 -0.2510192599286124 0.37030951016049318 0 -0.23435415281621999 0.37673792585192117 0 -0.2510192599286124 0.37030951016049318 0 -0.23435415281621999 0.37673792585192117 0 -0.2426245612377603 0.35793202738770852 0 -0.25466701898960498 0.32333134410044923 0 -0.22808720796794449 0.3200961853228243 0 -0.2437587580671213 0.30431487157845788 0 -0.24788578750447479 0.34198863989594591 0 -0.22808720796794449 0.3200961853228243 0 -0.25466701898960498 0.32333134410044923 0 -0.24788578750447479 0.34198863989594591 0 -0.22808720796794449 0.3200961853228243 0 -0.22701596457274009 0.34970004212423078 0 -0.21967777632925761 0.32266215839654111 0 -0.22701596457274009 0.34970004212423078 0 -0.21967777632925761 0.32266215839654111 0 -0.2127021125058613 0.33670139239179908 0 -0.22701596457274009 0.34970004212423078 0 -0.24788578750447479 0.34198863989594591 0 -0.22808720796794449 0.3200961853228243 0 -0.22701596457274009 0.34970004212423078 0 -0.21967777632925761 0.32266215839654111 0 -0.22808720796794449 0.3200961853228243 0 -0.21967777632925761 0.32266215839654111 0 -0.2090339103504599 0.32704575102125599 0 -0.20218142254595059 0.31709274156435219 0 -0.21967777632925761 0.32266215839654111 0 -0.22808720796794449 0.3200961853228243 0 -0.20828862843141421 0.29820373074970269 0 -0.21967777632925761 0.32266215839654111 0 -0.20218142254595059 0.31709274156435219 0 -0.20828862843141421 0.29820373074970269 0 -0.2090339103504599 0.32704575102125599 0 -0.20108800981060779 0.33459368795630678 0 -0.20218142254595059 0.31709274156435219 0 -0.21967777632925761 0.32266215839654111 0 -0.2090339103504599 0.32704575102125599 0 -0.2127021125058613 0.33670139239179908 0 -0.2090339103504599 0.32704575102125599 0 -0.2127021125058613 0.33670139239179908 0 -0.20108800981060779 0.33459368795630678 0 -0.20662518813336231 0.34991629955698772 0 -0.2127021125058613 0.33670139239179908 0 -0.20108800981060779 0.33459368795630678 0 -0.1802944043367706 0.34204800135539881 0 -0.19244192740066501 0.34482615097782071 0 -0.18976917464103549 0.32884481903598289 0 -0.19244192740066501 0.34482615097782071 0 -0.18976917464103549 0.32884481903598289 0 -0.20108800981060779 0.33459368795630678 0 -0.19244192740066501 0.34482615097782071 0 -0.20662518813336231 0.34991629955698772 0 -0.20108800981060779 0.33459368795630678 0 -0.18976917464103549 0.32884481903598289 0 -0.20108800981060779 0.33459368795630678 0 -0.20218142254595059 0.31709274156435219 0 -0.18976917464103549 0.32884481903598289 0 -0.20218142254595059 0.31709274156435219 0 -0.18580986440225461 0.30973292500826888 0 -0.18918376606995649 0.29237865038550992 0 -0.20828862843141421 0.29820373074970269 0 -0.18580986440225461 0.30973292500826888 0 -0.20218142254595059 0.31709274156435219 0 -0.20828862843141421 0.29820373074970269 0 -0.18580986440225461 0.30973292500826888 0 -0.18918376606995649 0.29237865038550992 0 -0.2011638342820076 0.2785041880420891 0 -0.17988451572283759 0.27473761229139237 0 -0.18918376606995649 0.29237865038550992 0 -0.20828862843141421 0.29820373074970269 0 -0.2011638342820076 0.2785041880420891 0 -0.20828862843141421 0.29820373074970269 0 -0.2224975524634554 0.27661678134946749 0 -0.2011638342820076 0.2785041880420891 0 -0.22808720796794449 0.3200961853228243 0 -0.20828862843141421 0.29820373074970269 0 -0.22808720796794449 0.3200961853228243 0 -0.20828862843141421 0.29820373074970269 0 -0.22873148824896469 0.29676748906781042 0 -0.22808720796794449 0.3200961853228243 0 -0.22873148824896469 0.29676748906781042 0 -0.2437587580671213 0.30431487157845788 0 -0.20828862843141421 0.29820373074970269 0 -0.22873148824896469 0.29676748906781042 0 -0.2224975524634554 0.27661678134946749 0 -0.22873148824896469 0.29676748906781042 0 -0.24102529431488789 0.28460587633859957 0 -0.2224975524634554 0.27661678134946749 0 -0.22873148824896469 0.29676748906781042 0 -0.24102529431488789 0.28460587633859957 0 -0.2437587580671213 0.30431487157845788 0 -0.25272808453305701 0.2914010939671996 0 -0.24102529431488789 0.28460587633859957 0 -0.2437587580671213 0.30431487157845788 0 -0.25112824550194612 0.24737796623540509 0 -0.24105249241119639 0.26719227896055903 0 -0.22890163485483259 0.25391228692442308 0 -0.2590855104173882 0.27468719806238201 0 -0.24102529431488789 0.28460587633859957 0 -0.24105249241119639 0.26719227896055903 0 -0.24102529431488789 0.28460587633859957 0 -0.24105249241119639 0.26719227896055903 0 -0.2224975524634554 0.27661678134946749 0 -0.24105249241119639 0.26719227896055903 0 -0.2224975524634554 0.27661678134946749 0 -0.22890163485483259 0.25391228692442308 0 -0.2224975524634554 0.27661678134946749 0 -0.22890163485483259 0.25391228692442308 0 -0.20525995957715831 0.26004479516293327 0 -0.22890163485483259 0.25391228692442308 0 -0.20525995957715831 0.26004479516293327 0 -0.2142160632021371 0.24201392301580579 0 -0.2224975524634554 0.27661678134946749 0 -0.20525995957715831 0.26004479516293327 0 -0.2011638342820076 0.2785041880420891 0 -0.20525995957715831 0.26004479516293327 0 -0.2011638342820076 0.2785041880420891 0 -0.17988451572283759 0.27473761229139237 0 -0.20525995957715831 0.26004479516293327 0 -0.17988451572283759 0.27473761229139237 0 -0.1889970439344065 0.24876042874668841 0 -0.20525995957715831 0.26004479516293327 0 -0.1889970439344065 0.24876042874668841 0 -0.2142160632021371 0.24201392301580579 0 -0.17049065332512139 0.25809097671166592 0 -0.17988451572283759 0.27473761229139237 0 -0.1889970439344065 0.24876042874668841 0 -0.17988451572283759 0.27473761229139237 0 -0.1889970439344065 0.24876042874668841 0 -0.17049065332512139 0.25809097671166592 0 -0.15672087874220531 0.25602072800912468 0 -0.16747294713095859 0.24201158361404551 0 -0.17049065332512139 0.25809097671166592 0 -0.15672087874220531 0.25602072800912468 0 -0.1593778810951991 0.2689245308970783 0 -0.17049065332512139 0.25809097671166592 0 -0.1593778810951991 0.2689245308970783 0 -0.17988451572283759 0.27473761229139237 0 -0.1593778810951991 0.2689245308970783 0 -0.17988451572283759 0.27473761229139237 0 -0.15879467078699361 0.28347747927986311 0 -0.17988451572283759 0.27473761229139237 0 -0.1707719875112686 0.30071479583609639 0 -0.18918376606995649 0.29237865038550992 0 -0.17988451572283759 0.27473761229139237 0 -0.1707719875112686 0.30071479583609639 0 -0.18580986440225461 0.30973292500826888 0 -0.16744993839739941 0.312208289680242 0 -0.1707719875112686 0.30071479583609639 0 -0.18918376606995649 0.29237865038550992 0 -0.18580986440225461 0.30973292500826888 0 -0.1707719875112686 0.30071479583609639 0 -0.1607425971532481 0.3052382768063252 0 -0.15530064844508601 0.29632462098568552 0 -0.1530418472163691 0.31224736524435898 0 -0.16744993839739941 0.312208289680242 0 -0.1707719875112686 0.30071479583609639 0 -0.1607425971532481 0.3052382768063252 0 -0.1707719875112686 0.30071479583609639 0 -0.1607425971532481 0.3052382768063252 0 -0.15530064844508601 0.29632462098568552 0 -0.16744993839739941 0.312208289680242 0 -0.1607425971532481 0.3052382768063252 0 -0.1530418472163691 0.31224736524435898 0 -0.1707719875112686 0.30071479583609639 0 -0.15879467078699361 0.28347747927986311 0 -0.15530064844508601 0.29632462098568552 0 -0.17988451572283759 0.27473761229139237 0 -0.1707719875112686 0.30071479583609639 0 -0.15879467078699361 0.28347747927986311 0 -0.15879467078699361 0.28347747927986311 0 -0.14211281970103501 0.28712042950921318 0 -0.15530064844508601 0.29632462098568552 0 -0.14211281970103501 0.28712042950921318 0 -0.1530418472163691 0.31224736524435898 0 -0.14045968137533699 0.30895125096474929 0 -0.14211281970103501 0.28712042950921318 0 -0.1530418472163691 0.31224736524435898 0 -0.14211281970103501 0.28712042950921318 0 -0.15530064844508601 0.29632462098568552 0 -0.1530418472163691 0.31224736524435898 0 -0.14045968137533699 0.30895125096474929 0 -0.1296193141000076 0.28841127951063761 0 -0.14045968137533699 0.30895125096474929 0 -0.1296193141000076 0.28841127951063761 0 -0.1175767664256038 0.30691852384825907 0 -0.14211281970103501 0.28712042950921318 0 -0.14045968137533699 0.30895125096474929 0 -0.1296193141000076 0.28841127951063761 0 -0.1296193141000076 0.28841127951063761 0 -0.131183792185701 0.26199349377406722 0 -0.1188915068018413 0.27628302703230351 0 -0.14211281970103501 0.28712042950921318 0 -0.131183792185701 0.26199349377406722 0 -0.14532017224653521 0.27304288615971278 0 -0.14211281970103501 0.28712042950921318 0 -0.1296193141000076 0.28841127951063761 0 -0.131183792185701 0.26199349377406722 0 -0.14211281970103501 0.28712042950921318 0 -0.131183792185701 0.26199349377406722 0 -0.131183792185701 0.26199349377406722 0 -0.13489390734445969 0.25078945770044098 0 -0.1241683392571685 0.2458642604419301 0 -0.131183792185701 0.26199349377406722 0 -0.1241683392571685 0.2458642604419301 0 -0.13489390734445969 0.25078945770044098 0 -0.14023355629529119 0.26131483312900661 0 -0.1453982530813159 0.25269474188127838 0 -0.131183792185701 0.26199349377406722 0 -0.14023355629529119 0.26131483312900661 0 -0.14532017224653521 0.27304288615971278 0 -0.131183792185701 0.26199349377406722 0 -0.13489390734445969 0.25078945770044098 0 -0.14023355629529119 0.26131483312900661 0 -0.131183792185701 0.26199349377406722 0 -0.14023355629529119 0.26131483312900661 0 -0.14023355629529119 0.26131483312900661 0 -0.1453982530813159 0.25269474188127838 0 -0.1492999946523216 0.26320767975970338 0 -0.15672087874220531 0.25602072800912468 0 -0.1453982530813159 0.25269474188127838 0 -0.1492999946523216 0.26320767975970338 0 -0.15672087874220531 0.25602072800912468 0 -0.1453982530813159 0.25269474188127838 0 -0.152175478241104 0.24160082534929089 0 -0.15672087874220531 0.25602072800912468 0 -0.1593778810951991 0.2689245308970783 0 -0.1492999946523216 0.26320767975970338 0 -0.1593778810951991 0.2689245308970783 0 -0.1492999946523216 0.26320767975970338 0 -0.14532017224653521 0.27304288615971278 0 -0.15879467078699361 0.28347747927986311 0 -0.14211281970103501 0.28712042950921318 0 -0.14532017224653521 0.27304288615971278 0 -0.1593778810951991 0.2689245308970783 0 -0.15879467078699361 0.28347747927986311 0 -0.14532017224653521 0.27304288615971278 0 -0.14023355629529119 0.26131483312900661 0 -0.1492999946523216 0.26320767975970338 0 -0.14532017224653521 0.27304288615971278 0 -0.095698704756705097 0.27393852634868521 0 -0.1052369873689203 0.28399793188897859 0 -0.08949699877361289 0.28116889315890381 0 -0.095698704756705097 0.27393852634868521 0 -0.1079505309681128 0.26373580438612843 0 -0.1052369873689203 0.28399793188897859 0 -0.095698704756705097 0.27393852634868521 0 -0.1079505309681128 0.26373580438612843 0 -0.084717269750524501 0.26547811499818957 0 -0.095809102738464907 0.25760891920083723 0 -0.1079505309681128 0.26373580438612843 0 -0.084717269750524501 0.26547811499818957 0 -0.1079505309681128 0.26373580438612843 0 -0.084717269750524501 0.26547811499818957 0 -0.095809102738464907 0.25760891920083723 0 -0.1079505309681128 0.26373580438612843 0 -0.1078715894517504 0.2482079508186158 0 -0.1079505309681128 0.26373580438612843 0 -0.1078715894517504 0.2482079508186158 0 -0.1241683392571685 0.2458642604419301 0 -0.131183792185701 0.26199349377406722 0 -0.1079505309681128 0.26373580438612843 0 -0.1241683392571685 0.2458642604419301 0 -0.131183792185701 0.26199349377406722 0 -0.1079505309681128 0.26373580438612843 0 -0.131183792185701 0.26199349377406722 0 -0.1079505309681128 0.26373580438612843 0 -0.1188915068018413 0.27628302703230351 0 -0.1079505309681128 0.26373580438612843 0 -0.1188915068018413 0.27628302703230351 0 -0.1052369873689203 0.28399793188897859 0 -0.1296193141000076 0.28841127951063761 0 -0.1188915068018413 0.27628302703230351 0 -0.1178311436740932 0.2889026905700447 0 -0.1296193141000076 0.28841127951063761 0 -0.1178311436740932 0.2889026905700447 0 -0.1175767664256038 0.30691852384825907 0 -0.1178311436740932 0.2889026905700447 0 -0.1175767664256038 0.30691852384825907 0 -0.1052369873689203 0.28399793188897859 0 -0.1175767664256038 0.30691852384825907 0 -0.1052369873689203 0.28399793188897859 0 -0.1188915068018413 0.27628302703230351 0 -0.1178311436740932 0.2889026905700447 0 -0.1052369873689203 0.28399793188897859 0 -0.1175767664256038 0.30691852384825907 0 -0.1014894396581047 0.301387115733035 0 -0.1043129731773947 0.31325415198905959 0 -0.1175767664256038 0.30691852384825907 0 -0.1014894396581047 0.301387115733035 0 -0.1052369873689203 0.28399793188897859 0 -0.1014894396581047 0.301387115733035 0 -0.087485273677074982 0.29254341821366381 0 -0.092835197641529615 0.31022155272521362 0 -0.1014894396581047 0.301387115733035 0 -0.092835197641529615 0.31022155272521362 0 -0.1043129731773947 0.31325415198905959 0 -0.1052369873689203 0.28399793188897859 0 -0.087485273677074982 0.29254341821366381 0 -0.08949699877361289 0.28116889315890381 0 -0.1014894396581047 0.301387115733035 0 -0.1052369873689203 0.28399793188897859 0 -0.087485273677074982 0.29254341821366381 0 -0.087485273677074982 0.29254341821366381 0 -0.082069205305637882 0.28447160890358408 0 -0.08949699877361289 0.28116889315890381 0 -0.087485273677074982 0.29254341821366381 0 -0.082069205305637882 0.28447160890358408 0 -0.071292593144425057 0.28757734924400069 0 -0.082069205305637882 0.28447160890358408 0 -0.071292593144425057 0.28757734924400069 0 -0.081913819700016627 0.27540393379661821 0 -0.087485273677074982 0.29254341821366381 0 -0.092835197641529615 0.31022155272521362 0 -0.081066132027754451 0.30930935769167439 0 -0.087485273677074982 0.29254341821366381 0 -0.081066132027754451 0.30930935769167439 0 -0.072158910790328504 0.30368910411103389 0 -0.087485273677074982 0.29254341821366381 0 -0.072158910790328504 0.30368910411103389 0 -0.058735165555788817 0.29774167458097872 0 -0.081066132027754451 0.30930935769167439 0 -0.072158910790328504 0.30368910411103389 0 -0.070401453380278173 0.31298926011531031 0 -0.072158910790328504 0.30368910411103389 0 -0.058735165555788817 0.29774167458097872 0 -0.060282081981738241 0.30910579778260311 0 -0.072158910790328504 0.30368910411103389 0 -0.060282081981738241 0.30910579778260311 0 -0.070401453380278173 0.31298926011531031 0 -0.071292593144425057 0.28757734924400069 0 -0.081913819700016627 0.27540393379661821 0 -0.055228909334576942 0.28585672155126662 0 -0.087485273677074982 0.29254341821366381 0 -0.071292593144425057 0.28757734924400069 0 -0.058735165555788817 0.29774167458097872 0 -0.087485273677074982 0.29254341821366381 0 -0.058735165555788817 0.29774167458097872 0 -0.081913819700016627 0.27540393379661821 0 -0.084717269750524501 0.26547811499818957 0 -0.061484008532936202 0.26722042561025078 0 -0.081913819700016627 0.27540393379661821 0 -0.057729777439921838 0.27632823377277738 0 -0.055228909334576942 0.28585672155126662 0 -0.084717269750524501 0.26547811499818957 0 -0.061484008532936202 0.26722042561025078 0 -0.081913819700016627 0.27540393379661821 0 -0.055228909334576942 0.28585672155126662 0 -0.081913819700016627 0.27540393379661821 0 -0.057729777439921838 0.27632823377277738 0 -0.061484008532936202 0.26722042561025078 0 -0.082069205305637882 0.28447160890358408 0 -0.081913819700016627 0.27540393379661821 0 -0.08949699877361289 0.28116889315890381 0 -0.095698704756705097 0.27393852634868521 0 -0.081913819700016627 0.27540393379661821 0 -0.084717269750524501 0.26547811499818957 0 -0.095698704756705097 0.27393852634868521 0 -0.081913819700016627 0.27540393379661821 0 -0.08949699877361289 0.28116889315890381 0 -0.095809102738464907 0.25760891920083723 0 -0.084717269750524501 0.26547811499818957 0 -0.094277087966367218 0.24409574295439129 0 -0.084717269750524501 0.26547811499818957 0 -0.071401289604095586 0.2584564587989906 0 -0.094277087966367218 0.24409574295439129 0 -0.071401289604095586 0.2584564587989906 0 -0.094277087966367218 0.24409574295439129 0 -0.071401289604095586 0.2584564587989906 0 -0.055668872077091237 0.25585847493162972 0 -0.066128925090698065 0.2450976049894831 0 -0.084717269750524501 0.26547811499818957 0 -0.071401289604095586 0.2584564587989906 0 -0.061484008532936202 0.26722042561025078 0 -0.071401289604095586 0.2584564587989906 0 -0.055668872077091237 0.25585847493162972 0 -0.048525491241823947 0.2728171746435899 0 -0.071401289604095586 0.2584564587989906 0 -0.048525491241823947 0.2728171746435899 0 -0.071401289604095586 0.2584564587989906 0 -0.061484008532936202 0.26722042561025078 0 -0.048525491241823947 0.2728171746435899 0 -0.057729777439921838 0.27632823377277738 0 -0.061484008532936202 0.26722042561025078 0 -0.048525491241823947 0.2728171746435899 0 -0.057729777439921838 0.27632823377277738 0 -0.048525491241823947 0.2728171746435899 0 -0.04731035818527117 0.28000706065874797 0 -0.057729777439921838 0.27632823377277738 0 -0.04731035818527117 0.28000706065874797 0 -0.055228909334576942 0.28585672155126662 0 -0.048525491241823947 0.2728171746435899 0 -0.035594404834515592 0.27691312382061828 0 -0.030271773539098049 0.26228359462966783 0 -0.04731035818527117 0.28000706065874797 0 -0.035594404834515592 0.27691312382061828 0 -0.038985800479470312 0.28501536504104391 0 -0.048525491241823947 0.2728171746435899 0 -0.04731035818527117 0.28000706065874797 0 -0.035594404834515592 0.27691312382061828 0 -0.055668872077091237 0.25585847493162972 0 -0.030271773539098049 0.26228359462966783 0 -0.041019634032879573 0.2480391268138542 0 -0.055668872077091237 0.25585847493162972 0 -0.030271773539098049 0.26228359462966783 0 -0.055668872077091237 0.25585847493162972 0 -0.048525491241823947 0.2728171746435899 0 -0.030271773539098049 0.26228359462966783 0 -0.030271773539098049 0.26228359462966783 0 -0.041019634032879573 0.2480391268138542 0 -0.028653647088355529 0.24548274531580991 0 -0.030271773539098049 0.26228359462966783 0 -0.0048746750011047588 0.26870871432770588 0 -0.030271773539098049 0.26228359462966783 0 -0.012914965349162741 0.24654269738898041 0 -0.028653647088355529 0.24548274531580991 0 -0.030271773539098049 0.26228359462966783 0 -0.0048746750011047588 0.26870871432770588 0 -0.012914965349162741 0.24654269738898041 0 -0.035594404834515592 0.27691312382061828 0 -0.030271773539098049 0.26228359462966783 0 -0.022636805328955088 0.27895272869235671 0 -0.030271773539098049 0.26228359462966783 0 -0.022636805328955088 0.27895272869235671 0 -0.0048746750011047588 0.26870871432770588 0 -0.035594404834515592 0.27691312382061828 0 -0.022636805328955088 0.27895272869235671 0 -0.02950590678304936 0.28520748937687762 0 -0.022636805328955088 0.27895272869235671 0 -0.0048746750011047588 0.26870871432770588 0 -0.01576596764916521 0.29097475963665992 0 -0.0048746750011047588 0.26870871432770588 0 -0.012914965349162741 0.24654269738898041 0 0.0057306298636677841 0.25416327821407941 0 -0.01301139893193414 0.31222649494844867 0 -0.001859088603697566 0.30676229706056363 0 -0.029985057434502551 0.30293993094829358 0 -0.0084487779123699897 0.30273045497141321 0 -0.001859088603697566 0.30676229706056363 0 -0.028543998969137251 0.2963095093059151 0 -0.001859088603697566 0.30676229706056363 0 -0.028543998969137251 0.2963095093059151 0 -0.01301139893193414 0.31222649494844867 0 -0.0061721987345446302 0.3120046379562601 0 -0.001859088603697566 0.30676229706056363 0 -0.0084487779123699897 0.30273045497141321 0 -0.001859088603697566 0.30676229706056363 0 0.00098840718856655382 0.30623072353262931 0 -0.0061721987345446302 0.3120046379562601 0 -0.0023088821566531652 0.31195025322292619 0 -0.001859088603697566 0.30676229706056363 0 -0.0023088821566531652 0.31195025322292619 0 -0.001859088603697566 0.30676229706056363 0 0.0003285941805424841 0.31182975685121361 0 -0.001859088603697566 0.30676229706056363 0 0.0003285941805424841 0.31182975685121361 0 0.0011096224747733779 0.30865582514363021 0 -0.0084487779123699897 0.30273045497141321 0 0.00098840718856655382 0.30623072353262931 0 0.0044096845543389563 0.30474812790938349 0 -0.0048746750011047588 0.26870871432770588 0 -0.01576596764916521 0.29097475963665992 0 6.6716039502322247e-05 0.28721651995819358 0 -0.0084487779123699897 0.30273045497141321 0 -0.01576596764916521 0.29097475963665992 0 6.6716039502322247e-05 0.28721651995819358 0 -0.0084487779123699897 0.30273045497141321 0 -0.01576596764916521 0.29097475963665992 0 -0.028543998969137251 0.2963095093059151 0 -0.01576596764916521 0.29097475963665992 0 -0.023909153187102721 0.28866141320561911 0 -0.028543998969137251 0.2963095093059151 0 -0.022636805328955088 0.27895272869235671 0 -0.01576596764916521 0.29097475963665992 0 -0.023909153187102721 0.28866141320561911 0 -0.022636805328955088 0.27895272869235671 0 -0.023909153187102721 0.28866141320561911 0 -0.02950590678304936 0.28520748937687762 0 -0.023909153187102721 0.28866141320561911 0 -0.02950590678304936 0.28520748937687762 0 -0.028543998969137251 0.2963095093059151 0 -0.01301139893193414 0.31222649494844867 0 -0.029985057434502551 0.30293993094829358 0 -0.024191582075204391 0.31284051090460341 0 -0.001859088603697566 0.30676229706056363 0 -0.028543998969137251 0.2963095093059151 0 -0.029985057434502551 0.30293993094829358 0 -0.001859088603697566 0.30676229706056363 0 -0.029985057434502551 0.30293993094829358 0 -0.029985057434502551 0.30293993094829358 0 -0.030391858303034119 0.31087189441679158 0 -0.024191582075204391 0.31284051090460341 0 -0.029985057434502551 0.30293993094829358 0 -0.030391858303034119 0.31087189441679158 0 -0.036343985757042507 0.31177719934850001 0 -0.029985057434502551 0.30293993094829358 0 -0.043123282823501391 0.29571195909661352 0 -0.058735165555788817 0.29774167458097872 0 -0.029985057434502551 0.30293993094829358 0 -0.045908265051449113 0.30890320888449208 0 -0.058735165555788817 0.29774167458097872 0 -0.029985057434502551 0.30293993094829358 0 -0.036343985757042507 0.31177719934850001 0 -0.045908265051449113 0.30890320888449208 0 -0.029985057434502551 0.30293993094829358 0 -0.058735165555788817 0.29774167458097872 0 -0.028543998969137251 0.2963095093059151 0 -0.029985057434502551 0.30293993094829358 0 -0.043123282823501391 0.29571195909661352 0 -0.028543998969137251 0.2963095093059151 0 -0.055228909334576942 0.28585672155126662 0 -0.028543998969137251 0.2963095093059151 0 -0.043123282823501391 0.29571195909661352 0 -0.055228909334576942 0.28585672155126662 0 -0.028543998969137251 0.2963095093059151 0 -0.038985800479470312 0.28501536504104391 0 -0.055228909334576942 0.28585672155126662 0 -0.02950590678304936 0.28520748937687762 0 -0.028543998969137251 0.2963095093059151 0 -0.038985800479470312 0.28501536504104391 0 -0.035594404834515592 0.27691312382061828 0 -0.02950590678304936 0.28520748937687762 0 -0.038985800479470312 0.28501536504104391 0 -0.04731035818527117 0.28000706065874797 0 -0.038985800479470312 0.28501536504104391 0 -0.055228909334576942 0.28585672155126662 0 -0.071292593144425057 0.28757734924400069 0 -0.055228909334576942 0.28585672155126662 0 -0.058735165555788817 0.29774167458097872 0 -0.043123282823501391 0.29571195909661352 0 -0.055228909334576942 0.28585672155126662 0 -0.058735165555788817 0.29774167458097872 0 -0.045908265051449113 0.30890320888449208 0 -0.060282081981738241 0.30910579778260311 0 -0.052601442271167878 0.31568739863931322 0 -0.045908265051449113 0.30890320888449208 0 -0.058735165555788817 0.29774167458097872 0 -0.060282081981738241 0.30910579778260311 0 -0.060282081981738241 0.30910579778260311 0 -0.061975373111656379 0.31714397421103763 0 -0.052601442271167878 0.31568739863931322 0 -0.061975373111656379 0.31714397421103763 0 -0.054328652256545748 0.32419007924582688 0 -0.052601442271167878 0.31568739863931322 0 -0.061975373111656379 0.31714397421103763 0 -0.061580574312045111 0.32411091857894209 0 -0.054328652256545748 0.32419007924582688 0 -0.061580574312045111 0.32411091857894209 0 -0.054328652256545748 0.32419007924582688 0 -0.062503865210111906 0.3308570435476848 0 -0.054328652256545748 0.32419007924582688 0 -0.045426235595717283 0.33060807972513029 0 -0.042436712372600958 0.31978518852746718 0 -0.054328652256545748 0.32419007924582688 0 -0.052601442271167878 0.31568739863931322 0 -0.042436712372600958 0.31978518852746718 0 -0.045908265051449113 0.30890320888449208 0 -0.052601442271167878 0.31568739863931322 0 -0.042436712372600958 0.31978518852746718 0 -0.039651626712925117 0.34312441329421961 0 -0.068391481171790461 0.3432485516208591 0 -0.057416043634189243 0.33631194464855901 0 -0.039651626712925117 0.34312441329421961 0 -0.068391481171790461 0.3432485516208591 0 -0.057416043634189243 0.33631194464855901 0 -0.039651626712925117 0.34312441329421961 0 -0.045426235595717283 0.33060807972513029 0 -0.054328652256545748 0.32419007924582688 0 -0.057416043634189243 0.33631194464855901 0 -0.062503865210111906 0.3308570435476848 0 -0.057416043634189243 0.33631194464855901 0 -0.064015486419784093 0.33789848117167248 0 -0.062503865210111906 0.3308570435476848 0 -0.054328652256545748 0.32419007924582688 0 -0.057416043634189243 0.33631194464855901 0 -0.045426235595717283 0.33060807972513029 0 -0.039651626712925117 0.34312441329421961 0 -0.045426235595717283 0.33060807972513029 0 -0.031624175082964633 0.32987469260101321 0 -0.036343985757042507 0.31177719934850001 0 -0.045908265051449113 0.30890320888449208 0 -0.042436712372600958 0.31978518852746718 0 -0.045426235595717283 0.33060807972513029 0 -0.031624175082964633 0.32987469260101321 0 -0.042436712372600958 0.31978518852746718 0 -0.031624175082964633 0.32987469260101321 0 -0.042436712372600958 0.31978518852746718 0 -0.03178616730239512 0.31780128897542481 0 -0.036343985757042507 0.31177719934850001 0 -0.042436712372600958 0.31978518852746718 0 -0.03178616730239512 0.31780128897542481 0 -0.030391858303034119 0.31087189441679158 0 -0.036343985757042507 0.31177719934850001 0 -0.03178616730239512 0.31780128897542481 0 -0.03178616730239512 0.31780128897542481 0 -0.024191582075204391 0.31284051090460341 0 -0.017408747263788899 0.32299524104597488 0 -0.030391858303034119 0.31087189441679158 0 -0.03178616730239512 0.31780128897542481 0 -0.024191582075204391 0.31284051090460341 0 -0.01301139893193414 0.31222649494844867 0 -0.024191582075204391 0.31284051090460341 0 -0.017408747263788899 0.32299524104597488 0 -0.031624175082964633 0.32987469260101321 0 -0.03178616730239512 0.31780128897542481 0 -0.017408747263788899 0.32299524104597488 0 -0.031624175082964633 0.32987469260101321 0 -0.017408747263788899 0.32299524104597488 0 -0.010911772254059791 0.34300027496757901 0 -0.039651626712925117 0.34312441329421961 0 -0.031624175082964633 0.32987469260101321 0 -0.010911772254059791 0.34300027496757901 0 -0.039651626712925117 0.34312441329421961 0 -0.010911772254059791 0.34300027496757901 0 -0.017408747263788899 0.32299524104597488 0 -0.010911772254059791 0.34300027496757901 0 -0.002011014513665115 0.32462085587950051 0 -0.002011014513665115 0.32462085587950051 0 -0.0021569747593942431 0.31582843076862283 0 -0.0081520668406654066 0.31753513211976148 0 -0.0023088821566531652 0.31195025322292619 0 -0.0021569747593942431 0.31582843076862283 0 0.0003285941805424841 0.31182975685121361 0 -0.0061721987345446302 0.3120046379562601 0 -0.0023088821566531652 0.31195025322292619 0 -0.0021569747593942431 0.31582843076862283 0 -0.0061721987345446302 0.3120046379562601 0 -0.0021569747593942431 0.31582843076862283 0 -0.0081520668406654066 0.31753513211976148 0 -0.01301139893193414 0.31222649494844867 0 -0.017408747263788899 0.32299524104597488 0 -0.0081520668406654066 0.31753513211976148 0 -0.01301139893193414 0.31222649494844867 0 -0.0061721987345446302 0.3120046379562601 0 -0.0081520668406654066 0.31753513211976148 0 -0.017408747263788899 0.32299524104597488 0 -0.002011014513665115 0.32462085587950051 0 -0.0081520668406654066 0.31753513211976148 0 -0.01288504614635887 0.37452134551168798 0 -0.018607919512246589 0.35834078321325652 0 0.0074314132515415406 0.36349379712280849 0 -0.010911772254059791 0.34300027496757901 0 -0.018607919512246589 0.35834078321325652 0 0.0074314132515415406 0.36349379712280849 0 -0.039651626712925117 0.34312441329421961 0 -0.010911772254059791 0.34300027496757901 0 -0.018607919512246589 0.35834078321325652 0 -0.01288504614635887 0.37452134551168798 0 -0.035586640095661627 0.36084775812452041 0 -0.01288504614635887 0.37452134551168798 0 -0.018607919512246589 0.35834078321325652 0 -0.035586640095661627 0.36084775812452041 0 -0.01288504614635887 0.37452134551168798 0 -0.035586640095661627 0.36084775812452041 0 -0.029459453922059141 0.3804180205265284 0 -0.035586640095661627 0.36084775812452041 0 -0.051657080723899601 0.35707190442694248 0 -0.045920004724136008 0.37856551751931738 0 -0.035586640095661627 0.36084775812452041 0 -0.045920004724136008 0.37856551751931738 0 -0.029459453922059141 0.3804180205265284 0 -0.039651626712925117 0.34312441329421961 0 -0.018607919512246589 0.35834078321325652 0 -0.035586640095661627 0.36084775812452041 0 -0.039651626712925117 0.34312441329421961 0 -0.035586640095661627 0.36084775812452041 0 -0.051657080723899601 0.35707190442694248 0 -0.039651626712925117 0.34312441329421961 0 -0.051657080723899601 0.35707190442694248 0 -0.068391481171790461 0.3432485516208591 0 -0.051657080723899601 0.35707190442694248 0 -0.063671153741991865 0.36832579436002377 0 -0.068391481171790461 0.3432485516208591 0 -0.051657080723899601 0.35707190442694248 0 -0.063671153741991865 0.36832579436002377 0 -0.045920004724136008 0.37856551751931738 0 -0.063671153741991865 0.36832579436002377 0 -0.080538281631257091 0.3596866265763744 0 -0.08328000888320522 0.37771745930752759 0 -0.080538281631257091 0.3596866265763744 0 -0.099886549697410953 0.3658104022449728 0 -0.08328000888320522 0.37771745930752759 0 -0.080538281631257091 0.3596866265763744 0 -0.068391481171790461 0.3432485516208591 0 -0.087462214661886958 0.34333092534848852 0 -0.080538281631257091 0.3596866265763744 0 -0.087462214661886958 0.34333092534848852 0 -0.099886549697410953 0.3658104022449728 0 -0.063671153741991865 0.36832579436002377 0 -0.068391481171790461 0.3432485516208591 0 -0.063671153741991865 0.36832579436002377 0 -0.080538281631257091 0.3596866265763744 0 -0.068391481171790461 0.3432485516208591 0 -0.057416043634189243 0.33631194464855901 0 -0.068391481171790461 0.3432485516208591 0 -0.064015486419784093 0.33789848117167248 0 -0.068391481171790461 0.3432485516208591 0 -0.064015486419784093 0.33789848117167248 0 -0.069584355322735075 0.33454595638163032 0 -0.068391481171790461 0.3432485516208591 0 -0.087462214661886958 0.34333092534848852 0 -0.068391481171790461 0.3432485516208591 0 -0.076417534338885235 0.33732797676793508 0 -0.087462214661886958 0.34333092534848852 0 -0.064015486419784093 0.33789848117167248 0 -0.062503865210111906 0.3308570435476848 0 -0.069584355322735075 0.33454595638163032 0 -0.062503865210111906 0.3308570435476848 0 -0.069584355322735075 0.33454595638163032 0 -0.06809807931537222 0.32808488125947838 0 -0.069584355322735075 0.33454595638163032 0 -0.076417534338885235 0.33732797676793508 0 -0.076365085362842311 0.32768086508752547 0 -0.069584355322735075 0.33454595638163032 0 -0.06809807931537222 0.32808488125947838 0 -0.076365085362842311 0.32768086508752547 0 -0.068391481171790461 0.3432485516208591 0 -0.069584355322735075 0.33454595638163032 0 -0.076417534338885235 0.33732797676793508 0 -0.060282081981738241 0.30910579778260311 0 -0.061975373111656379 0.31714397421103763 0 -0.070401453380278173 0.31298926011531031 0 -0.061975373111656379 0.31714397421103763 0 -0.069774262236151727 0.32119103942261767 0 -0.070401453380278173 0.31298926011531031 0 -0.061580574312045111 0.32411091857894209 0 -0.069774262236151727 0.32119103942261767 0 -0.06809807931537222 0.32808488125947838 0 -0.061975373111656379 0.31714397421103763 0 -0.061580574312045111 0.32411091857894209 0 -0.069774262236151727 0.32119103942261767 0 -0.061580574312045111 0.32411091857894209 0 -0.062503865210111906 0.3308570435476848 0 -0.06809807931537222 0.32808488125947838 0 -0.069774262236151727 0.32119103942261767 0 -0.076365085362842311 0.32768086508752547 0 -0.077151960134039826 0.31749628747289532 0 -0.069774262236151727 0.32119103942261767 0 -0.06809807931537222 0.32808488125947838 0 -0.076365085362842311 0.32768086508752547 0 -0.069774262236151727 0.32119103942261767 0 -0.070401453380278173 0.31298926011531031 0 -0.077151960134039826 0.31749628747289532 0 -0.081066132027754451 0.30930935769167439 0 -0.070401453380278173 0.31298926011531031 0 -0.077151960134039826 0.31749628747289532 0 -0.081066132027754451 0.30930935769167439 0 -0.077151960134039826 0.31749628747289532 0 -0.085490178104439499 0.32009072963104612 0 -0.076365085362842311 0.32768086508752547 0 -0.077151960134039826 0.31749628747289532 0 -0.085490178104439499 0.32009072963104612 0 -0.076365085362842311 0.32768086508752547 0 -0.085490178104439499 0.32009072963104612 0 -0.088354459070732583 0.33277925692025528 0 -0.085490178104439499 0.32009072963104612 0 -0.088354459070732583 0.33277925692025528 0 -0.097858793804357982 0.32483174561042027 0 -0.092835197641529615 0.31022155272521362 0 -0.085490178104439499 0.32009072963104612 0 -0.097858793804357982 0.32483174561042027 0 -0.092835197641529615 0.31022155272521362 0 -0.081066132027754451 0.30930935769167439 0 -0.085490178104439499 0.32009072963104612 0 -0.076417534338885235 0.33732797676793508 0 -0.088354459070732583 0.33277925692025528 0 -0.087462214661886958 0.34333092534848852 0 -0.076417534338885235 0.33732797676793508 0 -0.076365085362842311 0.32768086508752547 0 -0.088354459070732583 0.33277925692025528 0 -0.088354459070732583 0.33277925692025528 0 -0.087462214661886958 0.34333092534848852 0 -0.10653294815198359 0.34341329907611667 0 -0.088354459070732583 0.33277925692025528 0 -0.10653294815198359 0.34341329907611667 0 -0.097858793804357982 0.32483174561042027 0 -0.10653294815198359 0.34341329907611667 0 -0.097858793804357982 0.32483174561042027 0 -0.1123446764010706 0.32649689091776302 0 -0.087462214661886958 0.34333092534848852 0 -0.10653294815198359 0.34341329907611667 0 -0.092835197641529615 0.31022155272521362 0 -0.097858793804357982 0.32483174561042027 0 -0.1043129731773947 0.31325415198905959 0 -0.097858793804357982 0.32483174561042027 0 -0.1043129731773947 0.31325415198905959 0 -0.1123446764010706 0.32649689091776302 0 -0.12991654548228729 0.3298391158075395 0 -0.1175767664256038 0.30691852384825907 0 -0.12991654548228729 0.3298391158075395 0 -0.1175767664256038 0.30691852384825907 0 -0.1123446764010706 0.32649689091776302 0 -0.1175767664256038 0.30691852384825907 0 -0.1043129731773947 0.31325415198905959 0 -0.1123446764010706 0.32649689091776302 0 -0.10653294815198359 0.34341329907611667 0 -0.1123446764010706 0.32649689091776302 0 -0.1244443560129702 0.34789646739217978 0 -0.12991654548228729 0.3298391158075395 0 -0.1123446764010706 0.32649689091776302 0 -0.1244443560129702 0.34789646739217978 0 -0.10653294815198359 0.34341329907611667 0 -0.1244443560129702 0.34789646739217978 0 -0.1173377358105122 0.36022636883844422 0 -0.13263628335058289 0.36300821359049179 0 -0.1244443560129702 0.34789646739217978 0 -0.1173377358105122 0.36022636883844422 0 -0.1173377358105122 0.36022636883844422 0 -0.099886549697410953 0.3658104022449728 0 -0.1231885418396135 0.38100346188845968 0 -0.13263628335058289 0.36300821359049179 0 -0.1173377358105122 0.36022636883844422 0 -0.1231885418396135 0.38100346188845968 0 -0.10653294815198359 0.34341329907611667 0 -0.1173377358105122 0.36022636883844422 0 -0.099886549697410953 0.3658104022449728 0 -0.087462214661886958 0.34333092534848852 0 -0.10653294815198359 0.34341329907611667 0 -0.099886549697410953 0.3658104022449728 0 -0.1003700774233719 0.38916786451533819 0 -0.11481957540240351 0.40242378016165742 0 -0.09320062255113877 0.40903741620190748 0 -0.099886549697410953 0.3658104022449728 0 -0.1003700774233719 0.38916786451533819 0 -0.1231885418396135 0.38100346188845968 0 -0.099886549697410953 0.3658104022449728 0 -0.1003700774233719 0.38916786451533819 0 -0.08328000888320522 0.37771745930752759 0 -0.1003700774233719 0.38916786451533819 0 -0.1231885418396135 0.38100346188845968 0 -0.1003700774233719 0.38916786451533819 0 -0.1231885418396135 0.38100346188845968 0 -0.11481957540240351 0.40242378016165742 0 -0.12698454915394841 0.41551890184662221 0 -0.11481957540240351 0.40242378016165742 0 -0.1070844036604286 0.42246199555957459 0 -0.1229481333953132 0.43401422840074178 0 -0.1070844036604286 0.42246199555957459 0 -0.1093012652336607 0.43997188576998719 0 -0.12698454915394841 0.41551890184662221 0 -0.1229481333953132 0.43401422840074178 0 -0.1070844036604286 0.42246199555957459 0 -0.1070844036604286 0.42246199555957459 0 -0.097405993518904291 0.43363022909187271 0 -0.1093012652336607 0.43997188576998719 0 -0.1070844036604286 0.42246199555957459 0 -0.097405993518904291 0.43363022909187271 0 -0.089252514419574963 0.42337902755188089 0 -0.11481957540240351 0.40242378016165742 0 -0.1070844036604286 0.42246199555957459 0 -0.09320062255113877 0.40903741620190748 0 -0.1070844036604286 0.42246199555957459 0 -0.09320062255113877 0.40903741620190748 0 -0.089252514419574963 0.42337902755188089 0 -0.09320062255113877 0.40903741620190748 0 -0.089252514419574963 0.42337902755188089 0 -0.074820668742589663 0.41769427103608808 0 -0.09320062255113877 0.40903741620190748 0 -0.074820668742589663 0.41769427103608808 0 -0.077551613007130496 0.39733226714221692 0 -0.097405993518904291 0.43363022909187271 0 -0.089252514419574963 0.42337902755188089 0 -0.08131250673697539 0.43821983215924942 0 -0.089252514419574963 0.42337902755188089 0 -0.074820668742589663 0.41769427103608808 0 -0.08131250673697539 0.43821983215924942 0 -0.065955666711237745 0.4325153596659238 0 -0.074820668742589663 0.41769427103608808 0 -0.054230498882395083 0.41848027983835329 0 -0.065955666711237745 0.4325153596659238 0 -0.074820668742589663 0.41769427103608808 0 -0.08131250673697539 0.43821983215924942 0 -0.074820668742589663 0.41769427103608808 0 -0.066388401736077185 0.40672746377896168 0 -0.077551613007130496 0.39733226714221692 0 -0.074820668742589663 0.41769427103608808 0 -0.066388401736077185 0.40672746377896168 0 -0.054230498882395083 0.41848027983835329 0 -0.066388401736077185 0.40672746377896168 0 -0.077551613007130496 0.39733226714221692 0 -0.058950826312193477 0.39340303709918839 0 -0.077551613007130496 0.39733226714221692 0 -0.070863400486130268 0.3841946394772392 0 -0.058950826312193477 0.39340303709918839 0 -0.1003700774233719 0.38916786451533819 0 -0.09320062255113877 0.40903741620190748 0 -0.077551613007130496 0.39733226714221692 0 -0.1003700774233719 0.38916786451533819 0 -0.077551613007130496 0.39733226714221692 0 -0.1003700774233719 0.38916786451533819 0 -0.077551613007130496 0.39733226714221692 0 -0.08328000888320522 0.37771745930752759 0 -0.077551613007130496 0.39733226714221692 0 -0.08328000888320522 0.37771745930752759 0 -0.070863400486130268 0.3841946394772392 0 -0.063671153741991865 0.36832579436002377 0 -0.070863400486130268 0.3841946394772392 0 -0.058950826312193477 0.39340303709918839 0 -0.063671153741991865 0.36832579436002377 0 -0.08328000888320522 0.37771745930752759 0 -0.070863400486130268 0.3841946394772392 0 -0.063671153741991865 0.36832579436002377 0 -0.058950826312193477 0.39340303709918839 0 -0.063671153741991865 0.36832579436002377 0 -0.058950826312193477 0.39340303709918839 0 -0.045920004724136008 0.37856551751931738 0 -0.058950826312193477 0.39340303709918839 0 -0.046834492884017198 0.4010750316460428 0 -0.045920004724136008 0.37856551751931738 0 -0.058950826312193477 0.39340303709918839 0 -0.046834492884017198 0.4010750316460428 0 -0.054230498882395083 0.41848027983835329 0 -0.058950826312193477 0.39340303709918839 0 -0.054230498882395083 0.41848027983835329 0 -0.066388401736077185 0.40672746377896168 0 -0.058950826312193477 0.39340303709918839 0 -0.054230498882395083 0.41848027983835329 0 -0.046834492884017198 0.4010750316460428 0 -0.035182211818261568 0.39271504468227658 0 -0.043133559473313703 0.41493028797565412 0 -0.035182211818261568 0.39271504468227658 0 -0.043133559473313703 0.41493028797565412 0 -0.046834492884017198 0.4010750316460428 0 -0.035182211818261568 0.39271504468227658 0 -0.045920004724136008 0.37856551751931738 0 -0.035182211818261568 0.39271504468227658 0 -0.029573181778674702 0.40736473416654723 0 -0.043133559473313703 0.41493028797565412 0 -0.035182211818261568 0.39271504468227658 0 -0.045920004724136008 0.37856551751931738 0 -0.029459453922059141 0.3804180205265284 0 -0.035182211818261568 0.39271504468227658 0 -0.029459453922059141 0.3804180205265284 0 -0.017723366825877589 0.39544043679483948 0 -0.01288504614635887 0.37452134551168798 0 -0.029459453922059141 0.3804180205265284 0 -0.017723366825877589 0.39544043679483948 0 -0.035182211818261568 0.39271504468227658 0 -0.017723366825877589 0.39544043679483948 0 -0.029573181778674702 0.40736473416654723 0 -0.017723366825877589 0.39544043679483948 0 -0.017522878141158091 0.41011009049696712 0 -0.029573181778674702 0.40736473416654723 0 -0.017723366825877589 0.39544043679483948 0 -0.001014951246575481 0.40983086494900628 0 -0.017522878141158091 0.41011009049696712 0 -0.017723366825877589 0.39544043679483948 0 -0.001014951246575481 0.40983086494900628 0 0.0018779901347113349 0.39350059771652901 0 -0.01288504614635887 0.37452134551168798 0 0.0098165478029443032 0.38819493289885498 0 -0.01288504614635887 0.37452134551168798 0 -0.017723366825877589 0.39544043679483948 0 0.0018779901347113349 0.39350059771652901 0 -0.01288504614635887 0.37452134551168798 0 0.0098165478029443032 0.38819493289885498 0 0.0018779901347113349 0.39350059771652901 0 -0.01405688404561293 0.43078114453595578 0 -0.001014951246575481 0.40983086494900628 0 0.011702263288091231 0.4265188556027773 0 -0.01405688404561293 0.43078114453595578 0 0.001880978501371974 0.45220660559796338 0 0.011702263288091231 0.4265188556027773 0 -0.01405688404561293 0.43078114453595578 0 -0.001014951246575481 0.40983086494900628 0 -0.017522878141158091 0.41011009049696712 0 -0.01405688404561293 0.43078114453595578 0 -0.017522878141158091 0.41011009049696712 0 -0.034303892634762558 0.423627810882999 0 -0.017522878141158091 0.41011009049696712 0 -0.034303892634762558 0.423627810882999 0 -0.017522878141158091 0.41011009049696712 0 -0.029573181778674702 0.40736473416654723 0 -0.034303892634762558 0.423627810882999 0 -0.01405688404561293 0.43078114453595578 0 -0.034303892634762558 0.423627810882999 0 -0.034047381101766368 0.43954835575909212 0 -0.034303892634762558 0.423627810882999 0 -0.043133559473313703 0.41493028797565412 0 -0.051084907128366622 0.43714553126903138 0 -0.034303892634762558 0.423627810882999 0 -0.051084907128366622 0.43714553126903138 0 -0.034047381101766368 0.43954835575909212 0 -0.034303892634762558 0.423627810882999 0 -0.051084907128366622 0.43714553126903138 0 -0.029573181778674702 0.40736473416654723 0 -0.034303892634762558 0.423627810882999 0 -0.043133559473313703 0.41493028797565412 0 -0.046834492884017198 0.4010750316460428 0 -0.043133559473313703 0.41493028797565412 0 -0.054230498882395083 0.41848027983835329 0 -0.065955666711237745 0.4325153596659238 0 -0.054230498882395083 0.41848027983835329 0 -0.051084907128366622 0.43714553126903138 0 -0.043133559473313703 0.41493028797565412 0 -0.051084907128366622 0.43714553126903138 0 -0.043133559473313703 0.41493028797565412 0 -0.054230498882395083 0.41848027983835329 0 -0.051084907128366622 0.43714553126903138 0 -0.051084907128366622 0.43714553126903138 0 -0.06832975206586285 0.45103688402689679 0 -0.051084907128366622 0.43714553126903138 0 -0.0592613172117398 0.45998957571892107 0 -0.051084907128366622 0.43714553126903138 0 -0.0592613172117398 0.45998957571892107 0 -0.06832975206586285 0.45103688402689679 0 -0.065955666711237745 0.4325153596659238 0 -0.051084907128366622 0.43714553126903138 0 -0.06832975206586285 0.45103688402689679 0 -0.051084907128366622 0.43714553126903138 0 -0.0592613172117398 0.45998957571892107 0 -0.043036979228772893 0.45310831323506862 0 -0.0592613172117398 0.45998957571892107 0 -0.043036979228772893 0.45310831323506862 0 -0.040745956808974047 0.47826861900689738 0 -0.043036979228772893 0.45310831323506862 0 -0.02408511006965396 0.45448827364610939 0 -0.040745956808974047 0.47826861900689738 0 -0.034047381101766368 0.43954835575909212 0 -0.043036979228772893 0.45310831323506862 0 -0.02408511006965396 0.45448827364610939 0 -0.051084907128366622 0.43714553126903138 0 -0.034047381101766368 0.43954835575909212 0 -0.043036979228772893 0.45310831323506862 0 -0.01405688404561293 0.43078114453595578 0 -0.034047381101766368 0.43954835575909212 0 -0.02408511006965396 0.45448827364610939 0 -0.02408511006965396 0.45448827364610939 0 -0.012305942038330299 0.47503465695876612 0 0.001880978501371974 0.45220660559796338 0 -0.012305942038330299 0.47503465695876612 0 0.0081508746442903214 0.47758985975002177 0 0.001880978501371974 0.45220660559796338 0 -0.01405688404561293 0.43078114453595578 0 -0.02408511006965396 0.45448827364610939 0 0.001880978501371974 0.45220660559796338 0 -0.012305942038330299 0.47503465695876612 0 -0.02223059640620716 0.49654766229487229 0 0.0058398926296752418 0.49712305191239248 0 -0.018638393300049572 0.5 0 -0.020662465403276029 0.49809577877007422 0 0.0058398926296752418 0.49712305191239248 0 -0.02223059640620716 0.49654766229487229 0 0.0058398926296752418 0.49712305191239248 0 -0.02223059640620716 0.49654766229487229 0 -0.020662465403276029 0.49809577877007422 0 0.0058398926296752418 0.49712305191239248 0 -0.018638393300049572 0.5 0 0.0088333952181397501 0.5 0 0.0058398926296752418 0.49712305191239248 0 -0.012305942038330299 0.47503465695876612 0 -0.02223059640620716 0.49654766229487229 0 -0.040745956808974047 0.47826861900689738 0 -0.02408511006965396 0.45448827364610939 0 -0.012305942038330299 0.47503465695876612 0 -0.040745956808974047 0.47826861900689738 0 -0.02223059640620716 0.49654766229487229 0 -0.020662465403276029 0.49809577877007422 0 -0.046110181818238782 0.5 0 -0.018638393300049572 0.5 0 -0.020662465403276029 0.49809577877007422 0 -0.046110181818238782 0.5 0 -0.02223059640620716 0.49654766229487229 0 -0.020662465403276029 0.49809577877007422 0 -0.02223059640620716 0.49654766229487229 0 -0.040745956808974047 0.47826861900689738 0 -0.02223059640620716 0.49654766229487229 0 -0.046110181818238782 0.5 0 -0.047105944384654867 0.49603776676220879 0 -0.02223059640620716 0.49654766229487229 0 -0.040745956808974047 0.47826861900689738 0 -0.047105944384654867 0.49603776676220879 0 -0.02223059640620716 0.49654766229487229 0 -0.047105944384654867 0.49603776676220879 0 -0.0592613172117398 0.45998957571892107 0 -0.05424995940712881 0.48320353535761251 0 -0.065621304787414611 0.47775872347423831 0 -0.0592613172117398 0.45998957571892107 0 -0.040745956808974047 0.47826861900689738 0 -0.05424995940712881 0.48320353535761251 0 -0.0592613172117398 0.45998957571892107 0 -0.040745956808974047 0.47826861900689738 0 -0.0592613172117398 0.45998957571892107 0 -0.065621304787414611 0.47775872347423831 0 -0.046110181818238782 0.5 0 -0.047105944384654867 0.49603776676220879 0 -0.071981292363102717 0.49552787122955061 0 -0.047105944384654867 0.49603776676220879 0 -0.071981292363102717 0.49552787122955061 0 -0.040745956808974047 0.47826861900689738 0 -0.05424995940712881 0.48320353535761251 0 -0.047105944384654867 0.49603776676220879 0 -0.05424995940712881 0.48320353535761251 0 -0.047105944384654867 0.49603776676220879 0 -0.071981292363102717 0.49552787122955061 0 -0.046110181818238782 0.5 0 -0.073581970336428118 0.500000000000004 0 -0.071981292363102717 0.49552787122955061 0 -0.05424995940712881 0.48320353535761251 0 -0.071981292363102717 0.49552787122955061 0 -0.065621304787414611 0.47775872347423831 0 -0.071981292363102717 0.49552787122955061 0 -0.065621304787414611 0.47775872347423831 0 -0.073581970336428118 0.500000000000004 0 -0.071981292363102717 0.49552787122955061 0 -0.073581970336428118 0.500000000000004 0 -0.071981292363102717 0.49552787122955061 0 -0.098540977996507781 0.49498345009963468 0 -0.071981292363102717 0.49552787122955061 0 -0.081030768134220513 0.47750294296876478 0 -0.098540977996507781 0.49498345009963468 0 -0.071981292363102717 0.49552787122955061 0 -0.098540977996507781 0.49498345009963468 0 -0.073581970336428118 0.500000000000004 0 -0.098540977996507781 0.49498345009963468 0 -0.1007405775174878 0.5 0 -0.081030768134220513 0.47750294296876478 0 -0.098540977996507781 0.49498345009963468 0 -0.1005432730053154 0.46996174292779552 0 -0.081030768134220513 0.47750294296876478 0 -0.07999973465444872 0.4604374814462312 0 -0.1005432730053154 0.46996174292779552 0 -0.081030768134220513 0.47750294296876478 0 -0.065621304787414611 0.47775872347423831 0 -0.069990208714358737 0.4659827665111822 0 -0.071981292363102717 0.49552787122955061 0 -0.081030768134220513 0.47750294296876478 0 -0.065621304787414611 0.47775872347423831 0 -0.081030768134220513 0.47750294296876478 0 -0.069990208714358737 0.4659827665111822 0 -0.07999973465444872 0.4604374814462312 0 -0.0592613172117398 0.45998957571892107 0 -0.065621304787414611 0.47775872347423831 0 -0.069990208714358737 0.4659827665111822 0 -0.0592613172117398 0.45998957571892107 0 -0.06832975206586285 0.45103688402689679 0 -0.0592613172117398 0.45998957571892107 0 -0.069990208714358737 0.4659827665111822 0 -0.06832975206586285 0.45103688402689679 0 -0.06832975206586285 0.45103688402689679 0 -0.079868578605024027 0.44939361918075321 0 -0.07999973465444872 0.4604374814462312 0 -0.06832975206586285 0.45103688402689679 0 -0.07999973465444872 0.4604374814462312 0 -0.069990208714358737 0.4659827665111822 0 -0.06832975206586285 0.45103688402689679 0 -0.07999973465444872 0.4604374814462312 0 -0.065955666711237745 0.4325153596659238 0 -0.06832975206586285 0.45103688402689679 0 -0.08131250673697539 0.43821983215924942 0 -0.06832975206586285 0.45103688402689679 0 -0.08131250673697539 0.43821983215924942 0 -0.079868578605024027 0.44939361918075321 0 -0.06832975206586285 0.45103688402689679 0 -0.08131250673697539 0.43821983215924942 0 -0.097405993518904291 0.43363022909187271 0 -0.08131250673697539 0.43821983215924942 0 -0.095301241752264593 0.44947072655308618 0 -0.079868578605024027 0.44939361918075321 0 -0.07999973465444872 0.4604374814462312 0 -0.095301241752264593 0.44947072655308618 0 -0.08131250673697539 0.43821983215924942 0 -0.079868578605024027 0.44939361918075321 0 -0.095301241752264593 0.44947072655308618 0 -0.07999973465444872 0.4604374814462312 0 -0.095301241752264593 0.44947072655308618 0 -0.1005432730053154 0.46996174292779552 0 -0.095301241752264593 0.44947072655308618 0 -0.1185615888735196 0.45411270398426368 0 -0.1005432730053154 0.46996174292779552 0 -0.1093012652336607 0.43997188576998719 0 -0.095301241752264593 0.44947072655308618 0 -0.1185615888735196 0.45411270398426368 0 -0.097405993518904291 0.43363022909187271 0 -0.1093012652336607 0.43997188576998719 0 -0.095301241752264593 0.44947072655308618 0 -0.1229481333953132 0.43401422840074178 0 -0.1093012652336607 0.43997188576998719 0 -0.1185615888735196 0.45411270398426368 0 -0.13482904146400199 0.47340888676571891 0 -0.1185615888735196 0.45411270398426368 0 -0.1164082510468516 0.47832653206440962 0 -0.1185615888735196 0.45411270398426368 0 -0.1164082510468516 0.47832653206440962 0 -0.1005432730053154 0.46996174292779552 0 -0.12510066362991279 0.49443902896972258 0 -0.098540977996507781 0.49498345009963468 0 -0.1278991846985473 0.5 0 -0.12510066362991279 0.49443902896972258 0 -0.1007405775174878 0.5 0 -0.12510066362991279 0.49443902896972258 0 -0.1164082510468516 0.47832653206440962 0 -0.098540977996507781 0.49498345009963468 0 -0.12510066362991279 0.49443902896972258 0 -0.098540977996507781 0.49498345009963468 0 -0.1007405775174878 0.5 0 -0.1164082510468516 0.47832653206440962 0 -0.098540977996507781 0.49498345009963468 0 -0.1005432730053154 0.46996174292779552 0 -0.16865839401680449 0.092135788973054494 0 -0.15991873736248169 0.078319239152482401 0 -0.1510080723798595 0.088271281667361062 0 -0.16865839401680449 0.092135788973054494 0 -0.15991873736248169 0.078319239152482401 0 -0.17329087744562249 0.079130457503317958 0 -0.16019182945341501 0.064963771307425339 0 -0.1833697740828735 0.062737269211190522 0 -0.15991873736248169 0.078319239152482401 0 -0.16019182945341501 0.064963771307425339 0 -0.15119963657724089 0.073752334459297381 0 -0.15991873736248169 0.078319239152482401 0 -0.16019182945341501 0.064963771307425339 0 -0.16742500489342149 0.072917132962021416 0 -0.16019182945341501 0.064963771307425339 0 -0.16742500489342149 0.072917132962021416 0 -0.17438810689761519 0.070413566552142232 0 -0.15991873736248169 0.078319239152482401 0 -0.16742500489342149 0.072917132962021416 0 -0.17329087744562249 0.079130457503317958 0 -0.16742500489342149 0.072917132962021416 0 -0.17438810689761519 0.070413566552142232 0 -0.17329087744562249 0.079130457503317958 0 -0.17438810689761519 0.070413566552142232 0 -0.18384211178363991 0.074636207111320491 0 -0.17329087744562249 0.079130457503317958 0 -0.16019182945341501 0.064963771307425339 0 -0.17438810689761519 0.070413566552142232 0 -0.1833697740828735 0.062737269211190522 0 -0.17438810689761519 0.070413566552142232 0 -0.1833697740828735 0.062737269211190522 0 -0.18384211178363991 0.074636207111320491 0 -0.16865839401680449 0.092135788973054494 0 -0.17329087744562249 0.079130457503317958 0 -0.1866022706913201 0.088261889757372758 0 -0.18384211178363991 0.074636207111320491 0 -0.17329087744562249 0.079130457503317958 0 -0.1866022706913201 0.088261889757372758 0 -0.16865839401680449 0.092135788973054494 0 -0.1866022706913201 0.088261889757372758 0 -0.1831705533598732 0.1086480864367481 0 -0.16865839401680449 0.092135788973054494 0 -0.1831705533598732 0.1086480864367481 0 -0.16500225993576301 0.10935228993106121 0 -0.1831705533598732 0.1086480864367481 0 -0.1986754625735716 0.123338573165074 0 -0.17899644749166649 0.13043329819476129 0 -0.1831705533598732 0.1086480864367481 0 -0.16500225993576301 0.10935228993106121 0 -0.17899644749166649 0.13043329819476129 0 -0.16500225993576301 0.10935228993106121 0 -0.17899644749166649 0.13043329819476129 0 -0.16500225993576301 0.10935228993106121 0 -0.16396927178579479 0.12522339643177799 0 -0.17899644749166649 0.13043329819476129 0 -0.16500225993576301 0.10935228993106121 0 -0.1431502722857487 0.10976270288226871 0 -0.16396927178579479 0.12522339643177799 0 -0.16865839401680449 0.092135788973054494 0 -0.16500225993576301 0.10935228993106121 0 -0.1510080723798595 0.088271281667361062 0 -0.16500225993576301 0.10935228993106121 0 -0.1510080723798595 0.088271281667361062 0 -0.16500225993576301 0.10935228993106121 0 -0.1431502722857487 0.10976270288226871 0 -0.1510080723798595 0.088271281667361062 0 -0.1431502722857487 0.10976270288226871 0 -0.12896213863271691 0.083650821618243498 0 -0.1510080723798595 0.088271281667361062 0 -0.1431502722857487 0.10976270288226871 0 -0.16396927178579479 0.12522339643177799 0 -0.15177803695241279 0.13861163773164589 0 -0.1431502722857487 0.10976270288226871 0 -0.12674217130187451 0.12626966822778959 0 -0.1174442832160293 0.098116494240121852 0 -0.1431502722857487 0.10976270288226871 0 -0.15177803695241279 0.13861163773164589 0 -0.12674217130187451 0.12626966822778959 0 -0.1431502722857487 0.10976270288226871 0 -0.12896213863271691 0.083650821618243498 0 -0.1174442832160293 0.098116494240121852 0 -0.12896213863271691 0.083650821618243498 0 -0.1510080723798595 0.088271281667361062 0 -0.13701388482395671 0.067190273403660516 0 -0.15991873736248169 0.078319239152482401 0 -0.1510080723798595 0.088271281667361062 0 -0.15119963657724089 0.073752334459297381 0 -0.16019182945341501 0.064963771307425339 0 -0.15119963657724089 0.073752334459297381 0 -0.13701388482395671 0.067190273403660516 0 -0.16019182945341501 0.064963771307425339 0 -0.13701388482395671 0.067190273403660516 0 -0.1510080723798595 0.088271281667361062 0 -0.15119963657724089 0.073752334459297381 0 -0.13701388482395671 0.067190273403660516 0 -0.16019182945341501 0.064963771307425339 0 -0.13701388482395671 0.067190273403660516 0 -0.15954984930024671 0.057147118867123897 0 -0.1510080723798595 0.088271281667361062 0 -0.13701388482395671 0.067190273403660516 0 -0.13701388482395671 0.067190273403660516 0 -0.13498679766076821 0.064136645526536779 0 -0.15954984930024671 0.057147118867123897 0 -0.13701388482395671 0.067190273403660516 0 -0.13498679766076821 0.064136645526536779 0 -0.11802446614984929 0.068963353137686131 0 -0.13498679766076821 0.064136645526536779 0 -0.11802446614984929 0.068963353137686131 0 -0.13498679766076821 0.064136645526536779 0 -0.12715444671759099 0.062668682551852761 0 -0.11802446614984929 0.068963353137686131 0 -0.13701388482395671 0.067190273403660516 0 -0.11802446614984929 0.068963353137686131 0 -0.12896213863271691 0.083650821618243498 0 -0.13701388482395671 0.067190273403660516 0 -0.11802446614984929 0.068963353137686131 0 -0.13498679766076821 0.064136645526536779 0 -0.133794528219085 0.062340596856167829 0 -0.13701388482395671 0.067190273403660516 0 -0.13498679766076821 0.064136645526536779 0 -0.13498679766076821 0.064136645526536779 0 -0.12715444671759099 0.062668682551852761 0 -0.133794528219085 0.062340596856167829 0 -0.12715444671759099 0.062668682551852761 0 -0.1296358504389393 0.056500947299600368 0 -0.1227489467975991 0.057835829294815018 0 -0.1296358504389393 0.056500947299600368 0 -0.1227489467975991 0.057835829294815018 0 -0.12275290120079731 0.05048618285085707 0 -0.1296358504389393 0.056500947299600368 0 -0.13036946589342371 0.060379122419902523 0 -0.13497533521235919 0.05886885855343317 0 -0.12715444671759099 0.062668682551852761 0 -0.13036946589342371 0.060379122419902523 0 -0.133794528219085 0.062340596856167829 0 -0.12715444671759099 0.062668682551852761 0 -0.1296358504389393 0.056500947299600368 0 -0.13036946589342371 0.060379122419902523 0 -0.13036946589342371 0.060379122419902523 0 -0.13497533521235919 0.05886885855343317 0 -0.133794528219085 0.062340596856167829 0 -0.13497533521235919 0.05886885855343317 0 -0.13667420699373711 0.053255840748644347 0 -0.14439116206820229 0.056599998469747101 0 -0.13498679766076821 0.064136645526536779 0 -0.13497533521235919 0.05886885855343317 0 -0.133794528219085 0.062340596856167829 0 -0.13498679766076821 0.064136645526536779 0 -0.13497533521235919 0.05886885855343317 0 -0.14439116206820229 0.056599998469747101 0 -0.1296358504389393 0.056500947299600368 0 -0.13497533521235919 0.05886885855343317 0 -0.13667420699373711 0.053255840748644347 0 -0.1379400352319185 0.048101404419343893 0 -0.13667420699373711 0.053255840748644347 0 -0.1422202789260735 0.050411596540240231 0 -0.1379400352319185 0.048101404419343893 0 -0.13667420699373711 0.053255840748644347 0 -0.131340666338046 0.049114199151833522 0 -0.1296358504389393 0.056500947299600368 0 -0.131340666338046 0.049114199151833522 0 -0.12275290120079731 0.05048618285085707 0 -0.131340666338046 0.049114199151833522 0 -0.1282100152610203 0.042045544881697532 0 -0.12275290120079731 0.05048618285085707 0 -0.1296358504389393 0.056500947299600368 0 -0.13667420699373711 0.053255840748644347 0 -0.131340666338046 0.049114199151833522 0 -0.1282100152610203 0.042045544881697532 0 -0.1328210272923481 0.035639477421029679 0 -0.1357594154005024 0.042395821973906483 0 -0.131340666338046 0.049114199151833522 0 -0.1282100152610203 0.042045544881697532 0 -0.1357594154005024 0.042395821973906483 0 -0.1282100152610203 0.042045544881697532 0 -0.1328210272923481 0.035639477421029679 0 -0.123937725603356 0.030435728301502929 0 -0.1328210272923481 0.035639477421029679 0 -0.13240521739099559 0.028296824422548401 0 -0.123937725603356 0.030435728301502929 0 -0.1328210272923481 0.035639477421029679 0 -0.1415434361552132 0.035229445591540273 0 -0.13240521739099559 0.028296824422548401 0 -0.1328210272923481 0.035639477421029679 0 -0.1357594154005024 0.042395821973906483 0 -0.1415434361552132 0.035229445591540273 0 -0.1357594154005024 0.042395821973906483 0 -0.14270131212446821 0.044244860377994022 0 -0.1415434361552132 0.035229445591540273 0 -0.1379400352319185 0.048101404419343893 0 -0.131340666338046 0.049114199151833522 0 -0.1357594154005024 0.042395821973906483 0 -0.1379400352319185 0.048101404419343893 0 -0.1357594154005024 0.042395821973906483 0 -0.14270131212446821 0.044244860377994022 0 -0.14270131212446821 0.044244860377994022 0 -0.1481878504844156 0.040478761802412611 0 -0.14798511906368311 0.048718167217601582 0 -0.14270131212446821 0.044244860377994022 0 -0.1481878504844156 0.040478761802412611 0 -0.1415434361552132 0.035229445591540273 0 -0.1415434361552132 0.035229445591540273 0 -0.1509928293376181 0.034218734247584821 0 -0.1473567205943212 0.026245845234082729 0 -0.1481878504844156 0.040478761802412611 0 -0.1415434361552132 0.035229445591540273 0 -0.1509928293376181 0.034218734247584821 0 -0.1481878504844156 0.040478761802412611 0 -0.1509928293376181 0.034218734247584821 0 -0.15502235501422701 0.039624730876907967 0 -0.1509928293376181 0.034218734247584821 0 -0.15502235501422701 0.039624730876907967 0 -0.15749107147936189 0.034671290775923402 0 -0.1509928293376181 0.034218734247584821 0 -0.15697304161832809 0.027744226381494409 0 -0.15749107147936189 0.034671290775923402 0 -0.1481878504844156 0.040478761802412611 0 -0.15463314043418919 0.046992412265009768 0 -0.14798511906368311 0.048718167217601582 0 -0.1481878504844156 0.040478761802412611 0 -0.15502235501422701 0.039624730876907967 0 -0.15463314043418919 0.046992412265009768 0 -0.15463314043418919 0.046992412265009768 0 -0.1533069711039271 0.052134430700417872 0 -0.1590137792158193 0.050092590753774327 0 -0.13498679766076821 0.064136645526536779 0 -0.15954984930024671 0.057147118867123897 0 -0.1533069711039271 0.052134430700417872 0 -0.14439116206820229 0.056599998469747101 0 -0.14798511906368311 0.048718167217601582 0 -0.13498679766076821 0.064136645526536779 0 -0.14439116206820229 0.056599998469747101 0 -0.15954984930024671 0.057147118867123897 0 -0.15463314043418919 0.046992412265009768 0 -0.1533069711039271 0.052134430700417872 0 -0.14798511906368311 0.048718167217601582 0 -0.1533069711039271 0.052134430700417872 0 -0.14439116206820229 0.056599998469747101 0 -0.15954984930024671 0.057147118867123897 0 -0.13667420699373711 0.053255840748644347 0 -0.14439116206820229 0.056599998469747101 0 -0.1422202789260735 0.050411596540240231 0 -0.14439116206820229 0.056599998469747101 0 -0.1422202789260735 0.050411596540240231 0 -0.14798511906368311 0.048718167217601582 0 -0.14270131212446821 0.044244860377994022 0 -0.1422202789260735 0.050411596540240231 0 -0.14798511906368311 0.048718167217601582 0 -0.1379400352319185 0.048101404419343893 0 -0.14270131212446821 0.044244860377994022 0 -0.1422202789260735 0.050411596540240231 0 -0.13468871814559299 0.0049617579715853259 0 -0.12949295467529551 0.018231171157559681 0 -0.11601858921095939 0.0096605820066830734 0 -0.12559974333760679 -0.0068890451810183044 0 -0.13468871814559299 0.0049617579715853259 0 -0.11601858921095939 0.0096605820066830734 0 -0.13468871814559299 0.0049617579715853259 0 -0.12949295467529551 0.018231171157559681 0 -0.14345830090480829 0.016173524689449031 0 -0.12949295467529551 0.018231171157559681 0 -0.13937066407323609 0.024766506271304108 0 -0.14345830090480829 0.016173524689449031 0 -0.12949295467529551 0.018231171157559681 0 -0.13240521739099559 0.028296824422548401 0 -0.123937725603356 0.030435728301502929 0 -0.1415434361552132 0.035229445591540273 0 -0.13240521739099559 0.028296824422548401 0 -0.13937066407323609 0.024766506271304108 0 -0.12949295467529551 0.018231171157559681 0 -0.13240521739099559 0.028296824422548401 0 -0.13937066407323609 0.024766506271304108 0 -0.1415434361552132 0.035229445591540273 0 -0.13937066407323609 0.024766506271304108 0 -0.1473567205943212 0.026245845234082729 0 -0.1509928293376181 0.034218734247584821 0 -0.1473567205943212 0.026245845234082729 0 -0.15697304161832809 0.027744226381494409 0 -0.1473567205943212 0.026245845234082729 0 -0.15180205147672379 0.01934263422312377 0 -0.15697304161832809 0.027744226381494409 0 -0.15180205147672379 0.01934263422312377 0 -0.15944558512728821 0.017420783056663641 0 -0.15697304161832809 0.027744226381494409 0 -0.1473567205943212 0.026245845234082729 0 -0.15180205147672379 0.01934263422312377 0 -0.14345830090480829 0.016173524689449031 0 -0.13937066407323609 0.024766506271304108 0 -0.1473567205943212 0.026245845234082729 0 -0.14345830090480829 0.016173524689449031 0 -0.14213521096484391 -0.0086296124228413887 0 -0.13468871814559299 0.0049617579715853259 0 -0.15077535841711009 0.0077548010875751368 0 -0.13468871814559299 0.0049617579715853259 0 -0.14345830090480829 0.016173524689449031 0 -0.15077535841711009 0.0077548010875751368 0 -0.15180205147672379 0.01934263422312377 0 -0.15077535841711009 0.0077548010875751368 0 -0.15944558512728821 0.017420783056663641 0 -0.15180205147672379 0.01934263422312377 0 -0.14345830090480829 0.016173524689449031 0 -0.15077535841711009 0.0077548010875751368 0 -0.17245535747571961 -0.0052766748667044767 0 -0.16356417016765931 0.0084833172125666767 0 -0.17560661601437169 0.012183552572928221 0 -0.15600626827183339 -0.0044429451341588041 0 -0.15077535841711009 0.0077548010875751368 0 -0.16356417016765931 0.0084833172125666767 0 -0.16356417016765931 0.0084833172125666767 0 -0.16725416320048361 0.017590453385410199 0 -0.15944558512728821 0.017420783056663641 0 -0.15077535841711009 0.0077548010875751368 0 -0.16356417016765931 0.0084833172125666767 0 -0.15944558512728821 0.017420783056663641 0 -0.16356417016765931 0.0084833172125666767 0 -0.16725416320048361 0.017590453385410199 0 -0.17560661601437169 0.012183552572928221 0 -0.16725416320048361 0.017590453385410199 0 -0.17231262870614669 0.02485476558279473 0 -0.17560661601437169 0.012183552572928221 0 -0.16725416320048361 0.017590453385410199 0 -0.165341815986952 0.025009848502097719 0 -0.17231262870614669 0.02485476558279473 0 -0.15944558512728821 0.017420783056663641 0 -0.15697304161832809 0.027744226381494409 0 -0.165341815986952 0.025009848502097719 0 -0.16725416320048361 0.017590453385410199 0 -0.15944558512728821 0.017420783056663641 0 -0.165341815986952 0.025009848502097719 0 -0.15697304161832809 0.027744226381494409 0 -0.165341815986952 0.025009848502097719 0 -0.1631275544098347 0.032610581041225918 0 -0.165341815986952 0.025009848502097719 0 -0.1631275544098347 0.032610581041225918 0 -0.16928321427199811 0.031832261002158933 0 -0.165341815986952 0.025009848502097719 0 -0.17231262870614669 0.02485476558279473 0 -0.16928321427199811 0.031832261002158933 0 -0.17231262870614669 0.02485476558279473 0 -0.17875787455302569 0.0296437800125606 0 -0.17560661601437169 0.012183552572928221 0 -0.17875787455302569 0.0296437800125606 0 -0.17560661601437169 0.012183552572928221 0 -0.17875787455302569 0.0296437800125606 0 -0.18269441423101129 0.027331930989354471 0 -0.17560661601437169 0.012183552572928221 0 -0.17231262870614669 0.02485476558279473 0 -0.17875787455302569 0.0296437800125606 0 -0.174187875938485 0.031916251333750888 0 -0.17231262870614669 0.02485476558279473 0 -0.16928321427199811 0.031832261002158933 0 -0.174187875938485 0.031916251333750888 0 -0.17875787455302569 0.0296437800125606 0 -0.18269441423101129 0.027331930989354471 0 -0.18113697775831419 0.032063792647448651 0 -0.18269441423101129 0.027331930989354471 0 -0.18586850629604129 0.02136192087991412 0 -0.19052574541955969 0.02574857394540012 0 -0.18269441423101129 0.027331930989354471 0 -0.18586850629604129 0.02136192087991412 0 -0.17560661601437169 0.012183552572928221 0 -0.18586850629604129 0.02136192087991412 0 -0.17560661601437169 0.012183552572928221 0 -0.18361381723178191 0.013556933732621519 0 -0.17245535747571961 -0.0052766748667044767 0 -0.17560661601437169 0.012183552572928221 0 -0.17245535747571961 -0.0052766748667044767 0 -0.17560661601437169 0.012183552572928221 0 -0.18436137129957561 0.0054672730437162198 0 -0.17560661601437169 0.012183552572928221 0 -0.18361381723178191 0.013556933732621519 0 -0.18436137129957561 0.0054672730437162198 0 -0.17245535747571961 -0.0052766748667044767 0 -0.18436137129957561 0.0054672730437162198 0 -0.16649034150726541 0.049283591739406767 0 -0.15954984930024671 0.057147118867123897 0 -0.1841129009397254 0.050157592207711953 0 -0.16019182945341501 0.064963771307425339 0 -0.1833697740828735 0.062737269211190522 0 -0.15954984930024671 0.057147118867123897 0 -0.15954984930024671 0.057147118867123897 0 -0.1841129009397254 0.050157592207711953 0 -0.1533069711039271 0.052134430700417872 0 -0.15954984930024671 0.057147118867123897 0 -0.1590137792158193 0.050092590753774327 0 -0.16649034150726541 0.049283591739406767 0 -0.15954984930024671 0.057147118867123897 0 -0.1590137792158193 0.050092590753774327 0 -0.16649034150726541 0.049283591739406767 0 -0.1590137792158193 0.050092590753774327 0 -0.16108859373346809 0.044905400196913317 0 -0.15463314043418919 0.046992412265009768 0 -0.1590137792158193 0.050092590753774327 0 -0.16108859373346809 0.044905400196913317 0 -0.15502235501422701 0.039624730876907967 0 -0.15463314043418919 0.046992412265009768 0 -0.16108859373346809 0.044905400196913317 0 -0.15502235501422701 0.039624730876907967 0 -0.16108859373346809 0.044905400196913317 0 -0.16187380862967771 0.038678165737942798 0 -0.15697304161832809 0.027744226381494409 0 -0.15749107147936189 0.034671290775923402 0 -0.1631275544098347 0.032610581041225918 0 -0.15502235501422701 0.039624730876907967 0 -0.15749107147936189 0.034671290775923402 0 -0.16187380862967771 0.038678165737942798 0 -0.15749107147936189 0.034671290775923402 0 -0.16187380862967771 0.038678165737942798 0 -0.1631275544098347 0.032610581041225918 0 -0.1631275544098347 0.032610581041225918 0 -0.1680694902791284 0.037487686050507722 0 -0.16928321427199811 0.031832261002158933 0 -0.16187380862967771 0.038678165737942798 0 -0.1631275544098347 0.032610581041225918 0 -0.1680694902791284 0.037487686050507722 0 -0.1680694902791284 0.037487686050507722 0 -0.17348525575202789 0.039557931490442309 0 -0.17236077845285461 0.035503433847667368 0 -0.1680694902791284 0.037487686050507722 0 -0.16928321427199811 0.031832261002158933 0 -0.17236077845285461 0.035503433847667368 0 -0.16108859373346809 0.044905400196913317 0 -0.16187380862967771 0.038678165737942798 0 -0.1707329883244027 0.04315818794203588 0 -0.16649034150726541 0.049283591739406767 0 -0.16108859373346809 0.044905400196913317 0 -0.1707329883244027 0.04315818794203588 0 -0.16187380862967771 0.038678165737942798 0 -0.1680694902791284 0.037487686050507722 0 -0.1707329883244027 0.04315818794203588 0 -0.1680694902791284 0.037487686050507722 0 -0.1707329883244027 0.04315818794203588 0 -0.17348525575202789 0.039557931490442309 0 -0.1707329883244027 0.04315818794203588 0 -0.1800105274295265 0.042036948171326388 0 -0.1841129009397254 0.050157592207711953 0 -0.1707329883244027 0.04315818794203588 0 -0.17348525575202789 0.039557931490442309 0 -0.1800105274295265 0.042036948171326388 0 -0.174187875938485 0.031916251333750888 0 -0.17236077845285461 0.035503433847667368 0 -0.1780979084710953 0.035518117710048591 0 -0.16928321427199811 0.031832261002158933 0 -0.174187875938485 0.031916251333750888 0 -0.17236077845285461 0.035503433847667368 0 -0.17348525575202789 0.039557931490442309 0 -0.17236077845285461 0.035503433847667368 0 -0.1780979084710953 0.035518117710048591 0 -0.17348525575202789 0.039557931490442309 0 -0.1780979084710953 0.035518117710048591 0 -0.1800105274295265 0.042036948171326388 0 -0.17875787455302569 0.0296437800125606 0 -0.1780979084710953 0.035518117710048591 0 -0.18113697775831419 0.032063792647448651 0 -0.17875787455302569 0.0296437800125606 0 -0.174187875938485 0.031916251333750888 0 -0.1780979084710953 0.035518117710048591 0 -0.18269441423101129 0.027331930989354471 0 -0.18499771377812471 0.035761341877830942 0 -0.19323163109547339 0.037822900007376488 0 -0.18269441423101129 0.027331930989354471 0 -0.18113697775831419 0.032063792647448651 0 -0.18499771377812471 0.035761341877830942 0 -0.1780979084710953 0.035518117710048591 0 -0.18113697775831419 0.032063792647448651 0 -0.18499771377812471 0.035761341877830942 0 -0.1780979084710953 0.035518117710048591 0 -0.18499771377812471 0.035761341877830942 0 -0.1800105274295265 0.042036948171326388 0 -0.18499771377812471 0.035761341877830942 0 -0.1800105274295265 0.042036948171326388 0 -0.187842949344384 0.041874590750467497 0 -0.1800105274295265 0.042036948171326388 0 -0.1841129009397254 0.050157592207711953 0 -0.187842949344384 0.041874590750467497 0 -0.1833697740828735 0.062737269211190522 0 -0.15954984930024671 0.057147118867123897 0 -0.1841129009397254 0.050157592207711953 0 -0.16649034150726541 0.049283591739406767 0 -0.1707329883244027 0.04315818794203588 0 -0.1841129009397254 0.050157592207711953 0 -0.1833697740828735 0.062737269211190522 0 -0.20654771871233199 0.060510767114955691 0 -0.1833697740828735 0.062737269211190522 0 -0.19751486684406319 0.050600352690132688 0 -0.20654771871233199 0.060510767114955691 0 -0.1841129009397254 0.050157592207711953 0 -0.19751486684406319 0.050600352690132688 0 -0.20867595257920429 0.043168065548299953 0 -0.1833697740828735 0.062737269211190522 0 -0.1841129009397254 0.050157592207711953 0 -0.19751486684406319 0.050600352690132688 0 -0.1841129009397254 0.050157592207711953 0 -0.187842949344384 0.041874590750467497 0 -0.19641569197129449 0.042660996984084633 0 -0.18269441423101129 0.027331930989354471 0 -0.19323163109547339 0.037822900007376488 0 -0.20859282789519881 0.039018117448984348 0 -0.187842949344384 0.041874590750467497 0 -0.19323163109547339 0.037822900007376488 0 -0.19641569197129449 0.042660996984084633 0 -0.1841129009397254 0.050157592207711953 0 -0.20867595257920429 0.043168065548299953 0 -0.18269441423101129 0.027331930989354471 0 -0.20859282789519881 0.039018117448984348 0 -0.1971710316446699 0.030728769564767361 0 -0.1841129009397254 0.050157592207711953 0 -0.19641569197129449 0.042660996984084633 0 -0.20867595257920429 0.043168065548299953 0 -0.18269441423101129 0.027331930989354471 0 -0.20859282789519881 0.039018117448984348 0 -0.18499771377812471 0.035761341877830942 0 -0.187842949344384 0.041874590750467497 0 -0.19323163109547339 0.037822900007376488 0 -0.19323163109547339 0.037822900007376488 0 -0.19641569197129449 0.042660996984084633 0 -0.20859282789519881 0.039018117448984348 0 -0.20859282789519881 0.039018117448984348 0 -0.21537931334140861 0.033457762431375708 0 -0.1971710316446699 0.030728769564767361 0 -0.19641569197129449 0.042660996984084633 0 -0.20867595257920429 0.043168065548299953 0 -0.20859282789519881 0.039018117448984348 0 -0.20867595257920429 0.043168065548299953 0 -0.20859282789519881 0.039018117448984348 0 -0.21593040502353081 0.047808613988716227 0 -0.20867595257920429 0.043168065548299953 0 -0.21593040502353081 0.047808613988716227 0 -0.2108899803893356 0.048338633388711652 0 -0.21593040502353081 0.047808613988716227 0 -0.21198091256390131 0.052887892283986243 0 -0.22103442339141521 0.053629771615575451 0 -0.21593040502353081 0.047808613988716227 0 -0.21198091256390131 0.052887892283986243 0 -0.2108899803893356 0.048338633388711652 0 -0.21198091256390131 0.052887892283986243 0 -0.21665269050207159 0.062072506422589727 0 -0.20654771871233199 0.060510767114955691 0 -0.21198091256390131 0.052887892283986243 0 -0.21665269050207159 0.062072506422589727 0 -0.22103442339141521 0.053629771615575451 0 -0.21198091256390131 0.052887892283986243 0 -0.20654771871233199 0.060510767114955691 0 -0.20710530457031609 0.050922122152842468 0 -0.19751486684406319 0.050600352690132688 0 -0.20867595257920429 0.043168065548299953 0 -0.20710530457031609 0.050922122152842468 0 -0.19751486684406319 0.050600352690132688 0 -0.20654771871233199 0.060510767114955691 0 -0.20710530457031609 0.050922122152842468 0 -0.20867595257920429 0.043168065548299953 0 -0.2108899803893356 0.048338633388711652 0 -0.20710530457031609 0.050922122152842468 0 -0.21198091256390131 0.052887892283986243 0 -0.2108899803893356 0.048338633388711652 0 -0.20710530457031609 0.050922122152842468 0 -0.1975408193163474 -0.001824457429863872 0 -0.18436137129957561 0.0054672730437162198 0 -0.19626738512343031 0.01621122095413826 0 -0.18361381723178191 0.013556933732621519 0 -0.18436137129957561 0.0054672730437162198 0 -0.19626738512343031 0.01621122095413826 0 -0.18436137129957561 0.0054672730437162198 0 -0.19626738512343031 0.01621122095413826 0 -0.21537931334140861 0.033457762431375708 0 -0.1971710316446699 0.030728769564767361 0 -0.1967125840261621 0.024556355575908701 0 -0.21537931334140861 0.033457762431375708 0 -0.19626738512343031 0.01621122095413826 0 -0.1967125840261621 0.024556355575908701 0 -0.18586850629604129 0.02136192087991412 0 -0.18361381723178191 0.013556933732621519 0 -0.19626738512343031 0.01621122095413826 0 -0.18586850629604129 0.02136192087991412 0 -0.19626738512343031 0.01621122095413826 0 -0.1967125840261621 0.024556355575908701 0 -0.18586850629604129 0.02136192087991412 0 -0.19626738512343031 0.01621122095413826 0 -0.19052574541955969 0.02574857394540012 0 -0.1971710316446699 0.030728769564767361 0 -0.1967125840261621 0.024556355575908701 0 -0.18269441423101129 0.027331930989354471 0 -0.19052574541955969 0.02574857394540012 0 -0.1971710316446699 0.030728769564767361 0 -0.18586850629604129 0.02136192087991412 0 -0.19052574541955969 0.02574857394540012 0 -0.1967125840261621 0.024556355575908701 0 -0.21537931334140861 0.033457762431375708 0 -0.19626738512343031 0.01621122095413826 0 -0.21537931334140861 0.033457762431375708 0 -0.19626738512343031 0.01621122095413826 0 -0.21431652511309501 0.018635820462380579 0 -0.21537931334140861 0.033457762431375708 0 -0.21431652511309501 0.018635820462380579 0 -0.22442628159401279 0.029548446775841099 0 -0.19626738512343031 0.01621122095413826 0 -0.21431652511309501 0.018635820462380579 0 -0.2231053659335471 0.0029180200176536011 0 -0.1975408193163474 -0.001824457429863872 0 -0.19626738512343031 0.01621122095413826 0 -0.2231053659335471 0.0029180200176536011 0 -0.19626738512343031 0.01621122095413826 0 -0.2231053659335471 0.0029180200176536011 0 -0.21431652511309501 0.018635820462380579 0 -0.2231053659335471 0.0029180200176536011 0 -0.22942929505482551 0.02019567721743638 0 -0.2231053659335471 0.0029180200176536011 0 -0.22942929505482551 0.02019567721743638 0 -0.24292769664503261 0.014553070900411689 0 -0.22942929505482551 0.02019567721743638 0 -0.22442628159401279 0.029548446775841099 0 -0.24081646498495529 0.034317898015750102 0 -0.21431652511309501 0.018635820462380579 0 -0.22942929505482551 0.02019567721743638 0 -0.22442628159401279 0.029548446775841099 0 -0.22942929505482551 0.02019567721743638 0 -0.24292769664503261 0.014553070900411689 0 -0.24081646498495529 0.034317898015750102 0 -0.26433090843658158 0.021599592017617051 0 -0.24292769664503261 0.014553070900411689 0 -0.24081646498495529 0.034317898015750102 0 -0.2499433467436635 -0.01037518091883103 0 -0.2231053659335471 0.0029180200176536011 0 -0.24292769664503261 0.014553070900411689 0 -0.21593040502353081 0.047808613988716227 0 -0.22103442339141521 0.053629771615575451 0 -0.2344912415593863 0.050704303908613677 0 -0.2265812003536728 0.058905350851198857 0 -0.22103442339141521 0.053629771615575451 0 -0.2344912415593863 0.050704303908613677 0 -0.2265812003536728 0.058905350851198857 0 -0.2350910652034425 0.061536238539916827 0 -0.2262502309415802 0.065599077285118546 0 -0.2265812003536728 0.058905350851198857 0 -0.2344912415593863 0.050704303908613677 0 -0.2350910652034425 0.061536238539916827 0 -0.21665269050207159 0.062072506422589727 0 -0.2265812003536728 0.058905350851198857 0 -0.2262502309415802 0.065599077285118546 0 -0.21665269050207159 0.062072506422589727 0 -0.2265812003536728 0.058905350851198857 0 -0.22103442339141521 0.053629771615575451 0 -0.20859282789519881 0.039018117448984348 0 -0.21537931334140861 0.033457762431375708 0 -0.2344912415593863 0.050704303908613677 0 -0.22442628159401279 0.029548446775841099 0 -0.23027193878140509 0.037999245226138179 0 -0.24081646498495529 0.034317898015750102 0 -0.20859282789519881 0.039018117448984348 0 -0.21593040502353081 0.047808613988716227 0 -0.2344912415593863 0.050704303908613677 0 -0.20859282789519881 0.039018117448984348 0 -0.2344912415593863 0.050704303908613677 0 -0.21537931334140861 0.033457762431375708 0 -0.23027193878140509 0.037999245226138179 0 -0.2344912415593863 0.050704303908613677 0 -0.21537931334140861 0.033457762431375708 0 -0.2344912415593863 0.050704303908613677 0 -0.21537931334140861 0.033457762431375708 0 -0.22442628159401279 0.029548446775841099 0 -0.23027193878140509 0.037999245226138179 0 -0.23027193878140509 0.037999245226138179 0 -0.2377456120380288 0.042249662229483717 0 -0.2344912415593863 0.050704303908613677 0 -0.26056460055048553 0.037008616319220013 0 -0.24081646498495529 0.034317898015750102 0 -0.24780155420359479 0.046428157336030451 0 -0.2377456120380288 0.042249662229483717 0 -0.24081646498495529 0.034317898015750102 0 -0.24780155420359479 0.046428157336030451 0 -0.2377456120380288 0.042249662229483717 0 -0.24780155420359479 0.046428157336030451 0 -0.2344912415593863 0.050704303908613677 0 -0.23027193878140509 0.037999245226138179 0 -0.2377456120380288 0.042249662229483717 0 -0.24081646498495529 0.034317898015750102 0 -0.25340231524761669 0.059237580739312991 0 -0.2344912415593863 0.050704303908613677 0 -0.25340231524761669 0.059237580739312991 0 -0.24780155420359479 0.046428157336030451 0 -0.2344912415593863 0.050704303908613677 0 -0.25340231524761669 0.059237580739312991 0 -0.2344912415593863 0.050704303908613677 0 -0.24022339966992101 0.055876984628208032 0 -0.2344912415593863 0.050704303908613677 0 -0.24022339966992101 0.055876984628208032 0 -0.2350910652034425 0.061536238539916827 0 -0.24022339966992101 0.055876984628208032 0 -0.24528222781891421 0.063559800730396535 0 -0.2344912415593863 0.050704303908613677 0 -0.2350910652034425 0.061536238539916827 0 -0.24022339966992101 0.055876984628208032 0 -0.25340231524761669 0.059237580739312991 0 -0.24022339966992101 0.055876984628208032 0 -0.24528222781891421 0.063559800730396535 0 -0.25854254671211252 0.070223726848228002 0 -0.24528222781891421 0.063559800730396535 0 -0.23919085046805649 0.072208258273933193 0 -0.2350910652034425 0.061536238539916827 0 -0.24528222781891421 0.063559800730396535 0 -0.23919085046805649 0.072208258273933193 0 -0.25323370507833609 0.0811713974058412 0 -0.23191767356222751 0.085269391288456065 0 -0.25323370507833609 0.0811713974058412 0 -0.23191767356222751 0.085269391288456065 0 -0.24126612868982009 0.099496398347104567 0 -0.25323370507833609 0.0811713974058412 0 -0.23919085046805649 0.072208258273933193 0 -0.23191767356222751 0.085269391288456065 0 -0.23191767356222751 0.085269391288456065 0 -0.22353653745023069 0.076934883719255887 0 -0.21541847434771441 0.10188044904987879 0 -0.23919085046805649 0.072208258273933193 0 -0.23191767356222751 0.085269391288456065 0 -0.22353653745023069 0.076934883719255887 0 -0.23919085046805649 0.072208258273933193 0 -0.22353653745023069 0.076934883719255887 0 -0.2262502309415802 0.065599077285118546 0 -0.2350910652034425 0.061536238539916827 0 -0.23919085046805649 0.072208258273933193 0 -0.2262502309415802 0.065599077285118546 0 -0.21665269050207159 0.062072506422589727 0 -0.22353653745023069 0.076934883719255887 0 -0.2262502309415802 0.065599077285118546 0 -0.21665269050207159 0.062072506422589727 0 -0.20654771871233199 0.060510767114955691 0 -0.21178930487973399 0.074579619995559052 0 -0.20654771871233199 0.060510767114955691 0 -0.21178930487973399 0.074579619995559052 0 -0.1958531994004466 0.073905961228785316 0 -0.21665269050207159 0.062072506422589727 0 -0.22353653745023069 0.076934883719255887 0 -0.21178930487973399 0.074579619995559052 0 -0.21178930487973399 0.074579619995559052 0 -0.2019103095267207 0.088040661268903211 0 -0.1958531994004466 0.073905961228785316 0 -0.22353653745023069 0.076934883719255887 0 -0.21178930487973399 0.074579619995559052 0 -0.21541847434771441 0.10188044904987879 0 -0.21178930487973399 0.074579619995559052 0 -0.21541847434771441 0.10188044904987879 0 -0.21178930487973399 0.074579619995559052 0 -0.2019103095267207 0.088040661268903211 0 -0.21541847434771441 0.10188044904987879 0 -0.1866022706913201 0.088261889757372758 0 -0.2019103095267207 0.088040661268903211 0 -0.19715541409984 0.1020339319355954 0 -0.18384211178363991 0.074636207111320491 0 -0.1866022706913201 0.088261889757372758 0 -0.1958531994004466 0.073905961228785316 0 -0.1866022706913201 0.088261889757372758 0 -0.2019103095267207 0.088040661268903211 0 -0.1958531994004466 0.073905961228785316 0 -0.1833697740828735 0.062737269211190522 0 -0.18384211178363991 0.074636207111320491 0 -0.1958531994004466 0.073905961228785316 0 -0.1833697740828735 0.062737269211190522 0 -0.20654771871233199 0.060510767114955691 0 -0.1958531994004466 0.073905961228785316 0 -0.1831705533598732 0.1086480864367481 0 -0.1986754625735716 0.123338573165074 0 -0.19715541409984 0.1020339319355954 0 -0.1866022706913201 0.088261889757372758 0 -0.1831705533598732 0.1086480864367481 0 -0.19715541409984 0.1020339319355954 0 -0.1986754625735716 0.123338573165074 0 -0.19715541409984 0.1020339319355954 0 -0.21541847434771441 0.10188044904987879 0 -0.2019103095267207 0.088040661268903211 0 -0.19715541409984 0.1020339319355954 0 -0.21541847434771441 0.10188044904987879 0 -0.21541847434771441 0.10188044904987879 0 -0.21904764381569489 0.12918127810419849 0 -0.1986754625735716 0.123338573165074 0 -0.21541847434771441 0.10188044904987879 0 -0.21904764381569489 0.12918127810419849 0 -0.21541847434771441 0.10188044904987879 0 -0.23741128311339671 0.1171411010935723 0 -0.21904764381569489 0.12918127810419849 0 -0.23191767356222751 0.085269391288456065 0 -0.21541847434771441 0.10188044904987879 0 -0.24126612868982009 0.099496398347104567 0 -0.21541847434771441 0.10188044904987879 0 -0.24126612868982009 0.099496398347104567 0 -0.23741128311339671 0.1171411010935723 0 -0.25235736228464678 0.11210445701302491 0 -0.24126612868982009 0.099496398347104567 0 -0.23741128311339671 0.1171411010935723 0 -0.25235736228464678 0.11210445701302491 0 -0.23741128311339671 0.1171411010935723 0 -0.24966194941690531 0.1236110298176695 0 -0.23741128311339671 0.1171411010935723 0 -0.24966194941690531 0.1236110298176695 0 -0.2429441979736004 0.12979171416872651 0 -0.24966194941690531 0.1236110298176695 0 -0.2429441979736004 0.12979171416872651 0 -0.24877222102029911 0.13740767986521479 0 -0.2429441979736004 0.12979171416872651 0 -0.24877222102029911 0.13740767986521479 0 -0.2376839163893095 0.13661871467493131 0 -0.24877222102029911 0.13740767986521479 0 -0.2376839163893095 0.13661871467493131 0 -0.23572451715198711 0.1469448935118664 0 -0.2429441979736004 0.12979171416872651 0 -0.2376839163893095 0.13661871467493131 0 -0.23350501542764601 0.1306239702927626 0 -0.23741128311339671 0.1171411010935723 0 -0.2429441979736004 0.12979171416872651 0 -0.23350501542764601 0.1306239702927626 0 -0.23741128311339671 0.1171411010935723 0 -0.23350501542764601 0.1306239702927626 0 -0.21904764381569489 0.12918127810419849 0 -0.23350501542764601 0.1306239702927626 0 -0.22972758121366249 0.1399701927484554 0 -0.21904764381569489 0.12918127810419849 0 -0.2376839163893095 0.13661871467493131 0 -0.23350501542764601 0.1306239702927626 0 -0.22972758121366249 0.1399701927484554 0 -0.22972758121366249 0.1399701927484554 0 -0.21904764381569489 0.12918127810419849 0 -0.22267681328367511 0.15648210715851821 0 -0.21904764381569489 0.12918127810419849 0 -0.22267681328367511 0.15648210715851821 0 -0.22972758121366249 0.1399701927484554 0 -0.23572451715198711 0.1469448935118664 0 -0.22267681328367511 0.15648210715851821 0 -0.23572451715198711 0.1469448935118664 0 -0.22267681328367511 0.15648210715851821 0 -0.22596223150025971 0.16100852675636071 0 -0.23572451715198711 0.1469448935118664 0 -0.22267681328367511 0.15648210715851821 0 -0.23572451715198711 0.1469448935118664 0 -0.2436347940786226 0.15008424312125351 0 -0.22596223150025971 0.16100852675636071 0 -0.23572451715198711 0.1469448935118664 0 -0.24667217707230199 0.1438726480782736 0 -0.2436347940786226 0.15008424312125351 0 -0.2376839163893095 0.13661871467493131 0 -0.22972758121366249 0.1399701927484554 0 -0.23572451715198711 0.1469448935118664 0 -0.24877222102029911 0.13740767986521479 0 -0.23572451715198711 0.1469448935118664 0 -0.24877222102029911 0.13740767986521479 0 -0.23572451715198711 0.1469448935118664 0 -0.24667217707230199 0.1438726480782736 0 -0.25264144239191072 0.1505710490303068 0 -0.2436347940786226 0.15008424312125351 0 -0.24589401507199701 0.1575751282820573 0 -0.2436347940786226 0.15008424312125351 0 -0.24589401507199701 0.1575751282820573 0 -0.2381762921299905 0.160677823489393 0 -0.2436347940786226 0.15008424312125351 0 -0.2381762921299905 0.160677823489393 0 -0.22725645075561771 0.1654502707544748 0 -0.2436347940786226 0.15008424312125351 0 -0.22725645075561771 0.1654502707544748 0 -0.24589401507199701 0.1575751282820573 0 -0.24468881681373 0.16457982320773609 0 -0.2381762921299905 0.160677823489393 0 -0.25247212761351989 0.1599626922703464 0 -0.24589401507199701 0.1575751282820573 0 -0.24468881681373 0.16457982320773609 0 -0.25229620910074341 0.17013615813144101 0 -0.24468881681373 0.16457982320773609 0 -0.24539774802705169 0.17260722735968001 0 -0.25229620910074341 0.17013615813144101 0 -0.25247212761351989 0.1599626922703464 0 -0.24468881681373 0.16457982320773609 0 -0.24468881681373 0.16457982320773609 0 -0.23950341206431289 0.16972005447767011 0 -0.24539774802705169 0.17260722735968001 0 -0.23950341206431289 0.16972005447767011 0 -0.2336485337445415 0.1664879017983123 0 -0.23153169593515441 0.17057067595705949 0 -0.24468881681373 0.16457982320773609 0 -0.23950341206431289 0.16972005447767011 0 -0.2381762921299905 0.160677823489393 0 -0.23950341206431289 0.16972005447767011 0 -0.2381762921299905 0.160677823489393 0 -0.2336485337445415 0.1664879017983123 0 -0.24357738573540949 0.1833968750538395 0 -0.23153169593515441 0.17057067595705949 0 -0.23521371567106181 0.19275950258145111 0 -0.23950341206431289 0.16972005447767011 0 -0.24357738573540949 0.1833968750538395 0 -0.24539774802705169 0.17260722735968001 0 -0.2500191168573222 0.17683348474828031 0 -0.24357738573540949 0.1833968750538395 0 -0.24539774802705169 0.17260722735968001 0 -0.2500191168573222 0.17683348474828031 0 -0.25229620910074341 0.17013615813144101 0 -0.24539774802705169 0.17260722735968001 0 -0.24357738573540949 0.1833968750538395 0 -0.23153169593515441 0.17057067595705949 0 -0.23950341206431289 0.16972005447767011 0 -0.24357738573540949 0.1833968750538395 0 -0.23153169593515441 0.17057067595705949 0 -0.23153169593515441 0.17057067595705949 0 -0.22725645075561771 0.1654502707544748 0 -0.23521371567106181 0.19275950258145111 0 -0.2267644381521208 0.1872317177116235 0 -0.22424460096918239 0.16827596356923419 0 -0.2267644381521208 0.1872317177116235 0 -0.22725645075561771 0.1654502707544748 0 -0.23521371567106181 0.19275950258145111 0 -0.22725645075561771 0.1654502707544748 0 -0.23521371567106181 0.19275950258145111 0 -0.2267644381521208 0.1872317177116235 0 -0.22725645075561771 0.1654502707544748 0 -0.22424460096918239 0.16827596356923419 0 -0.2267644381521208 0.1872317177116235 0 -0.22012402780991391 0.18068341506936419 0 -0.22424460096918239 0.16827596356923419 0 -0.2267644381521208 0.1872317177116235 0 -0.22012402780991391 0.18068341506936419 0 -0.2170969084302215 0.18782827941020411 0 -0.2436347940786226 0.15008424312125351 0 -0.22725645075561771 0.1654502707544748 0 -0.22596223150025971 0.16100852675636071 0 -0.22725645075561771 0.1654502707544748 0 -0.22596223150025971 0.16100852675636071 0 -0.2336485337445415 0.1664879017983123 0 -0.23153169593515441 0.17057067595705949 0 -0.22725645075561771 0.1654502707544748 0 -0.2381762921299905 0.160677823489393 0 -0.2336485337445415 0.1664879017983123 0 -0.22725645075561771 0.1654502707544748 0 -0.22424460096918239 0.16827596356923419 0 -0.22267681328367511 0.15648210715851821 0 -0.2160552798665934 0.16840621432013561 0 -0.22725645075561771 0.1654502707544748 0 -0.22424460096918239 0.16827596356923419 0 -0.22596223150025971 0.16100852675636071 0 -0.22725645075561771 0.1654502707544748 0 -0.22424460096918239 0.16827596356923419 0 -0.22424460096918239 0.16827596356923419 0 -0.22267681328367511 0.15648210715851821 0 -0.22424460096918239 0.16827596356923419 0 -0.22267681328367511 0.15648210715851821 0 -0.22596223150025971 0.16100852675636071 0 -0.22267681328367511 0.15648210715851821 0 -0.2091610044984131 0.15663839810843561 0 -0.20490954152538501 0.1694690869663952 0 -0.22267681328367511 0.15648210715851821 0 -0.20490954152538501 0.1694690869663952 0 -0.22267681328367511 0.15648210715851821 0 -0.2160552798665934 0.16840621432013561 0 -0.20490954152538501 0.1694690869663952 0 -0.20490954152538501 0.1694690869663952 0 -0.21177258968419649 0.1798076632054306 0 -0.20266801600280129 0.18518317990747879 0 -0.22012402780991391 0.18068341506936419 0 -0.21177258968419649 0.1798076632054306 0 -0.2170969084302215 0.18782827941020411 0 -0.21177258968419649 0.1798076632054306 0 -0.2170969084302215 0.18782827941020411 0 -0.22424460096918239 0.16827596356923419 0 -0.2160552798665934 0.16840621432013561 0 -0.21177258968419649 0.1798076632054306 0 -0.22424460096918239 0.16827596356923419 0 -0.21177258968419649 0.1798076632054306 0 -0.22012402780991391 0.18068341506936419 0 -0.22424460096918239 0.16827596356923419 0 -0.21177258968419649 0.1798076632054306 0 -0.2160552798665934 0.16840621432013561 0 -0.20490954152538501 0.1694690869663952 0 -0.21177258968419649 0.1798076632054306 0 -0.20490954152538501 0.1694690869663952 0 -0.21177258968419649 0.1798076632054306 0 -0.21177258968419649 0.1798076632054306 0 -0.20266801600280129 0.18518317990747879 0 -0.2170969084302215 0.18782827941020411 0 -0.20266801600280129 0.18518317990747879 0 -0.19235966989831241 0.19405076702038221 0 -0.18647430798630871 0.18294431315658249 0 -0.20490954152538501 0.1694690869663952 0 -0.18925466788972181 0.16692779928249141 0 -0.18647430798630871 0.18294431315658249 0 -0.20490954152538501 0.1694690869663952 0 -0.20266801600280129 0.18518317990747879 0 -0.18647430798630871 0.18294431315658249 0 -0.20490954152538501 0.1694690869663952 0 -0.18647430798630871 0.18294431315658249 0 -0.2091610044984131 0.15663839810843561 0 -0.20490954152538501 0.1694690869663952 0 -0.19299063504756969 0.15151430645846151 0 -0.20490954152538501 0.1694690869663952 0 -0.19299063504756969 0.15151430645846151 0 -0.20490954152538501 0.1694690869663952 0 -0.18925466788972181 0.16692779928249141 0 -0.19299063504756969 0.15151430645846151 0 -0.2091610044984131 0.15663839810843561 0 -0.19299063504756969 0.15151430645846151 0 -0.2008451592570088 0.14598249683722411 0 -0.19299063504756969 0.15151430645846151 0 -0.2008451592570088 0.14598249683722411 0 -0.19299063504756969 0.15151430645846151 0 -0.2008451592570088 0.14598249683722411 0 -0.19197545217461501 0.1372407484890012 0 -0.19299063504756969 0.15151430645846151 0 -0.19197545217461501 0.1372407484890012 0 -0.17899644749166649 0.13043329819476129 0 -0.1986754625735716 0.123338573165074 0 -0.19197545217461501 0.1372407484890012 0 -0.17899644749166649 0.13043329819476129 0 -0.1986754625735716 0.123338573165074 0 -0.2008451592570088 0.14598249683722411 0 -0.19197545217461501 0.1372407484890012 0 -0.1986754625735716 0.123338573165074 0 -0.21904764381569489 0.12918127810419849 0 -0.2008451592570088 0.14598249683722411 0 -0.21904764381569489 0.12918127810419849 0 -0.22267681328367511 0.15648210715851821 0 -0.2091610044984131 0.15663839810843561 0 -0.21904764381569489 0.12918127810419849 0 -0.2091610044984131 0.15663839810843561 0 -0.2008451592570088 0.14598249683722411 0 -0.22890163485483259 0.25391228692442308 0 -0.23366931671281249 0.23567944092203769 0 -0.2142160632021371 0.24201392301580579 0 -0.23366931671281249 0.23567944092203769 0 -0.21926573547851011 0.22729577249362751 0 -0.2142160632021371 0.24201392301580579 0 -0.25112824550194612 0.24737796623540509 0 -0.23366931671281249 0.23567944092203769 0 -0.24317098058650391 0.22006873440842811 0 -0.25112824550194612 0.24737796623540509 0 -0.22890163485483259 0.25391228692442308 0 -0.23366931671281249 0.23567944092203769 0 -0.25112824550194612 0.24737796623540509 0 -0.24317098058650391 0.22006873440842811 0 -0.23366931671281249 0.23567944092203769 0 -0.24317098058650391 0.22006873440842811 0 -0.2312521907194981 0.22099133317213601 0 -0.23366931671281249 0.23567944092203769 0 -0.2312521907194981 0.22099133317213601 0 -0.21926573547851011 0.22729577249362751 0 -0.2312521907194981 0.22099133317213601 0 -0.21926573547851011 0.22729577249362751 0 -0.22361923721232821 0.2144880547489588 0 -0.21926573547851011 0.22729577249362751 0 -0.22361923721232821 0.2144880547489588 0 -0.21413297380909779 0.21491641105907239 0 -0.22361923721232821 0.2144880547489588 0 -0.22928427533505799 0.2061874718540129 0 -0.21835285793627129 0.20403143050187519 0 -0.22928427533505799 0.2061874718540129 0 -0.232052676076662 0.21035782320008919 0 -0.2312521907194981 0.22099133317213601 0 -0.22361923721232821 0.2144880547489588 0 -0.22928427533505799 0.2061874718540129 0 -0.2312521907194981 0.22099133317213601 0 -0.232052676076662 0.21035782320008919 0 -0.23633997961848041 0.21423662694786391 0 -0.2312521907194981 0.22099133317213601 0 -0.22928427533505799 0.2061874718540129 0 -0.2312521907194981 0.22099133317213601 0 -0.22928427533505799 0.2061874718540129 0 -0.232052676076662 0.21035782320008919 0 -0.24317098058650391 0.22006873440842811 0 -0.2312521907194981 0.22099133317213601 0 -0.23633997961848041 0.21423662694786391 0 -0.232052676076662 0.21035782320008919 0 -0.23633997961848041 0.21423662694786391 0 -0.23521371567106181 0.19275950258145111 0 -0.24317098058650391 0.22006873440842811 0 -0.23521371567106181 0.19275950258145111 0 -0.24317098058650391 0.22006873440842811 0 -0.2451567478199152 0.20645909102354359 0 -0.23521371567106181 0.19275950258145111 0 -0.24317098058650391 0.22006873440842811 0 -0.23633997961848041 0.21423662694786391 0 -0.23521371567106181 0.19275950258145111 0 -0.25485563990604909 0.21229483457198939 0 -0.24317098058650391 0.22006873440842811 0 -0.2451567478199152 0.20645909102354359 0 -0.25485563990604909 0.21229483457198939 0 -0.2451567478199152 0.20645909102354359 0 -0.24738665511604621 0.2007132925323058 0 -0.2451567478199152 0.20645909102354359 0 -0.24738665511604621 0.2007132925323058 0 -0.23521371567106181 0.19275950258145111 0 -0.2556230755356651 0.1962230741506191 0 -0.24738665511604621 0.2007132925323058 0 -0.24545020801454559 0.1932731860795539 0 -0.24738665511604621 0.2007132925323058 0 -0.24545020801454559 0.1932731860795539 0 -0.23521371567106181 0.19275950258145111 0 -0.2556230755356651 0.1962230741506191 0 -0.24357738573540949 0.1833968750538395 0 -0.2556230755356651 0.1962230741506191 0 -0.24357738573540949 0.1833968750538395 0 -0.24545020801454559 0.1932731860795539 0 -0.24357738573540949 0.1833968750538395 0 -0.24545020801454559 0.1932731860795539 0 -0.23521371567106181 0.19275950258145111 0 -0.2267644381521208 0.1872317177116235 0 -0.22928427533505799 0.2061874718540129 0 -0.22928427533505799 0.2061874718540129 0 -0.2170969084302215 0.18782827941020411 0 -0.2267644381521208 0.1872317177116235 0 -0.22928427533505799 0.2061874718540129 0 -0.23521371567106181 0.19275950258145111 0 -0.22928427533505799 0.2061874718540129 0 -0.2170969084302215 0.18782827941020411 0 -0.21835285793627129 0.20403143050187519 0 -0.2267644381521208 0.1872317177116235 0 -0.22928427533505799 0.2061874718540129 0 -0.2170969084302215 0.18782827941020411 0 -0.22928427533505799 0.2061874718540129 0 -0.232052676076662 0.21035782320008919 0 -0.23521371567106181 0.19275950258145111 0 -0.2170969084302215 0.18782827941020411 0 -0.20722210035754449 0.19680606165728029 0 -0.21835285793627129 0.20403143050187519 0 -0.20266801600280129 0.18518317990747879 0 -0.2170969084302215 0.18782827941020411 0 -0.20722210035754449 0.19680606165728029 0 -0.20266801600280129 0.18518317990747879 0 -0.20722210035754449 0.19680606165728029 0 -0.19235966989831241 0.19405076702038221 0 -0.20722210035754449 0.19680606165728029 0 -0.19235966989831241 0.19405076702038221 0 -0.19047389966106121 0.20661377973011191 0 -0.20722210035754449 0.19680606165728029 0 -0.19810957214597549 0.22278324520198431 0 -0.19047389966106121 0.20661377973011191 0 -0.19810957214597549 0.22278324520198431 0 -0.1770537778966674 0.2221675307071509 0 -0.20722210035754449 0.19680606165728029 0 -0.19047389966106121 0.20661377973011191 0 -0.19810957214597549 0.22278324520198431 0 -0.20722210035754449 0.19680606165728029 0 -0.21835285793627129 0.20403143050187519 0 -0.21413297380909779 0.21491641105907239 0 -0.20722210035754449 0.19680606165728029 0 -0.21413297380909779 0.21491641105907239 0 -0.19810957214597549 0.22278324520198431 0 -0.22361923721232821 0.2144880547489588 0 -0.21835285793627129 0.20403143050187519 0 -0.21413297380909779 0.21491641105907239 0 -0.21926573547851011 0.22729577249362751 0 -0.21413297380909779 0.21491641105907239 0 -0.19810957214597549 0.22278324520198431 0 -0.21926573547851011 0.22729577249362751 0 -0.19810957214597549 0.22278324520198431 0 -0.2142160632021371 0.24201392301580579 0 -0.19810957214597549 0.22278324520198431 0 -0.1889970439344065 0.24876042874668841 0 -0.1770537778966674 0.2221675307071509 0 -0.19810957214597549 0.22278324520198431 0 -0.1889970439344065 0.24876042874668841 0 -0.19810957214597549 0.22278324520198431 0 -0.1889970439344065 0.24876042874668841 0 -0.2142160632021371 0.24201392301580579 0 -0.15672087874220531 0.25602072800912468 0 -0.16747294713095859 0.24201158361404551 0 -0.152175478241104 0.24160082534929089 0 -0.16747294713095859 0.24201158361404551 0 -0.15853062464935569 0.22733645459037169 0 -0.152175478241104 0.24160082534929089 0 -0.17049065332512139 0.25809097671166592 0 -0.1889970439344065 0.24876042874668841 0 -0.16747294713095859 0.24201158361404551 0 -0.1889970439344065 0.24876042874668841 0 -0.16747294713095859 0.24201158361404551 0 -0.1770537778966674 0.2221675307071509 0 -0.1770537778966674 0.2221675307071509 0 -0.15853062464935569 0.22733645459037169 0 -0.1637255765549567 0.21288233370676249 0 -0.16747294713095859 0.24201158361404551 0 -0.1770537778966674 0.2221675307071509 0 -0.15853062464935569 0.22733645459037169 0 -0.15853062464935569 0.22733645459037169 0 -0.1637255765549567 0.21288233370676249 0 -0.14754386115050899 0.21593637945282321 0 -0.1637255765549567 0.21288233370676249 0 -0.17496002548384629 0.1987065006504575 0 -0.15412715004236741 0.2019746472065802 0 -0.19047389966106121 0.20661377973011191 0 -0.1770537778966674 0.2221675307071509 0 -0.17496002548384629 0.1987065006504575 0 -0.1770537778966674 0.2221675307071509 0 -0.1637255765549567 0.21288233370676249 0 -0.17496002548384629 0.1987065006504575 0 -0.17496002548384629 0.1987065006504575 0 -0.18647430798630871 0.18294431315658249 0 -0.17188111154032221 0.1820337775920603 0 -0.19235966989831241 0.19405076702038221 0 -0.19047389966106121 0.20661377973011191 0 -0.17496002548384629 0.1987065006504575 0 -0.19235966989831241 0.19405076702038221 0 -0.17496002548384629 0.1987065006504575 0 -0.18647430798630871 0.18294431315658249 0 -0.17496002548384629 0.1987065006504575 0 -0.1604122317866542 0.1899944489516745 0 -0.15412715004236741 0.2019746472065802 0 -0.17496002548384629 0.1987065006504575 0 -0.1604122317866542 0.1899944489516745 0 -0.17188111154032221 0.1820337775920603 0 -0.1489715433651834 0.19216601227195429 0 -0.1344694319427083 0.19272980796425521 0 -0.1539764996443278 0.1789913074623225 0 -0.1604122317866542 0.1899944489516745 0 -0.1489715433651834 0.19216601227195429 0 -0.15412715004236741 0.2019746472065802 0 -0.1489715433651834 0.19216601227195429 0 -0.15412715004236741 0.2019746472065802 0 -0.14236100019968981 0.1977917982653232 0 -0.15412715004236741 0.2019746472065802 0 -0.14236100019968981 0.1977917982653232 0 -0.14168015733882561 0.20551859409289169 0 -0.1489715433651834 0.19216601227195429 0 -0.14236100019968981 0.1977917982653232 0 -0.1344694319427083 0.19272980796425521 0 -0.1344694319427083 0.19272980796425521 0 -0.12517476884116729 0.1894869396585718 0 -0.12651980789403169 0.19585771620032699 0 -0.1344694319427083 0.19272980796425521 0 -0.12651980789403169 0.19585771620032699 0 -0.1340638731808188 0.20005667631665869 0 -0.12787456745143419 0.20122796702327991 0 -0.12651980789403169 0.19585771620032699 0 -0.1340638731808188 0.20005667631665869 0 -0.12787456745143419 0.20122796702327991 0 -0.1340638731808188 0.20005667631665869 0 -0.1324932337668264 0.20746791470677431 0 -0.14236100019968981 0.1977917982653232 0 -0.1340638731808188 0.20005667631665869 0 -0.14168015733882561 0.20551859409289169 0 -0.14236100019968981 0.1977917982653232 0 -0.1344694319427083 0.19272980796425521 0 -0.1340638731808188 0.20005667631665869 0 -0.1324932337668264 0.20746791470677431 0 -0.13789213572090039 0.21321730309607809 0 -0.14168015733882561 0.20551859409289169 0 -0.1340638731808188 0.20005667631665869 0 -0.1324932337668264 0.20746791470677431 0 -0.14168015733882561 0.20551859409289169 0 -0.1324932337668264 0.20746791470677431 0 -0.12733536315514929 0.21172786969062621 0 -0.1247158380627207 0.2059048669931331 0 -0.12787456745143419 0.20122796702327991 0 -0.1324932337668264 0.20746791470677431 0 -0.1247158380627207 0.2059048669931331 0 -0.1263388536414749 0.21670482483857731 0 -0.12733536315514929 0.21172786969062621 0 -0.13161469848080989 0.2150390287213183 0 -0.1263388536414749 0.21670482483857731 0 -0.12733536315514929 0.21172786969062621 0 -0.12202932130533301 0.2146036412608617 0 -0.1324932337668264 0.20746791470677431 0 -0.12733536315514929 0.21172786969062621 0 -0.13161469848080989 0.2150390287213183 0 -0.1263388536414749 0.21670482483857731 0 -0.13161469848080989 0.2150390287213183 0 -0.12935228889176451 0.22040647874996 0 -0.13789213572090039 0.21321730309607809 0 -0.14754386115050899 0.21593637945282321 0 -0.13612872786753119 0.2221245985065832 0 -0.13161469848080989 0.2150390287213183 0 -0.13789213572090039 0.21321730309607809 0 -0.13612872786753119 0.2221245985065832 0 -0.1324932337668264 0.20746791470677431 0 -0.13161469848080989 0.2150390287213183 0 -0.13789213572090039 0.21321730309607809 0 -0.13789213572090039 0.21321730309607809 0 -0.14754386115050899 0.21593637945282321 0 -0.14168015733882561 0.20551859409289169 0 -0.1637255765549567 0.21288233370676249 0 -0.15412715004236741 0.2019746472065802 0 -0.14754386115050899 0.21593637945282321 0 -0.15412715004236741 0.2019746472065802 0 -0.14754386115050899 0.21593637945282321 0 -0.14168015733882561 0.20551859409289169 0 -0.15853062464935569 0.22733645459037169 0 -0.14754386115050899 0.21593637945282321 0 -0.1448180794915554 0.23082083222161059 0 -0.15853062464935569 0.22733645459037169 0 -0.1448180794915554 0.23082083222161059 0 -0.152175478241104 0.24160082534929089 0 -0.14754386115050899 0.21593637945282321 0 -0.1448180794915554 0.23082083222161059 0 -0.13612872786753119 0.2221245985065832 0 -0.13612872786753119 0.2221245985065832 0 -0.12935228889176451 0.22040647874996 0 -0.12777433876957789 0.22618923614584699 0 -0.13161469848080989 0.2150390287213183 0 -0.13612872786753119 0.2221245985065832 0 -0.12935228889176451 0.22040647874996 0 -0.12935228889176451 0.22040647874996 0 -0.12777433876957789 0.22618923614584699 0 -0.12400190109101671 0.2211186155021003 0 -0.1263388536414749 0.21670482483857731 0 -0.12935228889176451 0.22040647874996 0 -0.12400190109101671 0.2211186155021003 0 -0.13612872786753119 0.2221245985065832 0 -0.12777433876957789 0.22618923614584699 0 -0.13298622019764289 0.2329187097596562 0 -0.12777433876957789 0.22618923614584699 0 -0.13298622019764289 0.2329187097596562 0 -0.12480175883239571 0.23281874375150649 0 -0.1448180794915554 0.23082083222161059 0 -0.13612872786753119 0.2221245985065832 0 -0.13298622019764289 0.2329187097596562 0 -0.1448180794915554 0.23082083222161059 0 -0.13298622019764289 0.2329187097596562 0 -0.13924352619326039 0.24166413240803561 0 -0.13298622019764289 0.2329187097596562 0 -0.1241683392571685 0.2458642604419301 0 -0.12480175883239571 0.23281874375150649 0 -0.13298622019764289 0.2329187097596562 0 -0.13924352619326039 0.24166413240803561 0 -0.1241683392571685 0.2458642604419301 0 -0.13489390734445969 0.25078945770044098 0 -0.13924352619326039 0.24166413240803561 0 -0.1241683392571685 0.2458642604419301 0 -0.13489390734445969 0.25078945770044098 0 -0.1453982530813159 0.25269474188127838 0 -0.13924352619326039 0.24166413240803561 0 -0.1453982530813159 0.25269474188127838 0 -0.13924352619326039 0.24166413240803561 0 -0.152175478241104 0.24160082534929089 0 -0.1448180794915554 0.23082083222161059 0 -0.13924352619326039 0.24166413240803561 0 -0.152175478241104 0.24160082534929089 0 -0.16023807883365129 0.15007390117642189 0 -0.16940642460698649 0.1427939458377355 0 -0.1671517780657307 0.16065796389449849 0 -0.16023807883365129 0.15007390117642189 0 -0.16940642460698649 0.1427939458377355 0 -0.15177803695241279 0.13861163773164589 0 -0.16023807883365129 0.15007390117642189 0 -0.1671517780657307 0.16065796389449849 0 -0.15060556144740039 0.15801614274553771 0 -0.16940642460698649 0.1427939458377355 0 -0.16396927178579479 0.12522339643177799 0 -0.15177803695241279 0.13861163773164589 0 -0.16940642460698649 0.1427939458377355 0 -0.16396927178579479 0.12522339643177799 0 -0.17899644749166649 0.13043329819476129 0 -0.1881402826780125 0.1462434760124619 0 -0.16940642460698649 0.1427939458377355 0 -0.17899644749166649 0.13043329819476129 0 -0.19299063504756969 0.15151430645846151 0 -0.17899644749166649 0.13043329819476129 0 -0.1881402826780125 0.1462434760124619 0 -0.1671517780657307 0.16065796389449849 0 -0.19299063504756969 0.15151430645846151 0 -0.1881402826780125 0.1462434760124619 0 -0.17348356734594719 0.1652528069603898 0 -0.1881402826780125 0.1462434760124619 0 -0.16940642460698649 0.1427939458377355 0 -0.1671517780657307 0.16065796389449849 0 -0.19299063504756969 0.15151430645846151 0 -0.1881402826780125 0.1462434760124619 0 -0.17899644749166649 0.13043329819476129 0 -0.1881402826780125 0.1462434760124619 0 -0.17348356734594719 0.1652528069603898 0 -0.1671517780657307 0.16065796389449849 0 -0.18925466788972181 0.16692779928249141 0 -0.19299063504756969 0.15151430645846151 0 -0.17348356734594719 0.1652528069603898 0 -0.19299063504756969 0.15151430645846151 0 -0.17348356734594719 0.1652528069603898 0 -0.18925466788972181 0.16692779928249141 0 -0.17348356734594719 0.1652528069603898 0 -0.1803565053575622 0.17411227616388911 0 -0.18925466788972181 0.16692779928249141 0 -0.18647430798630871 0.18294431315658249 0 -0.1803565053575622 0.17411227616388911 0 -0.17348356734594719 0.1652528069603898 0 -0.1803565053575622 0.17411227616388911 0 -0.17188111154032221 0.1820337775920603 0 -0.18647430798630871 0.18294431315658249 0 -0.1803565053575622 0.17411227616388911 0 -0.17188111154032221 0.1820337775920603 0 -0.1604122317866542 0.1899944489516745 0 -0.17188111154032221 0.1820337775920603 0 -0.1539764996443278 0.1789913074623225 0 -0.17348356734594719 0.1652528069603898 0 -0.17188111154032221 0.1820337775920603 0 -0.1539764996443278 0.1789913074623225 0 -0.17348356734594719 0.1652528069603898 0 -0.1539764996443278 0.1789913074623225 0 -0.1671517780657307 0.16065796389449849 0 -0.14616327345344901 0.17507245177653519 0 -0.17348356734594719 0.1652528069603898 0 -0.1671517780657307 0.16065796389449849 0 -0.1539764996443278 0.1789913074623225 0 -0.15060556144740039 0.15801614274553771 0 -0.14616327345344901 0.17507245177653519 0 -0.1403310721060668 0.1638406577752029 0 -0.1671517780657307 0.16065796389449849 0 -0.15060556144740039 0.15801614274553771 0 -0.14616327345344901 0.17507245177653519 0 -0.1671517780657307 0.16065796389449849 0 -0.14616327345344901 0.17507245177653519 0 -0.1539764996443278 0.1789913074623225 0 -0.15060556144740039 0.15801614274553771 0 -0.1403310721060668 0.1638406577752029 0 -0.13604005938771971 0.1544228422154573 0 -0.1344694319427083 0.19272980796425521 0 -0.14616327345344901 0.17507245177653519 0 -0.1539764996443278 0.1789913074623225 0 -0.1344694319427083 0.19272980796425521 0 -0.1539764996443278 0.1789913074623225 0 -0.1604122317866542 0.1899944489516745 0 -0.1489715433651834 0.19216601227195429 0 -0.1539764996443278 0.1789913074623225 0 -0.12517476884116729 0.1894869396585718 0 -0.14616327345344901 0.17507245177653519 0 -0.12517476884116729 0.1894869396585718 0 -0.14616327345344901 0.17507245177653519 0 -0.12955681770580271 0.17763909000732761 0 -0.1344694319427083 0.19272980796425521 0 -0.12517476884116729 0.1894869396585718 0 -0.14616327345344901 0.17507245177653519 0 -0.14616327345344901 0.17507245177653519 0 -0.12955681770580271 0.17763909000732761 0 -0.12851539413569801 0.16785119436328139 0 -0.12955681770580271 0.17763909000732761 0 -0.12851539413569801 0.16785119436328139 0 -0.1183738343928966 0.1781457742309219 0 -0.14616327345344901 0.17507245177653519 0 -0.1403310721060668 0.1638406577752029 0 -0.12851539413569801 0.16785119436328139 0 -0.12851539413569801 0.16785119436328139 0 -0.13604005938771971 0.1544228422154573 0 -0.1166998919158263 0.15529152881940819 0 -0.1403310721060668 0.1638406577752029 0 -0.12851539413569801 0.16785119436328139 0 -0.13604005938771971 0.1544228422154573 0 -0.16023807883365129 0.15007390117642189 0 -0.15060556144740039 0.15801614274553771 0 -0.15177803695241279 0.13861163773164589 0 -0.15060556144740039 0.15801614274553771 0 -0.13604005938771971 0.1544228422154573 0 -0.15177803695241279 0.13861163773164589 0 -0.13604005938771971 0.1544228422154573 0 -0.15177803695241279 0.13861163773164589 0 -0.12674217130187451 0.12626966822778959 0 -0.13604005938771971 0.1544228422154573 0 -0.12674217130187451 0.12626966822778959 0 -0.13604005938771971 0.1544228422154573 0 -0.12674217130187451 0.12626966822778959 0 -0.1156543726756967 0.13833282405836 0 -0.12674217130187451 0.12626966822778959 0 -0.1156543726756967 0.13833282405836 0 -0.095351021088281029 0.1132788129042437 0 -0.1156543726756967 0.13833282405836 0 -0.10068819544103801 0.14226911119137359 0 -0.095351021088281029 0.1132788129042437 0 -0.10068819544103801 0.14226911119137359 0 -0.095351021088281029 0.1132788129042437 0 -0.096620991750689639 0.15340543154847591 0 -0.10068819544103801 0.14226911119137359 0 -0.106025369793795 0.1712594094785036 0 -0.096620991750689639 0.15340543154847591 0 -0.10068819544103801 0.14226911119137359 0 -0.085434624170685508 0.15681154569709829 0 -0.1156543726756967 0.13833282405836 0 -0.10068819544103801 0.14226911119137359 0 -0.1166998919158263 0.15529152881940819 0 -0.13604005938771971 0.1544228422154573 0 -0.1156543726756967 0.13833282405836 0 -0.1166998919158263 0.15529152881940819 0 -0.12851539413569801 0.16785119436328139 0 -0.1166998919158263 0.15529152881940819 0 -0.1174036225595539 0.1681369767230288 0 -0.1166998919158263 0.15529152881940819 0 -0.1174036225595539 0.1681369767230288 0 -0.106025369793795 0.1712594094785036 0 -0.12851539413569801 0.16785119436328139 0 -0.1174036225595539 0.1681369767230288 0 -0.1183738343928966 0.1781457742309219 0 -0.1161606724286918 0.1874283274099561 0 -0.106025369793795 0.1712594094785036 0 -0.1113625441465519 0.20024970776563361 0 -0.1183738343928966 0.1781457742309219 0 -0.1161606724286918 0.1874283274099561 0 -0.106025369793795 0.1712594094785036 0 -0.12517476884116729 0.1894869396585718 0 -0.1183738343928966 0.1781457742309219 0 -0.1161606724286918 0.1874283274099561 0 -0.12517476884116729 0.1894869396585718 0 -0.12955681770580271 0.17763909000732761 0 -0.1183738343928966 0.1781457742309219 0 -0.1174036225595539 0.1681369767230288 0 -0.1183738343928966 0.1781457742309219 0 -0.106025369793795 0.1712594094785036 0 -0.09600737822333652 0.1811193728346627 0 -0.106025369793795 0.1712594094785036 0 -0.1113625441465519 0.20024970776563361 0 -0.106025369793795 0.1712594094785036 0 -0.1113625441465519 0.20024970776563361 0 -0.10068819544103801 0.14226911119137359 0 -0.106025369793795 0.1712594094785036 0 -0.09600737822333652 0.1811193728346627 0 -0.106025369793795 0.1712594094785036 0 -0.085434624170685508 0.15681154569709829 0 -0.096620991750689639 0.15340543154847591 0 -0.106025369793795 0.1712594094785036 0 -0.085434624170685508 0.15681154569709829 0 -0.10068819544103801 0.14226911119137359 0 -0.1166998919158263 0.15529152881940819 0 -0.106025369793795 0.1712594094785036 0 -0.086506618167736388 0.16826664411645201 0 -0.078411109101498733 0.16374645089865059 0 -0.069902897943537809 0.1674315230362545 0 -0.086506618167736388 0.16826664411645201 0 -0.069902897943537809 0.1674315230362545 0 -0.09600737822333652 0.1811193728346627 0 -0.085434624170685508 0.15681154569709829 0 -0.09600737822333652 0.1811193728346627 0 -0.086506618167736388 0.16826664411645201 0 -0.085434624170685508 0.15681154569709829 0 -0.086506618167736388 0.16826664411645201 0 -0.085434624170685508 0.15681154569709829 0 -0.078411109101498733 0.16374645089865059 0 -0.09600737822333652 0.1811193728346627 0 -0.084979488671541245 0.1795395722955723 0 -0.085633105179188068 0.18799393603762429 0 -0.09600737822333652 0.1811193728346627 0 -0.086506618167736388 0.16826664411645201 0 -0.084979488671541245 0.1795395722955723 0 -0.086506618167736388 0.16826664411645201 0 -0.084979488671541245 0.1795395722955723 0 -0.077890622398048948 0.1750636409498092 0 -0.084979488671541245 0.1795395722955723 0 -0.077343215974140234 0.18497810117840599 0 -0.077890622398048948 0.1750636409498092 0 -0.084979488671541245 0.1795395722955723 0 -0.077343215974140234 0.18497810117840599 0 -0.085633105179188068 0.18799393603762429 0 -0.077343215974140234 0.18497810117840599 0 -0.06776383916965921 0.17761935187059719 0 -0.066640512101609276 0.1901806172097994 0 -0.077890622398048948 0.1750636409498092 0 -0.06776383916965921 0.17761935187059719 0 -0.069902897943537809 0.1674315230362545 0 -0.077343215974140234 0.18497810117840599 0 -0.077890622398048948 0.1750636409498092 0 -0.06776383916965921 0.17761935187059719 0 -0.06776383916965921 0.17761935187059719 0 -0.066640512101609276 0.1901806172097994 0 -0.058329522127625807 0.18158312307554961 0 -0.06776383916965921 0.17761935187059719 0 -0.069902897943537809 0.1674315230362545 0 -0.053299177719339133 0.16659640195605779 0 -0.085434624170685508 0.15681154569709829 0 -0.069366900945012425 0.16170397382657839 0 -0.085434624170685508 0.15681154569709829 0 -0.078411109101498733 0.16374645089865059 0 -0.069366900945012425 0.16170397382657839 0 -0.085434624170685508 0.15681154569709829 0 -0.069366900945012425 0.16170397382657839 0 -0.075718733225923679 0.15163805010407491 0 -0.069902897943537809 0.1674315230362545 0 -0.069366900945012425 0.16170397382657839 0 -0.053299177719339133 0.16659640195605779 0 -0.086506618167736388 0.16826664411645201 0 -0.077890622398048948 0.1750636409498092 0 -0.069902897943537809 0.1674315230362545 0 -0.069366900945012425 0.16170397382657839 0 -0.068127242712588326 0.15960880071411651 0 -0.075718733225923679 0.15163805010407491 0 -0.078411109101498733 0.16374645089865059 0 -0.069902897943537809 0.1674315230362545 0 -0.069366900945012425 0.16170397382657839 0 -0.069366900945012425 0.16170397382657839 0 -0.068127242712588326 0.15960880071411651 0 -0.059297756849545948 0.16009893329716671 0 -0.068127242712588326 0.15960880071411651 0 -0.06898740419202587 0.14430052093349299 0 -0.057350643204237002 0.13370182318959281 0 -0.075718733225923679 0.15163805010407491 0 -0.06898740419202587 0.14430052093349299 0 -0.074752997625354478 0.13225340972618771 0 -0.068127242712588326 0.15960880071411651 0 -0.057350643204237002 0.13370182318959281 0 -0.068127242712588326 0.15960880071411651 0 -0.075718733225923679 0.15163805010407491 0 -0.06898740419202587 0.14430052093349299 0 -0.06898740419202587 0.14430052093349299 0 -0.074752997625354478 0.13225340972618771 0 -0.057350643204237002 0.13370182318959281 0 -0.10068819544103801 0.14226911119137359 0 -0.074752997625354478 0.13225340972618771 0 -0.095351021088281029 0.1132788129042437 0 -0.085434624170685508 0.15681154569709829 0 -0.074752997625354478 0.13225340972618771 0 -0.085434624170685508 0.15681154569709829 0 -0.075718733225923679 0.15163805010407491 0 -0.074752997625354478 0.13225340972618771 0 -0.10068819544103801 0.14226911119137359 0 -0.085434624170685508 0.15681154569709829 0 -0.074752997625354478 0.13225340972618771 0 -0.096620991750689639 0.15340543154847591 0 -0.085434624170685508 0.15681154569709829 0 -0.094277087966367218 0.24409574295439129 0 -0.1171528863286387 0.22973502710979171 0 -0.094277087966367218 0.24409574295439129 0 -0.1078715894517504 0.2482079508186158 0 -0.1171528863286387 0.22973502710979171 0 -0.094277087966367218 0.24409574295439129 0 -0.10752623107319011 0.22825689332003349 0 -0.089536018471199214 0.2314379289775978 0 -0.095809102738464907 0.25760891920083723 0 -0.094277087966367218 0.24409574295439129 0 -0.1078715894517504 0.2482079508186158 0 -0.1241683392571685 0.2458642604419301 0 -0.1171528863286387 0.22973502710979171 0 -0.12480175883239571 0.23281874375150649 0 -0.1078715894517504 0.2482079508186158 0 -0.1241683392571685 0.2458642604419301 0 -0.1171528863286387 0.22973502710979171 0 -0.1241683392571685 0.2458642604419301 0 -0.1171528863286387 0.22973502710979171 0 -0.1171528863286387 0.22973502710979171 0 -0.11998881762847451 0.22766783707447119 0 -0.1219270096089508 0.2293864853003075 0 -0.11998881762847451 0.22766783707447119 0 -0.1219270096089508 0.2293864853003075 0 -0.1213086186717369 0.22543883167215409 0 -0.1171528863286387 0.22973502710979171 0 -0.1183289886514191 0.22762953910187639 0 -0.11803929282638879 0.22591381535292371 0 -0.1171528863286387 0.22973502710979171 0 -0.1183289886514191 0.22762953910187639 0 -0.11998881762847451 0.22766783707447119 0 -0.1183289886514191 0.22762953910187639 0 -0.11998881762847451 0.22766783707447119 0 -0.11803929282638879 0.22591381535292371 0 -0.12777433876957789 0.22618923614584699 0 -0.1219270096089508 0.2293864853003075 0 -0.1213086186717369 0.22543883167215409 0 -0.12777433876957789 0.22618923614584699 0 -0.1219270096089508 0.2293864853003075 0 -0.12480175883239571 0.23281874375150649 0 -0.1171528863286387 0.22973502710979171 0 -0.1219270096089508 0.2293864853003075 0 -0.12480175883239571 0.23281874375150649 0 -0.12400190109101671 0.2211186155021003 0 -0.1198392218826894 0.2187518752391828 0 -0.1230523244801285 0.2177947392101805 0 -0.12400190109101671 0.2211186155021003 0 -0.1205739202772132 0.22209535345566839 0 -0.1198392218826894 0.2187518752391828 0 -0.12400190109101671 0.2211186155021003 0 -0.1213086186717369 0.22543883167215409 0 -0.1205739202772132 0.22209535345566839 0 -0.12777433876957789 0.22618923614584699 0 -0.12400190109101671 0.2211186155021003 0 -0.1213086186717369 0.22543883167215409 0 -0.1171528863286387 0.22973502710979171 0 -0.11803929282638879 0.22591381535292371 0 -0.1171721498400326 0.22247821923861499 0 -0.1213086186717369 0.22543883167215409 0 -0.11919938316806721 0.22428751068905839 0 -0.1205739202772132 0.22209535345566839 0 -0.1213086186717369 0.22543883167215409 0 -0.11919938316806721 0.22428751068905839 0 -0.11803929282638879 0.22591381535292371 0 -0.11998881762847451 0.22766783707447119 0 -0.1213086186717369 0.22543883167215409 0 -0.11803929282638879 0.22591381535292371 0 -0.11919938316806721 0.22428751068905839 0 -0.1205739202772132 0.22209535345566839 0 -0.1171721498400326 0.22247821923861499 0 -0.11919938316806721 0.22428751068905839 0 -0.11803929282638879 0.22591381535292371 0 -0.1171721498400326 0.22247821923861499 0 -0.1198392218826894 0.2187518752391828 0 -0.1171721498400326 0.22247821923861499 0 -0.1150267411848765 0.2160156826905853 0 -0.1205739202772132 0.22209535345566839 0 -0.1198392218826894 0.2187518752391828 0 -0.1171721498400326 0.22247821923861499 0 -0.1171528863286387 0.22973502710979171 0 -0.1171721498400326 0.22247821923861499 0 -0.1150267411848765 0.2160156826905853 0 -0.10752623107319011 0.22825689332003349 0 -0.087894800114139165 0.2168033015039785 0 -0.089536018471199214 0.2314379289775978 0 -0.10752623107319011 0.22825689332003349 0 -0.087894800114139165 0.2168033015039785 0 -0.094277087966367218 0.24409574295439129 0 -0.1171528863286387 0.22973502710979171 0 -0.10752623107319011 0.22825689332003349 0 -0.1171528863286387 0.22973502710979171 0 -0.10752623107319011 0.22825689332003349 0 -0.1029958932206067 0.21752482908896681 0 -0.10752623107319011 0.22825689332003349 0 -0.1029958932206067 0.21752482908896681 0 -0.087894800114139165 0.2168033015039785 0 -0.09703116178279772 0.20958357422060281 0 -0.1065801322759863 0.20542719997222769 0 -0.090653821520458755 0.1985789663172384 0 -0.1171528863286387 0.22973502710979171 0 -0.1065801322759863 0.20542719997222769 0 -0.1029958932206067 0.21752482908896681 0 -0.09703116178279772 0.20958357422060281 0 -0.1029958932206067 0.21752482908896681 0 -0.087894800114139165 0.2168033015039785 0 -0.09703116178279772 0.20958357422060281 0 -0.1065801322759863 0.20542719997222769 0 -0.1029958932206067 0.21752482908896681 0 -0.1171528863286387 0.22973502710979171 0 -0.1065801322759863 0.20542719997222769 0 -0.1171528863286387 0.22973502710979171 0 -0.1065801322759863 0.20542719997222769 0 -0.1150267411848765 0.2160156826905853 0 -0.1150267411848765 0.2160156826905853 0 -0.1181947194953854 0.21190067041164931 0 -0.1145236034546408 0.20886403544692439 0 -0.1198392218826894 0.2187518752391828 0 -0.11877250096707111 0.2153179674005698 0 -0.12202932130533301 0.2146036412608617 0 -0.1198392218826894 0.2187518752391828 0 -0.1150267411848765 0.2160156826905853 0 -0.11877250096707111 0.2153179674005698 0 -0.1150267411848765 0.2160156826905853 0 -0.11877250096707111 0.2153179674005698 0 -0.1181947194953854 0.21190067041164931 0 -0.1181947194953854 0.21190067041164931 0 -0.12202932130533301 0.2146036412608617 0 -0.1222731869428248 0.21017988651444419 0 -0.11877250096707111 0.2153179674005698 0 -0.1181947194953854 0.21190067041164931 0 -0.12202932130533301 0.2146036412608617 0 -0.12733536315514929 0.21172786969062621 0 -0.12202932130533301 0.2146036412608617 0 -0.1222731869428248 0.21017988651444419 0 -0.1263388536414749 0.21670482483857731 0 -0.12400190109101671 0.2211186155021003 0 -0.1230523244801285 0.2177947392101805 0 -0.1263388536414749 0.21670482483857731 0 -0.12202932130533301 0.2146036412608617 0 -0.1230523244801285 0.2177947392101805 0 -0.1198392218826894 0.2187518752391828 0 -0.12202932130533301 0.2146036412608617 0 -0.1230523244801285 0.2177947392101805 0 -0.1247158380627207 0.2059048669931331 0 -0.1190906926955355 0.20676238421595039 0 -0.11986684496904811 0.1979998059161498 0 -0.12733536315514929 0.21172786969062621 0 -0.1247158380627207 0.2059048669931331 0 -0.1222731869428248 0.21017988651444419 0 -0.1247158380627207 0.2059048669931331 0 -0.1222731869428248 0.21017988651444419 0 -0.1190906926955355 0.20676238421595039 0 -0.1181947194953854 0.21190067041164931 0 -0.1222731869428248 0.21017988651444419 0 -0.1190906926955355 0.20676238421595039 0 -0.1181947194953854 0.21190067041164931 0 -0.1190906926955355 0.20676238421595039 0 -0.1145236034546408 0.20886403544692439 0 -0.1065801322759863 0.20542719997222769 0 -0.1150267411848765 0.2160156826905853 0 -0.1145236034546408 0.20886403544692439 0 -0.1190906926955355 0.20676238421595039 0 -0.1143113353059507 0.2040471112267199 0 -0.1145236034546408 0.20886403544692439 0 -0.1065801322759863 0.20542719997222769 0 -0.1143113353059507 0.2040471112267199 0 -0.1145236034546408 0.20886403544692439 0 -0.1065801322759863 0.20542719997222769 0 -0.1143113353059507 0.2040471112267199 0 -0.1113625441465519 0.20024970776563361 0 -0.1143113353059507 0.2040471112267199 0 -0.1113625441465519 0.20024970776563361 0 -0.11986684496904811 0.1979998059161498 0 -0.12787456745143419 0.20122796702327991 0 -0.12651980789403169 0.19585771620032699 0 -0.11986684496904811 0.1979998059161498 0 -0.1190906926955355 0.20676238421595039 0 -0.1143113353059507 0.2040471112267199 0 -0.11986684496904811 0.1979998059161498 0 -0.12787456745143419 0.20122796702327991 0 -0.1247158380627207 0.2059048669931331 0 -0.11986684496904811 0.1979998059161498 0 -0.12517476884116729 0.1894869396585718 0 -0.12651980789403169 0.19585771620032699 0 -0.11986684496904811 0.1979998059161498 0 -0.12517476884116729 0.1894869396585718 0 -0.1161606724286918 0.1874283274099561 0 -0.11986684496904811 0.1979998059161498 0 -0.1161606724286918 0.1874283274099561 0 -0.1113625441465519 0.20024970776563361 0 -0.11986684496904811 0.1979998059161498 0 -0.09600737822333652 0.1811193728346627 0 -0.1065801322759863 0.20542719997222769 0 -0.09600737822333652 0.1811193728346627 0 -0.1065801322759863 0.20542719997222769 0 -0.1113625441465519 0.20024970776563361 0 -0.09600737822333652 0.1811193728346627 0 -0.1065801322759863 0.20542719997222769 0 -0.090653821520458755 0.1985789663172384 0 -0.09600737822333652 0.1811193728346627 0 -0.090653821520458755 0.1985789663172384 0 -0.085633105179188068 0.18799393603762429 0 -0.090653821520458755 0.1985789663172384 0 -0.079511187987104964 0.1976572995744518 0 -0.085633105179188068 0.18799393603762429 0 -0.077343215974140234 0.18497810117840599 0 -0.079511187987104964 0.1976572995744518 0 -0.085633105179188068 0.18799393603762429 0 -0.077343215974140234 0.18497810117840599 0 -0.079511187987104964 0.1976572995744518 0 -0.066640512101609276 0.1901806172097994 0 -0.079511187987104964 0.1976572995744518 0 -0.066640512101609276 0.1901806172097994 0 -0.068263369155088224 0.20534970968792349 0 -0.068263369155088224 0.20534970968792349 0 -0.087894800114139165 0.2168033015039785 0 -0.071139049076188884 0.22940859636131819 0 -0.068263369155088224 0.20534970968792349 0 -0.087894800114139165 0.2168033015039785 0 -0.090653821520458755 0.1985789663172384 0 -0.079511187987104964 0.1976572995744518 0 -0.087894800114139165 0.2168033015039785 0 -0.079511187987104964 0.1976572995744518 0 -0.068263369155088224 0.20534970968792349 0 -0.087894800114139165 0.2168033015039785 0 -0.09703116178279772 0.20958357422060281 0 -0.090653821520458755 0.1985789663172384 0 -0.087894800114139165 0.2168033015039785 0 -0.089536018471199214 0.2314379289775978 0 -0.071139049076188884 0.22940859636131819 0 -0.079101547386020016 0.24168733657506589 0 -0.087894800114139165 0.2168033015039785 0 -0.089536018471199214 0.2314379289775978 0 -0.071139049076188884 0.22940859636131819 0 -0.068263369155088224 0.20534970968792349 0 -0.071139049076188884 0.22940859636131819 0 -0.051332492160588397 0.22285619872863549 0 -0.071401289604095586 0.2584564587989906 0 -0.066128925090698065 0.2450976049894831 0 -0.079101547386020016 0.24168733657506589 0 -0.071139049076188884 0.22940859636131819 0 -0.066128925090698065 0.2450976049894831 0 -0.053333867310094617 0.24007715828041101 0 -0.071139049076188884 0.22940859636131819 0 -0.066128925090698065 0.2450976049894831 0 -0.079101547386020016 0.24168733657506589 0 -0.071401289604095586 0.2584564587989906 0 -0.094277087966367218 0.24409574295439129 0 -0.079101547386020016 0.24168733657506589 0 -0.094277087966367218 0.24409574295439129 0 -0.089536018471199214 0.2314379289775978 0 -0.079101547386020016 0.24168733657506589 0 -0.038867808833152342 0.23554155444288619 0 -0.041019634032879573 0.2480391268138542 0 -0.028653647088355529 0.24548274531580991 0 -0.038867808833152342 0.23554155444288619 0 -0.041019634032879573 0.2480391268138542 0 -0.053333867310094617 0.24007715828041101 0 -0.055668872077091237 0.25585847493162972 0 -0.041019634032879573 0.2480391268138542 0 -0.053333867310094617 0.24007715828041101 0 -0.055668872077091237 0.25585847493162972 0 -0.066128925090698065 0.2450976049894831 0 -0.053333867310094617 0.24007715828041101 0 -0.071139049076188884 0.22940859636131819 0 -0.053333867310094617 0.24007715828041101 0 -0.051332492160588397 0.22285619872863549 0 -0.038867808833152342 0.23554155444288619 0 -0.053333867310094617 0.24007715828041101 0 -0.051332492160588397 0.22285619872863549 0 -0.051332492160588397 0.22285619872863549 0 -0.033598013647469463 0.2235830767220385 0 -0.037445759864298177 0.20982304968996479 0 -0.038867808833152342 0.23554155444288619 0 -0.051332492160588397 0.22285619872863549 0 -0.033598013647469463 0.2235830767220385 0 -0.038867808833152342 0.23554155444288619 0 -0.033598013647469463 0.2235830767220385 0 -0.023589651054272801 0.2331025403659287 0 -0.037445759864298177 0.20982304968996479 0 -0.051418389844003022 0.2079812689945981 0 -0.048631938196037283 0.19389611787186839 0 -0.051332492160588397 0.22285619872863549 0 -0.037445759864298177 0.20982304968996479 0 -0.051418389844003022 0.2079812689945981 0 -0.068263369155088224 0.20534970968792349 0 -0.051332492160588397 0.22285619872863549 0 -0.051418389844003022 0.2079812689945981 0 -0.066640512101609276 0.1901806172097994 0 -0.048631938196037283 0.19389611787186839 0 -0.058329522127625807 0.18158312307554961 0 -0.068263369155088224 0.20534970968792349 0 -0.051418389844003022 0.2079812689945981 0 -0.048631938196037283 0.19389611787186839 0 -0.066640512101609276 0.1901806172097994 0 -0.068263369155088224 0.20534970968792349 0 -0.048631938196037283 0.19389611787186839 0 -0.068263369155088224 0.20534970968792349 0 -0.048631938196037283 0.19389611787186839 0 -0.048631938196037283 0.19389611787186839 0 -0.029217306658338819 0.19890923583534531 0 -0.02900050723698638 0.18244252605581329 0 -0.037445759864298177 0.20982304968996479 0 -0.048631938196037283 0.19389611787186839 0 -0.029217306658338819 0.19890923583534531 0 -0.048631938196037283 0.19389611787186839 0 -0.02900050723698638 0.18244252605581329 0 -0.01253173001137917 0.20290177856570071 0 -0.02900050723698638 0.18244252605581329 0 -0.029217306658338819 0.19890923583534531 0 -0.01253173001137917 0.20290177856570071 0 -0.023987288214762929 0.20705652611844699 0 -0.01253173001137917 0.20290177856570071 0 -0.02900050723698638 0.18244252605581329 0 -0.0089727778792802176 0.18636000313175791 0 -0.029217306658338819 0.19890923583534531 0 -0.01253173001137917 0.20290177856570071 0 -0.02900050723698638 0.18244252605581329 0 -0.0034681036396273352 0.1965185026619162 0 -0.01253173001137917 0.20290177856570071 0 0.0033236905810708111 0.2069968171644555 0 -0.0034681036396273352 0.1965185026619162 0 -0.01253173001137917 0.20290177856570071 0 -0.0089727778792802176 0.18636000313175791 0 -0.0034681036396273352 0.1965185026619162 0 -0.0089727778792802176 0.18636000313175791 0 0.0043084027510792372 0.18981541178575079 0 -0.01253173001137917 0.20290177856570071 0 0.0039370472142271212 0.22336103107558899 0 0.0033236905810708111 0.2069968171644555 0 -0.01253173001137917 0.20290177856570071 0 0.0039370472142271212 0.22336103107558899 0 -0.01253173001137917 0.20290177856570071 0 -0.016754356325035549 0.2165920403827771 0 0.0039370472142271212 0.22336103107558899 0 -0.033598013647469463 0.2235830767220385 0 -0.037445759864298177 0.20982304968996479 0 -0.016754356325035549 0.2165920403827771 0 -0.037445759864298177 0.20982304968996479 0 -0.016754356325035549 0.2165920403827771 0 -0.023987288214762929 0.20705652611844699 0 -0.037445759864298177 0.20982304968996479 0 -0.016754356325035549 0.2165920403827771 0 -0.01253173001137917 0.20290177856570071 0 -0.016754356325035549 0.2165920403827771 0 -0.023987288214762929 0.20705652611844699 0 -0.037445759864298177 0.20982304968996479 0 -0.029217306658338819 0.19890923583534531 0 -0.023987288214762929 0.20705652611844699 0 -0.033598013647469463 0.2235830767220385 0 -0.016754356325035549 0.2165920403827771 0 -0.023589651054272801 0.2331025403659287 0 -0.016754356325035549 0.2165920403827771 0 -0.023589651054272801 0.2331025403659287 0 -0.0099162646489393581 0.23042373656512979 0 -0.016754356325035549 0.2165920403827771 0 0.0039370472142271212 0.22336103107558899 0 -0.016754356325035549 0.2165920403827771 0 -0.0099162646489393581 0.23042373656512979 0 0.0039370472142271212 0.22336103107558899 0 -0.0099162646489393581 0.23042373656512979 0 0.00062290933902077483 0.23832777000845279 0 0.0039370472142271212 0.22336103107558899 0 -0.0099162646489393581 0.23042373656512979 0 -0.012914965349162741 0.24654269738898041 0 0.00062290933902077483 0.23832777000845279 0 -0.023589651054272801 0.2331025403659287 0 -0.0099162646489393581 0.23042373656512979 0 -0.012914965349162741 0.24654269738898041 0 -0.012914965349162741 0.24654269738898041 0 0.00062290933902077483 0.23832777000845279 0 0.0057306298636677841 0.25416327821407941 0 -0.023589651054272801 0.2331025403659287 0 -0.012914965349162741 0.24654269738898041 0 -0.028653647088355529 0.24548274531580991 0 -0.038867808833152342 0.23554155444288619 0 -0.023589651054272801 0.2331025403659287 0 -0.028653647088355529 0.24548274531580991 0 -0.041328616281090171 0.14842525700403561 0 -0.042964328221079713 0.13460964930579389 0 -0.049137705198491047 0.142054472129512 0 -0.041328616281090171 0.14842525700403561 0 -0.048923644534391207 0.15702911376586301 0 -0.039831459945634848 0.1578630266473347 0 -0.041328616281090171 0.14842525700403561 0 -0.039831459945634848 0.1578630266473347 0 -0.028010696449529231 0.15196079912241581 0 -0.041328616281090171 0.14842525700403561 0 -0.032350063819354742 0.14009074415065609 0 -0.028010696449529231 0.15196079912241581 0 -0.041328616281090171 0.14842525700403561 0 -0.032350063819354742 0.14009074415065609 0 -0.042964328221079713 0.13460964930579389 0 -0.032350063819354742 0.14009074415065609 0 -0.042964328221079713 0.13460964930579389 0 -0.029105843661102991 0.12639388602643711 0 -0.042964328221079713 0.13460964930579389 0 -0.057350643204237002 0.13370182318959281 0 -0.040230960046840299 0.1219929630901124 0 -0.042964328221079713 0.13460964930579389 0 -0.029105843661102991 0.12639388602643711 0 -0.040230960046840299 0.1219929630901124 0 -0.042964328221079713 0.13460964930579389 0 -0.057350643204237002 0.13370182318959281 0 -0.049137705198491047 0.142054472129512 0 -0.057350643204237002 0.13370182318959281 0 -0.049137705198491047 0.142054472129512 0 -0.054907233087557288 0.15148115901862549 0 -0.068127242712588326 0.15960880071411651 0 -0.057350643204237002 0.13370182318959281 0 -0.054907233087557288 0.15148115901862549 0 -0.041328616281090171 0.14842525700403561 0 -0.049137705198491047 0.142054472129512 0 -0.054907233087557288 0.15148115901862549 0 -0.041328616281090171 0.14842525700403561 0 -0.054907233087557288 0.15148115901862549 0 -0.048923644534391207 0.15702911376586301 0 -0.054907233087557288 0.15148115901862549 0 -0.059297756849545948 0.16009893329716671 0 -0.048923644534391207 0.15702911376586301 0 -0.069366900945012425 0.16170397382657839 0 -0.053299177719339133 0.16659640195605779 0 -0.068127242712588326 0.15960880071411651 0 -0.054907233087557288 0.15148115901862549 0 -0.059297756849545948 0.16009893329716671 0 -0.069366900945012425 0.16170397382657839 0 -0.059297756849545948 0.16009893329716671 0 -0.053299177719339133 0.16659640195605779 0 -0.069902897943537809 0.1674315230362545 0 -0.053299177719339133 0.16659640195605779 0 -0.059297756849545948 0.16009893329716671 0 -0.053299177719339133 0.16659640195605779 0 -0.048923644534391207 0.15702911376586301 0 -0.053299177719339133 0.16659640195605779 0 -0.048923644534391207 0.15702911376586301 0 -0.039831459945634848 0.1578630266473347 0 -0.06776383916965921 0.17761935187059719 0 -0.053299177719339133 0.16659640195605779 0 -0.058329522127625807 0.18158312307554961 0 -0.053299177719339133 0.16659640195605779 0 -0.058329522127625807 0.18158312307554961 0 -0.045453847594491337 0.17915410441413121 0 -0.048631938196037283 0.19389611787186839 0 -0.058329522127625807 0.18158312307554961 0 -0.045453847594491337 0.17915410441413121 0 -0.048631938196037283 0.19389611787186839 0 -0.045453847594491337 0.17915410441413121 0 -0.02900050723698638 0.18244252605581329 0 -0.045453847594491337 0.17915410441413121 0 -0.038008092692467917 0.171252353111366 0 -0.02900050723698638 0.18244252605581329 0 -0.053299177719339133 0.16659640195605779 0 -0.045453847594491337 0.17915410441413121 0 -0.038008092692467917 0.171252353111366 0 -0.038008092692467917 0.171252353111366 0 -0.02900050723698638 0.18244252605581329 0 -0.053299177719339133 0.16659640195605779 0 -0.02759516474382432 0.16530356138830049 0 -0.053299177719339133 0.16659640195605779 0 -0.038008092692467917 0.171252353111366 0 -0.02759516474382432 0.16530356138830049 0 -0.053299177719339133 0.16659640195605779 0 -0.039831459945634848 0.1578630266473347 0 -0.02759516474382432 0.16530356138830049 0 -0.053299177719339133 0.16659640195605779 0 -0.038008092692467917 0.171252353111366 0 -0.039831459945634848 0.1578630266473347 0 -0.02759516474382432 0.16530356138830049 0 -0.028010696449529231 0.15196079912241581 0 -0.02759516474382432 0.16530356138830049 0 -0.015647282948846451 0.15571599417636259 0 -0.028010696449529231 0.15196079912241581 0 -0.038008092692467917 0.171252353111366 0 -0.02759516474382432 0.16530356138830049 0 -0.021918675727747049 0.1761513867230082 0 -0.02759516474382432 0.16530356138830049 0 -0.021918675727747049 0.1761513867230082 0 -0.0092632800434732168 0.1709272094022907 0 -0.021918675727747049 0.1761513867230082 0 -0.02900050723698638 0.18244252605581329 0 -0.0092632800434732168 0.1709272094022907 0 -0.02900050723698638 0.18244252605581329 0 -0.0092632800434732168 0.1709272094022907 0 -0.02900050723698638 0.18244252605581329 0 -0.0089727778792802176 0.18636000313175791 0 -0.0092632800434732168 0.1709272094022907 0 -0.038008092692467917 0.171252353111366 0 -0.021918675727747049 0.1761513867230082 0 -0.02900050723698638 0.18244252605581329 0 -0.038008092692467917 0.171252353111366 0 -0.021918675727747049 0.1761513867230082 0 -0.0089727778792802176 0.18636000313175791 0 -0.0092632800434732168 0.1709272094022907 0 0.0064948468141689912 0.17867174760018439 0 -0.0092632800434732168 0.1709272094022907 0 -0.001891151768309479 0.1640107208205441 0 0.01047394715004011 0.15941189274876871 0 -0.02759516474382432 0.16530356138830049 0 -0.0092632800434732168 0.1709272094022907 0 -0.001891151768309479 0.1640107208205441 0 -0.02759516474382432 0.16530356138830049 0 -0.001891151768309479 0.1640107208205441 0 -0.015647282948846451 0.15571599417636259 0 -0.02759516474382432 0.16530356138830049 0 -0.001891151768309479 0.1640107208205441 0 -0.001891151768309479 0.1640107208205441 0 -0.0051583859673267167 0.15295390129575759 0 0.0012058402813239959 0.15733636835513379 0 -0.001891151768309479 0.1640107208205441 0 -0.0051583859673267167 0.15295390129575759 0 -0.015647282948846451 0.15571599417636259 0 -0.0051583859673267167 0.15295390129575759 0 -0.0029736631772857461 0.1415757828437873 0 0.0063670371555791458 0.1532583666516095 0 -0.0051583859673267167 0.15295390129575759 0 -0.0029736631772857461 0.1415757828437873 0 -0.015740589847818329 0.14482639382128359 0 -0.0051583859673267167 0.15295390129575759 0 -0.015647282948846451 0.15571599417636259 0 -0.015740589847818329 0.14482639382128359 0 -0.015647282948846451 0.15571599417636259 0 -0.015740589847818329 0.14482639382128359 0 -0.028010696449529231 0.15196079912241581 0 -0.032350063819354742 0.14009074415065609 0 -0.015740589847818329 0.14482639382128359 0 -0.028010696449529231 0.15196079912241581 0 -0.015740589847818329 0.14482639382128359 0 -0.02213771944379057 0.1345888198231063 0 -0.01135438044688623 0.1270442552940485 0 -0.029105843661102991 0.12639388602643711 0 -0.02213771944379057 0.1345888198231063 0 -0.01135438044688623 0.1270442552940485 0 -0.032350063819354742 0.14009074415065609 0 -0.015740589847818329 0.14482639382128359 0 -0.02213771944379057 0.1345888198231063 0 -0.032350063819354742 0.14009074415065609 0 -0.029105843661102991 0.12639388602643711 0 -0.02213771944379057 0.1345888198231063 0 -0.0029736631772857461 0.1415757828437873 0 -0.015740589847818329 0.14482639382128359 0 -0.01135438044688623 0.1270442552940485 0 -0.0029736631772857461 0.1415757828437873 0 -0.01135438044688623 0.1270442552940485 0 0.01101800322002339 0.12979599715623719 0 -0.01135438044688623 0.1270442552940485 0 -0.025159941451896119 0.1074646112636691 0 0.0001980641784044609 0.1068102123121014 0 -0.01135438044688623 0.1270442552940485 0 0.0001980641784044609 0.1068102123121014 0 0.01101800322002339 0.12979599715623719 0 -0.01062187486321446 0.08382442746796559 0 0.0001980641784044609 0.1068102123121014 0 -0.025159941451896119 0.1074646112636691 0 -0.01062187486321446 0.08382442746796559 0 0.0001980641784044609 0.1068102123121014 0 -0.029105843661102991 0.12639388602643711 0 -0.01135438044688623 0.1270442552940485 0 -0.025159941451896119 0.1074646112636691 0 -0.01062187486321446 0.08382442746796559 0 -0.021441813904833341 0.060838642623829868 0 0.0037172837315079419 0.07016749474180356 0 -0.025159941451896119 0.1074646112636691 0 -0.01062187486321446 0.08382442746796559 0 -0.035797444187534347 0.081887868140545328 0 -0.01062187486321446 0.08382442746796559 0 -0.035797444187534347 0.081887868140545328 0 -0.021441813904833341 0.060838642623829868 0 -0.01062187486321446 0.08382442746796559 0 -0.021441813904833341 0.060838642623829868 0 -0.035797444187534347 0.081887868140545328 0 -0.042708117989357433 0.05857900181345737 0 -0.021441813904833341 0.060838642623829868 0 -0.035797444187534347 0.081887868140545328 0 -0.053389744534689788 0.083137137784367515 0 -0.042708117989357433 0.05857900181345737 0 -0.035797444187534347 0.081887868140545328 0 -0.053389744534689788 0.083137137784367515 0 -0.046574043695885678 0.1077948456650691 0 -0.053389744534689788 0.083137137784367515 0 -0.042708117989357433 0.05857900181345737 0 -0.053389744534689788 0.083137137784367515 0 -0.063725220392681706 0.05863387501543383 0 -0.042708117989357433 0.05857900181345737 0 -0.025159941451896119 0.1074646112636691 0 -0.040230960046840299 0.1219929630901124 0 -0.046574043695885678 0.1077948456650691 0 -0.029105843661102991 0.12639388602643711 0 -0.025159941451896119 0.1074646112636691 0 -0.040230960046840299 0.1219929630901124 0 -0.025159941451896119 0.1074646112636691 0 -0.035797444187534347 0.081887868140545328 0 -0.046574043695885678 0.1077948456650691 0 -0.035797444187534347 0.081887868140545328 0 -0.046574043695885678 0.1077948456650691 0 -0.053389744534689788 0.083137137784367515 0 -0.064071371080022144 0.1076952737552777 0 -0.053389744534689788 0.083137137784367515 0 -0.046574043695885678 0.1077948456650691 0 -0.064071371080022144 0.1076952737552777 0 -0.057350643204237002 0.13370182318959281 0 -0.046574043695885678 0.1077948456650691 0 -0.057350643204237002 0.13370182318959281 0 -0.046574043695885678 0.1077948456650691 0 -0.064071371080022144 0.1076952737552777 0 -0.057350643204237002 0.13370182318959281 0 -0.040230960046840299 0.1219929630901124 0 -0.046574043695885678 0.1077948456650691 0 -0.074752997625354478 0.13225340972618771 0 -0.057350643204237002 0.13370182318959281 0 -0.064071371080022144 0.1076952737552777 0 -0.074752997625354478 0.13225340972618771 0 -0.064071371080022144 0.1076952737552777 0 -0.095351021088281029 0.1132788129042437 0 -0.074752997625354478 0.13225340972618771 0 -0.064071371080022144 0.1076952737552777 0 -0.064071371080022144 0.1076952737552777 0 -0.073651727950581558 0.09166397531169615 0 -0.095351021088281029 0.1132788129042437 0 -0.073651727950581558 0.09166397531169615 0 -0.090013846735524067 0.084288514617113688 0 -0.095351021088281029 0.1132788129042437 0 -0.090013846735524067 0.084288514617113688 0 -0.095351021088281029 0.1132788129042437 0 -0.053389744534689788 0.083137137784367515 0 -0.064071371080022144 0.1076952737552777 0 -0.073651727950581558 0.09166397531169615 0 -0.053389744534689788 0.083137137784367515 0 -0.073651727950581558 0.09166397531169615 0 -0.07345113472431529 0.073839540726120589 0 -0.07345113472431529 0.073839540726120589 0 -0.084676672382767132 0.055298216329983753 0 -0.063725220392681706 0.05863387501543383 0 -0.053389744534689788 0.083137137784367515 0 -0.07345113472431529 0.073839540726120589 0 -0.063725220392681706 0.05863387501543383 0 -0.090013846735524067 0.084288514617113688 0 -0.084676672382767132 0.055298216329983753 0 -0.07345113472431529 0.073839540726120589 0 -0.090013846735524067 0.084288514617113688 0 -0.084676672382767132 0.055298216329983753 0 -0.090013846735524067 0.084288514617113688 0 -0.096661421907687561 0.067387359606621983 0 -0.084676672382767132 0.055298216329983753 0 -0.073651727950581558 0.09166397531169615 0 -0.07345113472431529 0.073839540726120589 0 -0.090013846735524067 0.084288514617113688 0 -0.090013846735524067 0.084288514617113688 0 -0.10617812664887651 0.086344323227003611 0 -0.099049698781556339 0.077817632753473934 0 -0.10617812664887651 0.086344323227003611 0 -0.099049698781556339 0.077817632753473934 0 -0.1081463951301859 0.069963320252453554 0 -0.090013846735524067 0.084288514617113688 0 -0.096661421907687561 0.067387359606621983 0 -0.099049698781556339 0.077817632753473934 0 -0.096661421907687561 0.067387359606621983 0 -0.099049698781556339 0.077817632753473934 0 -0.1081463951301859 0.069963320252453554 0 -0.1081463951301859 0.069963320252453554 0 -0.1135912508042005 0.064115295233536457 0 -0.1051397924124971 0.060859595982885831 0 -0.096661421907687561 0.067387359606621983 0 -0.1081463951301859 0.069963320252453554 0 -0.1051397924124971 0.060859595982885831 0 -0.1081463951301859 0.069963320252453554 0 -0.1051397924124971 0.060859595982885831 0 -0.12896213863271691 0.083650821618243498 0 -0.1081463951301859 0.069963320252453554 0 -0.11802446614984929 0.068963353137686131 0 -0.1081463951301859 0.069963320252453554 0 -0.1135912508042005 0.064115295233536457 0 -0.11802446614984929 0.068963353137686131 0 -0.1081463951301859 0.069963320252453554 0 -0.11802446614984929 0.068963353137686131 0 -0.1135912508042005 0.064115295233536457 0 -0.11802446614984929 0.068963353137686131 0 -0.11948874179190259 0.062211153443849053 0 -0.12715444671759099 0.062668682551852761 0 -0.11802446614984929 0.068963353137686131 0 -0.11948874179190259 0.062211153443849053 0 -0.12896213863271691 0.083650821618243498 0 -0.1081463951301859 0.069963320252453554 0 -0.1174442832160293 0.098116494240121852 0 -0.10617812664887651 0.086344323227003611 0 -0.1081463951301859 0.069963320252453554 0 -0.1174442832160293 0.098116494240121852 0 -0.1081463951301859 0.069963320252453554 0 -0.1174442832160293 0.098116494240121852 0 -0.12674217130187451 0.12626966822778959 0 -0.1174442832160293 0.098116494240121852 0 -0.095351021088281029 0.1132788129042437 0 -0.12674217130187451 0.12626966822778959 0 -0.1174442832160293 0.098116494240121852 0 -0.090013846735524067 0.084288514617113688 0 -0.10617812664887651 0.086344323227003611 0 -0.095351021088281029 0.1132788129042437 0 -0.10617812664887651 0.086344323227003611 0 -0.1174442832160293 0.098116494240121852 0 -0.095351021088281029 0.1132788129042437 0 -0.1063417727157107 0.021371484564488522 0 -0.1102137873229056 0.032184955132252481 0 -0.093382368819661082 0.029896303418593138 0 -0.1063417727157107 0.021371484564488522 0 -0.094759973104609665 0.01584634798239809 0 -0.11601858921095939 0.0096605820066830734 0 -0.1063417727157107 0.021371484564488522 0 -0.094759973104609665 0.01584634798239809 0 -0.093382368819661082 0.029896303418593138 0 -0.1044983730131086 -0.004718752925118504 0 -0.094759973104609665 0.01584634798239809 0 -0.1044983730131086 -0.004718752925118504 0 -0.094759973104609665 0.01584634798239809 0 -0.11601858921095939 0.0096605820066830734 0 -0.1044983730131086 -0.004718752925118504 0 -0.094759973104609665 0.01584634798239809 0 -0.087554471175268961 0.0045918173266670829 0 -0.12949295467529551 0.018231171157559681 0 -0.1173341451204175 0.01926923428251584 0 -0.123937725603356 0.030435728301502929 0 -0.12949295467529551 0.018231171157559681 0 -0.11601858921095939 0.0096605820066830734 0 -0.1173341451204175 0.01926923428251584 0 -0.1063417727157107 0.021371484564488522 0 -0.11601858921095939 0.0096605820066830734 0 -0.1173341451204175 0.01926923428251584 0 -0.1063417727157107 0.021371484564488522 0 -0.1173341451204175 0.01926923428251584 0 -0.1102137873229056 0.032184955132252481 0 -0.1173341451204175 0.01926923428251584 0 -0.123937725603356 0.030435728301502929 0 -0.1102137873229056 0.032184955132252481 0 -0.1282100152610203 0.042045544881697532 0 -0.123937725603356 0.030435728301502929 0 -0.11924288014186089 0.040882375384976598 0 -0.123937725603356 0.030435728301502929 0 -0.11924288014186089 0.040882375384976598 0 -0.1102137873229056 0.032184955132252481 0 -0.1282100152610203 0.042045544881697532 0 -0.11924288014186089 0.040882375384976598 0 -0.12275290120079731 0.05048618285085707 0 -0.11924288014186089 0.040882375384976598 0 -0.1094691043872501 0.042535801433263902 0 -0.1125997856771863 0.050050473429809492 0 -0.11924288014186089 0.040882375384976598 0 -0.1094691043872501 0.042535801433263902 0 -0.1102137873229056 0.032184955132252481 0 -0.11948874179190259 0.062211153443849053 0 -0.1227489467975991 0.057835829294815018 0 -0.11591973774952601 0.057422006563973629 0 -0.12715444671759099 0.062668682551852761 0 -0.11948874179190259 0.062211153443849053 0 -0.1227489467975991 0.057835829294815018 0 -0.1227489467975991 0.057835829294815018 0 -0.12275290120079731 0.05048618285085707 0 -0.11591973774952601 0.057422006563973629 0 -0.11924288014186089 0.040882375384976598 0 -0.12275290120079731 0.05048618285085707 0 -0.1125997856771863 0.050050473429809492 0 -0.12275290120079731 0.05048618285085707 0 -0.1125997856771863 0.050050473429809492 0 -0.11591973774952601 0.057422006563973629 0 -0.1125997856771863 0.050050473429809492 0 -0.11591973774952601 0.057422006563973629 0 -0.1051397924124971 0.060859595982885831 0 -0.1135912508042005 0.064115295233536457 0 -0.11591973774952601 0.057422006563973629 0 -0.1051397924124971 0.060859595982885831 0 -0.1135912508042005 0.064115295233536457 0 -0.11948874179190259 0.062211153443849053 0 -0.11591973774952601 0.057422006563973629 0 -0.1018837892162401 0.050915485794693849 0 -0.097090418979797949 0.058615164428546349 0 -0.084676672382767132 0.055298216329983753 0 -0.1018837892162401 0.050915485794693849 0 -0.099759957766877877 0.040981491910001458 0 -0.084676672382767132 0.055298216329983753 0 -0.1125997856771863 0.050050473429809492 0 -0.1051397924124971 0.060859595982885831 0 -0.1018837892162401 0.050915485794693849 0 -0.1094691043872501 0.042535801433263902 0 -0.1125997856771863 0.050050473429809492 0 -0.1018837892162401 0.050915485794693849 0 -0.096661421907687561 0.067387359606621983 0 -0.1051397924124971 0.060859595982885831 0 -0.097090418979797949 0.058615164428546349 0 -0.1051397924124971 0.060859595982885831 0 -0.1018837892162401 0.050915485794693849 0 -0.097090418979797949 0.058615164428546349 0 -0.1102137873229056 0.032184955132252481 0 -0.099759957766877877 0.040981491910001458 0 -0.093382368819661082 0.029896303418593138 0 -0.1094691043872501 0.042535801433263902 0 -0.1102137873229056 0.032184955132252481 0 -0.099759957766877877 0.040981491910001458 0 -0.1094691043872501 0.042535801433263902 0 -0.1018837892162401 0.050915485794693849 0 -0.099759957766877877 0.040981491910001458 0 -0.099759957766877877 0.040981491910001458 0 -0.084676672382767132 0.055298216329983753 0 -0.093382368819661082 0.029896303418593138 0 -0.084676672382767132 0.055298216329983753 0 -0.079339498030010169 0.026307918042853758 0 -0.084676672382767132 0.055298216329983753 0 -0.079339498030010169 0.026307918042853758 0 -0.093382368819661082 0.029896303418593138 0 -0.096661421907687561 0.067387359606621983 0 -0.097090418979797949 0.058615164428546349 0 -0.084676672382767132 0.055298216329983753 0 -0.084676672382767132 0.055298216329983753 0 -0.063725220392681706 0.05863387501543383 0 -0.069556041309711381 0.041540383514761067 0 -0.084676672382767132 0.055298216329983753 0 -0.069556041309711381 0.041540383514761067 0 -0.079339498030010169 0.026307918042853758 0 -0.069556041309711381 0.041540383514761067 0 -0.063177292706660462 0.028838706924419779 0 -0.079339498030010169 0.026307918042853758 0 -0.063725220392681706 0.05863387501543383 0 -0.069556041309711381 0.041540383514761067 0 -0.054336644448556487 0.039765877471334997 0 -0.063177292706660462 0.028838706924419779 0 -0.062757196175614913 0.016759708128303789 0 -0.079339498030010169 0.026307918042853758 0 -0.062757196175614913 0.016759708128303789 0 -0.079339498030010169 0.026307918042853758 0 -0.066877308297120658 0.0069600457306166381 0 -0.094759973104609665 0.01584634798239809 0 -0.079339498030010169 0.026307918042853758 0 -0.093382368819661082 0.029896303418593138 0 -0.094759973104609665 0.01584634798239809 0 -0.079339498030010169 0.026307918042853758 0 -0.087554471175268961 0.0045918173266670829 0 -0.074002323677253221 -0.0026823802442761391 0 -0.079339498030010169 0.026307918042853758 0 -0.087554471175268961 0.0045918173266670829 0 -0.074002323677253221 -0.0026823802442761391 0 -0.079339498030010169 0.026307918042853758 0 -0.066877308297120658 0.0069600457306166381 0 -0.074002323677253221 -0.0026823802442761391 0 -0.079339498030010169 0.026307918042853758 0 -0.062406300699629172 -0.008764516494169098 0 -0.066877308297120658 0.0069600457306166381 0 -0.055881222903095752 0.0031794992203708771 0 -0.055881222903095752 0.0031794992203708771 0 -0.049897083569409341 0.019819647464845248 0 -0.043645596178405299 0.0038954635122720009 0 -0.062757196175614913 0.016759708128303789 0 -0.055881222903095752 0.0031794992203708771 0 -0.049897083569409341 0.019819647464845248 0 -0.062757196175614913 0.016759708128303789 0 -0.066877308297120658 0.0069600457306166381 0 -0.055881222903095752 0.0031794992203708771 0 -0.063177292706660462 0.028838706924419779 0 -0.049897083569409341 0.019819647464845248 0 -0.054336644448556487 0.039765877471334997 0 -0.063177292706660462 0.028838706924419779 0 -0.062757196175614913 0.016759708128303789 0 -0.049897083569409341 0.019819647464845248 0 -0.049897083569409341 0.019819647464845248 0 -0.054336644448556487 0.039765877471334997 0 -0.032026491444025071 0.034020865842547217 0 -0.049897083569409341 0.019819647464845248 0 -0.036728509022632957 0.0167996766728255 0 -0.032026491444025071 0.034020865842547217 0 -0.036728509022632957 0.0167996766728255 0 -0.043645596178405299 0.0038954635122720009 0 -0.021344864898692129 0.0094627298716374146 0 -0.049897083569409341 0.019819647464845248 0 -0.036728509022632957 0.0167996766728255 0 -0.043645596178405299 0.0038954635122720009 0 -0.043645596178405299 0.0038954635122720009 0 -0.021344864898692129 0.0094627298716374146 0 -0.063725220392681706 0.05863387501543383 0 -0.054336644448556487 0.039765877471334997 0 -0.042708117989357433 0.05857900181345737 0 -0.069556041309711381 0.041540383514761067 0 -0.063177292706660462 0.028838706924419779 0 -0.054336644448556487 0.039765877471334997 0 -0.054336644448556487 0.039765877471334997 0 -0.032026491444025071 0.034020865842547217 0 -0.042708117989357433 0.05857900181345737 0 -0.032026491444025071 0.034020865842547217 0 -0.042708117989357433 0.05857900181345737 0 -0.019050372392382511 0.044795513989834272 0 -0.032026491444025071 0.034020865842547217 0 -0.042708117989357433 0.05857900181345737 0 -0.042708117989357433 0.05857900181345737 0 -0.021441813904833341 0.060838642623829868 0 -0.019050372392382511 0.044795513989834272 0 -0.032026491444025071 0.034020865842547217 0 -0.019050372392382511 0.044795513989834272 0 -0.013176866435090379 0.02735496203327387 0 -0.019050372392382511 0.044795513989834272 0 -0.003381789550454256 0.037375532134919252 0 -0.0030257256178234239 0.052136070268165698 0 -0.019050372392382511 0.044795513989834272 0 -0.003381789550454256 0.037375532134919252 0 -0.013176866435090379 0.02735496203327387 0 -0.021441813904833341 0.060838642623829868 0 -0.019050372392382511 0.044795513989834272 0 -0.0030257256178234239 0.052136070268165698 0 -0.021441813904833341 0.060838642623829868 0 -0.0030257256178234239 0.052136070268165698 0 0.0037172837315079419 0.07016749474180356 0 -0.027455706450280028 -0.0012869457993565649 0 -0.043645596178405299 0.0038954635122720009 0 -0.021344864898692129 0.0094627298716374146 0 -0.027455706450280028 -0.0012869457993565649 0 -0.021344864898692129 0.0094627298716374146 0 -0.018587792590070849 0.003123942763754689 0 -0.021344864898692129 0.0094627298716374146 0 -0.018587792590070849 0.003123942763754689 0 -0.032026491444025071 0.034020865842547217 0 -0.021344864898692129 0.0094627298716374146 0 -0.013176866435090379 0.02735496203327387 0 -0.036728509022632957 0.0167996766728255 0 -0.032026491444025071 0.034020865842547217 0 -0.021344864898692129 0.0094627298716374146 0 -0.032026491444025071 0.034020865842547217 0 -0.021344864898692129 0.0094627298716374146 0 -0.013176866435090379 0.02735496203327387 0 -0.003148355897088978 0.01400539760534876 0 0.0027770084652985329 0.02564204269073711 0 -0.021344864898692129 0.0094627298716374146 0 -0.013176866435090379 0.02735496203327387 0 -0.003148355897088978 0.01400539760534876 0 -0.003381789550454256 0.037375532134919252 0 -0.013176866435090379 0.02735496203327387 0 0.0027770084652985329 0.02564204269073711 0 -0.021344864898692129 0.0094627298716374146 0 -0.003148355897088978 0.01400539760534876 0 -0.021344864898692129 0.0094627298716374146 0 -0.018587792590070849 0.003123942763754689 0 -0.003148355897088978 0.01400539760534876 0 -0.0032302248502834052 -0.0014363109070051629 0 -0.018587792590070849 0.003123942763754689 0 -0.003148355897088978 0.01400539760534876 0 -0.0032302248502834052 -0.0014363109070051629 0 -0.003148355897088978 0.01400539760534876 0 0.01187708760995689 0.002197858344390409 0 0.01187708760995689 0.002197858344390409 0 0.01504815310451434 0.018548065339059269 0 -0.003148355897088978 0.01400539760534876 0 0.01187708760995689 0.002197858344390409 0 0.01504815310451434 0.018548065339059269 0 -0.003148355897088978 0.01400539760534876 0 0.01504815310451434 0.018548065339059269 0 -0.003148355897088978 0.01400539760534876 0 0.0027770084652985329 0.02564204269073711 0 0.01504815310451434 0.018548065339059269 0 0.0027770084652985329 0.02564204269073711 0 0.0118781655710584 0.024667413565639298 0 0.0094427439988522509 0.031900885466181569 0 0.0118781655710584 0.024667413565639298 0 0.020414098280317351 0.02843413262649977 0 0.0094427439988522509 0.031900885466181569 0 0.0027770084652985329 0.02564204269073711 0 0.0118781655710584 0.024667413565639298 0 0.01504815310451434 0.018548065339059269 0 0.01504815310451434 0.018548065339059269 0 0.020414098280317351 0.02843413262649977 0 0.036384860205030803 0.023874667869282919 0 0.020414098280317351 0.02843413262649977 0 0.029711330537010801 0.035577602364715917 0 0.036384860205030803 0.023874667869282919 0 0.01504815310451434 0.018548065339059269 0 0.036384860205030803 0.023874667869282919 0 0.01504815310451434 0.018548065339059269 0 0.024140463507579601 0.0088424497682493726 0 0.036384860205030803 0.023874667869282919 0 0.0118781655710584 0.024667413565639298 0 0.01504815310451434 0.018548065339059269 0 0.020414098280317351 0.02843413262649977 0 0.01187708760995689 0.002197858344390409 0 0.01504815310451434 0.018548065339059269 0 0.024140463507579601 0.0088424497682493726 0 0.024140463507579601 0.0088424497682493726 0 0.035054331944918173 0.003010712153852394 0 0.022337884673477991 -0.0034190548653388361 0 0.01187708760995689 0.002197858344390409 0 0.024140463507579601 0.0088424497682493726 0 0.022337884673477991 -0.0034190548653388361 0 -0.0030257256178234239 0.052136070268165698 0 0.012348440766857 0.056188029335644971 0 0.0037172837315079419 0.07016749474180356 0 -0.0030257256178234239 0.052136070268165698 0 0.012348440766857 0.056188029335644971 0 0.009046159897660961 0.044089538273457102 0 0.012348440766857 0.056188029335644971 0 0.009046159897660961 0.044089538273457102 0 0.023540709187316211 0.04847795828654667 0 -0.003381789550454256 0.037375532134919252 0 -0.0030257256178234239 0.052136070268165698 0 0.009046159897660961 0.044089538273457102 0 -0.003381789550454256 0.037375532134919252 0 0.009046159897660961 0.044089538273457102 0 0.0094427439988522509 0.031900885466181569 0 -0.003381789550454256 0.037375532134919252 0 0.0027770084652985329 0.02564204269073711 0 0.0094427439988522509 0.031900885466181569 0 0.009046159897660961 0.044089538273457102 0 0.0094427439988522509 0.031900885466181569 0 0.018484857164606371 0.037274017868103672 0 0.029711330537010801 0.035577602364715917 0 0.023540709187316211 0.04847795828654667 0 0.036427861221823503 0.051776604494213042 0 0.020414098280317351 0.02843413262649977 0 0.0094427439988522509 0.031900885466181569 0 0.018484857164606371 0.037274017868103672 0 0.020414098280317351 0.02843413262649977 0 0.018484857164606371 0.037274017868103672 0 0.029711330537010801 0.035577602364715917 0 0.018484857164606371 0.037274017868103672 0 0.029711330537010801 0.035577602364715917 0 0.023540709187316211 0.04847795828654667 0 0.009046159897660961 0.044089538273457102 0 0.018484857164606371 0.037274017868103672 0 0.023540709187316211 0.04847795828654667 0 0.012348440766857 0.056188029335644971 0 0.023540709187316211 0.04847795828654667 0 0.026876528976671091 0.06695878260951954 0 0.023540709187316211 0.04847795828654667 0 0.036427861221823503 0.051776604494213042 0 0.026876528976671091 0.06695878260951954 0 0.036427861221823503 0.051776604494213042 0 0.044817948275350003 0.040716887666687657 0 0.048547073331288437 0.061682511448135843 0 0.036427861221823503 0.051776604494213042 0 0.048547073331288437 0.061682511448135843 0 0.026876528976671091 0.06695878260951954 0 0.044817948275350003 0.040716887666687657 0 0.036384860205030803 0.023874667869282919 0 0.05772156730554745 0.02920127039950586 0 0.029711330537010801 0.035577602364715917 0 0.044817948275350003 0.040716887666687657 0 0.036384860205030803 0.023874667869282919 0 0.029711330537010801 0.035577602364715917 0 0.036427861221823503 0.051776604494213042 0 0.044817948275350003 0.040716887666687657 0 0.044817948275350003 0.040716887666687657 0 0.061523886307908539 0.050212843361493259 0 0.05772156730554745 0.02920127039950586 0 0.061523886307908539 0.050212843361493259 0 0.048547073331288437 0.061682511448135843 0 0.070515866426295176 0.072197362067458443 0 0.044817948275350003 0.040716887666687657 0 0.061523886307908539 0.050212843361493259 0 0.048547073331288437 0.061682511448135843 0 0.046350047836673319 0.0075890251872863749 0 0.035054331944918173 0.003010712153852394 0 0.036384860205030803 0.023874667869282919 0 0.024140463507579601 0.0088424497682493726 0 0.035054331944918173 0.003010712153852394 0 0.036384860205030803 0.023874667869282919 0 0.046350047836673319 0.0075890251872863749 0 0.036384860205030803 0.023874667869282919 0 0.051908330840109797 0.019130764428311079 0 0.036384860205030803 0.023874667869282919 0 0.051908330840109797 0.019130764428311079 0 0.05772156730554745 0.02920127039950586 0 0.036384860205030803 0.023874667869282919 0 0.05772156730554745 0.02920127039950586 0 0.051908330840109797 0.019130764428311079 0 0.05772156730554745 0.02920127039950586 0 0.061791686987860778 0.02226740962932125 0 0.051908330840109797 0.019130764428311079 0 0.061791686987860778 0.02226740962932125 0 0.057293491865436627 0.01272144905615896 0 0.046350047836673319 0.0075890251872863749 0 0.057293491865436627 0.01272144905615896 0 0.056628101465438611 -0.003750497268020465 0 0.057293491865436627 0.01272144905615896 0 0.071338340700028674 0.02135336548905591 0 0.056628101465438611 -0.003750497268020465 0 0.046350047836673319 0.0075890251872863749 0 0.051908330840109797 0.019130764428311079 0 0.057293491865436627 0.01272144905615896 0 0.071338340700028674 0.02135336548905591 0 0.078567159103423628 -0.001285830071337615 0 0.070073770280689063 0.0082924061487704773 0 0.071338340700028674 0.02135336548905591 0 0.078567159103423628 -0.001285830071337615 0 0.070073770280689063 0.0082924061487704773 0 0.071338340700028674 0.02135336548905591 0 0.056628101465438611 -0.003750497268020465 0 0.071338340700028674 0.02135336548905591 0 0.056628101465438611 -0.003750497268020465 0 0.083249915492237023 0.01246551199111375 0 0.071338340700028674 0.02135336548905591 0 0.078567159103423628 -0.001285830071337615 0 0.083249915492237023 0.01246551199111375 0 0.087949856068919682 0.0036313828399168898 0 0.078567159103423628 -0.001285830071337615 0 0.083249915492237023 0.01246551199111375 0 0.087949856068919682 0.0036313828399168898 0 0.095821406668628095 0.01500930039933589 0 0.093264947891462099 0.028490382275511289 0 0.083373847889569433 0.023248923246475761 0 0.095821406668628095 0.01500930039933589 0 0.083249915492237023 0.01246551199111375 0 0.083373847889569433 0.023248923246475761 0 0.095821406668628095 0.01500930039933589 0 0.083249915492237023 0.01246551199111375 0 0.083373847889569433 0.023248923246475761 0 0.071338340700028674 0.02135336548905591 0 0.093264947891462099 0.028490382275511289 0 0.083373847889569433 0.023248923246475761 0 0.079058274406064333 0.034527872929727532 0 0.071338340700028674 0.02135336548905591 0 0.079058274406064333 0.034527872929727532 0 0.083373847889569433 0.023248923246475761 0 0.071338340700028674 0.02135336548905591 0 0.079058274406064333 0.034527872929727532 0 0.071338340700028674 0.02135336548905591 0 0.069540385731787169 0.02698419640268258 0 0.079058274406064333 0.034527872929727532 0 0.05772156730554745 0.02920127039950586 0 0.069540385731787169 0.02698419640268258 0 0.079058274406064333 0.034527872929727532 0 0.071338340700028674 0.02135336548905591 0 0.069540385731787169 0.02698419640268258 0 0.061791686987860778 0.02226740962932125 0 0.057293491865436627 0.01272144905615896 0 0.071338340700028674 0.02135336548905591 0 0.05772156730554745 0.02920127039950586 0 0.061791686987860778 0.02226740962932125 0 0.069540385731787169 0.02698419640268258 0 0.061791686987860778 0.02226740962932125 0 0.071338340700028674 0.02135336548905591 0 0.069540385731787169 0.02698419640268258 0 0.05772156730554745 0.02920127039950586 0 0.069338953174413354 0.041515379588535989 0 0.079058274406064333 0.034527872929727532 0 0.05772156730554745 0.02920127039950586 0 0.079058274406064333 0.034527872929727532 0 0.061523886307908539 0.050212843361493259 0 0.05772156730554745 0.02920127039950586 0 0.069338953174413354 0.041515379588535989 0 0.061523886307908539 0.050212843361493259 0 0.069338953174413354 0.041515379588535989 0 0.072109473661105553 0.048649056874323297 0 0.069338953174413354 0.041515379588535989 0 0.079058274406064333 0.034527872929727532 0 0.080220940209139724 0.044713894391485758 0 0.069338953174413354 0.041515379588535989 0 0.072109473661105553 0.048649056874323297 0 0.080220940209139724 0.044713894391485758 0 0.061523886307908539 0.050212843361493259 0 0.072109473661105553 0.048649056874323297 0 0.077354114952960615 0.058154110155778198 0 0.061523886307908539 0.050212843361493259 0 0.077354114952960615 0.058154110155778198 0 0.070515866426295176 0.072197362067458443 0 0.072109473661105553 0.048649056874323297 0 0.077354114952960615 0.058154110155778198 0 0.080220940209139724 0.044713894391485758 0 0.077354114952960615 0.058154110155778198 0 0.087420642774548224 0.048798731785160289 0 0.1017700709919864 0.073286849950234476 0 0.077354114952960615 0.058154110155778198 0 0.087420642774548224 0.048798731785160289 0 0.080220940209139724 0.044713894391485758 0 0.087420642774548224 0.048798731785160289 0 0.079058274406064333 0.034527872929727532 0 0.1022773896948148 0.040324409277345583 0 0.093264947891462099 0.028490382275511289 0 0.079058274406064333 0.034527872929727532 0 0.1022773896948148 0.040324409277345583 0 0.079058274406064333 0.034527872929727532 0 0.1022773896948148 0.040324409277345583 0 0.087420642774548224 0.048798731785160289 0 0.079058274406064333 0.034527872929727532 0 0.087420642774548224 0.048798731785160289 0 0.079058274406064333 0.034527872929727532 0 0.080220940209139724 0.044713894391485758 0 0.087420642774548224 0.048798731785160289 0 0.080220940209139724 0.044713894391485758 0 0.093264947891462099 0.028490382275511289 0 0.1022773896948148 0.040324409277345583 0 0.1038052237444983 0.02689747998690931 0 0.1022773896948148 0.040324409277345583 0 0.11580867297955021 0.031777286842571278 0 0.1038052237444983 0.02689747998690931 0 0.087420642774548224 0.048798731785160289 0 0.1017700709919864 0.073286849950234476 0 0.087420642774548224 0.048798731785160289 0 0.1059617892058299 0.059318273054539267 0 0.087420642774548224 0.048798731785160289 0 0.1022773896948148 0.040324409277345583 0 0.1059617892058299 0.059318273054539267 0 0.1022773896948148 0.040324409277345583 0 0.1059617892058299 0.059318273054539267 0 0.11446260822060619 0.051459907926853142 0 0.087420642774548224 0.048798731785160289 0 0.1059617892058299 0.059318273054539267 0 0.1017700709919864 0.073286849950234476 0 0.1059617892058299 0.059318273054539267 0 0.11676865174926861 0.057408974916403427 0 0.12450293563711071 0.069837814323919861 0 0.11676865174926861 0.057408974916403427 0 0.12180870546955221 0.054126936761015002 0 0.12450293563711071 0.069837814323919861 0 0.1059617892058299 0.059318273054539267 0 0.11676865174926861 0.057408974916403427 0 0.11446260822060619 0.051459907926853142 0 0.11446260822060619 0.051459907926853142 0 0.12180870546955221 0.054126936761015002 0 0.12549650498356549 0.04612094562496237 0 0.11676865174926861 0.057408974916403427 0 0.11446260822060619 0.051459907926853142 0 0.12180870546955221 0.054126936761015002 0 0.1022773896948148 0.040324409277345583 0 0.12549650498356549 0.04612094562496237 0 0.1022773896948148 0.040324409277345583 0 0.11580867297955021 0.031777286842571278 0 0.12549650498356549 0.04612094562496237 0 0.1022773896948148 0.040324409277345583 0 0.11446260822060619 0.051459907926853142 0 0.12549650498356549 0.04612094562496237 0 0.11580867297955021 0.031777286842571278 0 0.12664249652680701 0.035329914042286137 0 0.12549650498356549 0.04612094562496237 0 0.11580867297955021 0.031777286842571278 0 0.1233780079704607 0.022937936676437141 0 0.12664249652680701 0.035329914042286137 0 0.11580867297955021 0.031777286842571278 0 0.11185370148803619 0.018886021139782529 0 0.1038052237444983 0.02689747998690931 0 0.11580867297955021 0.031777286842571278 0 0.11185370148803619 0.018886021139782529 0 0.1233780079704607 0.022937936676437141 0 0.11185370148803619 0.018886021139782529 0 0.1233780079704607 0.022937936676437141 0 0.119839947686119 0.01087057269941295 0 0.1233780079704607 0.022937936676437141 0 0.119839947686119 0.01087057269941295 0 0.12879685253783629 0.01416995797359104 0 0.119839947686119 0.01087057269941295 0 0.1248322407467045 7.7178395747419371e-05 0 0.10819727561622181 0.0051540275748058516 0 0.119839947686119 0.01087057269941295 0 0.1248322407467045 7.7178395747419371e-05 0 0.12879685253783629 0.01416995797359104 0 0.11185370148803619 0.018886021139782529 0 0.119839947686119 0.01087057269941295 0 0.10819727561622181 0.0051540275748058516 0 0.087949856068919682 0.0036313828399168898 0 0.095821406668628095 0.01500930039933589 0 0.098223868840708883 -0.001829340687899171 0 0.10819727561622181 0.0051540275748058516 0 0.095821406668628095 0.01500930039933589 0 0.098223868840708883 -0.001829340687899171 0 0.11185370148803619 0.018886021139782529 0 0.10819727561622181 0.0051540275748058516 0 0.095821406668628095 0.01500930039933589 0 0.11185370148803619 0.018886021139782529 0 0.095821406668628095 0.01500930039933589 0 0.1038052237444983 0.02689747998690931 0 0.093264947891462099 0.028490382275511289 0 0.095821406668628095 0.01500930039933589 0 0.1038052237444983 0.02689747998690931 0 0.098360770955667504 0.1081359665068702 0 0.116119499209427 0.097774968115307281 0 0.098360770955667504 0.1081359665068702 0 0.116119499209427 0.097774968115307281 0 0.098632599904913631 0.092964790722049134 0 0.098360770955667504 0.1081359665068702 0 0.1121759403494144 0.1118664086501189 0 0.116119499209427 0.097774968115307281 0 0.098360770955667504 0.1081359665068702 0 0.098632599904913631 0.092964790722049134 0 0.085422551845952946 0.1017695300247897 0 0.098360770955667504 0.1081359665068702 0 0.099580799205862811 0.11971690923022241 0 0.1121759403494144 0.1118664086501189 0 0.099580799205862811 0.11971690923022241 0 0.1121759403494144 0.1118664086501189 0 0.11701143033872941 0.12932700917832221 0 0.1121759403494144 0.1118664086501189 0 0.11701143033872941 0.12932700917832221 0 0.12615895248881381 0.11490786808128919 0 0.116119499209427 0.097774968115307281 0 0.12615895248881381 0.11490786808128919 0 0.1121759403494144 0.1118664086501189 0 0.116119499209427 0.097774968115307281 0 0.12615895248881381 0.11490786808128919 0 0.116119499209427 0.097774968115307281 0 0.12871221674650829 0.10198449884209219 0 0.12615895248881381 0.11490786808128919 0 0.116119499209427 0.097774968115307281 0 0.1136202496910369 0.074750742490211242 0 0.1017700709919864 0.073286849950234476 0 0.116119499209427 0.097774968115307281 0 0.12069271844112529 0.084371028470734494 0 0.1136202496910369 0.074750742490211242 0 0.116119499209427 0.097774968115307281 0 0.12069271844112529 0.084371028470734494 0 0.13032430774723339 0.089487437819802368 0 0.116119499209427 0.097774968115307281 0 0.13032430774723339 0.089487437819802368 0 0.1059617892058299 0.059318273054539267 0 0.12450293563711071 0.069837814323919861 0 0.1136202496910369 0.074750742490211242 0 0.1059617892058299 0.059318273054539267 0 0.12450293563711071 0.069837814323919861 0 0.12069271844112529 0.084371028470734494 0 0.12450293563711071 0.069837814323919861 0 0.12069271844112529 0.084371028470734494 0 0.12450293563711071 0.069837814323919861 0 0.1136202496910369 0.074750742490211242 0 0.1059617892058299 0.059318273054539267 0 0.1136202496910369 0.074750742490211242 0 0.1017700709919864 0.073286849950234476 0 0.116119499209427 0.097774968115307281 0 0.1017700709919864 0.073286849950234476 0 0.098632599904913631 0.092964790722049134 0 0.116119499209427 0.097774968115307281 0 0.1017700709919864 0.073286849950234476 0 0.1017700709919864 0.073286849950234476 0 0.098632599904913631 0.092964790722049134 0 0.086592109708122686 0.086848705513414448 0 0.1017700709919864 0.073286849950234476 0 0.086592109708122686 0.086848705513414448 0 0.070515866426295176 0.072197362067458443 0 0.077354114952960615 0.058154110155778198 0 0.1017700709919864 0.073286849950234476 0 0.070515866426295176 0.072197362067458443 0 0.086592109708122686 0.086848705513414448 0 0.070515866426295176 0.072197362067458443 0 0.073192858326506585 0.093749943661386143 0 0.070515866426295176 0.072197362067458443 0 0.073192858326506585 0.093749943661386143 0 0.057745686695934967 0.090295436206063395 0 0.073192858326506585 0.093749943661386143 0 0.062571522759167983 0.1025276316952462 0 0.057745686695934967 0.090295436206063395 0 0.062571522759167983 0.1025276316952462 0 0.074662666644186457 0.1085506043234858 0 0.062088101121866537 0.11476938664636679 0 0.073192858326506585 0.093749943661386143 0 0.062571522759167983 0.1025276316952462 0 0.074662666644186457 0.1085506043234858 0 0.073192858326506585 0.093749943661386143 0 0.074662666644186457 0.1085506043234858 0 0.085422551845952946 0.1017695300247897 0 0.086592109708122686 0.086848705513414448 0 0.073192858326506585 0.093749943661386143 0 0.085422551845952946 0.1017695300247897 0 0.098632599904913631 0.092964790722049134 0 0.086592109708122686 0.086848705513414448 0 0.085422551845952946 0.1017695300247897 0 0.099580799205862811 0.11971690923022241 0 0.080602042701908003 0.1184969648984331 0 0.089753811683594753 0.13075819691736759 0 0.074662666644186457 0.1085506043234858 0 0.085422551845952946 0.1017695300247897 0 0.080602042701908003 0.1184969648984331 0 0.098360770955667504 0.1081359665068702 0 0.080602042701908003 0.1184969648984331 0 0.098360770955667504 0.1081359665068702 0 0.099580799205862811 0.11971690923022241 0 0.080602042701908003 0.1184969648984331 0 0.098360770955667504 0.1081359665068702 0 0.085422551845952946 0.1017695300247897 0 0.080602042701908003 0.1184969648984331 0 0.074662666644186457 0.1085506043234858 0 0.080602042701908003 0.1184969648984331 0 0.062088101121866537 0.11476938664636679 0 0.080602042701908003 0.1184969648984331 0 0.061014009221819758 0.1299252372657469 0 0.080602042701908003 0.1184969648984331 0 0.062088101121866537 0.11476938664636679 0 0.061014009221819758 0.1299252372657469 0 0.074662666644186457 0.1085506043234858 0 0.080602042701908003 0.1184969648984331 0 0.062088101121866537 0.11476938664636679 0 0.045168301007345382 0.10527278763892881 0 0.046863318517392373 0.1235327019185009 0 0.062088101121866537 0.11476938664636679 0 0.046863318517392373 0.1235327019185009 0 0.061014009221819758 0.1299252372657469 0 0.062571522759167983 0.1025276316952462 0 0.062088101121866537 0.11476938664636679 0 0.045168301007345382 0.10527278763892881 0 0.062571522759167983 0.1025276316952462 0 0.045168301007345382 0.10527278763892881 0 0.057745686695934967 0.090295436206063395 0 0.045168301007345382 0.10527278763892881 0 0.057745686695934967 0.090295436206063395 0 0.038007708304624681 0.085928556307660525 0 0.045168301007345382 0.10527278763892881 0 0.038007708304624681 0.085928556307660525 0 0.023472770234108278 0.1024673041643747 0 0.045168301007345382 0.10527278763892881 0 0.031422669276762252 0.1218916941165739 0 0.023472770234108278 0.1024673041643747 0 0.045168301007345382 0.10527278763892881 0 0.031422669276762252 0.1218916941165739 0 0.046863318517392373 0.1235327019185009 0 0.048547073331288437 0.061682511448135843 0 0.070515866426295176 0.072197362067458443 0 0.053175100370942793 0.076667635536764644 0 0.048547073331288437 0.061682511448135843 0 0.053175100370942793 0.076667635536764644 0 0.041925476383485337 0.073260617147123647 0 0.053175100370942793 0.076667635536764644 0 0.057745686695934967 0.090295436206063395 0 0.038007708304624681 0.085928556307660525 0 0.070515866426295176 0.072197362067458443 0 0.053175100370942793 0.076667635536764644 0 0.057745686695934967 0.090295436206063395 0 0.053175100370942793 0.076667635536764644 0 0.038007708304624681 0.085928556307660525 0 0.041925476383485337 0.073260617147123647 0 0.038007708304624681 0.085928556307660525 0 0.041925476383485337 0.073260617147123647 0 0.026876528976671091 0.06695878260951954 0 0.048547073331288437 0.061682511448135843 0 0.041925476383485337 0.073260617147123647 0 0.026876528976671091 0.06695878260951954 0 0.038007708304624681 0.085928556307660525 0 0.026876528976671091 0.06695878260951954 0 0.013123249107342239 0.086590483597158333 0 0.038007708304624681 0.085928556307660525 0 0.013123249107342239 0.086590483597158333 0 0.023472770234108278 0.1024673041643747 0 -0.01062187486321446 0.08382442746796559 0 0.013123249107342239 0.086590483597158333 0 0.0037172837315079419 0.07016749474180356 0 -0.01062187486321446 0.08382442746796559 0 0.013123249107342239 0.086590483597158333 0 0.0001980641784044609 0.1068102123121014 0 0.012348440766857 0.056188029335644971 0 0.026876528976671091 0.06695878260951954 0 0.0037172837315079419 0.07016749474180356 0 0.026876528976671091 0.06695878260951954 0 0.013123249107342239 0.086590483597158333 0 0.0037172837315079419 0.07016749474180356 0 0.031422669276762252 0.1218916941165739 0 0.023472770234108278 0.1024673041643747 0 0.01101800322002339 0.12979599715623719 0 0.013123249107342239 0.086590483597158333 0 0.023472770234108278 0.1024673041643747 0 0.0001980641784044609 0.1068102123121014 0 0.023472770234108278 0.1024673041643747 0 0.0001980641784044609 0.1068102123121014 0 0.01101800322002339 0.12979599715623719 0 0.0001980641784044609 0.1068102123121014 0 0.01101800322002339 0.12979599715623719 0 0.031422669276762252 0.1218916941165739 0 0.01101800322002339 0.12979599715623719 0 0.026426147625040131 0.13645574572656161 0 0.01101800322002339 0.12979599715623719 0 0.026426147625040131 0.13645574572656161 0 0.021837942261642439 0.15278178200037301 0 0.01101800322002339 0.12979599715623719 0 0.021837942261642439 0.15278178200037301 0 0.026426147625040131 0.13645574572656161 0 0.021837942261642439 0.15278178200037301 0 0.041425975741731597 0.14135350963306059 0 0.02328514251956015 0.15585620170153061 0 0.021837942261642439 0.15278178200037301 0 0.035957258245322893 0.15821700162701921 0 0.02328514251956015 0.15585620170153061 0 0.021837942261642439 0.15278178200037301 0 0.01047394715004011 0.15941189274876871 0 0.021837942261642439 0.15278178200037301 0 0.01047394715004011 0.15941189274876871 0 0.02328514251956015 0.15585620170153061 0 0.021837942261642439 0.15278178200037301 0 -0.0029736631772857461 0.1415757828437873 0 0.01101800322002339 0.12979599715623719 0 0.0063670371555791458 0.1532583666516095 0 0.01101800322002339 0.12979599715623719 0 0.021837942261642439 0.15278178200037301 0 0.0063670371555791458 0.1532583666516095 0 0.021837942261642439 0.15278178200037301 0 0.0063670371555791458 0.1532583666516095 0 0.01047394715004011 0.15941189274876871 0 -0.0051583859673267167 0.15295390129575759 0 0.0063670371555791458 0.1532583666516095 0 0.0012058402813239959 0.15733636835513379 0 0.0063670371555791458 0.1532583666516095 0 0.0012058402813239959 0.15733636835513379 0 0.01047394715004011 0.15941189274876871 0 -0.0092632800434732168 0.1709272094022907 0 0.01047394715004011 0.15941189274876871 0 0.0064948468141689912 0.17867174760018439 0 -0.0092632800434732168 0.1709272094022907 0 0.01047394715004011 0.15941189274876871 0 -0.001891151768309479 0.1640107208205441 0 0.0012058402813239959 0.15733636835513379 0 0.01047394715004011 0.15941189274876871 0 0.0063670371555791458 0.1532583666516095 0 0.01047394715004011 0.15941189274876871 0 0.01047394715004011 0.15941189274876871 0 0.0064948468141689912 0.17867174760018439 0 0.026738465437150399 0.18378158623435181 0 -0.0089727778792802176 0.18636000313175791 0 0.0064948468141689912 0.17867174760018439 0 0.0043084027510792372 0.18981541178575079 0 0.0064948468141689912 0.17867174760018439 0 0.0043084027510792372 0.18981541178575079 0 0.016737504083881381 0.19360491617935549 0 0.0064948468141689912 0.17867174760018439 0 0.026738465437150399 0.18378158623435181 0 0.016737504083881381 0.19360491617935549 0 0.01047394715004011 0.15941189274876871 0 0.026738465437150399 0.18378158623435181 0 0.028078413840189709 0.16879880495203581 0 0.02328514251956015 0.15585620170153061 0 0.01047394715004011 0.15941189274876871 0 0.028078413840189709 0.16879880495203581 0 0.01047394715004011 0.15941189274876871 0 0.026738465437150399 0.18378158623435181 0 0.02328514251956015 0.15585620170153061 0 0.028078413840189709 0.16879880495203581 0 0.035957258245322893 0.15821700162701921 0 0.028078413840189709 0.16879880495203581 0 0.035957258245322893 0.15821700162701921 0 0.047710046303267833 0.1831846407750827 0 0.035957258245322893 0.15821700162701921 0 0.047710046303267833 0.1831846407750827 0 0.035957258245322893 0.15821700162701921 0 0.047710046303267833 0.1831846407750827 0 0.048797358050677371 0.1665646923809001 0 0.035957258245322893 0.15821700162701921 0 0.048797358050677371 0.1665646923809001 0 0.052704339702167702 0.15527872265107201 0 0.026738465437150399 0.18378158623435181 0 0.028078413840189709 0.16879880495203581 0 0.047710046303267833 0.1831846407750827 0 0.047710046303267833 0.1831846407750827 0 0.058817787951951063 0.1695784044704266 0 0.068375230686315958 0.18359918932947261 0 0.047710046303267833 0.1831846407750827 0 0.048797358050677371 0.1665646923809001 0 0.058817787951951063 0.1695784044704266 0 0.048797358050677371 0.1665646923809001 0 0.058817787951951063 0.1695784044704266 0 0.052704339702167702 0.15527872265107201 0 0.058817787951951063 0.1695784044704266 0 0.052704339702167702 0.15527872265107201 0 0.063701604430470266 0.15550252162485351 0 0.052704339702167702 0.15527872265107201 0 0.059149371486204409 0.14487173422031049 0 0.041425975741731597 0.14135350963306059 0 0.052704339702167702 0.15527872265107201 0 0.059149371486204409 0.14487173422031049 0 0.063701604430470266 0.15550252162485351 0 0.059149371486204409 0.14487173422031049 0 0.061014009221819758 0.1299252372657469 0 0.041425975741731597 0.14135350963306059 0 0.046863318517392373 0.1235327019185009 0 0.061014009221819758 0.1299252372657469 0 0.041425975741731597 0.14135350963306059 0 0.061014009221819758 0.1299252372657469 0 0.041425975741731597 0.14135350963306059 0 0.031422669276762252 0.1218916941165739 0 0.046863318517392373 0.1235327019185009 0 0.041425975741731597 0.14135350963306059 0 0.031422669276762252 0.1218916941165739 0 0.026426147625040131 0.13645574572656161 0 0.041425975741731597 0.14135350963306059 0 0.021837942261642439 0.15278178200037301 0 0.041425975741731597 0.14135350963306059 0 0.035957258245322893 0.15821700162701921 0 0.052704339702167702 0.15527872265107201 0 0.041425975741731597 0.14135350963306059 0 0.021837942261642439 0.15278178200037301 0 0.035957258245322893 0.15821700162701921 0 0.041425975741731597 0.14135350963306059 0 0.021834877148325871 0.23926016843808029 0 0.033410695439908933 0.25975630379024039 0 0.021834877148325871 0.23926016843808029 0 0.02214640540959982 0.22931804486214449 0 0.040355763604972582 0.2352750586486996 0 0.021834877148325871 0.23926016843808029 0 0.01184592620335486 0.24346699342856021 0 0.020230351136011061 0.25368333959841483 0 0.01184592620335486 0.24346699342856021 0 0.00062290933902077483 0.23832777000845279 0 0.0057306298636677841 0.25416327821407941 0 0.01184592620335486 0.24346699342856021 0 0.00062290933902077483 0.23832777000845279 0 0.010810863529748801 0.23190041088377389 0 0.021834877148325871 0.23926016843808029 0 0.01184592620335486 0.24346699342856021 0 0.010810863529748801 0.23190041088377389 0 0.0039370472142271212 0.22336103107558899 0 0.02214640540959982 0.22931804486214449 0 0.010810863529748801 0.23190041088377389 0 0.0039370472142271212 0.22336103107558899 0 0.02214640540959982 0.22931804486214449 0 0.0039370472142271212 0.22336103107558899 0 0.02214640540959982 0.22931804486214449 0 0.015957328523970079 0.2183771031396389 0 0.00062290933902077483 0.23832777000845279 0 0.010810863529748801 0.23190041088377389 0 0.0039370472142271212 0.22336103107558899 0 0.010810863529748801 0.23190041088377389 0 0.0039370472142271212 0.22336103107558899 0 0.02214640540959982 0.22931804486214449 0 0.03051234000528277 0.217016060986816 0 0.040355763604972582 0.2352750586486996 0 0.02214640540959982 0.22931804486214449 0 0.03051234000528277 0.217016060986816 0 0.015957328523970079 0.2183771031396389 0 0.021834877148325871 0.23926016843808029 0 0.010810863529748801 0.23190041088377389 0 0.02214640540959982 0.22931804486214449 0 0.03051234000528277 0.217016060986816 0 0.018229645672159931 0.20826709949148209 0 0.027209823920611411 0.20207065181750691 0 0.03051234000528277 0.217016060986816 0 0.018229645672159931 0.20826709949148209 0 0.015957328523970079 0.2183771031396389 0 0.0039370472142271212 0.22336103107558899 0 0.0094886353329671873 0.2144764170844565 0 0.0033236905810708111 0.2069968171644555 0 0.018229645672159931 0.20826709949148209 0 0.015957328523970079 0.2183771031396389 0 0.0094886353329671873 0.2144764170844565 0 0.0039370472142271212 0.22336103107558899 0 0.015957328523970079 0.2183771031396389 0 0.0094886353329671873 0.2144764170844565 0 0.018229645672159931 0.20826709949148209 0 0.0094886353329671873 0.2144764170844565 0 0.0033236905810708111 0.2069968171644555 0 0.018229645672159931 0.20826709949148209 0 0.0033236905810708111 0.2069968171644555 0 0.016737504083881381 0.19360491617935549 0 0.0033236905810708111 0.2069968171644555 0 0.0043084027510792372 0.18981541178575079 0 0.016737504083881381 0.19360491617935549 0 -0.0034681036396273352 0.1965185026619162 0 0.0033236905810708111 0.2069968171644555 0 0.0043084027510792372 0.18981541178575079 0 0.026738465437150399 0.18378158623435181 0 0.016737504083881381 0.19360491617935549 0 0.027209823920611411 0.20207065181750691 0 0.018229645672159931 0.20826709949148209 0 0.016737504083881381 0.19360491617935549 0 0.027209823920611411 0.20207065181750691 0 0.026738465437150399 0.18378158623435181 0 0.027209823920611411 0.20207065181750691 0 0.043002983724270603 0.20815127971992839 0 0.026738465437150399 0.18378158623435181 0 0.047710046303267833 0.1831846407750827 0 0.043002983724270603 0.20815127971992839 0 0.026738465437150399 0.18378158623435181 0 0.043002983724270603 0.20815127971992839 0 0.047710046303267833 0.1831846407750827 0 0.059462834361212788 0.20815227992314619 0 0.047710046303267833 0.1831846407750827 0 0.059462834361212788 0.20815227992314619 0 0.043002983724270603 0.20815127971992839 0 0.047710046303267833 0.1831846407750827 0 0.059462834361212788 0.20815227992314619 0 0.068375230686315958 0.18359918932947261 0 0.059462834361212788 0.20815227992314619 0 0.043002983724270603 0.20815127971992839 0 0.059267502011390777 0.23252097320550499 0 0.03051234000528277 0.217016060986816 0 0.027209823920611411 0.20207065181750691 0 0.043002983724270603 0.20815127971992839 0 0.03051234000528277 0.217016060986816 0 0.043002983724270603 0.20815127971992839 0 0.04328464733647918 0.22324084314023729 0 0.03051234000528277 0.217016060986816 0 0.04328464733647918 0.22324084314023729 0 0.040355763604972582 0.2352750586486996 0 0.02214640540959982 0.22931804486214449 0 0.040355763604972582 0.2352750586486996 0 0.043002983724270603 0.20815127971992839 0 0.059267502011390777 0.23252097320550499 0 0.043002983724270603 0.20815127971992839 0 0.04328464733647918 0.22324084314023729 0 0.059267502011390777 0.23252097320550499 0 0.04328464733647918 0.22324084314023729 0 0.059267502011390777 0.23252097320550499 0 0.040355763604972582 0.2352750586486996 0 0.059267502011390777 0.23252097320550499 0 0.051915535616861193 0.24732782670107409 0 0.040355763604972582 0.2352750586486996 0 0.051915535616861193 0.24732782670107409 0 0.067613138105492548 0.24305613431459319 0 0.061412225942685042 0.25314398337725141 0 0.059267502011390777 0.23252097320550499 0 0.051915535616861193 0.24732782670107409 0 0.067613138105492548 0.24305613431459319 0 0.021834877148325871 0.23926016843808029 0 0.040355763604972582 0.2352750586486996 0 0.033410695439908933 0.25975630379024039 0 0.051915535616861193 0.24732782670107409 0 0.040355763604972582 0.2352750586486996 0 0.033410695439908933 0.25975630379024039 0 0.081079407242657331 0.23611282154048729 0 0.093717276202876953 0.225011847976677 0 0.095584633448183742 0.24527036033521521 0 0.081079407242657331 0.23611282154048729 0 0.080981345373273672 0.24735560456210759 0 0.095584633448183742 0.24527036033521521 0 0.080981345373273672 0.24735560456210759 0 0.067613138105492548 0.24305613431459319 0 0.073442081033194967 0.25518795629713609 0 0.059267502011390777 0.23252097320550499 0 0.067613138105492548 0.24305613431459319 0 0.071215622419157826 0.23311991907120991 0 0.081079407242657331 0.23611282154048729 0 0.080981345373273672 0.24735560456210759 0 0.067613138105492548 0.24305613431459319 0 0.081079407242657331 0.23611282154048729 0 0.067613138105492548 0.24305613431459319 0 0.071215622419157826 0.23311991907120991 0 0.081079407242657331 0.23611282154048729 0 0.071215622419157826 0.23311991907120991 0 0.077364427906959299 0.22286306298312089 0 0.059462834361212788 0.20815227992314619 0 0.059267502011390777 0.23252097320550499 0 0.071215622419157826 0.23311991907120991 0 0.059462834361212788 0.20815227992314619 0 0.071215622419157826 0.23311991907120991 0 0.077364427906959299 0.22286306298312089 0 0.059462834361212788 0.20815227992314619 0 0.071215622419157826 0.23311991907120991 0 0.077364427906959299 0.22286306298312089 0 0.093717276202876953 0.225011847976677 0 0.08083207792393643 0.21100549645501279 0 0.081079407242657331 0.23611282154048729 0 0.077364427906959299 0.22286306298312089 0 0.093717276202876953 0.225011847976677 0 0.093717276202876953 0.225011847976677 0 0.08083207792393643 0.21100549645501279 0 0.095354742377278659 0.20685387753762349 0 0.08083207792393643 0.21100549645501279 0 0.087239083785045982 0.19204766507121801 0 0.095354742377278659 0.20685387753762349 0 0.059462834361212788 0.20815227992314619 0 0.08083207792393643 0.21100549645501279 0 0.073977306689127789 0.19870115769471239 0 0.059462834361212788 0.20815227992314619 0 0.077364427906959299 0.22286306298312089 0 0.08083207792393643 0.21100549645501279 0 0.073977306689127789 0.19870115769471239 0 0.087239083785045982 0.19204766507121801 0 0.068375230686315958 0.18359918932947261 0 0.059462834361212788 0.20815227992314619 0 0.073977306689127789 0.19870115769471239 0 0.068375230686315958 0.18359918932947261 0 0.08083207792393643 0.21100549645501279 0 0.073977306689127789 0.19870115769471239 0 0.087239083785045982 0.19204766507121801 0 0.087239083785045982 0.19204766507121801 0 0.10695081472155051 0.19565719309520921 0 0.095354742377278659 0.20685387753762349 0 0.087239083785045982 0.19204766507121801 0 0.10695081472155051 0.19565719309520921 0 0.1001728896957534 0.17915411482926669 0 0.10695081472155051 0.19565719309520921 0 0.1102152223989703 0.21542900817589231 0 0.12570635373991301 0.1933919299929526 0 0.10695081472155051 0.19565719309520921 0 0.1160009953643274 0.1777777283548366 0 0.12570635373991301 0.1933919299929526 0 0.1102152223989703 0.21542900817589231 0 0.1364562311926836 0.2104851714825659 0 0.1102152223989703 0.21542900817589231 0 0.1364562311926836 0.2104851714825659 0 0.12570635373991301 0.1933919299929526 0 0.093717276202876953 0.225011847976677 0 0.1102152223989703 0.21542900817589231 0 0.095354742377278659 0.20685387753762349 0 0.10695081472155051 0.19565719309520921 0 0.1102152223989703 0.21542900817589231 0 0.095354742377278659 0.20685387753762349 0 0.093717276202876953 0.225011847976677 0 0.1102152223989703 0.21542900817589231 0 0.11222928738418 0.237524780678742 0 0.1102152223989703 0.21542900817589231 0 0.11222928738418 0.237524780678742 0 0.13157672261611669 0.23067124610853071 0 0.11222928738418 0.237524780678742 0 0.1117812297290155 0.2513842670714837 0 0.13009490553209149 0.25186486575946049 0 0.11222928738418 0.237524780678742 0 0.13009490553209149 0.25186486575946049 0 0.11222928738418 0.237524780678742 0 0.13157672261611669 0.23067124610853071 0 0.13009490553209149 0.25186486575946049 0 0.11222928738418 0.237524780678742 0 0.095584633448183742 0.24527036033521521 0 0.1117812297290155 0.2513842670714837 0 0.093717276202876953 0.225011847976677 0 0.11222928738418 0.237524780678742 0 0.095584633448183742 0.24527036033521521 0 0.082915222097349209 0.14208308147042439 0 0.086061444030959902 0.15310828127359519 0 0.073863857610138403 0.1444723172417374 0 0.082915222097349209 0.14208308147042439 0 0.086061444030959902 0.15310828127359519 0 0.092401693589377581 0.13825721938390309 0 0.080602042701908003 0.1184969648984331 0 0.092401693589377581 0.13825721938390309 0 0.080602042701908003 0.1184969648984331 0 0.092401693589377581 0.13825721938390309 0 0.078814946306763251 0.13379865251062181 0 0.080602042701908003 0.1184969648984331 0 0.092401693589377581 0.13825721938390309 0 0.089753811683594753 0.13075819691736759 0 0.082915222097349209 0.14208308147042439 0 0.078814946306763251 0.13379865251062181 0 0.073863857610138403 0.1444723172417374 0 0.082915222097349209 0.14208308147042439 0 0.092401693589377581 0.13825721938390309 0 0.078814946306763251 0.13379865251062181 0 0.080602042701908003 0.1184969648984331 0 0.061014009221819758 0.1299252372657469 0 0.078814946306763251 0.13379865251062181 0 0.061014009221819758 0.1299252372657469 0 0.078814946306763251 0.13379865251062181 0 0.073863857610138403 0.1444723172417374 0 0.059149371486204409 0.14487173422031049 0 0.061014009221819758 0.1299252372657469 0 0.073863857610138403 0.1444723172417374 0 0.086061444030959902 0.15310828127359519 0 0.073863857610138403 0.1444723172417374 0 0.073972665401889737 0.16331142954072109 0 0.073863857610138403 0.1444723172417374 0 0.063701604430470266 0.15550252162485351 0 0.073972665401889737 0.16331142954072109 0 0.059149371486204409 0.14487173422031049 0 0.073863857610138403 0.1444723172417374 0 0.063701604430470266 0.15550252162485351 0 0.058817787951951063 0.1695784044704266 0 0.063701604430470266 0.15550252162485351 0 0.073972665401889737 0.16331142954072109 0 0.058817787951951063 0.1695784044704266 0 0.073972665401889737 0.16331142954072109 0 0.068375230686315958 0.18359918932947261 0 0.073972665401889737 0.16331142954072109 0 0.068375230686315958 0.18359918932947261 0 0.086472210130990629 0.17227051375569979 0 0.087239083785045982 0.19204766507121801 0 0.068375230686315958 0.18359918932947261 0 0.086472210130990629 0.17227051375569979 0 0.087239083785045982 0.19204766507121801 0 0.086472210130990629 0.17227051375569979 0 0.1001728896957534 0.17915411482926669 0 0.086061444030959902 0.15310828127359519 0 0.073972665401889737 0.16331142954072109 0 0.086472210130990629 0.17227051375569979 0 0.086061444030959902 0.15310828127359519 0 0.086472210130990629 0.17227051375569979 0 0.1042013444768525 0.15801747386936979 0 0.086472210130990629 0.17227051375569979 0 0.1042013444768525 0.15801747386936979 0 0.1001728896957534 0.17915411482926669 0 0.1042013444768525 0.15801747386936979 0 0.1001728896957534 0.17915411482926669 0 0.1160009953643274 0.1777777283548366 0 0.10695081472155051 0.19565719309520921 0 0.1001728896957534 0.17915411482926669 0 0.1160009953643274 0.1777777283548366 0 0.1042013444768525 0.15801747386936979 0 0.1160009953643274 0.1777777283548366 0 0.12804677415542379 0.15145924860467699 0 0.1042013444768525 0.15801747386936979 0 0.1160009953643274 0.1777777283548366 0 0.1042013444768525 0.15801747386936979 0 0.1062830108487956 0.14156382959072791 0 0.12804677415542379 0.15145924860467699 0 0.1062830108487956 0.14156382959072791 0 0.11701143033872941 0.12932700917832221 0 0.12804677415542379 0.15145924860467699 0 0.092401693589377581 0.13825721938390309 0 0.1042013444768525 0.15801747386936979 0 0.092401693589377581 0.13825721938390309 0 0.1042013444768525 0.15801747386936979 0 0.1062830108487956 0.14156382959072791 0 0.086061444030959902 0.15310828127359519 0 0.092401693589377581 0.13825721938390309 0 0.1042013444768525 0.15801747386936979 0 0.089753811683594753 0.13075819691736759 0 0.11701143033872941 0.12932700917832221 0 0.099580799205862811 0.11971690923022241 0 0.089753811683594753 0.13075819691736759 0 0.11701143033872941 0.12932700917832221 0 0.092401693589377581 0.13825721938390309 0 0.089753811683594753 0.13075819691736759 0 0.1062830108487956 0.14156382959072791 0 0.089753811683594753 0.13075819691736759 0 0.1062830108487956 0.14156382959072791 0 0.11701143033872941 0.12932700917832221 0 0.11701143033872941 0.12932700917832221 0 0.14426904899386411 0.1278958214392768 0 0.12804677415542379 0.15145924860467699 0 0.11701143033872941 0.12932700917832221 0 0.14426904899386411 0.1278958214392768 0 0.14426904899386411 0.1278958214392768 0 0.14610097930877111 0.1469807910076793 0 0.1636177918806607 0.1468296870494645 0 0.14610097930877111 0.1469807910076793 0 0.15106495917810719 0.16528317993412039 0 0.1636177918806607 0.1468296870494645 0 0.14610097930877111 0.1469807910076793 0 0.12804677415542379 0.15145924860467699 0 0.15106495917810719 0.16528317993412039 0 0.14426904899386411 0.1278958214392768 0 0.14610097930877111 0.1469807910076793 0 0.12804677415542379 0.15145924860467699 0 0.1160009953643274 0.1777777283548366 0 0.12804677415542379 0.15145924860467699 0 0.13452942924531219 0.17507386189022281 0 0.12804677415542379 0.15145924860467699 0 0.13452942924531219 0.17507386189022281 0 0.15106495917810719 0.16528317993412039 0 0.13452942924531219 0.17507386189022281 0 0.14526829643474709 0.18638251358721389 0 0.12570635373991301 0.1933919299929526 0 0.1160009953643274 0.1777777283548366 0 0.13452942924531219 0.17507386189022281 0 0.12570635373991301 0.1933919299929526 0 0.14526829643474709 0.18638251358721389 0 0.15106495917810719 0.16528317993412039 0 0.16264955652066851 0.180463465679054 0 0.13452942924531219 0.17507386189022281 0 0.14526829643474709 0.18638251358721389 0 0.15106495917810719 0.16528317993412039 0 0.14526829643474709 0.18638251358721389 0 0.16264955652066851 0.180463465679054 0 0.15569680430894459 0.19511393719079559 0 0.15106495917810719 0.16528317993412039 0 0.17351402460377549 0.1658480976732031 0 0.1636177918806607 0.1468296870494645 0 0.15106495917810719 0.16528317993412039 0 0.16264955652066851 0.180463465679054 0 0.17351402460377549 0.1658480976732031 0 0.16264955652066851 0.180463465679054 0 0.1828058152381499 0.1817253989990085 0 0.17141269741022711 0.19269720041590471 0 0.1828058152381499 0.1817253989990085 0 0.17351402460377549 0.1658480976732031 0 0.1946395643831024 0.16912954708271449 0 0.16264955652066851 0.180463465679054 0 0.1828058152381499 0.1817253989990085 0 0.17351402460377549 0.1658480976732031 0 0.17351402460377549 0.1658480976732031 0 0.1901302235262157 0.14760566815868259 0 0.1946395643831024 0.16912954708271449 0 0.17351402460377549 0.1658480976732031 0 0.1636177918806607 0.1468296870494645 0 0.1901302235262157 0.14760566815868259 0 0.17152666764899879 0.12646463370023139 0 0.1636177918806607 0.1468296870494645 0 0.1901302235262157 0.14760566815868259 0 0.17152666764899879 0.12646463370023139 0 0.19878428630413361 0.12503344596118601 0 0.17152666764899879 0.12646463370023139 0 0.19878428630413361 0.12503344596118601 0 0.1901302235262157 0.14760566815868259 0 0.14426904899386411 0.1278958214392768 0 0.17152666764899879 0.12646463370023139 0 0.14426904899386411 0.1278958214392768 0 0.17152666764899879 0.12646463370023139 0 0.1636177918806607 0.1468296870494645 0 0.14837687530022159 0.24396021431351339 0 0.15277654479580699 0.22472086256595311 0 0.16545631237760799 0.23593651406630259 0 0.14837687530022159 0.24396021431351339 0 0.13157672261611669 0.23067124610853071 0 0.13009490553209149 0.25186486575946049 0 0.1102152223989703 0.21542900817589231 0 0.13157672261611669 0.23067124610853071 0 0.1364562311926836 0.2104851714825659 0 0.13157672261611669 0.23067124610853071 0 0.15277654479580699 0.22472086256595311 0 0.1364562311926836 0.2104851714825659 0 0.14837687530022159 0.24396021431351339 0 0.13157672261611669 0.23067124610853071 0 0.15277654479580699 0.22472086256595311 0 0.1364562311926836 0.2104851714825659 0 0.16269723998639671 0.2055413347892395 0 0.15277654479580699 0.22472086256595311 0 0.1364562311926836 0.2104851714825659 0 0.16269723998639671 0.2055413347892395 0 0.1364562311926836 0.2104851714825659 0 0.15569680430894459 0.19511393719079559 0 0.16269723998639671 0.2055413347892395 0 0.14526829643474709 0.18638251358721389 0 0.1364562311926836 0.2104851714825659 0 0.12570635373991301 0.1933919299929526 0 0.14526829643474709 0.18638251358721389 0 0.1364562311926836 0.2104851714825659 0 0.15569680430894459 0.19511393719079559 0 0.16264955652066851 0.180463465679054 0 0.15569680430894459 0.19511393719079559 0 0.17141269741022711 0.19269720041590471 0 0.15569680430894459 0.19511393719079559 0 0.17141269741022711 0.19269720041590471 0 0.16269723998639671 0.2055413347892395 0 0.16269723998639671 0.2055413347892395 0 0.1889382487801099 0.2005974980959131 0 0.17141269741022711 0.19269720041590471 0 0.16269723998639671 0.2055413347892395 0 0.1889382487801099 0.2005974980959131 0 0.1828058152381499 0.1817253989990085 0 0.17141269741022711 0.19269720041590471 0 0.1889382487801099 0.2005974980959131 0 0.17141269741022711 0.19269720041590471 0 0.1889382487801099 0.2005974980959131 0 0.1789514126010133 0.21338741663395139 0 0.16269723998639671 0.2055413347892395 0 0.1889382487801099 0.2005974980959131 0 0.1789514126010133 0.21338741663395139 0 0.19223737360123799 0.21618029976584199 0 0.1889382487801099 0.2005974980959131 0 0.1789514126010133 0.21338741663395139 0 0.16269723998639671 0.2055413347892395 0 0.16822543796231501 0.2215683617778651 0 0.15277654479580699 0.22472086256595311 0 0.16269723998639671 0.2055413347892395 0 0.16822543796231501 0.2215683617778651 0 0.16822543796231501 0.2215683617778651 0 0.18124568005074981 0.22825568083387909 0 0.16545631237760799 0.23593651406630259 0 0.15277654479580699 0.22472086256595311 0 0.16822543796231501 0.2215683617778651 0 0.16545631237760799 0.23593651406630259 0 0.1789514126010133 0.21338741663395139 0 0.16822543796231501 0.2215683617778651 0 0.18124568005074981 0.22825568083387909 0 0.1789514126010133 0.21338741663395139 0 0.18124568005074981 0.22825568083387909 0 0.19223737360123799 0.21618029976584199 0 0.18124568005074981 0.22825568083387909 0 0.18161013999952449 0.24770213686053411 0 0.16545631237760799 0.23593651406630259 0 0.18124568005074981 0.22825568083387909 0 0.18161013999952449 0.24770213686053411 0 0.19118971912338431 0.23823229147611291 0 0.14837687530022159 0.24396021431351339 0 0.16545631237760799 0.23593651406630259 0 0.16312015078465561 0.25212845709726422 0 0.18161013999952449 0.24770213686053411 0 0.16545631237760799 0.23593651406630259 0 0.16312015078465561 0.25212845709726422 0 0.20078341576668271 0.248822397463524 0 0.2011196406765805 0.2281489507465144 0 0.2205562993209649 0.23780764593770459 0 0.20078341576668271 0.248822397463524 0 0.2205562993209649 0.23780764593770459 0 0.22000537534647491 0.2581541322796197 0 0.20078341576668271 0.248822397463524 0 0.19118971912338431 0.23823229147611291 0 0.2011196406765805 0.2281489507465144 0 0.18161013999952449 0.24770213686053411 0 0.20078341576668271 0.248822397463524 0 0.19118971912338431 0.23823229147611291 0 0.18124568005074981 0.22825568083387909 0 0.2011196406765805 0.2281489507465144 0 0.19223737360123799 0.21618029976584199 0 0.18124568005074981 0.22825568083387909 0 0.19118971912338431 0.23823229147611291 0 0.2011196406765805 0.2281489507465144 0 0.2011196406765805 0.2281489507465144 0 0.2163833372276612 0.2242237390362905 0 0.2205562993209649 0.23780764593770459 0 0.2011196406765805 0.2281489507465144 0 0.2163833372276612 0.2242237390362905 0 0.2109318858977364 0.21051195251895211 0 0.2011196406765805 0.2281489507465144 0 0.2109318858977364 0.21051195251895211 0 0.19223737360123799 0.21618029976584199 0 0.2109318858977364 0.21051195251895211 0 0.19223737360123799 0.21618029976584199 0 0.1889382487801099 0.2005974980959131 0 0.2109318858977364 0.21051195251895211 0 0.1889382487801099 0.2005974980959131 0 0.1889382487801099 0.2005974980959131 0 0.2161807780119788 0.19546497378275501 0 0.19960294974369089 0.18475689920353641 0 0.1828058152381499 0.1817253989990085 0 0.1889382487801099 0.2005974980959131 0 0.19960294974369089 0.18475689920353641 0 0.1889382487801099 0.2005974980959131 0 0.2161807780119788 0.19546497378275501 0 0.2109318858977364 0.21051195251895211 0 0.1889382487801099 0.2005974980959131 0 0.2161807780119788 0.19546497378275501 0 0.2109318858977364 0.21051195251895211 0 0.2161807780119788 0.19546497378275501 0 0.23172988544629761 0.20313135956505471 0 0.2161807780119788 0.19546497378275501 0 0.2434233072438477 0.19033244946959679 0 0.2161807780119788 0.19546497378275501 0 0.2434233072438477 0.19033244946959679 0 0.2276219942337426 0.1816047140061918 0 0.2161807780119788 0.19546497378275501 0 0.2434233072438477 0.19033244946959679 0 0.23172988544629761 0.20313135956505471 0 0.2434233072438477 0.19033244946959679 0 0.24490726370613899 0.20549493993332879 0 0.25716369064412092 0.19778686811751789 0 0.2434233072438477 0.19033244946959679 0 0.24490726370613899 0.20549493993332879 0 0.23172988544629761 0.20313135956505471 0 0.24490726370613899 0.20549493993332879 0 0.249804190637087 0.21660705979732231 0 0.2329255230153629 0.220426406941991 0 0.24490726370613899 0.20549493993332879 0 0.23172988544629761 0.20313135956505471 0 0.2329255230153629 0.220426406941991 0 0.2109318858977364 0.21051195251895211 0 0.23172988544629761 0.20313135956505471 0 0.2329255230153629 0.220426406941991 0 0.2109318858977364 0.21051195251895211 0 0.2329255230153629 0.220426406941991 0 0.2163833372276612 0.2242237390362905 0 0.2109318858977364 0.21051195251895211 0 0.2329255230153629 0.220426406941991 0 0.2329255230153629 0.220426406941991 0 0.23546572286115 0.23588185625526981 0 0.2205562993209649 0.23780764593770459 0 0.2163833372276612 0.2242237390362905 0 0.2329255230153629 0.220426406941991 0 0.2205562993209649 0.23780764593770459 0 0.2329255230153629 0.220426406941991 0 0.23546572286115 0.23588185625526981 0 0.25491916013298938 0.23034086136502999 0 0.2329255230153629 0.220426406941991 0 0.25491916013298938 0.23034086136502999 0 0.249804190637087 0.21660705979732231 0 0.2329255230153629 0.220426406941991 0 0.25491916013298938 0.23034086136502999 0 0.23546572286115 0.23588185625526981 0 0.2470679942702308 0.23994729708866841 0 0.25491916013298938 0.23034086136502999 0 0.2470679942702308 0.23994729708866841 0 0.2404948642945276 0.24886429612507829 0 0.25870383077257192 0.24455980595657351 0 0.2404948642945276 0.24886429612507829 0 0.25870383077257192 0.24455980595657351 0 0.23546572286115 0.23588185625526981 0 0.2470679942702308 0.23994729708866841 0 0.2404948642945276 0.24886429612507829 0 0.23546572286115 0.23588185625526981 0 0.2404948642945276 0.24886429612507829 0 0.2205562993209649 0.23780764593770459 0 0.2404948642945276 0.24886429612507829 0 0.2205562993209649 0.23780764593770459 0 0.22000537534647491 0.2581541322796197 0 0.21772517929149951 0.14232199020148401 0 0.1901302235262157 0.14760566815868259 0 0.2089425254111929 0.15977767152093439 0 0.21772517929149951 0.14232199020148401 0 0.19878428630413361 0.12503344596118601 0 0.21956982166398231 0.12722117772228 0 0.21772517929149951 0.14232199020148401 0 0.19878428630413361 0.12503344596118601 0 0.1901302235262157 0.14760566815868259 0 0.1901302235262157 0.14760566815868259 0 0.1946395643831024 0.16912954708271449 0 0.2089425254111929 0.15977767152093439 0 0.1946395643831024 0.16912954708271449 0 0.19960294974369089 0.18475689920353641 0 0.21298335216645439 0.17722265387974481 0 0.1828058152381499 0.1817253989990085 0 0.1946395643831024 0.16912954708271449 0 0.19960294974369089 0.18475689920353641 0 0.2161807780119788 0.19546497378275501 0 0.19960294974369089 0.18475689920353641 0 0.21298335216645439 0.17722265387974481 0 0.21298335216645439 0.17722265387974481 0 0.2089425254111929 0.15977767152093439 0 0.22491125736840001 0.16693929043892419 0 0.1946395643831024 0.16912954708271449 0 0.21298335216645439 0.17722265387974481 0 0.2089425254111929 0.15977767152093439 0 0.21772517929149951 0.14232199020148401 0 0.2089425254111929 0.15977767152093439 0 0.22491125736840001 0.16693929043892419 0 0.22491125736840001 0.16693929043892419 0 0.239011476925335 0.17480244274250031 0 0.2387047366793677 0.15877864361309579 0 0.2161807780119788 0.19546497378275501 0 0.21298335216645439 0.17722265387974481 0 0.2276219942337426 0.1816047140061918 0 0.21298335216645439 0.17722265387974481 0 0.22491125736840001 0.16693929043892419 0 0.2276219942337426 0.1816047140061918 0 0.22491125736840001 0.16693929043892419 0 0.2276219942337426 0.1816047140061918 0 0.239011476925335 0.17480244274250031 0 0.2434233072438477 0.19033244946959679 0 0.2276219942337426 0.1816047140061918 0 0.239011476925335 0.17480244274250031 0 0.2434233072438477 0.19033244946959679 0 0.239011476925335 0.17480244274250031 0 0.25241715997793018 0.18379872072822129 0 0.239011476925335 0.17480244274250031 0 0.25474368710207562 0.15542130873448909 0 0.25241715997793018 0.18379872072822129 0 0.239011476925335 0.17480244274250031 0 0.2387047366793677 0.15877864361309579 0 0.25474368710207562 0.15542130873448909 0 0.23738284128827519 0.1399927096541338 0 0.25707021422622101 0.12704389674075681 0 0.25474368710207562 0.15542130873448909 0 0.2387047366793677 0.15877864361309579 0 0.23738284128827519 0.1399927096541338 0 0.25474368710207562 0.15542130873448909 0 0.21772517929149951 0.14232199020148401 0 0.22491125736840001 0.16693929043892419 0 0.2387047366793677 0.15877864361309579 0 0.21772517929149951 0.14232199020148401 0 0.2387047366793677 0.15877864361309579 0 0.23738284128827519 0.1399927096541338 0 0.21772517929149951 0.14232199020148401 0 0.21956982166398231 0.12722117772228 0 0.23738284128827519 0.1399927096541338 0 0.21956982166398231 0.12722117772228 0 0.23738284128827519 0.1399927096541338 0 0.23404481094821211 0.1225401598590509 0 0.23738284128827519 0.1399927096541338 0 0.23404481094821211 0.1225401598590509 0 0.25707021422622101 0.12704389674075681 0 0.24140041591927361 0.1061772089947385 0 0.25016541425903988 0.098941505616830655 0 0.25707021422622101 0.12704389674075681 0 0.24140041591927361 0.1061772089947385 0 0.23404481094821211 0.1225401598590509 0 0.25707021422622101 0.12704389674075681 0 0.24140041591927361 0.1061772089947385 0 0.23404481094821211 0.1225401598590509 0 0.24140041591927361 0.1061772089947385 0 0.22147680866497321 0.092395489289385971 0 0.24910896785139339 0.089029108057216727 0 0.24140041591927361 0.1061772089947385 0 0.24910896785139339 0.089029108057216727 0 0.25016541425903988 0.098941505616830655 0 0.24140041591927361 0.1061772089947385 0 0.24910896785139339 0.089029108057216727 0 0.24140041591927361 0.1061772089947385 0 0.21630242774131139 0.1122335744019171 0 0.22147680866497321 0.092395489289385971 0 0.21956982166398231 0.12722117772228 0 0.23404481094821211 0.1225401598590509 0 0.21630242774131139 0.1122335744019171 0 0.24140041591927361 0.1061772089947385 0 0.23404481094821211 0.1225401598590509 0 0.21630242774131139 0.1122335744019171 0 0.19878428630413361 0.12503344596118601 0 0.21956982166398231 0.12722117772228 0 0.21630242774131139 0.1122335744019171 0 0.21630242774131139 0.1122335744019171 0 0.19419759643961271 0.094976720448348803 0 0.22147680866497321 0.092395489289385971 0 0.19878428630413361 0.12503344596118601 0 0.21630242774131139 0.1122335744019171 0 0.19419759643961271 0.094976720448348803 0 0.19878428630413361 0.12503344596118601 0 0.19419759643961271 0.094976720448348803 0 0.18087192829609719 0.1105329625492945 0 0.2055972536275896 0.075364126530919451 0 0.1909861987215917 0.058639513800436339 0 0.18067439352632231 0.075500395626148173 0 0.19419759643961271 0.094976720448348803 0 0.2055972536275896 0.075364126530919451 0 0.18067439352632231 0.075500395626148173 0 0.19419759643961271 0.094976720448348803 0 0.22147680866497321 0.092395489289385971 0 0.19419759643961271 0.094976720448348803 0 0.2055972536275896 0.075364126530919451 0 0.22147680866497321 0.092395489289385971 0 0.2055972536275896 0.075364126530919451 0 0.23129648511225781 0.072342737001817981 0 0.21348400237312251 0.055656365946418977 0 0.2055972536275896 0.075364126530919451 0 0.21348400237312251 0.055656365946418977 0 0.1909861987215917 0.058639513800436339 0 0.23129648511225781 0.072342737001817981 0 0.21348400237312251 0.055656365946418977 0 0.23129648511225781 0.072342737001817981 0 0.22147680866497321 0.092395489289385971 0 0.24910896785139339 0.089029108057216727 0 0.2055972536275896 0.075364126530919451 0 0.23129648511225781 0.072342737001817981 0 0.22147680866497321 0.092395489289385971 0 0.22147680866497321 0.092395489289385971 0 0.24910896785139339 0.089029108057216727 0 0.23129648511225781 0.072342737001817981 0 0.24910896785139339 0.089029108057216727 0 0.23129648511225781 0.072342737001817981 0 0.24910896785139339 0.089029108057216727 0 0.2558834494063969 0.073958898434513837 0 0.23129648511225781 0.072342737001817981 0 0.24761487441592961 0.060066060549012402 0 0.2558834494063969 0.073958898434513837 0 0.23129648511225781 0.072342737001817981 0 0.24761487441592961 0.060066060549012402 0 0.23489615032913511 0.046843414491779041 0 0.24761487441592961 0.060066060549012402 0 0.23489615032913511 0.046843414491779041 0 0.25144808196574109 0.045684777086037229 0 0.24691436097432229 0.032337925503222127 0 0.23489615032913511 0.046843414491779041 0 0.23395366487550631 0.02247134986176896 0 0.24691436097432229 0.032337925503222127 0 0.23489615032913511 0.046843414491779041 0 0.25144808196574109 0.045684777086037229 0 0.23489615032913511 0.046843414491779041 0 0.21348400237312251 0.055656365946418977 0 0.21713103324540781 0.033334039838767197 0 0.23489615032913511 0.046843414491779041 0 0.23395366487550631 0.02247134986176896 0 0.21713103324540781 0.033334039838767197 0 0.23129648511225781 0.072342737001817981 0 0.23489615032913511 0.046843414491779041 0 0.21348400237312251 0.055656365946418977 0 0.23594229229735961 0.001204899671140396 0 0.24804404622900281 0.01495656910991232 0 0.23395366487550631 0.02247134986176896 0 0.23594229229735961 0.001204899671140396 0 0.24802825784114241 0.0021228002410254841 0 0.24804404622900281 0.01495656910991232 0 0.24691436097432229 0.032337925503222127 0 0.24804404622900281 0.01495656910991232 0 0.23395366487550631 0.02247134986176896 0 0.23395366487550631 0.02247134986176896 0 0.2198818863837651 0.011980054850070049 0 0.21713103324540781 0.033334039838767197 0 0.23594229229735961 0.001204899671140396 0 0.23395366487550631 0.02247134986176896 0 0.2198818863837651 0.011980054850070049 0 0.23594229229735961 0.001204899671140396 0 0.2198818863837651 0.011980054850070049 0 0.2162535966536431 -0.0050009674220732794 0 0.2198818863837651 0.011980054850070049 0 0.20453665905069501 0.0038708987609379088 0 0.2162535966536431 -0.0050009674220732794 0 0.2198818863837651 0.011980054850070049 0 0.20453665905069501 0.0038708987609379088 0 0.20297907513332869 0.018626485448430648 0 0.2198818863837651 0.011980054850070049 0 0.20297907513332869 0.018626485448430648 0 0.21713103324540781 0.033334039838767197 0 0.20297907513332869 0.018626485448430648 0 0.21713103324540781 0.033334039838767197 0 0.19567151963398721 0.038969994891019953 0 0.20297907513332869 0.018626485448430648 0 0.19567151963398721 0.038969994891019953 0 0.17785903689485191 0.02228362383562095 0 0.20453665905069501 0.0038708987609379088 0 0.20297907513332869 0.018626485448430648 0 0.1891986054429885 0.0017627818108119321 0 0.20297907513332869 0.018626485448430648 0 0.1891986054429885 0.0017627818108119321 0 0.17785903689485191 0.02228362383562095 0 0.21348400237312251 0.055656365946418977 0 0.19567151963398721 0.038969994891019953 0 0.21348400237312251 0.055656365946418977 0 0.21713103324540781 0.033334039838767197 0 0.19567151963398721 0.038969994891019953 0 0.19567151963398721 0.038969994891019953 0 0.1909861987215917 0.058639513800436339 0 0.17839676259735551 0.046169182716094583 0 0.21348400237312251 0.055656365946418977 0 0.19567151963398721 0.038969994891019953 0 0.1909861987215917 0.058639513800436339 0 0.1909861987215917 0.058639513800436339 0 0.17839676259735551 0.046169182716094583 0 0.17018647962975531 0.058986286346404612 0 0.19567151963398721 0.038969994891019953 0 0.1762107093013725 0.033926147170011703 0 0.17785903689485191 0.02228362383562095 0 0.19567151963398721 0.038969994891019953 0 0.1762107093013725 0.033926147170011703 0 0.17839676259735551 0.046169182716094583 0 0.1762107093013725 0.033926147170011703 0 0.17839676259735551 0.046169182716094583 0 0.1667645198594411 0.038388922232850203 0 0.17839676259735551 0.046169182716094583 0 0.1667645198594411 0.038388922232850203 0 0.16263095577545711 0.049039944022313008 0 0.1762107093013725 0.033926147170011703 0 0.1667645198594411 0.038388922232850203 0 0.16236170752122681 0.023819012174472812 0 0.1667645198594411 0.038388922232850203 0 0.15580193734091291 0.02900469398791632 0 0.1539047316468907 0.040000504412135207 0 0.1667645198594411 0.038388922232850203 0 0.16263095577545711 0.049039944022313008 0 0.1539047316468907 0.040000504412135207 0 0.17839676259735551 0.046169182716094583 0 0.16263095577545711 0.049039944022313008 0 0.17018647962975531 0.058986286346404612 0 0.16263095577545711 0.049039944022313008 0 0.1552284972835081 0.060065561812275292 0 0.15130474363579161 0.050629206614118238 0 0.16263095577545711 0.049039944022313008 0 0.17018647962975531 0.058986286346404612 0 0.1552284972835081 0.060065561812275292 0 0.1891986054429885 0.0017627818108119321 0 0.17785903689485191 0.02228362383562095 0 0.16004655415571661 0.005597252780221898 0 0.19567151963398721 0.038969994891019953 0 0.17785903689485191 0.02228362383562095 0 0.1762107093013725 0.033926147170011703 0 0.17785903689485191 0.02228362383562095 0 0.16236170752122681 0.023819012174472812 0 0.16236170752122681 0.023819012174472812 0 0.15795889518301301 0.0092491021160952362 0 0.15580193734091291 0.02900469398791632 0 0.17785903689485191 0.02228362383562095 0 0.16236170752122681 0.023819012174472812 0 0.15795889518301301 0.0092491021160952362 0 0.1667645198594411 0.038388922232850203 0 0.16236170752122681 0.023819012174472812 0 0.1667645198594411 0.038388922232850203 0 0.16236170752122681 0.023819012174472812 0 0.15580193734091291 0.02900469398791632 0 0.16236170752122681 0.023819012174472812 0 0.15795889518301301 0.0092491021160952362 0 0.17785903689485191 0.02228362383562095 0 0.16004655415571661 0.005597252780221898 0 0.17785903689485191 0.02228362383562095 0 0.15795889518301301 0.0092491021160952362 0 0.16004655415571661 0.005597252780221898 0 0.15795889518301301 0.0092491021160952362 0 0.15559529236610761 0.001427401391511712 0 0.15795889518301301 0.0092491021160952362 0 0.16004655415571661 0.005597252780221898 0 0.15559529236610761 0.001427401391511712 0 0.15795889518301301 0.0092491021160952362 0 0.16004655415571661 0.005597252780221898 0 0.16004655415571661 0.005597252780221898 0 0.15559529236610761 0.001427401391511712 0 0.14448673624297589 0.00060265853330222796 0 0.1406598526441169 0.0082108983930308174 0 0.13726699067649581 -0.0087454682840986033 0 0.14448673624297589 0.00060265853330222796 0 0.14879212181647961 0.0080167750370884385 0 0.1406598526441169 0.0082108983930308174 0 0.14448673624297589 0.00060265853330222796 0 0.15102381658563219 0.003086928310441466 0 0.14879212181647961 0.0080167750370884385 0 0.15795889518301301 0.0092491021160952362 0 0.15559529236610761 0.001427401391511712 0 0.1534297250728642 0.0065647321471043341 0 0.14448673624297589 0.00060265853330222796 0 0.15102381658563219 0.003086928310441466 0 0.15281520742973259 -0.001176925556799116 0 0.15102381658563219 0.003086928310441466 0 0.15559529236610761 0.001427401391511712 0 0.15281520742973259 -0.001176925556799116 0 0.15102381658563219 0.003086928310441466 0 0.15559529236610761 0.001427401391511712 0 0.1534297250728642 0.0065647321471043341 0 0.15559529236610761 0.001427401391511712 0 0.15281520742973259 -0.001176925556799116 0 0.15102381658563219 0.003086928310441466 0 0.1534297250728642 0.0065647321471043341 0 0.14879212181647961 0.0080167750370884385 0 0.1534297250728642 0.0065647321471043341 0 0.15221824545539561 0.01071089788016138 0 0.14879212181647961 0.0080167750370884385 0 0.15221824545539561 0.01071089788016138 0 0.14879212181647961 0.0080167750370884385 0 0.14869223974922649 0.019012982220357352 0 0.15795889518301301 0.0092491021160952362 0 0.15221824545539561 0.01071089788016138 0 0.14869223974922649 0.019012982220357352 0 0.15795889518301301 0.0092491021160952362 0 0.1534297250728642 0.0065647321471043341 0 0.15221824545539561 0.01071089788016138 0 0.14879212181647961 0.0080167750370884385 0 0.1406598526441169 0.0082108983930308174 0 0.14869223974922649 0.019012982220357352 0 0.15795889518301301 0.0092491021160952362 0 0.1449801480849903 0.031952249320746987 0 0.15795889518301301 0.0092491021160952362 0 0.14869223974922649 0.019012982220357352 0 0.1449801480849903 0.031952249320746987 0 0.15795889518301301 0.0092491021160952362 0 0.15580193734091291 0.02900469398791632 0 0.1449801480849903 0.031952249320746987 0 0.1406598526441169 0.0082108983930308174 0 0.1424016135300285 0.02198233340936551 0 0.14869223974922649 0.019012982220357352 0 0.1424016135300285 0.02198233340936551 0 0.14869223974922649 0.019012982220357352 0 0.1449801480849903 0.031952249320746987 0 0.1424016135300285 0.02198233340936551 0 0.1352742136417803 0.028753203703326881 0 0.1449801480849903 0.031952249320746987 0 0.1406598526441169 0.0082108983930308174 0 0.1352742136417803 0.028753203703326881 0 0.1406598526441169 0.0082108983930308174 0 0.1352742136417803 0.028753203703326881 0 0.12879685253783629 0.01416995797359104 0 0.1406598526441169 0.0082108983930308174 0 0.1424016135300285 0.02198233340936551 0 0.1352742136417803 0.028753203703326881 0 0.1233780079704607 0.022937936676437141 0 0.1352742136417803 0.028753203703326881 0 0.12664249652680701 0.035329914042286137 0 0.1233780079704607 0.022937936676437141 0 0.1352742136417803 0.028753203703326881 0 0.12879685253783629 0.01416995797359104 0 0.1248322407467045 7.7178395747419371e-05 0 0.1406598526441169 0.0082108983930308174 0 0.12879685253783629 0.01416995797359104 0 0.14401952447914201 0.056258027937417021 0 0.15130474363579161 0.050629206614118238 0 0.14524210976675631 0.046699076961963147 0 0.14401952447914201 0.056258027937417021 0 0.13611490320461961 0.061901739505116557 0 0.14393575171525819 0.066855719233731889 0 0.14401952447914201 0.056258027937417021 0 0.1552284972835081 0.060065561812275292 0 0.14393575171525819 0.066855719233731889 0 0.14401952447914201 0.056258027937417021 0 0.1552284972835081 0.060065561812275292 0 0.15130474363579161 0.050629206614118238 0 0.16263095577545711 0.049039944022313008 0 0.15130474363579161 0.050629206614118238 0 0.1539047316468907 0.040000504412135207 0 0.15130474363579161 0.050629206614118238 0 0.1539047316468907 0.040000504412135207 0 0.14524210976675631 0.046699076961963147 0 0.1449801480849903 0.031952249320746987 0 0.14524210976675631 0.046699076961963147 0 0.13200140098696689 0.054655396525398262 0 0.15580193734091291 0.02900469398791632 0 0.1539047316468907 0.040000504412135207 0 0.1449801480849903 0.031952249320746987 0 0.1539047316468907 0.040000504412135207 0 0.1449801480849903 0.031952249320746987 0 0.14524210976675631 0.046699076961963147 0 0.1352742136417803 0.028753203703326881 0 0.1449801480849903 0.031952249320746987 0 0.12988857463944381 0.049295509013622917 0 0.1449801480849903 0.031952249320746987 0 0.12988857463944381 0.049295509013622917 0 0.13200140098696689 0.054655396525398262 0 0.1449801480849903 0.031952249320746987 0 0.13200140098696689 0.054655396525398262 0 0.1352742136417803 0.028753203703326881 0 0.12988857463944381 0.049295509013622917 0 0.1352742136417803 0.028753203703326881 0 0.12664249652680701 0.035329914042286137 0 0.12988857463944381 0.049295509013622917 0 0.12664249652680701 0.035329914042286137 0 0.12549650498356549 0.04612094562496237 0 0.12988857463944381 0.049295509013622917 0 0.12450293563711071 0.069837814323919861 0 0.12988857463944381 0.049295509013622917 0 0.12180870546955221 0.054126936761015002 0 0.12450293563711071 0.069837814323919861 0 0.12988857463944381 0.049295509013622917 0 0.12450293563711071 0.069837814323919861 0 0.12988857463944381 0.049295509013622917 0 0.13200140098696689 0.054655396525398262 0 0.12180870546955221 0.054126936761015002 0 0.12549650498356549 0.04612094562496237 0 0.12988857463944381 0.049295509013622917 0 0.14401952447914201 0.056258027937417021 0 0.14524210976675631 0.046699076961963147 0 0.13200140098696689 0.054655396525398262 0 0.14401952447914201 0.056258027937417021 0 0.13200140098696689 0.054655396525398262 0 0.13611490320461961 0.061901739505116557 0 0.12450293563711071 0.069837814323919861 0 0.13200140098696689 0.054655396525398262 0 0.13611490320461961 0.061901739505116557 0 0.12450293563711071 0.069837814323919861 0 0.13611490320461961 0.061901739505116557 0 0.14393575171525819 0.066855719233731889 0 0.12450293563711071 0.069837814323919861 0 0.14393575171525819 0.066855719233731889 0 0.14452911628503851 0.081199907524295151 0 0.12450293563711071 0.069837814323919861 0 0.14452911628503851 0.081199907524295151 0 0.1552284972835081 0.060065561812275292 0 0.14393575171525819 0.066855719233731889 0 0.1603400434093265 0.07197531733050512 0 0.14393575171525819 0.066855719233731889 0 0.14452911628503851 0.081199907524295151 0 0.1603400434093265 0.07197531733050512 0 0.14452911628503851 0.081199907524295151 0 0.1603400434093265 0.07197531733050512 0 0.15247088913310189 0.093351305867408502 0 0.14452911628503851 0.081199907524295151 0 0.16697562295944021 0.093935201654559375 0 0.14452911628503851 0.081199907524295151 0 0.16697562295944021 0.093935201654559375 0 0.15247088913310189 0.093351305867408502 0 0.14452911628503851 0.081199907524295151 0 0.14174087128856669 0.091044458494445674 0 0.12069271844112529 0.084371028470734494 0 0.12450293563711071 0.069837814323919861 0 0.13032430774723339 0.089487437819802368 0 0.14452911628503851 0.081199907524295151 0 0.14174087128856669 0.091044458494445674 0 0.13032430774723339 0.089487437819802368 0 0.12450293563711071 0.069837814323919861 0 0.14452911628503851 0.081199907524295151 0 0.13032430774723339 0.089487437819802368 0 0.14174087128856669 0.091044458494445674 0 0.13032430774723339 0.089487437819802368 0 0.1396391719888917 0.1001391827662745 0 0.14452911628503851 0.081199907524295151 0 0.13032430774723339 0.089487437819802368 0 0.116119499209427 0.097774968115307281 0 0.13032430774723339 0.089487437819802368 0 0.12871221674650829 0.10198449884209219 0 0.12871221674650829 0.10198449884209219 0 0.1396391719888917 0.1001391827662745 0 0.14056852213004339 0.1142486217195303 0 0.13032430774723339 0.089487437819802368 0 0.12871221674650829 0.10198449884209219 0 0.1396391719888917 0.1001391827662745 0 0.11701143033872941 0.12932700917832221 0 0.14426904899386411 0.1278958214392768 0 0.12615895248881381 0.11490786808128919 0 0.14426904899386411 0.1278958214392768 0 0.12615895248881381 0.11490786808128919 0 0.14056852213004339 0.1142486217195303 0 0.12871221674650829 0.10198449884209219 0 0.12615895248881381 0.11490786808128919 0 0.14056852213004339 0.1142486217195303 0 0.14426904899386411 0.1278958214392768 0 0.14056852213004339 0.1142486217195303 0 0.15420375436986819 0.1141583535847243 0 0.1396391719888917 0.1001391827662745 0 0.14056852213004339 0.1142486217195303 0 0.15420375436986819 0.1141583535847243 0 0.1396391719888917 0.1001391827662745 0 0.15420375436986819 0.1141583535847243 0 0.15724125499432889 0.10576493218768281 0 0.1396391719888917 0.1001391827662745 0 0.1669183842142522 0.097557951607311622 0 0.1396391719888917 0.1001391827662745 0 0.15724125499432889 0.10576493218768281 0 0.1669183842142522 0.097557951607311622 0 0.15247088913310189 0.093351305867408502 0 0.1396391719888917 0.1001391827662745 0 0.1669183842142522 0.097557951607311622 0 0.15247088913310189 0.093351305867408502 0 0.14174087128856669 0.091044458494445674 0 0.1396391719888917 0.1001391827662745 0 0.15247088913310189 0.093351305867408502 0 0.1669183842142522 0.097557951607311622 0 0.16697562295944021 0.093935201654559375 0 0.15724125499432889 0.10576493218768281 0 0.1669183842142522 0.097557951607311622 0 0.16820370940430379 0.11120424079242081 0 0.17152666764899879 0.12646463370023139 0 0.15420375436986819 0.1141583535847243 0 0.16820370940430379 0.11120424079242081 0 0.14426904899386411 0.1278958214392768 0 0.17152666764899879 0.12646463370023139 0 0.15420375436986819 0.1141583535847243 0 0.15420375436986819 0.1141583535847243 0 0.15724125499432889 0.10576493218768281 0 0.16820370940430379 0.11120424079242081 0 0.17152666764899879 0.12646463370023139 0 0.19878428630413361 0.12503344596118601 0 0.18087192829609719 0.1105329625492945 0 0.17152666764899879 0.12646463370023139 0 0.16820370940430379 0.11120424079242081 0 0.18087192829609719 0.1105329625492945 0 0.19419759643961271 0.094976720448348803 0 0.1669183842142522 0.097557951607311622 0 0.19419759643961271 0.094976720448348803 0 0.1669183842142522 0.097557951607311622 0 0.18087192829609719 0.1105329625492945 0 0.1669183842142522 0.097557951607311622 0 0.16820370940430379 0.11120424079242081 0 0.18087192829609719 0.1105329625492945 0 0.19419759643961271 0.094976720448348803 0 0.1669183842142522 0.097557951607311622 0 0.17555587194614369 0.088661451589038709 0 0.19419759643961271 0.094976720448348803 0 0.17555587194614369 0.088661451589038709 0 0.18067439352632231 0.075500395626148173 0 0.17555587194614369 0.088661451589038709 0 0.18067439352632231 0.075500395626148173 0 0.1690133625910912 0.081336988608825517 0 0.1909861987215917 0.058639513800436339 0 0.17018647962975531 0.058986286346404612 0 0.18067439352632231 0.075500395626148173 0 0.18067439352632231 0.075500395626148173 0 0.1603400434093265 0.07197531733050512 0 0.1690133625910912 0.081336988608825517 0 0.17018647962975531 0.058986286346404612 0 0.18067439352632231 0.075500395626148173 0 0.1603400434093265 0.07197531733050512 0 0.17018647962975531 0.058986286346404612 0 0.1552284972835081 0.060065561812275292 0 0.1603400434093265 0.07197531733050512 0 0.14452911628503851 0.081199907524295151 0 0.16697562295944021 0.093935201654559375 0 0.1690133625910912 0.081336988608825517 0 0.14452911628503851 0.081199907524295151 0 0.1603400434093265 0.07197531733050512 0 0.1690133625910912 0.081336988608825517 0 0.1669183842142522 0.097557951607311622 0 0.16697562295944021 0.093935201654559375 0 0.17555587194614369 0.088661451589038709 0 0.16697562295944021 0.093935201654559375 0 0.17555587194614369 0.088661451589038709 0 0.1690133625910912 0.081336988608825517 0 0.1066186814774899 0.47730372646630898 0 0.1181218487732046 0.49942461038247887 0 0.090051359737322326 0.4988492207649573 0 0.1066186814774899 0.47730372646630898 0 0.1181218487732046 0.49942461038247887 0 0.13231536427196211 0.48033225218163939 0 0.1066186814774899 0.47730372646630898 0 0.12221158537769131 0.46499274123964962 0 0.13231536427196211 0.48033225218163939 0 0.1066186814774899 0.47730372646630898 0 0.12221158537769131 0.46499274123964962 0 0.10747276428354539 0.46030326215943262 0 0.12221158537769131 0.46499274123964962 0 0.1186407457505735 0.45388378370158222 0 0.12928013352852771 0.45079549219293741 0 0.1186407457505735 0.45388378370158222 0 0.1117331477940348 0.44627629864606499 0 0.10747276428354539 0.46030326215943262 0 0.12221158537769131 0.46499274123964962 0 0.1186407457505735 0.45388378370158222 0 0.10747276428354539 0.46030326215943262 0 0.12132018965117861 0.44444616457138769 0 0.118126119694115 0.43529345312939188 0 0.1254923519800801 0.43888507744107091 0 0.1186407457505735 0.45388378370158222 0 0.12132018965117861 0.44444616457138769 0 0.1117331477940348 0.44627629864606499 0 0.1186407457505735 0.45388378370158222 0 0.12132018965117861 0.44444616457138769 0 0.12928013352852771 0.45079549219293741 0 0.12132018965117861 0.44444616457138769 0 0.1117331477940348 0.44627629864606499 0 0.118126119694115 0.43529345312939188 0 0.1117331477940348 0.44627629864606499 0 0.1062923052237733 0.43397785818210433 0 0.118126119694115 0.43529345312939188 0 0.098627315760249301 0.44944216407870258 0 0.091221018455426267 0.43301269601376258 0 0.1062923052237733 0.43397785818210433 0 0.1117331477940348 0.44627629864606499 0 0.098627315760249301 0.44944216407870258 0 0.1062923052237733 0.43397785818210433 0 0.1117331477940348 0.44627629864606499 0 0.098627315760249301 0.44944216407870258 0 0.10747276428354539 0.46030326215943262 0 0.098627315760249301 0.44944216407870258 0 0.10747276428354539 0.46030326215943262 0 0.088378516186603542 0.46461662504960838 0 0.1066186814774899 0.47730372646630898 0 0.10747276428354539 0.46030326215943262 0 0.088378516186603542 0.46461662504960838 0 0.098627315760249301 0.44944216407870258 0 0.088378516186603542 0.46461662504960838 0 0.074781799500384841 0.44614683628689572 0 0.098627315760249301 0.44944216407870258 0 0.074781799500384841 0.44614683628689572 0 0.091221018455426267 0.43301269601376258 0 0.088378516186603542 0.46461662504960838 0 0.074781799500384841 0.44614683628689572 0 0.063522141806022905 0.47338939495095211 0 0.088378516186603542 0.46461662504960838 0 0.063522141806022905 0.47338939495095211 0 0.079877581556563437 0.48289865253689451 0 0.1066186814774899 0.47730372646630898 0 0.088378516186603542 0.46461662504960838 0 0.079877581556563437 0.48289865253689451 0 0.1066186814774899 0.47730372646630898 0 0.079877581556563437 0.48289865253689451 0 0.090051359737322326 0.4988492207649573 0 0.090051359737322326 0.4988492207649573 0 0.06377697225451856 0.5 0 0.061980870701439962 0.49827383114743568 0 0.090051359737322326 0.4988492207649573 0 0.061980870701439962 0.49827383114743568 0 0.063522141806022905 0.47338939495095211 0 0.079877581556563437 0.48289865253689451 0 0.061980870701439962 0.49827383114743568 0 0.079877581556563437 0.48289865253689451 0 0.090051359737322326 0.4988492207649573 0 0.061980870701439962 0.49827383114743568 0 0.061980870701439962 0.49827383114743568 0 0.033910381665557571 0.49769844152991399 0 0.06377697225451856 0.5 0 0.061980870701439962 0.49827383114743568 0 0.036305183736329127 0.5 0 0.063522141806022905 0.47338939495095211 0 0.061980870701439962 0.49827383114743568 0 0.044492083382245133 0.47878612603846371 0 0.044492083382245133 0.47878612603846371 0 0.033910381665557571 0.49769844152991399 0 0.025820317585584548 0.4680344931854199 0 0.061980870701439962 0.49827383114743568 0 0.036305183736329127 0.5 0 0.033910381665557571 0.49769844152991399 0 0.061980870701439962 0.49827383114743568 0 0.044492083382245133 0.47878612603846371 0 0.033910381665557571 0.49769844152991399 0 0.033910381665557571 0.49769844152991399 0 0.0081508746442903214 0.47758985975002177 0 0.0058398926296752418 0.49712305191239248 0 0.036305183736329127 0.5 0 0.033910381665557571 0.49769844152991399 0 0.0088333952181397501 0.5 0 0.033910381665557571 0.49769844152991399 0 0.0088333952181397501 0.5 0 0.0058398926296752418 0.49712305191239248 0 0.033910381665557571 0.49769844152991399 0 0.0058398926296752418 0.49712305191239248 0 0.033910381665557571 0.49769844152991399 0 0.0081508746442903214 0.47758985975002177 0 0.025820317585584548 0.4680344931854199 0 -0.012305942038330299 0.47503465695876612 0 0.0081508746442903214 0.47758985975002177 0 0.0058398926296752418 0.49712305191239248 0 0.001880978501371974 0.45220660559796338 0 0.024222385358815299 0.4456900803900003 0 0.011702263288091231 0.4265188556027773 0 0.0081508746442903214 0.47758985975002177 0 0.001880978501371974 0.45220660559796338 0 0.025820317585584548 0.4680344931854199 0 0.001880978501371974 0.45220660559796338 0 0.025820317585584548 0.4680344931854199 0 0.024222385358815299 0.4456900803900003 0 0.024222385358815299 0.4456900803900003 0 0.046023714076888912 0.4531923799118816 0 0.035684653342139827 0.42849806765195941 0 0.025820317585584548 0.4680344931854199 0 0.024222385358815299 0.4456900803900003 0 0.046023714076888912 0.4531923799118816 0 0.044492083382245133 0.47878612603846371 0 0.025820317585584548 0.4680344931854199 0 0.046023714076888912 0.4531923799118816 0 0.074781799500384841 0.44614683628689572 0 0.063522141806022905 0.47338939495095211 0 0.046023714076888912 0.4531923799118816 0 0.063522141806022905 0.47338939495095211 0 0.044492083382245133 0.47878612603846371 0 0.046023714076888912 0.4531923799118816 0 0.074781799500384841 0.44614683628689572 0 0.046023714076888912 0.4531923799118816 0 0.058049619970980827 0.42903221921154722 0 0.058049619970980827 0.42903221921154722 0 0.054580651406726112 0.40973981439624968 0 0.035684653342139827 0.42849806765195941 0 0.035684653342139827 0.42849806765195941 0 0.02463316338261029 0.41602103650324618 0 0.035618543176309782 0.40373594906225369 0 0.054580651406726112 0.40973981439624968 0 0.035684653342139827 0.42849806765195941 0 0.035618543176309782 0.40373594906225369 0 0.046023714076888912 0.4531923799118816 0 0.058049619970980827 0.42903221921154722 0 0.035684653342139827 0.42849806765195941 0 0.024222385358815299 0.4456900803900003 0 0.035684653342139827 0.42849806765195941 0 0.011702263288091231 0.4265188556027773 0 0.035684653342139827 0.42849806765195941 0 0.02463316338261029 0.41602103650324618 0 0.011702263288091231 0.4265188556027773 0 0.02463316338261029 0.41602103650324618 0 0.01552719372390033 0.40533127369599448 0 0.035618543176309782 0.40373594906225369 0 0.02463316338261029 0.41602103650324618 0 0.011702263288091231 0.4265188556027773 0 0.01552719372390033 0.40533127369599448 0 -0.001014951246575481 0.40983086494900628 0 0.011702263288091231 0.4265188556027773 0 0.01552719372390033 0.40533127369599448 0 -0.01288504614635887 0.37452134551168798 0 0.0098165478029443032 0.38819493289885498 0 0.0074314132515415406 0.36349379712280849 0 0.0098165478029443032 0.38819493289885498 0 0.0018779901347113349 0.39350059771652901 0 0.0098165478029443032 0.38819493289885498 0 0.01552719372390033 0.40533127369599448 0 0.0018779901347113349 0.39350059771652901 0 -0.001014951246575481 0.40983086494900628 0 0.01552719372390033 0.40533127369599448 0 0.0018779901347113349 0.39350059771652901 0 0.0098165478029443032 0.38819493289885498 0 0.035618543176309782 0.40373594906225369 0 0.0098165478029443032 0.38819493289885498 0 0.030533504127323578 0.38777899806182631 0 0.035618543176309782 0.40373594906225369 0 0.0098165478029443032 0.38819493289885498 0 0.01552719372390033 0.40533127369599448 0 0.035618543176309782 0.40373594906225369 0 0.0098165478029443032 0.38819493289885498 0 0.03307998467049901 0.37264702058471427 0 0.0098165478029443032 0.38819493289885498 0 0.030533504127323578 0.38777899806182631 0 0.03307998467049901 0.37264702058471427 0 0.030533504127323578 0.38777899806182631 0 0.049207778676904138 0.38492323593502792 0 0.03307998467049901 0.37264702058471427 0 0.054580651406726112 0.40973981439624968 0 0.035618543176309782 0.40373594906225369 0 0.049207778676904138 0.38492323593502792 0 0.030533504127323578 0.38777899806182631 0 0.035618543176309782 0.40373594906225369 0 0.049207778676904138 0.38492323593502792 0 0.054580651406726112 0.40973981439624968 0 0.049207778676904138 0.38492323593502792 0 0.071807330978885101 0.3935307577372244 0 0.049207778676904138 0.38492323593502792 0 0.071807330978885101 0.3935307577372244 0 0.065403629982843728 0.37392365249111947 0 0.078615364259247866 0.37631883551192241 0 0.071807330978885101 0.3935307577372244 0 0.065403629982843728 0.37392365249111947 0 0.078615364259247866 0.37631883551192241 0 0.088948015666687516 0.38995354589009451 0 0.071807330978885101 0.3935307577372244 0 0.078615364259247866 0.37631883551192241 0 0.088948015666687516 0.38995354589009451 0 0.092394471553226581 0.36419293438931422 0 0.088948015666687516 0.38995354589009451 0 0.088476148065833149 0.4054445909961113 0 0.071807330978885101 0.3935307577372244 0 0.088476148065833149 0.4054445909961113 0 0.071807330978885101 0.3935307577372244 0 0.077115982295136998 0.41871865677948572 0 0.088948015666687516 0.38995354589009451 0 0.088476148065833149 0.4054445909961113 0 0.1018836654940655 0.40319734792286821 0 0.058049619970980827 0.42903221921154722 0 0.054580651406726112 0.40973981439624968 0 0.077115982295136998 0.41871865677948572 0 0.054580651406726112 0.40973981439624968 0 0.071807330978885101 0.3935307577372244 0 0.077115982295136998 0.41871865677948572 0 0.074781799500384841 0.44614683628689572 0 0.058049619970980827 0.42903221921154722 0 0.077115982295136998 0.41871865677948572 0 0.074781799500384841 0.44614683628689572 0 0.077115982295136998 0.41871865677948572 0 0.091221018455426267 0.43301269601376258 0 0.077115982295136998 0.41871865677948572 0 0.091221018455426267 0.43301269601376258 0 0.100314899194184 0.41912561547741028 0 0.088476148065833149 0.4054445909961113 0 0.077115982295136998 0.41871865677948572 0 0.100314899194184 0.41912561547741028 0 0.088476148065833149 0.4054445909961113 0 0.100314899194184 0.41912561547741028 0 0.1018836654940655 0.40319734792286821 0 0.100314899194184 0.41912561547741028 0 0.1179696978484443 0.40947641125505368 0 0.1018836654940655 0.40319734792286821 0 0.091221018455426267 0.43301269601376258 0 0.100314899194184 0.41912561547741028 0 0.1062923052237733 0.43397785818210433 0 0.100314899194184 0.41912561547741028 0 0.1062923052237733 0.43397785818210433 0 0.11376157642809211 0.42559814769757731 0 0.1179696978484443 0.40947641125505368 0 0.1261048601799438 0.43011740044392621 0 0.13075731099605339 0.43211814968792328 0 0.1062923052237733 0.43397785818210433 0 0.11376157642809211 0.42559814769757731 0 0.118126119694115 0.43529345312939188 0 0.118126119694115 0.43529345312939188 0 0.1261048601799438 0.43011740044392621 0 0.1254923519800801 0.43888507744107091 0 0.11376157642809211 0.42559814769757731 0 0.118126119694115 0.43529345312939188 0 0.1261048601799438 0.43011740044392621 0 0.1179696978484443 0.40947641125505368 0 0.13075731099605339 0.43211814968792328 0 0.100314899194184 0.41912561547741028 0 0.11376157642809211 0.42559814769757731 0 0.1179696978484443 0.40947641125505368 0 0.11376157642809211 0.42559814769757731 0 0.1179696978484443 0.40947641125505368 0 0.1261048601799438 0.43011740044392621 0 0.1179696978484443 0.40947641125505368 0 0.1051820847008354 0.38683467282218392 0 0.1179696978484443 0.40947641125505368 0 0.1051820847008354 0.38683467282218392 0 0.13444963931475409 0.39943100610689047 0 0.1051820847008354 0.38683467282218392 0 0.12703681567344491 0.37550187647769911 0 0.13444963931475409 0.39943100610689047 0 0.1051820847008354 0.38683467282218392 0 0.092394471553226581 0.36419293438931422 0 0.088948015666687516 0.38995354589009451 0 0.1051820847008354 0.38683467282218392 0 0.092394471553226581 0.36419293438931422 0 0.088948015666687516 0.38995354589009451 0 0.1051820847008354 0.38683467282218392 0 0.1018836654940655 0.40319734792286821 0 0.1179696978484443 0.40947641125505368 0 0.1051820847008354 0.38683467282218392 0 0.1018836654940655 0.40319734792286821 0 0.101680425451269 0.3455207545234501 0 0.10531795305140899 0.36174502305754569 0 0.083328612195448515 0.34814093047908012 0 0.10531795305140899 0.36174502305754569 0 0.083328612195448515 0.34814093047908012 0 0.101680425451269 0.3455207545234501 0 0.10531795305140899 0.36174502305754569 0 0.1123198123787686 0.35005298662051743 0 0.101680425451269 0.3455207545234501 0 0.1123198123787686 0.35005298662051743 0 0.11003588836082991 0.337393611328905 0 0.1051820847008354 0.38683467282218392 0 0.10531795305140899 0.36174502305754569 0 0.092394471553226581 0.36419293438931422 0 0.1051820847008354 0.38683467282218392 0 0.10531795305140899 0.36174502305754569 0 0.12703681567344491 0.37550187647769911 0 0.10531795305140899 0.36174502305754569 0 0.12703681567344491 0.37550187647769911 0 0.10531795305140899 0.36174502305754569 0 0.1242287093663751 0.35727785227798958 0 0.12703681567344491 0.37550187647769911 0 0.1242287093663751 0.35727785227798958 0 0.1123198123787686 0.35005298662051743 0 0.1224316117887113 0.33926009416940528 0 0.10531795305140899 0.36174502305754569 0 0.1242287093663751 0.35727785227798958 0 0.1123198123787686 0.35005298662051743 0 0.1224316117887113 0.33926009416940528 0 0.11348203338279279 0.32371485354015123 0 0.1302890607909207 0.32751128906626531 0 0.1224316117887113 0.33926009416940528 0 0.11003588836082991 0.337393611328905 0 0.11348203338279279 0.32371485354015123 0 0.1123198123787686 0.35005298662051743 0 0.1224316117887113 0.33926009416940528 0 0.11003588836082991 0.337393611328905 0 0.11348203338279279 0.32371485354015123 0 0.12766050918513169 0.30704900550319381 0 0.1302890607909207 0.32751128906626531 0 0.11348203338279279 0.32371485354015123 0 0.1068389995038601 0.30785668127653482 0 0.12766050918513169 0.30704900550319381 0 0.11348203338279279 0.32371485354015123 0 0.097067634812747841 0.3298814404486598 0 0.09254847062448758 0.31513223892566272 0 0.11348203338279279 0.32371485354015123 0 0.09254847062448758 0.31513223892566272 0 0.1068389995038601 0.30785668127653482 0 0.101680425451269 0.3455207545234501 0 0.097067634812747841 0.3298814404486598 0 0.083328612195448515 0.34814093047908012 0 0.11003588836082991 0.337393611328905 0 0.11348203338279279 0.32371485354015123 0 0.097067634812747841 0.3298814404486598 0 0.101680425451269 0.3455207545234501 0 0.11003588836082991 0.337393611328905 0 0.097067634812747841 0.3298814404486598 0 0.097067634812747841 0.3298814404486598 0 0.079606858405616959 0.3415511959564449 0 0.083328612195448515 0.34814093047908012 0 0.097067634812747841 0.3298814404486598 0 0.079606858405616959 0.3415511959564449 0 0.082803435220266244 0.32671140613549471 0 0.097067634812747841 0.3298814404486598 0 0.079606858405616959 0.3415511959564449 0 0.09254847062448758 0.31513223892566272 0 0.082803435220266244 0.32671140613549471 0 0.068114268673410167 0.32120242503029123 0 0.097067634812747841 0.3298814404486598 0 0.09254847062448758 0.31513223892566272 0 0.082803435220266244 0.32671140613549471 0 0.079606858405616959 0.3415511959564449 0 0.068114268673410167 0.32120242503029123 0 0.06613072733312117 0.33606033662266133 0 0.079606858405616959 0.3415511959564449 0 0.06613072733312117 0.33606033662266133 0 0.061600701805483139 0.34326690377103858 0 0.079606858405616959 0.3415511959564449 0 0.068114268673410167 0.32120242503029123 0 0.079606858405616959 0.3415511959564449 0 0.082803435220266244 0.32671140613549471 0 0.068114268673410167 0.32120242503029123 0 0.068114268673410167 0.32120242503029123 0 0.06613072733312117 0.33606033662266133 0 0.054652658371988599 0.33564149790736098 0 0.079606858405616959 0.3415511959564449 0 0.056343421538054952 0.35709910827057489 0 0.079606858405616959 0.3415511959564449 0 0.056343421538054952 0.35709910827057489 0 0.061600701805483139 0.34326690377103858 0 0.079606858405616959 0.3415511959564449 0 0.074339529110622096 0.36216416767064907 0 0.056343421538054952 0.35709910827057489 0 0.083328612195448515 0.34814093047908012 0 0.092394471553226581 0.36419293438931422 0 0.079606858405616959 0.3415511959564449 0 0.083328612195448515 0.34814093047908012 0 0.074339529110622096 0.36216416767064907 0 0.079606858405616959 0.3415511959564449 0 0.083328612195448515 0.34814093047908012 0 0.083328612195448515 0.34814093047908012 0 0.092394471553226581 0.36419293438931422 0 0.074339529110622096 0.36216416767064907 0 0.10531795305140899 0.36174502305754569 0 0.083328612195448515 0.34814093047908012 0 0.092394471553226581 0.36419293438931422 0 0.078615364259247866 0.37631883551192241 0 0.092394471553226581 0.36419293438931422 0 0.074339529110622096 0.36216416767064907 0 0.078615364259247866 0.37631883551192241 0 0.074339529110622096 0.36216416767064907 0 0.065403629982843728 0.37392365249111947 0 0.074339529110622096 0.36216416767064907 0 0.065403629982843728 0.37392365249111947 0 0.056343421538054952 0.35709910827057489 0 0.049207778676904138 0.38492323593502792 0 0.065403629982843728 0.37392365249111947 0 0.056343421538054952 0.35709910827057489 0 0.056343421538054952 0.35709910827057489 0 0.05344695744652269 0.34652202018335071 0 0.061600701805483139 0.34326690377103858 0 0.056343421538054952 0.35709910827057489 0 0.05344695744652269 0.34652202018335071 0 0.041191048070564062 0.35008057078442811 0 0.05344695744652269 0.34652202018335071 0 0.041191048070564062 0.35008057078442811 0 0.054652658371988599 0.33564149790736098 0 0.041191048070564062 0.35008057078442811 0 0.01782808220480572 0.34287613664093841 0 0.046567936663671212 0.3427519983142977 0 0.056343421538054952 0.35709910827057489 0 0.03307998467049901 0.37264702058471427 0 0.049207778676904138 0.38492323593502792 0 0.056343421538054952 0.35709910827057489 0 0.03307998467049901 0.37264702058471427 0 0.041191048070564062 0.35008057078442811 0 0.03307998467049901 0.37264702058471427 0 0.024882632049352579 0.35727438128322231 0 0.056343421538054952 0.35709910827057489 0 0.041191048070564062 0.35008057078442811 0 0.03307998467049901 0.37264702058471427 0 0.03307998467049901 0.37264702058471427 0 0.024882632049352579 0.35727438128322231 0 0.0074314132515415406 0.36349379712280849 0 0.0098165478029443032 0.38819493289885498 0 0.03307998467049901 0.37264702058471427 0 0.0074314132515415406 0.36349379712280849 0 0.041191048070564062 0.35008057078442811 0 0.024882632049352579 0.35727438128322231 0 0.01782808220480572 0.34287613664093841 0 0.024882632049352579 0.35727438128322231 0 0.0074314132515415406 0.36349379712280849 0 0.01782808220480572 0.34287613664093841 0 -0.010911772254059791 0.34300027496757901 0 0.0074314132515415406 0.36349379712280849 0 0.01782808220480572 0.34287613664093841 0 -0.002011014513665115 0.32462085587950051 0 0.01368745503262488 0.32316012870017818 0 0.0053565778643066319 0.31563897002069308 0 0.01401042868191989 0.31553169082008931 0 0.0053565778643066319 0.31563897002069308 0 0.0096077622277257677 0.30954952549672332 0 0.01368745503262488 0.32316012870017818 0 0.01401042868191989 0.31553169082008931 0 0.0053565778643066319 0.31563897002069308 0 -0.002011014513665115 0.32462085587950051 0 -0.0021569747593942431 0.31582843076862283 0 0.0053565778643066319 0.31563897002069308 0 -0.0021569747593942431 0.31582843076862283 0 0.0053565778643066319 0.31563897002069308 0 0.0003285941805424841 0.31182975685121361 0 -0.010911772254059791 0.34300027496757901 0 -0.002011014513665115 0.32462085587950051 0 0.01782808220480572 0.34287613664093841 0 -0.002011014513665115 0.32462085587950051 0 0.01368745503262488 0.32316012870017818 0 0.01782808220480572 0.34287613664093841 0 -0.010911772254059791 0.34300027496757901 0 0.01782808220480572 0.34287613664093841 0 0.01782808220480572 0.34287613664093841 0 0.028818131292748989 0.33036034547176729 0 0.046567936663671212 0.3427519983142977 0 0.01368745503262488 0.32316012870017818 0 0.01782808220480572 0.34287613664093841 0 0.028818131292748989 0.33036034547176729 0 0.028818131292748989 0.33036034547176729 0 0.022890137535237439 0.32006696872264279 0 0.032409577603860901 0.31908536495701861 0 0.01368745503262488 0.32316012870017818 0 0.028818131292748989 0.33036034547176729 0 0.022890137535237439 0.32006696872264279 0 0.01368745503262488 0.32316012870017818 0 0.01401042868191989 0.31553169082008931 0 0.022890137535237439 0.32006696872264279 0 0.01401042868191989 0.31553169082008931 0 0.022890137535237439 0.32006696872264279 0 0.02083198154106378 0.31042243308840328 0 0.022890137535237439 0.32006696872264279 0 0.032409577603860901 0.31908536495701861 0 0.02083198154106378 0.31042243308840328 0 0.032409577603860901 0.31908536495701861 0 0.032567281425795513 0.3084189539840716 0 0.02083198154106378 0.31042243308840328 0 0.032409577603860901 0.31908536495701861 0 0.041960904124877962 0.32936228716915572 0 0.048156256866067268 0.314484718925507 0 0.032409577603860901 0.31908536495701861 0 0.048156256866067268 0.314484718925507 0 0.032567281425795513 0.3084189539840716 0 0.028818131292748989 0.33036034547176729 0 0.032409577603860901 0.31908536495701861 0 0.041960904124877962 0.32936228716915572 0 0.01782808220480572 0.34287613664093841 0 0.046567936663671212 0.3427519983142977 0 0.028818131292748989 0.33036034547176729 0 0.041960904124877962 0.32936228716915572 0 0.046567936663671212 0.3427519983142977 0 0.041960904124877962 0.32936228716915572 0 0.046567936663671212 0.3427519983142977 0 0.048810992528281152 0.33330218839504427 0 0.046567936663671212 0.3427519983142977 0 0.048810992528281152 0.33330218839504427 0 0.054652658371988599 0.33564149790736098 0 0.041191048070564062 0.35008057078442811 0 0.046567936663671212 0.3427519983142977 0 0.054652658371988599 0.33564149790736098 0 0.041191048070564062 0.35008057078442811 0 0.054652658371988599 0.33564149790736098 0 0.041960904124877962 0.32936228716915572 0 0.048810992528281152 0.33330218839504427 0 0.052062470952586842 0.32545297018936298 0 0.048810992528281152 0.33330218839504427 0 0.054652658371988599 0.33564149790736098 0 0.052062470952586842 0.32545297018936298 0 0.068114268673410167 0.32120242503029123 0 0.054652658371988599 0.33564149790736098 0 0.06613072733312117 0.33606033662266133 0 0.054652658371988599 0.33564149790736098 0 0.061600701805483139 0.34326690377103858 0 0.05344695744652269 0.34652202018335071 0 0.054652658371988599 0.33564149790736098 0 0.061600701805483139 0.34326690377103858 0 0.068114268673410167 0.32120242503029123 0 0.054652658371988599 0.33564149790736098 0 0.052062470952586842 0.32545297018936298 0 0.068114268673410167 0.32120242503029123 0 0.048156256866067268 0.314484718925507 0 0.052062470952586842 0.32545297018936298 0 0.041960904124877962 0.32936228716915572 0 0.048156256866067268 0.314484718925507 0 0.052062470952586842 0.32545297018936298 0 0.048156256866067268 0.314484718925507 0 0.056550391202450527 0.30072743208634611 0 0.036734314589941211 0.29801153462365521 0 0.068114268673410167 0.32120242503029123 0 0.056550391202450527 0.30072743208634611 0 0.068114268673410167 0.32120242503029123 0 0.048156256866067268 0.314484718925507 0 0.056550391202450527 0.30072743208634611 0 0.056550391202450527 0.30072743208634611 0 0.044986513731489923 0.28025243914240161 0 0.070168223091568935 0.28720832129383023 0 0.056550391202450527 0.30072743208634611 0 0.044986513731489923 0.28025243914240161 0 0.018268867909560071 0.29149144705690749 0 0.044986513731489923 0.28025243914240161 0 0.036734314589941211 0.29801153462365521 0 0.018268867909560071 0.29149144705690749 0 0.044986513731489923 0.28025243914240161 0 0.056550391202450527 0.30072743208634611 0 0.036734314589941211 0.29801153462365521 0 0.044986513731489923 0.28025243914240161 0 0.048156256866067268 0.314484718925507 0 0.036734314589941211 0.29801153462365521 0 0.032567281425795513 0.3084189539840716 0 0.036734314589941211 0.29801153462365521 0 0.023761685529644479 0.30207448429450662 0 0.018268867909560071 0.29149144705690749 0 0.032567281425795513 0.3084189539840716 0 0.02083198154106378 0.31042243308840328 0 0.023761685529644479 0.30207448429450662 0 0.02083198154106378 0.31042243308840328 0 0.023761685529644479 0.30207448429450662 0 0.010405982181861831 0.30202805271949529 0 0.023761685529644479 0.30207448429450662 0 0.018268867909560071 0.29149144705690749 0 0.010405982181861831 0.30202805271949529 0 0.036734314589941211 0.29801153462365521 0 0.032567281425795513 0.3084189539840716 0 0.023761685529644479 0.30207448429450662 0 0.018268867909560071 0.29149144705690749 0 0.020522423536888362 0.27513383402574387 0 0.044986513731489923 0.28025243914240161 0 0.018268867909560071 0.29149144705690749 0 0.0084958331212114952 0.28063762884213772 0 0.020522423536888362 0.27513383402574387 0 -0.0084487779123699897 0.30273045497141321 0 0.018268867909560071 0.29149144705690749 0 6.6716039502322247e-05 0.28721651995819358 0 0.018268867909560071 0.29149144705690749 0 6.6716039502322247e-05 0.28721651995819358 0 0.0084958331212114952 0.28063762884213772 0 -0.0084487779123699897 0.30273045497141321 0 0.018268867909560071 0.29149144705690749 0 -0.0084487779123699897 0.30273045497141321 0 0.018268867909560071 0.29149144705690749 0 0.010405982181861831 0.30202805271949529 0 -0.0084487779123699897 0.30273045497141321 0 0.0044096845543389563 0.30474812790938349 0 0.010405982181861831 0.30202805271949529 0 0.00098840718856655382 0.30623072353262931 0 0.0037928039385430501 0.30951766438637268 0 0.0044096845543389563 0.30474812790938349 0 -0.001859088603697566 0.30676229706056363 0 0.00098840718856655382 0.30623072353262931 0 0.0011096224747733779 0.30865582514363021 0 0.00098840718856655382 0.30623072353262931 0 0.0011096224747733779 0.30865582514363021 0 0.0037928039385430501 0.30951766438637268 0 0.0053565778643066319 0.31563897002069308 0 0.0003285941805424841 0.31182975685121361 0 0.0037928039385430501 0.30951766438637268 0 0.0003285941805424841 0.31182975685121361 0 0.0011096224747733779 0.30865582514363021 0 0.0037928039385430501 0.30951766438637268 0 0.0053565778643066319 0.31563897002069308 0 0.0037928039385430501 0.30951766438637268 0 0.0096077622277257677 0.30954952549672332 0 0.0037928039385430501 0.30951766438637268 0 0.0044096845543389563 0.30474812790938349 0 0.0096077622277257677 0.30954952549672332 0 0.01401042868191989 0.31553169082008931 0 0.02083198154106378 0.31042243308840328 0 0.0096077622277257677 0.30954952549672332 0 0.02083198154106378 0.31042243308840328 0 0.0096077622277257677 0.30954952549672332 0 0.010405982181861831 0.30202805271949529 0 0.0044096845543389563 0.30474812790938349 0 0.0096077622277257677 0.30954952549672332 0 0.010405982181861831 0.30202805271949529 0 0.0057306298636677841 0.25416327821407941 0 0.020522423536888362 0.27513383402574387 0 0.020230351136011061 0.25368333959841483 0 0.01184592620335486 0.24346699342856021 0 0.0057306298636677841 0.25416327821407941 0 0.020230351136011061 0.25368333959841483 0 -0.0048746750011047588 0.26870871432770588 0 6.6716039502322247e-05 0.28721651995819358 0 0.0084958331212114952 0.28063762884213772 0 -0.0048746750011047588 0.26870871432770588 0 0.020522423536888362 0.27513383402574387 0 -0.0048746750011047588 0.26870871432770588 0 0.0057306298636677841 0.25416327821407941 0 0.020522423536888362 0.27513383402574387 0 -0.0048746750011047588 0.26870871432770588 0 0.0084958331212114952 0.28063762884213772 0 0.020522423536888362 0.27513383402574387 0 0.021834877148325871 0.23926016843808029 0 0.020230351136011061 0.25368333959841483 0 0.033410695439908933 0.25975630379024039 0 0.020522423536888362 0.27513383402574387 0 0.020230351136011061 0.25368333959841483 0 0.033410695439908933 0.25975630379024039 0 0.051915535616861193 0.24732782670107409 0 0.033410695439908933 0.25975630379024039 0 0.052231853102002589 0.26194434701398961 0 0.033410695439908933 0.25975630379024039 0 0.044986513731489923 0.28025243914240161 0 0.020522423536888362 0.27513383402574387 0 0.033410695439908933 0.25975630379024039 0 0.044986513731489923 0.28025243914240161 0 0.033410695439908933 0.25975630379024039 0 0.044986513731489923 0.28025243914240161 0 0.052231853102002589 0.26194434701398961 0 0.044986513731489923 0.28025243914240161 0 0.061200711355701307 0.27343179721008409 0 0.044986513731489923 0.28025243914240161 0 0.061200711355701307 0.27343179721008409 0 0.052231853102002589 0.26194434701398961 0 0.044986513731489923 0.28025243914240161 0 0.061200711355701307 0.27343179721008409 0 0.070168223091568935 0.28720832129383023 0 0.061200711355701307 0.27343179721008409 0 0.052231853102002589 0.26194434701398961 0 0.065140356082699302 0.2620638478352455 0 0.052231853102002589 0.26194434701398961 0 0.061412225942685042 0.25314398337725141 0 0.065140356082699302 0.2620638478352455 0 0.051915535616861193 0.24732782670107409 0 0.052231853102002589 0.26194434701398961 0 0.061412225942685042 0.25314398337725141 0 0.061412225942685042 0.25314398337725141 0 0.065140356082699302 0.2620638478352455 0 0.073442081033194967 0.25518795629713609 0 0.067613138105492548 0.24305613431459319 0 0.061412225942685042 0.25314398337725141 0 0.073442081033194967 0.25518795629713609 0 0.065140356082699302 0.2620638478352455 0 0.073442081033194967 0.25518795629713609 0 0.077414908979912669 0.26661115527776641 0 0.08729444276471357 0.25793036044146789 0 0.093590495685023506 0.26985999639382691 0 0.077414908979912669 0.26661115527776641 0 0.080981345373273672 0.24735560456210759 0 0.073442081033194967 0.25518795629713609 0 0.08729444276471357 0.25793036044146789 0 0.073442081033194967 0.25518795629713609 0 0.08729444276471357 0.25793036044146789 0 0.077414908979912669 0.26661115527776641 0 0.080981345373273672 0.24735560456210759 0 0.095584633448183742 0.24527036033521521 0 0.08729444276471357 0.25793036044146789 0 0.093590495685023506 0.26985999639382691 0 0.077414908979912669 0.26661115527776641 0 0.085777321069000295 0.28148789764253379 0 0.093590495685023506 0.26985999639382691 0 0.085777321069000295 0.28148789764253379 0 0.095827240609042325 0.28048246967098772 0 0.077414908979912669 0.26661115527776641 0 0.070168223091568935 0.28720832129383023 0 0.085777321069000295 0.28148789764253379 0 0.061200711355701307 0.27343179721008409 0 0.065140356082699302 0.2620638478352455 0 0.077414908979912669 0.26661115527776641 0 0.061200711355701307 0.27343179721008409 0 0.077414908979912669 0.26661115527776641 0 0.070168223091568935 0.28720832129383023 0 0.061200711355701307 0.27343179721008409 0 0.077414908979912669 0.26661115527776641 0 0.056550391202450527 0.30072743208634611 0 0.070168223091568935 0.28720832129383023 0 0.087295859808300125 0.30062803711583841 0 0.068114268673410167 0.32120242503029123 0 0.056550391202450527 0.30072743208634611 0 0.087295859808300125 0.30062803711583841 0 0.068114268673410167 0.32120242503029123 0 0.087295859808300125 0.30062803711583841 0 0.09254847062448758 0.31513223892566272 0 0.068114268673410167 0.32120242503029123 0 0.087295859808300125 0.30062803711583841 0 0.087295859808300125 0.30062803711583841 0 0.085777321069000295 0.28148789764253379 0 0.095827240609042325 0.28048246967098772 0 0.070168223091568935 0.28720832129383023 0 0.087295859808300125 0.30062803711583841 0 0.085777321069000295 0.28148789764253379 0 0.087295859808300125 0.30062803711583841 0 0.10647745094318729 0.28005364920138281 0 0.087295859808300125 0.30062803711583841 0 0.095827240609042325 0.28048246967098772 0 0.10647745094318729 0.28005364920138281 0 0.087295859808300125 0.30062803711583841 0 0.1054243439107375 0.28706758906174629 0 0.10647745094318729 0.28005364920138281 0 0.09254847062448758 0.31513223892566272 0 0.087295859808300125 0.30062803711583841 0 0.1068389995038601 0.30785668127653482 0 0.087295859808300125 0.30062803711583841 0 0.1054243439107375 0.28706758906174629 0 0.1068389995038601 0.30785668127653482 0 0.1054243439107375 0.28706758906174629 0 0.12766050918513169 0.30704900550319381 0 0.1054243439107375 0.28706758906174629 0 0.1068389995038601 0.30785668127653482 0 0.12766050918513169 0.30704900550319381 0 0.1054243439107375 0.28706758906174629 0 0.1170112500989228 0.28680349607967981 0 0.12766050918513169 0.30704900550319381 0 0.1170112500989228 0.28680349607967981 0 0.13018796878060659 0.28515073166634231 0 0.12766050918513169 0.30704900550319381 0 0.1054243439107375 0.28706758906174629 0 0.1170112500989228 0.28680349607967981 0 0.10647745094318729 0.28005364920138281 0 0.1170112500989228 0.28680349607967981 0 0.11777151026264571 0.27582051842909261 0 0.13018796878060659 0.28515073166634231 0 0.11777151026264571 0.27582051842909261 0 0.10647745094318729 0.28005364920138281 0 0.1059950755397004 0.27038276800135691 0 0.1170112500989228 0.28680349607967981 0 0.11777151026264571 0.27582051842909261 0 0.10647745094318729 0.28005364920138281 0 0.11777151026264571 0.27582051842909261 0 0.116152967681727 0.26297719623979748 0 0.1059950755397004 0.27038276800135691 0 0.11777151026264571 0.27582051842909261 0 0.116152967681727 0.26297719623979748 0 0.1304855669682192 0.27010722884283539 0 0.1117812297290155 0.2513842670714837 0 0.116152967681727 0.26297719623979748 0 0.13009490553209149 0.25186486575946049 0 0.1117812297290155 0.2513842670714837 0 0.116152967681727 0.26297719623979748 0 0.1015223514241798 0.2591722174441573 0 0.095584633448183742 0.24527036033521521 0 0.1117812297290155 0.2513842670714837 0 0.1015223514241798 0.2591722174441573 0 0.116152967681727 0.26297719623979748 0 0.1015223514241798 0.2591722174441573 0 0.1059950755397004 0.27038276800135691 0 0.095584633448183742 0.24527036033521521 0 0.08729444276471357 0.25793036044146789 0 0.1015223514241798 0.2591722174441573 0 0.08729444276471357 0.25793036044146789 0 0.093590495685023506 0.26985999639382691 0 0.1015223514241798 0.2591722174441573 0 0.093590495685023506 0.26985999639382691 0 0.1015223514241798 0.2591722174441573 0 0.1059950755397004 0.27038276800135691 0 0.093590495685023506 0.26985999639382691 0 0.095827240609042325 0.28048246967098772 0 0.1059950755397004 0.27038276800135691 0 0.095827240609042325 0.28048246967098772 0 0.10647745094318729 0.28005364920138281 0 0.1059950755397004 0.27038276800135691 0 0.14796052368000301 0.26620495084017898 0 0.1432110584599364 0.27974912358549991 0 0.16582614182791219 0.2805450359209003 0 0.14837687530022159 0.24396021431351339 0 0.14796052368000301 0.26620495084017898 0 0.13009490553209149 0.25186486575946049 0 0.14837687530022159 0.24396021431351339 0 0.14796052368000301 0.26620495084017898 0 0.16312015078465561 0.25212845709726422 0 0.14796052368000301 0.26620495084017898 0 0.13009490553209149 0.25186486575946049 0 0.1304855669682192 0.27010722884283539 0 0.116152967681727 0.26297719623979748 0 0.13009490553209149 0.25186486575946049 0 0.1304855669682192 0.27010722884283539 0 0.14796052368000301 0.26620495084017898 0 0.13009490553209149 0.25186486575946049 0 0.14796052368000301 0.26620495084017898 0 0.1432110584599364 0.27974912358549991 0 0.1304855669682192 0.27010722884283539 0 0.1432110584599364 0.27974912358549991 0 0.1304855669682192 0.27010722884283539 0 0.13018796878060659 0.28515073166634231 0 0.11777151026264571 0.27582051842909261 0 0.1304855669682192 0.27010722884283539 0 0.13018796878060659 0.28515073166634231 0 0.1432110584599364 0.27974912358549991 0 0.13018796878060659 0.28515073166634231 0 0.1478581418998427 0.29419563253179909 0 0.13018796878060659 0.28515073166634231 0 0.12766050918513169 0.30704900550319381 0 0.1478581418998427 0.29419563253179909 0 0.15232731468780689 0.30997997444147662 0 0.1478581418998427 0.29419563253179909 0 0.1679358584576626 0.30269992407338198 0 0.12766050918513169 0.30704900550319381 0 0.15232731468780689 0.30997997444147662 0 0.1478581418998427 0.29419563253179909 0 0.1432110584599364 0.27974912358549991 0 0.1478581418998427 0.29419563253179909 0 0.16582614182791219 0.2805450359209003 0 0.1679358584576626 0.30269992407338198 0 0.16582614182791219 0.2805450359209003 0 0.1478581418998427 0.29419563253179909 0 0.1679358584576626 0.30269992407338198 0 0.16582614182791219 0.2805450359209003 0 0.1679358584576626 0.30269992407338198 0 0.18696023153228139 0.29750860482487013 0 0.18635039360111311 0.31603567603481902 0 0.18696023153228139 0.29750860482487013 0 0.16582614182791219 0.2805450359209003 0 0.19498487730172859 0.28266407165429608 0 0.1679358584576626 0.30269992407338198 0 0.18696023153228139 0.29750860482487013 0 0.16582614182791219 0.2805450359209003 0 0.18696023153228139 0.29750860482487013 0 0.16582614182791219 0.2805450359209003 0 0.16582614182791219 0.2805450359209003 0 0.18763184474115471 0.26767356771024331 0 0.19498487730172859 0.28266407165429608 0 0.16582614182791219 0.2805450359209003 0 0.17513784034403801 0.26099184479779552 0 0.18763184474115471 0.26767356771024331 0 0.16582614182791219 0.2805450359209003 0 0.16312015078465561 0.25212845709726422 0 0.14796052368000301 0.26620495084017898 0 0.16582614182791219 0.2805450359209003 0 0.16312015078465561 0.25212845709726422 0 0.14796052368000301 0.26620495084017898 0 0.16582614182791219 0.2805450359209003 0 0.16582614182791219 0.2805450359209003 0 0.16312015078465561 0.25212845709726422 0 0.17513784034403801 0.26099184479779552 0 0.18161013999952449 0.24770213686053411 0 0.16312015078465561 0.25212845709726422 0 0.17513784034403801 0.26099184479779552 0 0.18161013999952449 0.24770213686053411 0 0.17513784034403801 0.26099184479779552 0 0.18763184474115471 0.26767356771024331 0 0.20078341576668271 0.248822397463524 0 0.18763184474115471 0.26767356771024331 0 0.2041450728313273 0.26752486178360968 0 0.18161013999952449 0.24770213686053411 0 0.20078341576668271 0.248822397463524 0 0.18763184474115471 0.26767356771024331 0 0.18763184474115471 0.26767356771024331 0 0.2041450728313273 0.26752486178360968 0 0.19498487730172859 0.28266407165429608 0 0.2041450728313273 0.26752486178360968 0 0.21731985100059581 0.28031013981036562 0 0.19498487730172859 0.28266407165429608 0 0.2041450728313273 0.26752486178360968 0 0.21731985100059581 0.28031013981036562 0 0.22000537534647491 0.2581541322796197 0 0.20078341576668271 0.248822397463524 0 0.2041450728313273 0.26752486178360968 0 0.22000537534647491 0.2581541322796197 0 0.2404948642945276 0.24886429612507829 0 0.22000537534647491 0.2581541322796197 0 0.23773535954080491 0.26958889053770052 0 0.21731985100059581 0.28031013981036562 0 0.23773535954080491 0.26958889053770052 0 0.24031941028794429 0.29183216381064492 0 0.21731985100059581 0.28031013981036562 0 0.22000537534647491 0.2581541322796197 0 0.23773535954080491 0.26958889053770052 0 0.23773535954080491 0.26958889053770052 0 0.24031941028794429 0.29183216381064492 0 0.25366936349064739 0.27714485185329979 0 0.23773535954080491 0.26958889053770052 0 0.25545183030828272 0.2600182887903284 0 0.25366936349064739 0.27714485185329979 0 0.2404948642945276 0.24886429612507829 0 0.23773535954080491 0.26958889053770052 0 0.25545183030828272 0.2600182887903284 0 0.24031941028794429 0.29183216381064492 0 0.23697132122059381 0.31305832472328421 0 0.25648919188199348 0.30835472880944681 0 0.21731985100059581 0.28031013981036562 0 0.24031941028794429 0.29183216381064492 0 0.22041849009146089 0.29826045907412863 0 0.22041849009146089 0.29826045907412863 0 0.20809432123664839 0.31447217372884262 0 0.23697132122059381 0.31305832472328421 0 0.24031941028794429 0.29183216381064492 0 0.22041849009146089 0.29826045907412863 0 0.23697132122059381 0.31305832472328421 0 0.22041849009146089 0.29826045907412863 0 0.20555555423254299 0.29464308981850063 0 0.20809432123664839 0.31447217372884262 0 0.21731985100059581 0.28031013981036562 0 0.22041849009146089 0.29826045907412863 0 0.20555555423254299 0.29464308981850063 0 0.21731985100059581 0.28031013981036562 0 0.20555555423254299 0.29464308981850063 0 0.19498487730172859 0.28266407165429608 0 0.18696023153228139 0.29750860482487013 0 0.20555555423254299 0.29464308981850063 0 0.19498487730172859 0.28266407165429608 0 0.18696023153228139 0.29750860482487013 0 0.20809432123664839 0.31447217372884262 0 0.18696023153228139 0.29750860482487013 0 0.20555555423254299 0.29464308981850063 0 0.20809432123664839 0.31447217372884262 0 0.18696023153228139 0.29750860482487013 0 0.20809432123664839 0.31447217372884262 0 0.18635039360111311 0.31603567603481902 0 0.1909472083775238 0.33458129080523169 0 0.20809432123664839 0.31447217372884262 0 0.18635039360111311 0.31603567603481902 0 0.1909472083775238 0.33458129080523169 0 0.21026704506366509 0.3348192878816359 0 0.20809432123664839 0.31447217372884262 0 0.1909472083775238 0.33458129080523169 0 0.21026704506366509 0.3348192878816359 0 0.20327582476307651 0.35258760213108142 0 0.21026704506366509 0.3348192878816359 0 0.20809432123664839 0.31447217372884262 0 0.2292284109410154 0.33143574263281511 0 0.20809432123664839 0.31447217372884262 0 0.2292284109410154 0.33143574263281511 0 0.20809432123664839 0.31447217372884262 0 0.2292284109410154 0.33143574263281511 0 0.23697132122059381 0.31305832472328421 0 0.21026704506366509 0.3348192878816359 0 0.2292284109410154 0.33143574263281511 0 0.2289693449994824 0.35894226509750349 0 0.2292284109410154 0.33143574263281511 0 0.25036250064538229 0.34839931153678771 0 0.25741422628937649 0.32562460040865809 0 0.2292284109410154 0.33143574263281511 0 0.25036250064538229 0.34839931153678771 0 0.2292284109410154 0.33143574263281511 0 0.23697132122059381 0.31305832472328421 0 0.25741422628937649 0.32562460040865809 0 0.24432825556867041 0.37340841177629502 0 0.2289693449994824 0.35894226509750349 0 0.25036250064538229 0.34839931153678771 0 0.2292284109410154 0.33143574263281511 0 0.2289693449994824 0.35894226509750349 0 0.25036250064538229 0.34839931153678771 0 0.24432825556867041 0.37340841177629502 0 0.2289693449994824 0.35894226509750349 0 0.22720160432394859 0.37525052872361481 0 0.2289693449994824 0.35894226509750349 0 0.21159442508577611 0.37023895430085257 0 0.22720160432394859 0.37525052872361481 0 0.2289693449994824 0.35894226509750349 0 0.21159442508577611 0.37023895430085257 0 0.20327582476307651 0.35258760213108142 0 0.21026704506366509 0.3348192878816359 0 0.2289693449994824 0.35894226509750349 0 0.20327582476307651 0.35258760213108142 0 0.20327582476307651 0.35258760213108142 0 0.1912770978704639 0.36728517081036482 0 0.18711056592762049 0.35354909196755502 0 0.1909472083775238 0.33458129080523169 0 0.20327582476307651 0.35258760213108142 0 0.18711056592762049 0.35354909196755502 0 0.21159442508577611 0.37023895430085257 0 0.20327582476307651 0.35258760213108142 0 0.1912770978704639 0.36728517081036482 0 0.21159442508577611 0.37023895430085257 0 0.1912770978704639 0.36728517081036482 0 0.1968769323699838 0.38389496124380929 0 0.1912770978704639 0.36728517081036482 0 0.1736621681968257 0.36283394871368813 0 0.18711056592762049 0.35354909196755502 0 0.1912770978704639 0.36728517081036482 0 0.1736621681968257 0.36283394871368813 0 0.17516904467648309 0.3786581970490312 0 0.1736621681968257 0.36283394871368813 0 0.17516904467648309 0.3786581970490312 0 0.1736621681968257 0.36283394871368813 0 0.15869638846665751 0.37130349604833113 0 0.17516904467648309 0.3786581970490312 0 0.1736621681968257 0.36283394871368813 0 0.15869638846665751 0.37130349604833113 0 0.1608450192338485 0.35608785875155941 0 0.1736621681968257 0.36283394871368813 0 0.1608450192338485 0.35608785875155941 0 0.1721328397339201 0.34701183838608868 0 0.1608450192338485 0.35608785875155941 0 0.1721328397339201 0.34701183838608868 0 0.15346257235465049 0.34491748068165712 0 0.1736621681968257 0.36283394871368813 0 0.1721328397339201 0.34701183838608868 0 0.18711056592762049 0.35354909196755502 0 0.1736621681968257 0.36283394871368813 0 0.1721328397339201 0.34701183838608868 0 0.1909472083775238 0.33458129080523169 0 0.1721328397339201 0.34701183838608868 0 0.18711056592762049 0.35354909196755502 0 0.1909472083775238 0.33458129080523169 0 0.1721328397339201 0.34701183838608868 0 0.1700455750874155 0.32485481222586349 0 0.1909472083775238 0.33458129080523169 0 0.18635039360111311 0.31603567603481902 0 0.1700455750874155 0.32485481222586349 0 0.1679358584576626 0.30269992407338198 0 0.18635039360111311 0.31603567603481902 0 0.1700455750874155 0.32485481222586349 0 0.1679358584576626 0.30269992407338198 0 0.1700455750874155 0.32485481222586349 0 0.15232731468780689 0.30997997444147662 0 0.1679358584576626 0.30269992407338198 0 0.1700455750874155 0.32485481222586349 0 0.15232731468780689 0.30997997444147662 0 0.1700455750874155 0.32485481222586349 0 0.14989667445952581 0.3270304219446411 0 0.1721328397339201 0.34701183838608868 0 0.14989667445952581 0.3270304219446411 0 0.1721328397339201 0.34701183838608868 0 0.14989667445952581 0.3270304219446411 0 0.15346257235465049 0.34491748068165712 0 0.1721328397339201 0.34701183838608868 0 0.1700455750874155 0.32485481222586349 0 0.14989667445952581 0.3270304219446411 0 0.1721328397339201 0.34701183838608868 0 0.1700455750874155 0.32485481222586349 0 0.14989667445952581 0.3270304219446411 0 0.1379744751384421 0.34050207017393552 0 0.15346257235465049 0.34491748068165712 0 0.12766050918513169 0.30704900550319381 0 0.15232731468780689 0.30997997444147662 0 0.14989667445952581 0.3270304219446411 0 0.12766050918513169 0.30704900550319381 0 0.14989667445952581 0.3270304219446411 0 0.1302890607909207 0.32751128906626531 0 0.12766050918513169 0.30704900550319381 0 0.14989667445952581 0.3270304219446411 0 0.14989667445952581 0.3270304219446411 0 0.1302890607909207 0.32751128906626531 0 0.1379744751384421 0.34050207017393552 0 0.1224316117887113 0.33926009416940528 0 0.1302890607909207 0.32751128906626531 0 0.1379744751384421 0.34050207017393552 0 0.1242287093663751 0.35727785227798958 0 0.1379744751384421 0.34050207017393552 0 0.14646385320751629 0.35395521415206072 0 0.1242287093663751 0.35727785227798958 0 0.1224316117887113 0.33926009416940528 0 0.1379744751384421 0.34050207017393552 0 0.1242287093663751 0.35727785227798958 0 0.14159726531616409 0.36834381433077229 0 0.14646385320751629 0.35395521415206072 0 0.1242287093663751 0.35727785227798958 0 0.14159726531616409 0.36834381433077229 0 0.12703681567344491 0.37550187647769911 0 0.15869638846665751 0.37130349604833113 0 0.1608450192338485 0.35608785875155941 0 0.14646385320751629 0.35395521415206072 0 0.15869638846665751 0.37130349604833113 0 0.14159726531616409 0.36834381433077229 0 0.14646385320751629 0.35395521415206072 0 0.1608450192338485 0.35608785875155941 0 0.15346257235465049 0.34491748068165712 0 0.14646385320751629 0.35395521415206072 0 0.1379744751384421 0.34050207017393552 0 0.15346257235465049 0.34491748068165712 0 0.14646385320751629 0.35395521415206072 0 0.14875567829548081 0.38925872989785237 0 0.13444963931475409 0.39943100610689047 0 0.15797909504486049 0.40345465453712542 0 0.15869638846665751 0.37130349604833113 0 0.14159726531616409 0.36834381433077229 0 0.14875567829548081 0.38925872989785237 0 0.14875567829548081 0.38925872989785237 0 0.12703681567344491 0.37550187647769911 0 0.14875567829548081 0.38925872989785237 0 0.12703681567344491 0.37550187647769911 0 0.13444963931475409 0.39943100610689047 0 0.14159726531616409 0.36834381433077229 0 0.14875567829548081 0.38925872989785237 0 0.12703681567344491 0.37550187647769911 0 0.13444963931475409 0.39943100610689047 0 0.1335171518713574 0.41582009011040261 0 0.15038615708477551 0.41612026174250177 0 0.1179696978484443 0.40947641125505368 0 0.13444963931475409 0.39943100610689047 0 0.1335171518713574 0.41582009011040261 0 0.1179696978484443 0.40947641125505368 0 0.1335171518713574 0.41582009011040261 0 0.13075731099605339 0.43211814968792328 0 0.1335171518713574 0.41582009011040261 0 0.13075731099605339 0.43211814968792328 0 0.13851016423047241 0.4238861815001112 0 0.1261048601799438 0.43011740044392621 0 0.13075731099605339 0.43211814968792328 0 0.1254923519800801 0.43888507744107091 0 0.1261048601799438 0.43011740044392621 0 0.13075731099605339 0.43211814968792328 0 0.13075731099605339 0.43211814968792328 0 0.13851016423047241 0.4238861815001112 0 0.1459722573838817 0.42881574523634403 0 0.13075731099605339 0.43211814968792328 0 0.15315225711183189 0.44174891705796088 0 0.13075731099605339 0.43211814968792328 0 0.1459722573838817 0.42881574523634403 0 0.15315225711183189 0.44174891705796088 0 0.13851016423047241 0.4238861815001112 0 0.1459722573838817 0.42881574523634403 0 0.15038615708477551 0.41612026174250177 0 0.1459722573838817 0.42881574523634403 0 0.15038615708477551 0.41612026174250177 0 0.1587721215624677 0.4295097788954958 0 0.1459722573838817 0.42881574523634403 0 0.1587721215624677 0.4295097788954958 0 0.15315225711183189 0.44174891705796088 0 0.13444963931475409 0.39943100610689047 0 0.15038615708477551 0.41612026174250177 0 0.15797909504486049 0.40345465453712542 0 0.1335171518713574 0.41582009011040261 0 0.13851016423047241 0.4238861815001112 0 0.15038615708477551 0.41612026174250177 0 0.15038615708477551 0.41612026174250177 0 0.17202690577353391 0.42712439110280409 0 0.15797909504486049 0.40345465453712542 0 0.17202690577353391 0.42712439110280409 0 0.17266656669777619 0.40325558393910749 0 0.15797909504486049 0.40345465453712542 0 0.15038615708477551 0.41612026174250177 0 0.1587721215624677 0.4295097788954958 0 0.17202690577353391 0.42712439110280409 0 0.1587721215624677 0.4295097788954958 0 0.17202690577353391 0.42712439110280409 0 0.1755472032276103 0.45137968442799858 0 0.17202690577353391 0.42712439110280409 0 0.190756189766456 0.43021349130950659 0 0.1755472032276103 0.45137968442799858 0 0.17202690577353391 0.42712439110280409 0 0.18292052823071009 0.41367453023548528 0 0.190756189766456 0.43021349130950659 0 0.17202690577353391 0.42712439110280409 0 0.18292052823071009 0.41367453023548528 0 0.17266656669777619 0.40325558393910749 0 0.18292052823071009 0.41367453023548528 0 0.1838093973064607 0.39597780189916593 0 0.1953435816093235 0.41180138292684221 0 0.1838093973064607 0.39597780189916593 0 0.17266656669777619 0.40325558393910749 0 0.16623282752863311 0.39024313487933793 0 0.18292052823071009 0.41367453023548528 0 0.1838093973064607 0.39597780189916593 0 0.17266656669777619 0.40325558393910749 0 0.17266656669777619 0.40325558393910749 0 0.15797909504486049 0.40345465453712542 0 0.16623282752863311 0.39024313487933793 0 0.14875567829548081 0.38925872989785237 0 0.15797909504486049 0.40345465453712542 0 0.16623282752863311 0.39024313487933793 0 0.15869638846665751 0.37130349604833113 0 0.14875567829548081 0.38925872989785237 0 0.16623282752863311 0.39024313487933793 0 0.15869638846665751 0.37130349604833113 0 0.16623282752863311 0.39024313487933793 0 0.17516904467648309 0.3786581970490312 0 0.1838093973064607 0.39597780189916593 0 0.16623282752863311 0.39024313487933793 0 0.17516904467648309 0.3786581970490312 0 0.1838093973064607 0.39597780189916593 0 0.17516904467648309 0.3786581970490312 0 0.1968769323699838 0.38389496124380929 0 0.1912770978704639 0.36728517081036482 0 0.17516904467648309 0.3786581970490312 0 0.1968769323699838 0.38389496124380929 0 0.1838093973064607 0.39597780189916593 0 0.1968769323699838 0.38389496124380929 0 0.20373253832956681 0.40018872838583669 0 0.1838093973064607 0.39597780189916593 0 0.20373253832956681 0.40018872838583669 0 0.1953435816093235 0.41180138292684221 0 0.20373253832956681 0.40018872838583669 0 0.21855351263340181 0.40475170987288911 0 0.21713108467684869 0.38529615186427463 0 0.21159442508577611 0.37023895430085257 0 0.1968769323699838 0.38389496124380929 0 0.21713108467684869 0.38529615186427463 0 0.1968769323699838 0.38389496124380929 0 0.20373253832956681 0.40018872838583669 0 0.21713108467684869 0.38529615186427463 0 0.21159442508577611 0.37023895430085257 0 0.21713108467684869 0.38529615186427463 0 0.22720160432394859 0.37525052872361481 0 0.21713108467684869 0.38529615186427463 0 0.23398491128896531 0.38836686057914788 0 0.22720160432394859 0.37525052872361481 0 0.21855351263340181 0.40475170987288911 0 0.21713108467684869 0.38529615186427463 0 0.23398491128896531 0.38836686057914788 0 0.21855351263340181 0.40475170987288911 0 0.23398491128896531 0.38836686057914788 0 0.23554176237652091 0.40518495171078439 0 0.23398491128896531 0.38836686057914788 0 0.23554176237652091 0.40518495171078439 0 0.24725648722501509 0.39719718233292872 0 0.23554176237652091 0.40518495171078439 0 0.24725648722501509 0.39719718233292872 0 0.24815071947801479 0.41203449532446851 0 0.24432825556867041 0.37340841177629502 0 0.23398491128896531 0.38836686057914788 0 0.22720160432394859 0.37525052872361481 0 0.24432825556867041 0.37340841177629502 0 0.23398491128896531 0.38836686057914788 0 0.24725648722501509 0.39719718233292872 0 0.2332094575385272 0.42354690886965313 0 0.24654501168475459 0.44267379024625841 0 0.2332094575385272 0.42354690886965313 0 0.24654501168475459 0.44267379024625841 0 0.25135121948483491 0.42693428983185311 0 0.24815071947801479 0.41203449532446851 0 0.2332094575385272 0.42354690886965313 0 0.25135121948483491 0.42693428983185311 0 0.23554176237652091 0.40518495171078439 0 0.24815071947801479 0.41203449532446851 0 0.2332094575385272 0.42354690886965313 0 0.21855351263340181 0.40475170987288911 0 0.23554176237652091 0.40518495171078439 0 0.2332094575385272 0.42354690886965313 0 0.21855351263340181 0.40475170987288911 0 0.2332094575385272 0.42354690886965313 0 0.21068072138138269 0.41941036250803959 0 0.2332094575385272 0.42354690886965313 0 0.21057129868511851 0.43825513685880008 0 0.2284900053935072 0.44873032744565389 0 0.2332094575385272 0.42354690886965313 0 0.21068072138138269 0.41941036250803959 0 0.21057129868511851 0.43825513685880008 0 0.21068072138138269 0.41941036250803959 0 0.190756189766456 0.43021349130950659 0 0.21057129868511851 0.43825513685880008 0 0.20373253832956681 0.40018872838583669 0 0.21068072138138269 0.41941036250803959 0 0.1953435816093235 0.41180138292684221 0 0.20373253832956681 0.40018872838583669 0 0.21855351263340181 0.40475170987288911 0 0.21068072138138269 0.41941036250803959 0 0.18292052823071009 0.41367453023548528 0 0.1953435816093235 0.41180138292684221 0 0.190756189766456 0.43021349130950659 0 0.21068072138138269 0.41941036250803959 0 0.1953435816093235 0.41180138292684221 0 0.190756189766456 0.43021349130950659 0 0.190756189766456 0.43021349130950659 0 0.1979421493433888 0.46101045179803629 0 0.1755472032276103 0.45137968442799858 0 0.190756189766456 0.43021349130950659 0 0.1979421493433888 0.46101045179803629 0 0.21057129868511851 0.43825513685880008 0 0.1979421493433888 0.46101045179803629 0 0.21504842802029031 0.45940117238837369 0 0.20942741399105161 0.47975960480142982 0 0.21504842802029031 0.45940117238837369 0 0.21057129868511851 0.43825513685880008 0 0.2284900053935072 0.44873032744565389 0 0.1979421493433888 0.46101045179803629 0 0.21504842802029031 0.45940117238837369 0 0.21057129868511851 0.43825513685880008 0 0.21504842802029031 0.45940117238837369 0 0.2284900053935072 0.44873032744565389 0 0.22881127268838539 0.46925034103794838 0 0.2284900053935072 0.44873032744565389 0 0.2428860822684949 0.4594371685945326 0 0.22881127268838539 0.46925034103794838 0 0.2428860822684949 0.4594371685945326 0 0.24654501168475459 0.44267379024625841 0 0.2598805658309819 0.4618006716228637 0 0.2332094575385272 0.42354690886965313 0 0.2284900053935072 0.44873032744565389 0 0.24654501168475459 0.44267379024625841 0 0.2284900053935072 0.44873032744565389 0 0.2428860822684949 0.4594371685945326 0 0.24654501168475459 0.44267379024625841 0 0.24411406826544901 0.5 0 0.23161100001097171 0.48703964026770419 0 0.25254596318191541 0.48112678555017913 0 0.2428860822684949 0.4594371685945326 0 0.22881127268838539 0.46925034103794838 0 0.25254596318191541 0.48112678555017913 0 0.22881127268838539 0.46925034103794838 0 0.23161100001097171 0.48703964026770419 0 0.25254596318191541 0.48112678555017913 0 0.22881127268838539 0.46925034103794838 0 0.23161100001097171 0.48703964026770419 0 0.20942741399105161 0.47975960480142982 0 0.24411406826544901 0.5 0 0.21910793175649421 0.5 0 0.23161100001097171 0.48703964026770419 0 0.21910793175649421 0.5 0 0.23161100001097171 0.48703964026770419 0 0.20942741399105161 0.47975960480142982 0 0.21910793175649421 0.5 0 0.20942741399105161 0.47975960480142982 0 0.1941017952475394 0.5 0 0.21504842802029031 0.45940117238837369 0 0.22881127268838539 0.46925034103794838 0 0.20942741399105161 0.47975960480142982 0 0.1979421493433888 0.46101045179803629 0 0.20942741399105161 0.47975960480142982 0 0.1803342766248536 0.47523109968710792 0 0.20942741399105161 0.47975960480142982 0 0.1941017952475394 0.5 0 0.1803342766248536 0.47523109968710792 0 0.1941017952475394 0.5 0 0.16909565873858459 0.50000000000000266 0 0.1803342766248536 0.47523109968710792 0 0.16909565873858459 0.50000000000000266 0 0.1563162094910733 0.47737271656264318 0 0.16909565873858459 0.50000000000000266 0 0.1563162094910733 0.47737271656264318 0 0.1461923378090868 0.50000000000000022 0 0.1563162094910733 0.47737271656264318 0 0.1803342766248536 0.47523109968710792 0 0.1617773413397865 0.46009557017219882 0 0.16909565873858459 0.50000000000000266 0 0.1563162094910733 0.47737271656264318 0 0.1803342766248536 0.47523109968710792 0 0.1979421493433888 0.46101045179803629 0 0.1803342766248536 0.47523109968710792 0 0.1755472032276103 0.45137968442799858 0 0.1979421493433888 0.46101045179803629 0 0.1755472032276103 0.45137968442799858 0 0.1803342766248536 0.47523109968710792 0 0.1755472032276103 0.45137968442799858 0 0.1617773413397865 0.46009557017219882 0 0.1755472032276103 0.45137968442799858 0 0.15315225711183189 0.44174891705796088 0 0.1587721215624677 0.4295097788954958 0 0.1755472032276103 0.45137968442799858 0 0.15315225711183189 0.44174891705796088 0 0.1755472032276103 0.45137968442799858 0 0.1617773413397865 0.46009557017219882 0 0.15315225711183189 0.44174891705796088 0 0.1563162094910733 0.47737271656264318 0 0.14353676024356321 0.45474543312528332 0 0.13902237655327579 0.46702682468220819 0 0.1563162094910733 0.47737271656264318 0 0.14353676024356321 0.45474543312528332 0 0.1563162094910733 0.47737271656264318 0 0.1617773413397865 0.46009557017219882 0 0.14353676024356321 0.45474543312528332 0 0.13075731099605339 0.43211814968792328 0 0.14353676024356321 0.45474543312528332 0 0.15315225711183189 0.44174891705796088 0 0.1617773413397865 0.46009557017219882 0 0.14353676024356321 0.45474543312528332 0 0.15315225711183189 0.44174891705796088 0 0.13075731099605339 0.43211814968792328 0 0.14353676024356321 0.45474543312528332 0 0.12928013352852771 0.45079549219293741 0 0.13075731099605339 0.43211814968792328 0 0.14353676024356321 0.45474543312528332 0 0.13075731099605339 0.43211814968792328 0 0.12928013352852771 0.45079549219293741 0 0.1254923519800801 0.43888507744107091 0 0.12132018965117861 0.44444616457138769 0 0.12928013352852771 0.45079549219293741 0 0.1254923519800801 0.43888507744107091 0 0.14353676024356321 0.45474543312528332 0 0.12928013352852771 0.45079549219293741 0 0.13902237655327579 0.46702682468220819 0 0.12221158537769131 0.46499274123964962 0 0.12928013352852771 0.45079549219293741 0 0.13902237655327579 0.46702682468220819 0 0.12221158537769131 0.46499274123964962 0 0.13902237655327579 0.46702682468220819 0 0.13231536427196211 0.48033225218163939 0 0.1181218487732046 0.49942461038247887 0 0.13231536427196211 0.48033225218163939 0 0.1461923378090868 0.50000000000000022 0 0.1563162094910733 0.47737271656264318 0 0.13231536427196211 0.48033225218163939 0 0.1461923378090868 0.50000000000000022 0 0.1563162094910733 0.47737271656264318 0 0.13902237655327579 0.46702682468220819 0 0.13231536427196211 0.48033225218163939 0 0.35011062830433309 0.48347496390319022 0 0.36352209686385228 0.47705109120544248 0 0.35360425437628179 0.4665662776521074 0 0.35011062830433309 0.48347496390319022 0 0.35360425437628179 0.4665662776521074 0 0.33684316283247873 0.4710494977181986 0 0.35011062830433309 0.48347496390319022 0 0.34623542514659977 0.5 0 0.36362509871977372 0.49999999999999922 0 0.35011062830433309 0.48347496390319022 0 0.34623542514659977 0.5 0 0.3368337318870131 0.48618291684339332 0 0.35011062830433309 0.48347496390319022 0 0.36362509871977372 0.49999999999999922 0 0.36352209686385228 0.47705109120544248 0 0.36362509871977372 0.49999999999999922 0 0.36352209686385228 0.47705109120544248 0 0.37793995942716357 0.48279771142300432 0 0.36362509871977372 0.49999999999999922 0 0.36352209686385228 0.47705109120544248 0 0.36352209686385228 0.47705109120544248 0 0.37569790257162938 0.46642536186925299 0 0.37793995942716357 0.48279771142300432 0 0.36352209686385228 0.47705109120544248 0 0.3634190950079309 0.45410218241088568 0 0.35360425437628179 0.4665662776521074 0 0.36352209686385228 0.47705109120544248 0 0.3634190950079309 0.45410218241088568 0 0.37569790257162938 0.46642536186925299 0 0.3634190950079309 0.45410218241088568 0 0.38063319215661412 0.44801346467292091 0 0.37569790257162938 0.46642536186925299 0 0.36352209686385228 0.47705109120544248 0 0.3634190950079309 0.45410218241088568 0 0.3634190950079309 0.45410218241088568 0 0.3572749437541195 0.45260844994333133 0 0.36331609315200958 0.43115327361632882 0 0.3634190950079309 0.45410218241088568 0 0.36331609315200958 0.43115327361632882 0 0.38063319215661412 0.44801346467292091 0 0.3634190950079309 0.45410218241088568 0 0.36331609315200958 0.43115327361632882 0 0.3572749437541195 0.45260844994333133 0 0.33764876975628128 0.43715128513599821 0 0.35156499487205572 0.43736202422170939 0 0.3572749437541195 0.45260844994333133 0 0.33856400150075522 0.45475290197634571 0 0.33764876975628128 0.43715128513599821 0 0.3572749437541195 0.45260844994333133 0 0.35156499487205572 0.43736202422170939 0 0.36331609315200958 0.43115327361632882 0 0.3572749437541195 0.45260844994333133 0 0.33764876975628128 0.43715128513599821 0 0.3572749437541195 0.45260844994333133 0 0.35360425437628179 0.4665662776521074 0 0.33856400150075522 0.45475290197634571 0 0.3634190950079309 0.45410218241088568 0 0.3572749437541195 0.45260844994333133 0 0.35360425437628179 0.4665662776521074 0 0.35360425437628179 0.4665662776521074 0 0.33856400150075522 0.45475290197634571 0 0.33684316283247873 0.4710494977181986 0 0.33856400150075522 0.45475290197634571 0 0.32283046512003832 0.4615542043797235 0 0.33684316283247873 0.4710494977181986 0 0.33856400150075522 0.45475290197634571 0 0.31781852010021072 0.44330927314963542 0 0.33764876975628128 0.43715128513599821 0 0.33856400150075522 0.45475290197634571 0 0.31781852010021072 0.44330927314963542 0 0.32283046512003832 0.4615542043797235 0 0.32283046512003832 0.4615542043797235 0 0.31659079758005781 0.47955311635147868 0 0.30433584358668903 0.45910623270295908 0 0.31781852010021072 0.44330927314963542 0 0.32283046512003832 0.4615542043797235 0 0.30433584358668903 0.45910623270295908 0 0.32283046512003832 0.4615542043797235 0 0.31659079758005781 0.47955311635147868 0 0.33684316283247873 0.4710494977181986 0 0.31659079758005781 0.47955311635147868 0 0.33684316283247873 0.4710494977181986 0 0.3368337318870131 0.48618291684339332 0 0.35011062830433309 0.48347496390319022 0 0.33684316283247873 0.4710494977181986 0 0.3368337318870131 0.48618291684339332 0 0.34623542514659977 0.5 0 0.32884575157342588 0.4999999999999985 0 0.3368337318870131 0.48618291684339332 0 0.31659079758005781 0.47955311635147868 0 0.32884575157342588 0.4999999999999985 0 0.29898297817391478 0.5 0 0.31659079758005781 0.47955311635147868 0 0.32884575157342588 0.4999999999999985 0 0.3368337318870131 0.48618291684339332 0 0.31659079758005781 0.47955311635147868 0 0.32884575157342588 0.4999999999999985 0 0.31659079758005781 0.47955311635147868 0 0.29898297817391478 0.5 0 0.29448808010262262 0.48598214077741658 0 0.31659079758005781 0.47955311635147868 0 0.30433584358668903 0.45910623270295908 0 0.31659079758005781 0.47955311635147868 0 0.29523702458317219 0.4730989330621338 0 0.30433584358668903 0.45910623270295908 0 0.31659079758005781 0.47955311635147868 0 0.29523702458317219 0.4730989330621338 0 0.29448808010262262 0.48598214077741658 0 0.29523702458317219 0.4730989330621338 0 0.28434312129815831 0.47771711759873742 0 0.27830256835107192 0.45724273233593049 0 0.29523702458317219 0.4730989330621338 0 0.28434312129815831 0.47771711759873742 0 0.29448808010262262 0.48598214077741658 0 0.29898297817391478 0.5 0 0.26912020477440368 0.500000000000002 0 0.2804718134767164 0.49133422881873678 0 0.29898297817391478 0.5 0 0.29448808010262262 0.48598214077741658 0 0.2804718134767164 0.49133422881873678 0 0.28434312129815831 0.47771711759873742 0 0.29448808010262262 0.48598214077741658 0 0.2804718134767164 0.49133422881873678 0 0.26912020477440368 0.500000000000002 0 0.27321611997720852 0.48092755299946949 0 0.25974908904974409 0.49051358463741213 0 0.26912020477440368 0.500000000000002 0 0.2804718134767164 0.49133422881873678 0 0.27321611997720852 0.48092755299946949 0 0.26912020477440368 0.500000000000002 0 0.27321611997720852 0.48092755299946949 0 0.2804718134767164 0.49133422881873678 0 0.27321611997720852 0.48092755299946949 0 0.28434312129815831 0.47771711759873742 0 0.2804718134767164 0.49133422881873678 0 0.27321611997720852 0.48092755299946949 0 0.27321611997720852 0.48092755299946949 0 0.2598805658309819 0.4618006716228637 0 0.27321611997720852 0.48092755299946949 0 0.27830256835107192 0.45724273233593049 0 0.28434312129815831 0.47771711759873742 0 0.27321611997720852 0.48092755299946949 0 0.27830256835107192 0.45724273233593049 0 0.27321611997720852 0.48092755299946949 0 0.25254596318191541 0.48112678555017913 0 0.2598805658309819 0.4618006716228637 0 0.27321611997720852 0.48092755299946949 0 0.25254596318191541 0.48112678555017913 0 0.25974908904974409 0.49051358463741213 0 0.24411406826544901 0.5 0 0.25254596318191541 0.48112678555017913 0 0.25974908904974409 0.49051358463741213 0 0.24411406826544901 0.5 0 0.26912020477440368 0.500000000000002 0 0.25974908904974409 0.49051358463741213 0 0.24654501168475459 0.44267379024625841 0 0.2598805658309819 0.4618006716228637 0 0.24654501168475459 0.44267379024625841 0 0.2598805658309819 0.4618006716228637 0 0.26551410823226668 0.43698539560621957 0 0.2428860822684949 0.4594371685945326 0 0.25254596318191541 0.48112678555017913 0 0.2598805658309819 0.4618006716228637 0 0.27321611997720852 0.48092755299946949 0 0.2598805658309819 0.4618006716228637 0 0.27830256835107192 0.45724273233593049 0 0.27830256835107192 0.45724273233593049 0 0.28338901672493599 0.43355791167239138 0 0.26551410823226668 0.43698539560621957 0 0.27830256835107192 0.45724273233593049 0 0.28338901672493599 0.43355791167239138 0 0.2598805658309819 0.4618006716228637 0 0.27830256835107192 0.45724273233593049 0 0.26551410823226668 0.43698539560621957 0 0.27830256835107192 0.45724273233593049 0 0.29737545462715198 0.44345177663814761 0 0.28338901672493599 0.43355791167239138 0 0.29523702458317219 0.4730989330621338 0 0.27830256835107192 0.45724273233593049 0 0.30433584358668903 0.45910623270295908 0 0.27830256835107192 0.45724273233593049 0 0.30433584358668903 0.45910623270295908 0 0.29737545462715198 0.44345177663814761 0 0.31781852010021072 0.44330927314963542 0 0.29737545462715198 0.44345177663814761 0 0.30351337415233598 0.42745693518674438 0 0.31781852010021072 0.44330927314963542 0 0.30433584358668903 0.45910623270295908 0 0.29737545462715198 0.44345177663814761 0 0.30351337415233598 0.42745693518674438 0 0.29839642176060582 0.40623695552133121 0 0.31802259575844333 0.42169412032866521 0 0.30351337415233598 0.42745693518674438 0 0.29839642176060582 0.40623695552133121 0 0.29839642176060582 0.40623695552133121 0 0.30771170315359059 0.40479989090712559 0 0.31467880694668338 0.41130786422505899 0 0.29839642176060582 0.40623695552133121 0 0.31467880694668338 0.41130786422505899 0 0.31802259575844333 0.42169412032866521 0 0.29839642176060582 0.40623695552133121 0 0.31802259575844333 0.42169412032866521 0 0.28847546509880012 0.40987309100885239 0 0.28338901672493599 0.43355791167239138 0 0.27653787238908001 0.41870128426474329 0 0.28847546509880012 0.40987309100885239 0 0.28338901672493599 0.43355791167239138 0 0.30351337415233598 0.42745693518674438 0 0.28847546509880012 0.40987309100885239 0 0.29839642176060582 0.40623695552133121 0 0.28847546509880012 0.40987309100885239 0 0.27653787238908001 0.41870128426474329 0 0.28098632607893281 0.40530592610522648 0 0.30351337415233598 0.42745693518674438 0 0.28847546509880012 0.40987309100885239 0 0.28338901672493599 0.43355791167239138 0 0.29737545462715198 0.44345177663814761 0 0.30351337415233598 0.42745693518674438 0 0.28338901672493599 0.43355791167239138 0 0.28338901672493599 0.43355791167239138 0 0.27653787238908001 0.41870128426474329 0 0.26551410823226668 0.43698539560621957 0 0.27653787238908001 0.41870128426474329 0 0.26184820582980489 0.41654331942632827 0 0.26551410823226668 0.43698539560621957 0 0.27653787238908001 0.41870128426474329 0 0.27213181284154148 0.40460325276625142 0 0.28098632607893281 0.40530592610522648 0 0.27653787238908001 0.41870128426474329 0 0.26184820582980489 0.41654331942632827 0 0.27213181284154148 0.40460325276625142 0 0.26184820582980489 0.41654331942632827 0 0.26067602522364292 0.40134274914467721 0 0.27213181284154148 0.40460325276625142 0 0.24815071947801479 0.41203449532446851 0 0.26184820582980489 0.41654331942632827 0 0.26067602522364292 0.40134274914467721 0 0.24815071947801479 0.41203449532446851 0 0.26184820582980489 0.41654331942632827 0 0.25135121948483491 0.42693428983185311 0 0.24654501168475459 0.44267379024625841 0 0.26551410823226668 0.43698539560621957 0 0.25135121948483491 0.42693428983185311 0 0.26184820582980489 0.41654331942632827 0 0.26551410823226668 0.43698539560621957 0 0.25135121948483491 0.42693428983185311 0 0.24432825556867041 0.37340841177629502 0 0.24725648722501509 0.39719718233292872 0 0.25905609159255122 0.38358978364007162 0 0.25905609159255122 0.38358978364007162 0 0.27313473173953129 0.37895189067106799 0 0.25739422106850629 0.36655636002109732 0 0.24725648722501509 0.39719718233292872 0 0.25905609159255122 0.38358978364007162 0 0.26067602522364292 0.40134274914467721 0 0.25905609159255122 0.38358978364007162 0 0.26067602522364292 0.40134274914467721 0 0.27126544910802131 0.39117952320339489 0 0.24725648722501509 0.39719718233292872 0 0.24815071947801479 0.41203449532446851 0 0.26067602522364292 0.40134274914467721 0 0.26067602522364292 0.40134274914467721 0 0.27126544910802131 0.39117952320339489 0 0.27213181284154148 0.40460325276625142 0 0.27213181284154148 0.40460325276625142 0 0.28098632607893281 0.40530592610522648 0 0.27960670633686963 0.39593099488316852 0 0.27126544910802131 0.39117952320339489 0 0.27960670633686963 0.39593099488316852 0 0.27907318040806722 0.38819354716378501 0 0.27126544910802131 0.39117952320339489 0 0.27213181284154148 0.40460325276625142 0 0.27960670633686963 0.39593099488316852 0 0.27907318040806722 0.38819354716378501 0 0.27313473173953129 0.37895189067106799 0 0.28512794122948792 0.38527903721631668 0 0.27313473173953129 0.37895189067106799 0 0.29263068005411569 0.38232644934473359 0 0.27149659034974938 0.36536288044076032 0 0.27126544910802131 0.39117952320339489 0 0.27907318040806722 0.38819354716378501 0 0.27313473173953129 0.37895189067106799 0 0.25905609159255122 0.38358978364007162 0 0.27126544910802131 0.39117952320339489 0 0.27313473173953129 0.37895189067106799 0 0.27313473173953129 0.37895189067106799 0 0.28512794122948792 0.38527903721631668 0 0.29263068005411569 0.38232644934473359 0 0.27907318040806722 0.38819354716378501 0 0.28512794122948792 0.38527903721631668 0 0.28508293038968308 0.39089200037671917 0 0.28881301281228411 0.38760790038459519 0 0.28508293038968308 0.39089200037671917 0 0.28969696782301729 0.39091951500933292 0 0.28512794122948792 0.38527903721631668 0 0.28881301281228411 0.38760790038459519 0 0.28508293038968308 0.39089200037671917 0 0.28512794122948792 0.38527903721631668 0 0.28881301281228411 0.38760790038459519 0 0.29055572383848882 0.38549382436061141 0 0.28512794122948792 0.38527903721631668 0 0.29055572383848882 0.38549382436061141 0 0.29263068005411569 0.38232644934473359 0 0.28881301281228411 0.38760790038459519 0 0.29055572383848882 0.38549382436061141 0 0.29356191347266358 0.38618827034531322 0 0.29413239992780787 0.38353182553591092 0 0.29356191347266358 0.38618827034531322 0 0.30211493495677999 0.39473304368484591 0 0.29055572383848882 0.38549382436061141 0 0.29356191347266358 0.38618827034531322 0 0.29263068005411569 0.38232644934473359 0 0.28881301281228411 0.38760790038459519 0 0.29356191347266358 0.38618827034531322 0 0.28969696782301729 0.39091951500933292 0 0.29356191347266358 0.38618827034531322 0 0.29263068005411569 0.38232644934473359 0 0.29413239992780787 0.38353182553591092 0 0.29356191347266358 0.38618827034531322 0 0.29263068005411569 0.38232644934473359 0 0.29413239992780787 0.38353182553591092 0 0.29263068005411569 0.38232644934473359 0 0.29413239992780787 0.38353182553591092 0 0.29356191347266358 0.38618827034531322 0 0.29413239992780787 0.38353182553591092 0 0.29691270132218522 0.37058547573026029 0 0.29413239992780787 0.38353182553591092 0 0.29263068005411569 0.38232644934473359 0 0.29691270132218522 0.37058547573026029 0 0.29413239992780787 0.38353182553591092 0 0.29911527164840829 0.37718514411315551 0 0.29691270132218522 0.37058547573026029 0 0.29356191347266358 0.38618827034531322 0 0.29270099807703021 0.40175135875986939 0 0.29839642176060582 0.40623695552133121 0 0.29356191347266358 0.38618827034531322 0 0.29839642176060582 0.40623695552133121 0 0.28847546509880012 0.40987309100885239 0 0.29356191347266358 0.38618827034531322 0 0.2881797737283725 0.39742100760311672 0 0.28847546509880012 0.40987309100885239 0 0.29356191347266358 0.38618827034531322 0 0.28847546509880012 0.40987309100885239 0 0.29356191347266358 0.38618827034531322 0 0.29270099807703021 0.40175135875986939 0 0.28098632607893281 0.40530592610522648 0 0.27960670633686963 0.39593099488316852 0 0.2881797737283725 0.39742100760311672 0 0.28847546509880012 0.40987309100885239 0 0.28098632607893281 0.40530592610522648 0 0.2881797737283725 0.39742100760311672 0 0.27960670633686963 0.39593099488316852 0 0.2881797737283725 0.39742100760311672 0 0.28508293038968308 0.39089200037671917 0 0.27960670633686963 0.39593099488316852 0 0.27907318040806722 0.38819354716378501 0 0.28508293038968308 0.39089200037671917 0 0.2881797737283725 0.39742100760311672 0 0.28508293038968308 0.39089200037671917 0 0.28969696782301729 0.39091951500933292 0 0.29356191347266358 0.38618827034531322 0 0.2881797737283725 0.39742100760311672 0 0.28969696782301729 0.39091951500933292 0 0.28847546509880012 0.40987309100885239 0 0.29270099807703021 0.40175135875986939 0 0.29839642176060582 0.40623695552133121 0 0.29270099807703021 0.40175135875986939 0 0.29839642176060582 0.40623695552133121 0 0.29356191347266358 0.38618827034531322 0 0.29839642176060582 0.40623695552133121 0 0.30211493495677999 0.39473304368484591 0 0.29413239992780787 0.38353182553591092 0 0.30211493495677999 0.39473304368484591 0 0.31515646370062339 0.40040708060677122 0 0.29413239992780787 0.38353182553591092 0 0.31515646370062339 0.40040708060677122 0 0.3034558534130436 0.40132486532778727 0 0.29839642176060582 0.40623695552133121 0 0.30771170315359059 0.40479989090712559 0 0.3034558534130436 0.40132486532778727 0 0.29839642176060582 0.40623695552133121 0 0.30211493495677999 0.39473304368484591 0 0.3034558534130436 0.40132486532778727 0 0.30771170315359059 0.40479989090712559 0 0.31515646370062339 0.40040708060677122 0 0.3034558534130436 0.40132486532778727 0 0.30211493495677999 0.39473304368484591 0 0.31515646370062339 0.40040708060677122 0 0.29413239992780787 0.38353182553591092 0 0.30733780046944509 0.38583638726113811 0 0.31515646370062339 0.40040708060677122 0 0.30733780046944509 0.38583638726113811 0 0.32130501484046292 0.38934918545975439 0 0.30413477890852791 0.37408909429892911 0 0.30128120643511158 0.38053418088752261 0 0.30733780046944509 0.38583638726113811 0 0.30413477890852791 0.37408909429892911 0 0.30128120643511158 0.38053418088752261 0 0.29911527164840829 0.37718514411315551 0 0.30413477890852791 0.37408909429892911 0 0.29413239992780787 0.38353182553591092 0 0.30128120643511158 0.38053418088752261 0 0.29911527164840829 0.37718514411315551 0 0.29413239992780787 0.38353182553591092 0 0.30128120643511158 0.38053418088752261 0 0.30733780046944509 0.38583638726113811 0 0.33395266493362291 0.38398896739586741 0 0.31311944002249742 0.36674776883515958 0 0.32130501484046292 0.38934918545975439 0 0.31311944002249742 0.36674776883515958 0 0.30413477890852791 0.37408909429892911 0 0.32130501484046292 0.38934918545975439 0 0.33395266493362291 0.38398896739586741 0 0.31311944002249742 0.36674776883515958 0 0.32130501484046292 0.38934918545975439 0 0.30413477890852791 0.37408909429892911 0 0.33395266493362291 0.38398896739586741 0 0.34161012819815312 0.37592460206456058 0 0.34923595615545888 0.38086879458040468 0 0.33395266493362291 0.38398896739586741 0 0.34161012819815312 0.37592460206456058 0 0.33474801372956758 0.37271972917294621 0 0.33395266493362291 0.38398896739586741 0 0.33847525077239782 0.40460927662057983 0 0.34438351421665009 0.39975876209599459 0 0.32130501484046292 0.38934918545975439 0 0.33847525077239782 0.40460927662057983 0 0.32130501484046292 0.38934918545975439 0 0.33395266493362291 0.38398896739586741 0 0.33847525077239782 0.40460927662057983 0 0.32130501484046292 0.38934918545975439 0 0.31515646370062339 0.40040708060677122 0 0.32449828638902822 0.40804675999046669 0 0.32130501484046292 0.38934918545975439 0 0.33847525077239782 0.40460927662057983 0 0.32449828638902822 0.40804675999046669 0 0.30733780046944509 0.38583638726113811 0 0.32130501484046292 0.38934918545975439 0 0.31515646370062339 0.40040708060677122 0 0.30771170315359059 0.40479989090712559 0 0.31515646370062339 0.40040708060677122 0 0.31467880694668338 0.41130786422505899 0 0.31515646370062339 0.40040708060677122 0 0.31467880694668338 0.41130786422505899 0 0.32449828638902822 0.40804675999046669 0 0.31802259575844333 0.42169412032866521 0 0.32449828638902822 0.40804675999046669 0 0.33851345732582011 0.42057457921779162 0 0.31467880694668338 0.41130786422505899 0 0.31802259575844333 0.42169412032866521 0 0.32449828638902822 0.40804675999046669 0 0.31781852010021072 0.44330927314963542 0 0.31802259575844333 0.42169412032866521 0 0.33764876975628128 0.43715128513599821 0 0.31781852010021072 0.44330927314963542 0 0.30351337415233598 0.42745693518674438 0 0.31802259575844333 0.42169412032866521 0 0.31802259575844333 0.42169412032866521 0 0.33764876975628128 0.43715128513599821 0 0.31802259575844333 0.42169412032866521 0 0.33764876975628128 0.43715128513599821 0 0.33851345732582011 0.42057457921779162 0 0.33764876975628128 0.43715128513599821 0 0.33851345732582011 0.42057457921779162 0 0.3480201728258126 0.42853508819117969 0 0.33847525077239782 0.40460927662057983 0 0.32449828638902822 0.40804675999046669 0 0.33851345732582011 0.42057457921779162 0 0.33847525077239782 0.40460927662057983 0 0.35032025131583139 0.409206638410956 0 0.35564548670433282 0.41986936778140521 0 0.33847525077239782 0.40460927662057983 0 0.35564548670433282 0.41986936778140521 0 0.33847525077239782 0.40460927662057983 0 0.33851345732582011 0.42057457921779162 0 0.35564548670433282 0.41986936778140521 0 0.35032025131583139 0.409206638410956 0 0.35564548670433282 0.41986936778140521 0 0.36321309129608609 0.40820436482177203 0 0.33851345732582011 0.42057457921779162 0 0.35564548670433282 0.41986936778140521 0 0.3480201728258126 0.42853508819117969 0 0.33764876975628128 0.43715128513599821 0 0.3480201728258126 0.42853508819117969 0 0.35156499487205572 0.43736202422170939 0 0.35564548670433282 0.41986936778140521 0 0.3480201728258126 0.42853508819117969 0 0.36331609315200958 0.43115327361632882 0 0.3480201728258126 0.42853508819117969 0 0.35156499487205572 0.43736202422170939 0 0.36331609315200958 0.43115327361632882 0 0.36321309129608609 0.40820436482177203 0 0.38364830854640408 0.42511617947106412 0 0.36331609315200958 0.43115327361632882 0 0.36321309129608609 0.40820436482177203 0 0.36331609315200958 0.43115327361632882 0 0.36321309129608609 0.40820436482177203 0 0.38364830854640408 0.42511617947106412 0 0.35564548670433282 0.41986936778140521 0 0.36331609315200958 0.43115327361632882 0 0.36321309129608609 0.40820436482177203 0 0.36321309129608609 0.40820436482177203 0 0.36311501456619399 0.38635277866257639 0 0.35478588984474863 0.40123016595657512 0 0.36321309129608609 0.40820436482177203 0 0.36311501456619399 0.38635277866257639 0 0.38006516537626278 0.40722387671508509 0 0.36321309129608609 0.40820436482177203 0 0.36311501456619399 0.38635277866257639 0 0.3630652287236007 0.37526044687201943 0 0.36311501456619399 0.38635277866257639 0 0.37501551990424498 0.3650962321670464 0 0.36311501456619399 0.38635277866257639 0 0.37501551990424498 0.3650962321670464 0 0.38452712152122048 0.3850006645979076 0 0.36311501456619399 0.38635277866257639 0 0.37501551990424498 0.3650962321670464 0 0.3630652287236007 0.37526044687201943 0 0.36311501456619399 0.38635277866257639 0 0.3630652287236007 0.37526044687201943 0 0.36311501456619399 0.38635277866257639 0 0.35681282575996381 0.38106069563551781 0 0.33395266493362291 0.38398896739586741 0 0.35267678127956381 0.38862316038293582 0 0.34923595615545888 0.38086879458040468 0 0.36311501456619399 0.38635277866257639 0 0.35267678127956381 0.38862316038293582 0 0.35681282575996381 0.38106069563551781 0 0.35267678127956381 0.38862316038293582 0 0.35681282575996381 0.38106069563551781 0 0.34923595615545888 0.38086879458040468 0 0.3630652287236007 0.37526044687201943 0 0.35681282575996381 0.38106069563551781 0 0.35597114807500119 0.37419829767965179 0 0.35681282575996381 0.38106069563551781 0 0.34923595615545888 0.38086879458040468 0 0.35597114807500119 0.37419829767965179 0 0.34923595615545888 0.38086879458040468 0 0.3484183771009155 0.3725040444801424 0 0.35597114807500119 0.37419829767965179 0 0.34161012819815312 0.37592460206456058 0 0.34923595615545888 0.38086879458040468 0 0.3484183771009155 0.3725040444801424 0 0.33395266493362291 0.38398896739586741 0 0.34438351421665009 0.39975876209599459 0 0.35478588984474863 0.40123016595657512 0 0.33395266493362291 0.38398896739586741 0 0.35267678127956381 0.38862316038293582 0 0.35478588984474863 0.40123016595657512 0 0.33395266493362291 0.38398896739586741 0 0.35478588984474863 0.40123016595657512 0 0.35032025131583139 0.409206638410956 0 0.34438351421665009 0.39975876209599459 0 0.35478588984474863 0.40123016595657512 0 0.33847525077239782 0.40460927662057983 0 0.35032025131583139 0.409206638410956 0 0.34438351421665009 0.39975876209599459 0 0.36321309129608609 0.40820436482177203 0 0.35478588984474863 0.40123016595657512 0 0.35032025131583139 0.409206638410956 0 0.36321309129608609 0.40820436482177203 0 0.35478588984474863 0.40123016595657512 0 0.35032025131583139 0.409206638410956 0 0.35478588984474863 0.40123016595657512 0 0.36311501456619399 0.38635277866257639 0 0.35267678127956381 0.38862316038293582 0 0.35478588984474863 0.40123016595657512 0 0.36311501456619399 0.38635277866257639 0 0.35478588984474863 0.40123016595657512 0 0.35434283565039909 0.35047633197004641 0 0.34414052795027611 0.35139807325730649 0 0.35347963343734828 0.33530549454930819 0 0.35434283565039909 0.35047633197004641 0 0.34688083648816709 0.35824400780544458 0 0.36019985967141271 0.35825986069859922 0 0.35434283565039909 0.35047633197004641 0 0.36701332070479159 0.34917422353957361 0 0.35347963343734828 0.33530549454930819 0 0.35434283565039909 0.35047633197004641 0 0.34414052795027611 0.35139807325730649 0 0.34688083648816709 0.35824400780544458 0 0.34688083648816709 0.35824400780544458 0 0.35472232313851898 0.3669906779535228 0 0.36600925218530939 0.37024619392793562 0 0.34688083648816709 0.35824400780544458 0 0.36600925218530939 0.37024619392793562 0 0.36019985967141271 0.35825986069859922 0 0.34688083648816709 0.35824400780544458 0 0.36600925218530939 0.37024619392793562 0 0.34688083648816709 0.35824400780544458 0 0.34670235314677339 0.36584581920035919 0 0.35472232313851898 0.3669906779535228 0 0.34688083648816709 0.35824400780544458 0 0.34670235314677339 0.36584581920035919 0 0.34025856150453732 0.36326849764335328 0 0.34670235314677339 0.36584581920035919 0 0.3484183771009155 0.3725040444801424 0 0.35472232313851898 0.3669906779535228 0 0.34161012819815312 0.37592460206456058 0 0.3484183771009155 0.3725040444801424 0 0.34169562907120038 0.36954147469344267 0 0.34670235314677339 0.36584581920035919 0 0.3484183771009155 0.3725040444801424 0 0.34169562907120038 0.36954147469344267 0 0.3484183771009155 0.3725040444801424 0 0.35597114807500119 0.37419829767965179 0 0.35472232313851898 0.3669906779535228 0 0.35597114807500119 0.37419829767965179 0 0.35472232313851898 0.3669906779535228 0 0.35994198803060762 0.37167390410828238 0 0.36705948811643968 0.36069412758328873 0 0.36600925218530939 0.37024619392793562 0 0.36019985967141271 0.35825986069859922 0 0.35472232313851898 0.3669906779535228 0 0.35994198803060762 0.37167390410828238 0 0.36600925218530939 0.37024619392793562 0 0.3630652287236007 0.37526044687201943 0 0.35994198803060762 0.37167390410828238 0 0.36600925218530939 0.37024619392793562 0 0.3630652287236007 0.37526044687201943 0 0.35597114807500119 0.37419829767965179 0 0.35994198803060762 0.37167390410828238 0 0.3630652287236007 0.37526044687201943 0 0.36600925218530939 0.37024619392793562 0 0.37501551990424498 0.3650962321670464 0 0.36705948811643968 0.36069412758328873 0 0.36600925218530939 0.37024619392793562 0 0.37501551990424498 0.3650962321670464 0 0.36705948811643968 0.36069412758328873 0 0.36701332070479159 0.34917422353957361 0 0.37501551990424498 0.3650962321670464 0 0.35434283565039909 0.35047633197004641 0 0.36019985967141271 0.35825986069859922 0 0.36701332070479159 0.34917422353957361 0 0.36705948811643968 0.36069412758328873 0 0.36019985967141271 0.35825986069859922 0 0.36701332070479159 0.34917422353957361 0 0.36701332070479159 0.34917422353957361 0 0.37476201009401899 0.32592821235833752 0 0.35347963343734828 0.33530549454930819 0 0.37476201009401899 0.32592821235833752 0 0.35868575848144402 0.31833895811601859 0 0.37007294176576222 0.30530195041372138 0 0.37476201009401899 0.32592821235833752 0 0.35868575848144402 0.31833895811601859 0 0.35347963343734828 0.33530549454930819 0 0.35868575848144402 0.31833895811601859 0 0.35347963343734828 0.33530549454930819 0 0.34128941378801442 0.32461190372154142 0 0.35868575848144402 0.31833895811601859 0 0.34128941378801442 0.32461190372154142 0 0.35382479332207578 0.30054722953718482 0 0.34414052795027611 0.35139807325730649 0 0.35347963343734828 0.33530549454930819 0 0.34128941378801442 0.32461190372154142 0 0.34414052795027611 0.35139807325730649 0 0.34128941378801442 0.32461190372154142 0 0.32775242079102468 0.34624182168295359 0 0.34414052795027611 0.35139807325730649 0 0.34128941378801442 0.32461190372154142 0 0.34128941378801442 0.32461190372154142 0 0.32334158371887911 0.32461075891793378 0 0.32775242079102468 0.34624182168295359 0 0.34128941378801442 0.32461190372154142 0 0.32334158371887911 0.32461075891793378 0 0.32698224445375013 0.31044792427961709 0 0.32334158371887911 0.32461075891793378 0 0.31348864340999533 0.31314362004443241 0 0.30862400509388188 0.33423963556046332 0 0.32334158371887911 0.32461075891793378 0 0.31348864340999533 0.31314362004443241 0 0.32698224445375013 0.31044792427961709 0 0.32775242079102468 0.34624182168295359 0 0.30862400509388188 0.33423963556046332 0 0.3148560744658353 0.34808040394088158 0 0.32775242079102468 0.34624182168295359 0 0.30862400509388188 0.33423963556046332 0 0.32334158371887911 0.32461075891793378 0 0.32775242079102468 0.34624182168295359 0 0.30862400509388188 0.33423963556046332 0 0.3148560744658353 0.34808040394088158 0 0.32074574625531471 0.35686858326646981 0 0.31159210651507502 0.3555513892586184 0 0.32074574625531471 0.35686858326646981 0 0.32775242079102468 0.34624182168295359 0 0.33141173204865459 0.35846056027642159 0 0.3148560744658353 0.34808040394088158 0 0.32074574625531471 0.35686858326646981 0 0.32775242079102468 0.34624182168295359 0 0.34688083648816709 0.35824400780544458 0 0.32775242079102468 0.34624182168295359 0 0.34688083648816709 0.35824400780544458 0 0.32775242079102468 0.34624182168295359 0 0.33141173204865459 0.35846056027642159 0 0.34414052795027611 0.35139807325730649 0 0.34688083648816709 0.35824400780544458 0 0.32775242079102468 0.34624182168295359 0 0.33395266493362291 0.38398896739586741 0 0.33474801372956758 0.37271972917294621 0 0.32627986992178382 0.36717764195477082 0 0.34169562907120038 0.36954147469344267 0 0.33386292967529552 0.3660478706653314 0 0.33474801372956758 0.37271972917294621 0 0.34161012819815312 0.37592460206456058 0 0.34169562907120038 0.36954147469344267 0 0.33474801372956758 0.37271972917294621 0 0.34688083648816709 0.35824400780544458 0 0.33141173204865459 0.35846056027642159 0 0.34025856150453732 0.36326849764335328 0 0.34169562907120038 0.36954147469344267 0 0.34025856150453732 0.36326849764335328 0 0.33386292967529552 0.3660478706653314 0 0.34670235314677339 0.36584581920035919 0 0.34169562907120038 0.36954147469344267 0 0.34025856150453732 0.36326849764335328 0 0.33141173204865459 0.35846056027642159 0 0.33386292967529552 0.3660478706653314 0 0.32627986992178382 0.36717764195477082 0 0.33141173204865459 0.35846056027642159 0 0.34025856150453732 0.36326849764335328 0 0.33386292967529552 0.3660478706653314 0 0.33386292967529552 0.3660478706653314 0 0.33474801372956758 0.37271972917294621 0 0.32627986992178382 0.36717764195477082 0 0.33395266493362291 0.38398896739586741 0 0.32627986992178382 0.36717764195477082 0 0.31311944002249742 0.36674776883515958 0 0.32074574625531471 0.35686858326646981 0 0.33141173204865459 0.35846056027642159 0 0.32627986992178382 0.36717764195477082 0 0.32074574625531471 0.35686858326646981 0 0.31311944002249742 0.36674776883515958 0 0.31159210651507502 0.3555513892586184 0 0.32074574625531471 0.35686858326646981 0 0.32627986992178382 0.36717764195477082 0 0.31311944002249742 0.36674776883515958 0 0.30413477890852791 0.37408909429892911 0 0.30234655455736859 0.358531399386111 0 0.28696454297659191 0.35882900313810501 0 0.31311944002249742 0.36674776883515958 0 0.30413477890852791 0.37408909429892911 0 0.30234655455736859 0.358531399386111 0 0.31311944002249742 0.36674776883515958 0 0.31159210651507502 0.3555513892586184 0 0.30234655455736859 0.358531399386111 0 0.29911527164840829 0.37718514411315551 0 0.29691270132218522 0.37058547573026029 0 0.30413477890852791 0.37408909429892911 0 0.3148560744658353 0.34808040394088158 0 0.30556609367388021 0.34750058993590299 0 0.31159210651507502 0.3555513892586184 0 0.30556609367388021 0.34750058993590299 0 0.31159210651507502 0.3555513892586184 0 0.30234655455736859 0.358531399386111 0 0.30556609367388021 0.34750058993590299 0 0.29393019546253751 0.34624580172676828 0 0.29980187589258422 0.34079397136391182 0 0.30556609367388021 0.34750058993590299 0 0.30234655455736859 0.358531399386111 0 0.29393019546253751 0.34624580172676828 0 0.28696454297659191 0.35882900313810501 0 0.28087323576124179 0.33356837818986401 0 0.29393019546253751 0.34624580172676828 0 0.28696454297659191 0.35882900313810501 0 0.28087323576124179 0.33356837818986401 0 0.30234655455736859 0.358531399386111 0 0.29393019546253751 0.34624580172676828 0 0.28696454297659191 0.35882900313810501 0 0.30413477890852791 0.37408909429892911 0 0.28696454297659191 0.35882900313810501 0 0.29263068005411569 0.38232644934473359 0 0.29691270132218522 0.37058547573026029 0 0.28696454297659191 0.35882900313810501 0 0.29263068005411569 0.38232644934473359 0 0.28696454297659191 0.35882900313810501 0 0.27149659034974938 0.36536288044076032 0 0.29691270132218522 0.37058547573026029 0 0.30413477890852791 0.37408909429892911 0 0.28696454297659191 0.35882900313810501 0 0.29263068005411569 0.38232644934473359 0 0.27149659034974938 0.36536288044076032 0 0.29263068005411569 0.38232644934473359 0 0.28696454297659191 0.35882900313810501 0 0.27313473173953129 0.37895189067106799 0 0.27149659034974938 0.36536288044076032 0 0.25739422106850629 0.36655636002109732 0 0.28696454297659191 0.35882900313810501 0 0.27149659034974938 0.36536288044076032 0 0.27401248968172981 0.34731783259956323 0 0.28696454297659191 0.35882900313810501 0 0.27401248968172981 0.34731783259956323 0 0.28696454297659191 0.35882900313810501 0 0.27401248968172981 0.34731783259956323 0 0.28087323576124179 0.33356837818986401 0 0.27149659034974938 0.36536288044076032 0 0.27401248968172981 0.34731783259956323 0 0.25036250064538229 0.34839931153678771 0 0.27149659034974938 0.36536288044076032 0 0.25036250064538229 0.34839931153678771 0 0.24432825556867041 0.37340841177629502 0 0.25905609159255122 0.38358978364007162 0 0.25739422106850629 0.36655636002109732 0 0.24432825556867041 0.37340841177629502 0 0.25036250064538229 0.34839931153678771 0 0.25739422106850629 0.36655636002109732 0 0.27149659034974938 0.36536288044076032 0 0.25036250064538229 0.34839931153678771 0 0.25739422106850629 0.36655636002109732 0 0.23697132122059381 0.31305832472328421 0 0.25741422628937649 0.32562460040865809 0 0.25648919188199348 0.30835472880944681 0 0.26561672674696052 0.31429259850731639 0 0.25741422628937649 0.32562460040865809 0 0.25648919188199348 0.30835472880944681 0 0.26561672674696052 0.31429259850731639 0 0.25741422628937649 0.32562460040865809 0 0.26946921594250522 0.3234246795867981 0 0.25036250064538229 0.34839931153678771 0 0.25741422628937649 0.32562460040865809 0 0.26715311499333072 0.3354432733280282 0 0.27401248968172981 0.34731783259956323 0 0.25036250064538229 0.34839931153678771 0 0.26715311499333072 0.3354432733280282 0 0.25741422628937649 0.32562460040865809 0 0.26715311499333072 0.3354432733280282 0 0.26946921594250522 0.3234246795867981 0 0.26715311499333072 0.3354432733280282 0 0.28087323576124179 0.33356837818986401 0 0.26946921594250522 0.3234246795867981 0 0.27401248968172981 0.34731783259956323 0 0.26715311499333072 0.3354432733280282 0 0.28087323576124179 0.33356837818986401 0 0.28087323576124179 0.33356837818986401 0 0.27617397472545369 0.31408056278961161 0 0.28087323576124179 0.33356837818986401 0 0.26946921594250522 0.3234246795867981 0 0.27617397472545369 0.31408056278961161 0 0.26561672674696052 0.31429259850731639 0 0.26946921594250522 0.3234246795867981 0 0.27478192854589378 0.30830775324162241 0 0.26946921594250522 0.3234246795867981 0 0.27617397472545369 0.31408056278961161 0 0.27478192854589378 0.30830775324162241 0 0.27617397472545369 0.31408056278961161 0 0.28730882302521749 0.32086535582535952 0 0.27478192854589378 0.30830775324162241 0 0.27617397472545369 0.31408056278961161 0 0.28730882302521749 0.32086535582535952 0 0.28087323576124179 0.33356837818986401 0 0.27617397472545369 0.31408056278961161 0 0.28730882302521749 0.32086535582535952 0 0.28730882302521749 0.32086535582535952 0 0.29108720934003729 0.33518985823251229 0 0.28730882302521749 0.32086535582535952 0 0.30239854336850491 0.32059421286809059 0 0.30046883277885089 0.31163954196607951 0 0.28730882302521749 0.32086535582535952 0 0.29108720934003729 0.33518985823251229 0 0.30862400509388188 0.33423963556046332 0 0.29393019546253751 0.34624580172676828 0 0.28087323576124179 0.33356837818986401 0 0.29108720934003729 0.33518985823251229 0 0.28087323576124179 0.33356837818986401 0 0.28730882302521749 0.32086535582535952 0 0.29108720934003729 0.33518985823251229 0 0.29393019546253751 0.34624580172676828 0 0.29108720934003729 0.33518985823251229 0 0.29980187589258422 0.34079397136391182 0 0.29108720934003729 0.33518985823251229 0 0.29980187589258422 0.34079397136391182 0 0.30862400509388188 0.33423963556046332 0 0.30556609367388021 0.34750058993590299 0 0.29980187589258422 0.34079397136391182 0 0.30862400509388188 0.33423963556046332 0 0.3148560744658353 0.34808040394088158 0 0.30556609367388021 0.34750058993590299 0 0.30862400509388188 0.33423963556046332 0 0.30556609367388021 0.34750058993590299 0 0.30862400509388188 0.33423963556046332 0 0.31348864340999533 0.31314362004443241 0 0.30862400509388188 0.33423963556046332 0 0.28730882302521749 0.32086535582535952 0 0.30862400509388188 0.33423963556046332 0 0.28730882302521749 0.32086535582535952 0 0.30862400509388188 0.33423963556046332 0 0.30239854336850491 0.32059421286809059 0 0.31348864340999533 0.31314362004443241 0 0.30862400509388188 0.33423963556046332 0 0.30239854336850491 0.32059421286809059 0 0.31348864340999533 0.31314362004443241 0 0.30239854336850491 0.32059421286809059 0 0.30046883277885089 0.31163954196607951 0 0.31348864340999533 0.31314362004443241 0 0.30576000311521478 0.29875389294467147 0 0.30046883277885089 0.31163954196607951 0 0.30576000311521478 0.29875389294467147 0 0.29299873599424858 0.29531762598119032 0 0.29338815097532173 0.30484062814784357 0 0.30576000311521478 0.29875389294467147 0 0.30046883277885089 0.31163954196607951 0 0.29338815097532173 0.30484062814784357 0 0.30576000311521478 0.29875389294467147 0 0.31311751851338238 0.27932325799856872 0 0.31835328172610888 0.29204760452840139 0 0.30576000311521478 0.29875389294467147 0 0.29469277346190847 0.2834549273146077 0 0.31311751851338238 0.27932325799856872 0 0.30576000311521478 0.29875389294467147 0 0.31311751851338238 0.27932325799856872 0 0.30576000311521478 0.29875389294467147 0 0.29469277346190847 0.2834549273146077 0 0.29299873599424858 0.29531762598119032 0 0.29469277346190847 0.2834549273146077 0 0.28081980997195782 0.29626440839525259 0 0.27433079691869677 0.2716634609651461 0 0.29469277346190847 0.2834549273146077 0 0.29299873599424858 0.29531762598119032 0 0.28081980997195782 0.29626440839525259 0 0.28730882302521749 0.32086535582535952 0 0.28081980997195782 0.29626440839525259 0 0.28730882302521749 0.32086535582535952 0 0.29338815097532173 0.30484062814784357 0 0.28081980997195782 0.29626440839525259 0 0.28730882302521749 0.32086535582535952 0 0.30046883277885089 0.31163954196607951 0 0.29338815097532173 0.30484062814784357 0 0.29299873599424858 0.29531762598119032 0 0.29338815097532173 0.30484062814784357 0 0.28081980997195782 0.29626440839525259 0 0.28730882302521749 0.32086535582535952 0 0.27478192854589378 0.30830775324162241 0 0.28081980997195782 0.29626440839525259 0 0.27617397472545369 0.31408056278961161 0 0.27478192854589378 0.30830775324162241 0 0.26561672674696052 0.31429259850731639 0 0.27478192854589378 0.30830775324162241 0 0.26547955940706291 0.3043903896503185 0 0.27478192854589378 0.30830775324162241 0 0.27000052946295833 0.29837541253052757 0 0.26547955940706291 0.3043903896503185 0 0.27478192854589378 0.30830775324162241 0 0.27000052946295833 0.29837541253052757 0 0.28081980997195782 0.29626440839525259 0 0.28081980997195782 0.29626440839525259 0 0.27433079691869677 0.2716634609651461 0 0.27000052946295833 0.29837541253052757 0 0.28081980997195782 0.29626440839525259 0 0.27433079691869677 0.2716634609651461 0 0.27000052946295833 0.29837541253052757 0 0.26050942039750841 0.29262145516267929 0 0.27433079691869677 0.2716634609651461 0 0.24031941028794429 0.29183216381064492 0 0.26050942039750841 0.29262145516267929 0 0.25366936349064739 0.27714485185329979 0 0.26050942039750841 0.29262145516267929 0 0.25648919188199348 0.30835472880944681 0 0.26547955940706291 0.3043903896503185 0 0.24031941028794429 0.29183216381064492 0 0.26050942039750841 0.29262145516267929 0 0.25648919188199348 0.30835472880944681 0 0.26561672674696052 0.31429259850731639 0 0.25648919188199348 0.30835472880944681 0 0.26547955940706291 0.3043903896503185 0 0.27000052946295833 0.29837541253052757 0 0.26050942039750841 0.29262145516267929 0 0.26547955940706291 0.3043903896503185 0 0.2404948642945276 0.24886429612507829 0 0.25545183030828272 0.2600182887903284 0 0.25870383077257192 0.24455980595657351 0 0.25545183030828272 0.2600182887903284 0 0.26784178386543572 0.2470625135350395 0 0.25870383077257192 0.24455980595657351 0 0.26050942039750841 0.29262145516267929 0 0.25366936349064739 0.27714485185329979 0 0.27433079691869677 0.2716634609651461 0 0.25545183030828272 0.2600182887903284 0 0.25366936349064739 0.27714485185329979 0 0.27433079691869677 0.2716634609651461 0 0.25545183030828272 0.2600182887903284 0 0.27433079691869677 0.2716634609651461 0 0.26784178386543572 0.2470625135350395 0 0.27433079691869677 0.2716634609651461 0 0.28181747201641422 0.25603772552514881 0 0.26784178386543572 0.2470625135350395 0 0.27433079691869677 0.2716634609651461 0 0.26784178386543572 0.2470625135350395 0 0.28181747201641422 0.25603772552514881 0 0.29057171190262571 0.26769802480729038 0 0.29869391558108321 0.25007396942026722 0 0.27433079691869677 0.2716634609651461 0 0.28181747201641422 0.25603772552514881 0 0.29057171190262571 0.26769802480729038 0 0.29469277346190847 0.2834549273146077 0 0.29057171190262571 0.26769802480729038 0 0.30460794213802361 0.2659770926232522 0 0.29469277346190847 0.2834549273146077 0 0.27433079691869677 0.2716634609651461 0 0.29057171190262571 0.26769802480729038 0 0.29469277346190847 0.2834549273146077 0 0.30460794213802361 0.2659770926232522 0 0.31311751851338238 0.27932325799856872 0 0.29869391558108321 0.25007396942026722 0 0.32047503391155008 0.25989262305246569 0 0.31269983928529449 0.2467602182311732 0 0.29869391558108321 0.25007396942026722 0 0.32047503391155008 0.25989262305246569 0 0.30460794213802361 0.2659770926232522 0 0.29869391558108321 0.25007396942026722 0 0.32047503391155008 0.25989262305246569 0 0.29057171190262571 0.26769802480729038 0 0.30460794213802361 0.2659770926232522 0 0.29869391558108321 0.25007396942026722 0 0.32047503391155008 0.25989262305246569 0 0.32670449354835551 0.2434410970190449 0 0.32047503391155008 0.25989262305246569 0 0.32982620303099153 0.25304545554162822 0 0.32670449354835551 0.2434410970190449 0 0.32047503391155008 0.25989262305246569 0 0.32670449354835551 0.2434410970190449 0 0.31269983928529449 0.2467602182311732 0 0.32047503391155008 0.25989262305246569 0 0.32520148068181021 0.26202324568827801 0 0.32982620303099153 0.25304545554162822 0 0.32047503391155008 0.25989262305246569 0 0.32520148068181021 0.26202324568827801 0 0.32321792004222261 0.27095158901237049 0 0.32047503391155008 0.25989262305246569 0 0.32520148068181021 0.26202324568827801 0 0.32982620303099153 0.25304545554162822 0 0.33470169919383203 0.26181615974476402 0 0.34009875516621119 0.25535308912150989 0 0.32520148068181021 0.26202324568827801 0 0.33470169919383203 0.26181615974476402 0 0.33558718546349098 0.27103956465001172 0 0.32520148068181021 0.26202324568827801 0 0.32982620303099153 0.25304545554162822 0 0.33470169919383203 0.26181615974476402 0 0.33470169919383203 0.26181615974476402 0 0.34009875516621119 0.25535308912150989 0 0.34520581992478627 0.266024647486027 0 0.32982620303099153 0.25304545554162822 0 0.34009875516621119 0.25535308912150989 0 0.33826355553113502 0.24409768050765859 0 0.33558718546349098 0.27103956465001172 0 0.34494752609798429 0.2835880727518178 0 0.34520581992478627 0.266024647486027 0 0.33470169919383203 0.26181615974476402 0 0.33558718546349098 0.27103956465001172 0 0.34520581992478627 0.266024647486027 0 0.33558718546349098 0.27103956465001172 0 0.32321792004222261 0.27095158901237049 0 0.32889917171439381 0.28296612309413999 0 0.31311751851338238 0.27932325799856872 0 0.32321792004222261 0.27095158901237049 0 0.31835328172610888 0.29204760452840139 0 0.32047503391155008 0.25989262305246569 0 0.31311751851338238 0.27932325799856872 0 0.30460794213802361 0.2659770926232522 0 0.32047503391155008 0.25989262305246569 0 0.31311751851338238 0.27932325799856872 0 0.32047503391155008 0.25989262305246569 0 0.31311751851338238 0.27932325799856872 0 0.32321792004222261 0.27095158901237049 0 0.32520148068181021 0.26202324568827801 0 0.33558718546349098 0.27103956465001172 0 0.32321792004222261 0.27095158901237049 0 0.32321792004222261 0.27095158901237049 0 0.31835328172610888 0.29204760452840139 0 0.32321792004222261 0.27095158901237049 0 0.31835328172610888 0.29204760452840139 0 0.32889917171439381 0.28296612309413999 0 0.31348864340999533 0.31314362004443241 0 0.31835328172610888 0.29204760452840139 0 0.31835328172610888 0.29204760452840139 0 0.32698224445375013 0.31044792427961709 0 0.33843829962575273 0.29782573418577651 0 0.31348864340999533 0.31314362004443241 0 0.31835328172610888 0.29204760452840139 0 0.32698224445375013 0.31044792427961709 0 0.31348864340999533 0.31314362004443241 0 0.30576000311521478 0.29875389294467147 0 0.31835328172610888 0.29204760452840139 0 0.34128941378801442 0.32461190372154142 0 0.32698224445375013 0.31044792427961709 0 0.33843829962575273 0.29782573418577651 0 0.34128941378801442 0.32461190372154142 0 0.33843829962575273 0.29782573418577651 0 0.33558718546349098 0.27103956465001172 0 0.33843829962575273 0.29782573418577651 0 0.32889917171439381 0.28296612309413999 0 0.31835328172610888 0.29204760452840139 0 0.33843829962575273 0.29782573418577651 0 0.32889917171439381 0.28296612309413999 0 0.33558718546349098 0.27103956465001172 0 0.33843829962575273 0.29782573418577651 0 0.34494752609798429 0.2835880727518178 0 0.33558718546349098 0.27103956465001172 0 0.33843829962575273 0.29782573418577651 0 0.34494752609798429 0.2835880727518178 0 0.35689272158787749 0.28440207962365011 0 0.35382479332207578 0.30054722953718482 0 0.35689272158787749 0.28440207962365011 0 0.35382479332207578 0.30054722953718482 0 0.36678529522616399 0.2886240950768455 0 0.33843829962575273 0.29782573418577651 0 0.34494752609798429 0.2835880727518178 0 0.35382479332207578 0.30054722953718482 0 0.34128941378801442 0.32461190372154142 0 0.33843829962575273 0.29782573418577651 0 0.35382479332207578 0.30054722953718482 0 0.35382479332207578 0.30054722953718482 0 0.37007294176576222 0.30530195041372138 0 0.36678529522616399 0.2886240950768455 0 0.35868575848144402 0.31833895811601859 0 0.35382479332207578 0.30054722953718482 0 0.37007294176576222 0.30530195041372138 0 0.37007294176576222 0.30530195041372138 0 0.36678529522616399 0.2886240950768455 0 0.38254355703940229 0.28949160419329201 0 0.36678529522616399 0.2886240950768455 0 0.37404335051717769 0.27593313525963648 0 0.38254355703940229 0.28949160419329201 0 0.35689272158787749 0.28440207962365011 0 0.36678529522616399 0.2886240950768455 0 0.3637634966953146 0.27688419128201641 0 0.36678529522616399 0.2886240950768455 0 0.37404335051717769 0.27593313525963648 0 0.3637634966953146 0.27688419128201641 0 0.3637634966953146 0.27688419128201641 0 0.3656316538101424 0.26465026280978182 0 0.35514249659784869 0.27236680947038611 0 0.37404335051717769 0.27593313525963648 0 0.3637634966953146 0.27688419128201641 0 0.3656316538101424 0.26465026280978182 0 0.37404335051717769 0.27593313525963648 0 0.3656316538101424 0.26465026280978182 0 0.38070544953227509 0.26359588580266791 0 0.3743546098685348 0.25452028441578689 0 0.3656316538101424 0.26465026280978182 0 0.38070544953227509 0.26359588580266791 0 0.3743546098685348 0.25452028441578689 0 0.3656316538101424 0.26465026280978182 0 0.3569387515411846 0.25204543333116158 0 0.3656316538101424 0.26465026280978182 0 0.35364196128180447 0.2611419454520536 0 0.3569387515411846 0.25204543333116158 0 0.35364196128180447 0.2611419454520536 0 0.3569387515411846 0.25204543333116158 0 0.34704462329438002 0.2484556289787021 0 0.34009875516621119 0.25535308912150989 0 0.35364196128180447 0.2611419454520536 0 0.34704462329438002 0.2484556289787021 0 0.34009875516621119 0.25535308912150989 0 0.35364196128180447 0.2611419454520536 0 0.34520581992478627 0.266024647486027 0 0.34494752609798429 0.2835880727518178 0 0.34520581992478627 0.266024647486027 0 0.35514249659784869 0.27236680947038611 0 0.35364196128180447 0.2611419454520536 0 0.34520581992478627 0.266024647486027 0 0.35514249659784869 0.27236680947038611 0 0.35689272158787749 0.28440207962365011 0 0.3637634966953146 0.27688419128201641 0 0.35514249659784869 0.27236680947038611 0 0.34494752609798429 0.2835880727518178 0 0.35689272158787749 0.28440207962365011 0 0.35514249659784869 0.27236680947038611 0 0.3656316538101424 0.26465026280978182 0 0.35364196128180447 0.2611419454520536 0 0.35514249659784869 0.27236680947038611 0 0.40126582153446821 0.26813120316247657 0 0.39151301604333261 0.2611676743050515 0 0.38830857927383461 0.27344329682549129 0 0.40126582153446821 0.26813120316247657 0 0.38830857927383461 0.27344329682549129 0 0.40182153237908619 0.28281467737346322 0 0.40126582153446821 0.26813120316247657 0 0.40182153237908619 0.28281467737346322 0 0.41170373469717519 0.2703864301607708 0 0.39886573647547352 0.25563570613769337 0 0.41200501482469432 0.26087574972716288 0 0.40175487420164457 0.2381366387701451 0 0.40126582153446821 0.26813120316247657 0 0.39886573647547352 0.25563570613769337 0 0.41200501482469432 0.26087574972716288 0 0.39886573647547352 0.25563570613769337 0 0.39151301604333261 0.2611676743050515 0 0.38778995577322739 0.2498672647236308 0 0.40126582153446821 0.26813120316247657 0 0.39886573647547352 0.25563570613769337 0 0.39151301604333261 0.2611676743050515 0 0.39151301604333261 0.2611676743050515 0 0.38070544953227509 0.26359588580266791 0 0.38778995577322739 0.2498672647236308 0 0.3743546098685348 0.25452028441578689 0 0.38070544953227509 0.26359588580266791 0 0.38778995577322739 0.2498672647236308 0 0.37404335051717769 0.27593313525963648 0 0.38830857927383461 0.27344329682549129 0 0.38254355703940229 0.28949160419329201 0 0.37404335051717769 0.27593313525963648 0 0.38070544953227509 0.26359588580266791 0 0.38830857927383461 0.27344329682549129 0 0.39151301604333261 0.2611676743050515 0 0.38070544953227509 0.26359588580266791 0 0.38830857927383461 0.27344329682549129 0 0.38254355703940229 0.28949160419329201 0 0.38909637241537809 0.30669141483032741 0 0.39499425347110689 0.29419642405310159 0 0.37007294176576222 0.30530195041372138 0 0.38254355703940229 0.28949160419329201 0 0.38909637241537809 0.30669141483032741 0 0.41071703591839648 0.30132659268045542 0 0.39881653058034611 0.32258313917598569 0 0.38909637241537809 0.30669141483032741 0 0.41071703591839648 0.30132659268045542 0 0.39881653058034611 0.32258313917598569 0 0.38909637241537809 0.30669141483032741 0 0.39499425347110689 0.29419642405310159 0 0.41071703591839648 0.30132659268045542 0 0.38254355703940229 0.28949160419329201 0 0.39499425347110689 0.29419642405310159 0 0.40182153237908619 0.28281467737346322 0 0.38830857927383461 0.27344329682549129 0 0.38254355703940229 0.28949160419329201 0 0.40182153237908619 0.28281467737346322 0 0.39499425347110689 0.29419642405310159 0 0.40182153237908619 0.28281467737346322 0 0.41071703591839648 0.30132659268045542 0 0.41071703591839648 0.30132659268045542 0 0.42500961580250618 0.30655877789135622 0 0.42261754125644879 0.28007004618492598 0 0.40182153237908619 0.28281467737346322 0 0.41071703591839648 0.30132659268045542 0 0.42261754125644879 0.28007004618492598 0 0.41071703591839648 0.30132659268045542 0 0.42261754125644879 0.28007004618492598 0 0.41071703591839648 0.30132659268045542 0 0.42500961580250618 0.30655877789135622 0 0.41436719947736039 0.31626990071644367 0 0.42500961580250618 0.30655877789135622 0 0.42261754125644879 0.28007004618492598 0 0.44423693274132342 0.2914700736116449 0 0.42500961580250618 0.30655877789135622 0 0.42261754125644879 0.28007004618492598 0 0.42261754125644879 0.28007004618492598 0 0.42080876349118079 0.26004047435582611 0 0.43467559665397992 0.25853208557548712 0 0.42261754125644879 0.28007004618492598 0 0.43467559665397992 0.25853208557548712 0 0.44423693274132342 0.2914700736116449 0 0.42261754125644879 0.28007004618492598 0 0.43467559665397992 0.25853208557548712 0 0.40182153237908619 0.28281467737346322 0 0.42261754125644879 0.28007004618492598 0 0.41170373469717519 0.2703864301607708 0 0.42261754125644879 0.28007004618492598 0 0.42080876349118079 0.26004047435582611 0 0.42261754125644879 0.28007004618492598 0 0.41170373469717519 0.2703864301607708 0 0.42080876349118079 0.26004047435582611 0 0.40126582153446821 0.26813120316247657 0 0.41170373469717519 0.2703864301607708 0 0.41200501482469432 0.26087574972716288 0 0.41170373469717519 0.2703864301607708 0 0.41200501482469432 0.26087574972716288 0 0.42080876349118079 0.26004047435582611 0 0.41200501482469432 0.26087574972716288 0 0.42080876349118079 0.26004047435582611 0 0.4152092440927056 0.24783501011872769 0 0.42080876349118079 0.26004047435582611 0 0.42814058904926222 0.24786009528357331 0 0.4152092440927056 0.24783501011872769 0 0.42080876349118079 0.26004047435582611 0 0.43467559665397992 0.25853208557548712 0 0.42814058904926222 0.24786009528357331 0 0.43467559665397992 0.25853208557548712 0 0.46414324520971589 0.27236493148528679 0 0.44423693274132342 0.2914700736116449 0 0.5 0.29152994042608249 0 0.5 0.2171177048473539 0 0.47668445726438669 0.24183389805940181 0 0.43467559665397992 0.25853208557548712 0 0.45020726170182263 0.2525733498901615 0 0.46414324520971589 0.27236493148528679 0 0.46414324520971589 0.27236493148528679 0 0.46146747632937801 0.24391054792094821 0 0.46414324520971589 0.27236493148528679 0 0.46146747632937801 0.24391054792094821 0 0.47668445726438669 0.24183389805940181 0 0.45020726170182263 0.2525733498901615 0 0.46414324520971589 0.27236493148528679 0 0.46146747632937801 0.24391054792094821 0 0.46414324520971589 0.27236493148528679 0 0.5 0.29152994042608249 0 0.47668445726438669 0.24183389805940181 0 0.5 0.29152994042608249 0 0.46681901409005389 0.30081931504962522 0 0.46949478297039182 0.32927369861396377 0 0.46414324520971589 0.27236493148528679 0 0.5 0.29152994042608249 0 0.46681901409005389 0.30081931504962522 0 0.46414324520971589 0.27236493148528679 0 0.46681901409005389 0.30081931504962522 0 0.46414324520971589 0.27236493148528679 0 0.46681901409005389 0.30081931504962522 0 0.44423693274132342 0.2914700736116449 0 0.46681901409005389 0.30081931504962522 0 0.44423693274132342 0.2914700736116449 0 0.44709942199365549 0.31759358619979361 0 0.42500961580250618 0.30655877789135622 0 0.44423693274132342 0.2914700736116449 0 0.44709942199365549 0.31759358619979361 0 0.5 0.29152994042608249 0 0.46949478297039182 0.32927369861396377 0 0.47217055185072981 0.35772808217830221 0 0.5 0.29152994042608249 0 0.47217055185072981 0.35772808217830221 0 0.5 0.39104438080647502 0 0.44709942199365549 0.31759358619979361 0 0.44928099638375951 0.34370997490762278 0 0.42740169034856201 0.33304750959778662 0 0.44709942199365549 0.31759358619979361 0 0.44928099638375951 0.34370997490762278 0 0.46949478297039182 0.32927369861396377 0 0.44928099638375951 0.34370997490762278 0 0.46949478297039182 0.32927369861396377 0 0.47217055185072981 0.35772808217830221 0 0.46681901409005389 0.30081931504962522 0 0.46949478297039182 0.32927369861396377 0 0.46681901409005389 0.30081931504962522 0 0.44709942199365549 0.31759358619979361 0 0.46949478297039182 0.32927369861396377 0 0.46949478297039182 0.32927369861396377 0 0.47217055185072981 0.35772808217830221 0 0.47217055185072981 0.35772808217830221 0 0.47484632073106769 0.38618246574264048 0 0.47217055185072981 0.35772808217830221 0 0.45421970654596738 0.36647618795891579 0 0.47484632073106769 0.38618246574264048 0 0.44928099638375951 0.34370997490762278 0 0.47217055185072981 0.35772808217830221 0 0.45421970654596738 0.36647618795891579 0 0.44928099638375951 0.34370997490762278 0 0.45421970654596738 0.36647618795891579 0 0.42979376489461768 0.35953624130421707 0 0.45421970654596738 0.36647618795891579 0 0.42979376489461768 0.35953624130421707 0 0.44500689886966233 0.38522417566179662 0 0.42979376489461768 0.35953624130421707 0 0.40155170030885828 0.36711862677134488 0 0.42326660235506641 0.38027197749235081 0 0.42979376489461768 0.35953624130421707 0 0.40898382643259967 0.34640924552186791 0 0.40155170030885828 0.36711862677134488 0 0.42979376489461768 0.35953624130421707 0 0.42740169034856201 0.33304750959778662 0 0.44928099638375951 0.34370997490762278 0 0.42979376489461768 0.35953624130421707 0 0.42740169034856201 0.33304750959778662 0 0.42979376489461768 0.35953624130421707 0 0.40898382643259967 0.34640924552186791 0 0.42740169034856201 0.33304750959778662 0 0.42500961580250618 0.30655877789135622 0 0.44709942199365549 0.31759358619979361 0 0.42740169034856201 0.33304750959778662 0 0.42500961580250618 0.30655877789135622 0 0.42740169034856201 0.33304750959778662 0 0.41436719947736039 0.31626990071644367 0 0.42500961580250618 0.30655877789135622 0 0.42740169034856201 0.33304750959778662 0 0.42740169034856201 0.33304750959778662 0 0.41436719947736039 0.31626990071644367 0 0.39881653058034611 0.32258313917598569 0 0.41071703591839648 0.30132659268045542 0 0.41436719947736039 0.31626990071644367 0 0.39881653058034611 0.32258313917598569 0 0.40898382643259967 0.34640924552186791 0 0.42740169034856201 0.33304750959778662 0 0.39881653058034611 0.32258313917598569 0 0.39881653058034611 0.32258313917598569 0 0.38691602524229551 0.34383968567151613 0 0.40898382643259967 0.34640924552186791 0 0.39881653058034611 0.32258313917598569 0 0.38691602524229551 0.34383968567151613 0 0.37476201009401899 0.32592821235833752 0 0.38909637241537809 0.30669141483032741 0 0.39881653058034611 0.32258313917598569 0 0.37476201009401899 0.32592821235833752 0 0.37007294176576222 0.30530195041372138 0 0.38909637241537809 0.30669141483032741 0 0.36701332070479159 0.34917422353957361 0 0.37476201009401899 0.32592821235833752 0 0.38691602524229551 0.34383968567151613 0 0.37476201009401899 0.32592821235833752 0 0.39881653058034611 0.32258313917598569 0 0.38691602524229551 0.34383968567151613 0 0.38691602524229551 0.34383968567151613 0 0.37501551990424498 0.3650962321670464 0 0.38691602524229551 0.34383968567151613 0 0.37501551990424498 0.3650962321670464 0 0.40155170030885828 0.36711862677134488 0 0.36701332070479159 0.34917422353957361 0 0.38691602524229551 0.34383968567151613 0 0.37501551990424498 0.3650962321670464 0 0.37501551990424498 0.3650962321670464 0 0.40155170030885828 0.36711862677134488 0 0.38452712152122048 0.3850006645979076 0 0.40898382643259967 0.34640924552186791 0 0.38691602524229551 0.34383968567151613 0 0.40155170030885828 0.36711862677134488 0 0.39194983481956791 0.39930045065203751 0 0.4021078412732188 0.41464060336093461 0 0.40634864862661502 0.38969223969351252 0 0.39194983481956791 0.39930045065203751 0 0.38452712152122048 0.3850006645979076 0 0.40634864862661502 0.38969223969351252 0 0.40155170030885828 0.36711862677134488 0 0.38452712152122048 0.3850006645979076 0 0.40634864862661502 0.38969223969351252 0 0.39194983481956791 0.39930045065203751 0 0.38452712152122048 0.3850006645979076 0 0.38006516537626278 0.40722387671508509 0 0.36311501456619399 0.38635277866257639 0 0.38452712152122048 0.3850006645979076 0 0.38006516537626278 0.40722387671508509 0 0.38006516537626278 0.40722387671508509 0 0.38364830854640408 0.42511617947106412 0 0.4021078412732188 0.41464060336093461 0 0.36321309129608609 0.40820436482177203 0 0.38006516537626278 0.40722387671508509 0 0.38364830854640408 0.42511617947106412 0 0.36331609315200958 0.43115327361632882 0 0.38364830854640408 0.42511617947106412 0 0.38063319215661412 0.44801346467292091 0 0.38364830854640408 0.42511617947106412 0 0.40408352579672291 0.44202799412035498 0 0.38364830854640408 0.42511617947106412 0 0.4021078412732188 0.41464060336093461 0 0.40408352579672291 0.44202799412035498 0 0.39194983481956791 0.39930045065203751 0 0.38006516537626278 0.40722387671508509 0 0.4021078412732188 0.41464060336093461 0 0.4021078412732188 0.41464060336093461 0 0.42027486217999233 0.42982604219683151 0 0.42640726827221359 0.40482519871206613 0 0.4021078412732188 0.41464060336093461 0 0.42027486217999233 0.42982604219683151 0 0.40408352579672291 0.44202799412035498 0 0.42027486217999233 0.42982604219683151 0 0.42640726827221359 0.40482519871206613 0 0.44425693251076492 0.42869660602115572 0 0.42640726827221359 0.40482519871206613 0 0.40634864862661502 0.38969223969351252 0 0.42326660235506641 0.38027197749235081 0 0.4021078412732188 0.41464060336093461 0 0.42640726827221359 0.40482519871206613 0 0.40634864862661502 0.38969223969351252 0 0.40155170030885828 0.36711862677134488 0 0.40634864862661502 0.38969223969351252 0 0.42326660235506641 0.38027197749235081 0 0.42640726827221359 0.40482519871206613 0 0.42326660235506641 0.38027197749235081 0 0.44500689886966233 0.38522417566179662 0 0.42979376489461768 0.35953624130421707 0 0.42326660235506641 0.38027197749235081 0 0.44500689886966233 0.38522417566179662 0 0.42640726827221359 0.40482519871206613 0 0.44500689886966233 0.38522417566179662 0 0.45474753042611932 0.40713490077084491 0 0.44500689886966233 0.38522417566179662 0 0.47484632073106769 0.38618246574264048 0 0.45474753042611932 0.40713490077084491 0 0.45421970654596738 0.36647618795891579 0 0.44500689886966233 0.38522417566179662 0 0.47484632073106769 0.38618246574264048 0 0.47217055185072981 0.35772808217830221 0 0.47484632073106769 0.38618246574264048 0 0.5 0.39104438080647502 0 0.47484632073106769 0.38618246574264048 0 0.47752208961140569 0.41463684930697903 0 0.47484632073106769 0.38618246574264048 0 0.5 0.39104438080647502 0 0.47752208961140569 0.41463684930697903 0 0.47484632073106769 0.38618246574264048 0 0.47752208961140569 0.41463684930697903 0 0.45474753042611932 0.40713490077084491 0 0.5 0.39104438080647502 0 0.47752208961140569 0.41463684930697903 0 0.48019785849174362 0.44309123287131741 0 0.47752208961140569 0.41463684930697903 0 0.48019785849174362 0.44309123287131741 0 0.47752208961140569 0.41463684930697903 0 0.46450216496799229 0.43021420840691221 0 0.48019785849174362 0.44309123287131741 0 0.46450216496799229 0.43021420840691221 0 0.45474753042611932 0.40713490077084491 0 0.44425693251076492 0.42869660602115572 0 0.47752208961140569 0.41463684930697903 0 0.46450216496799229 0.43021420840691221 0 0.45474753042611932 0.40713490077084491 0 0.42640726827221359 0.40482519871206613 0 0.45474753042611932 0.40713490077084491 0 0.44425693251076492 0.42869660602115572 0 0.5 0.39104438080647502 0 0.48019785849174362 0.44309123287131741 0 0.5 0.5 0 0.44425693251076492 0.42869660602115572 0 0.45788880103664881 0.45458251132816602 0 0.42451874304704179 0.45893980876964607 0 0.45788880103664881 0.45458251132816602 0 0.44495396029736067 0.47585162341893722 0 0.42451874304704179 0.45893980876964607 0 0.45788880103664881 0.45458251132816602 0 0.46310265699376102 0.473700850472973 0 0.44495396029736067 0.47585162341893722 0 0.45788880103664881 0.45458251132816602 0 0.48287362737208162 0.47154561643565601 0 0.46310265699376102 0.473700850472973 0 0.46450216496799229 0.43021420840691221 0 0.44425693251076492 0.42869660602115572 0 0.45788880103664881 0.45458251132816602 0 0.46450216496799229 0.43021420840691221 0 0.45788880103664881 0.45458251132816602 0 0.48019785849174362 0.44309123287131741 0 0.45788880103664881 0.45458251132816602 0 0.48019785849174362 0.44309123287131741 0 0.48287362737208162 0.47154561643565601 0 0.48019785849174362 0.44309123287131741 0 0.48287362737208162 0.47154561643565601 0 0.48019785849174362 0.44309123287131741 0 0.5 0.5 0 0.48287362737208162 0.47154561643565601 0 0.48554939625241911 0.49999999999999478 0 0.5 0.5 0 0.48287362737208162 0.47154561643565601 0 0.48287362737208162 0.47154561643565601 0 0.46538917754767961 0.49276343806822831 0 0.46310265699376102 0.473700850472973 0 0.48554939625241911 0.49999999999999478 0 0.46116453674588997 0.5 0 0.46538917754767961 0.49276343806822831 0 0.48554939625241911 0.49999999999999478 0 0.48287362737208162 0.47154561643565601 0 0.48554939625241911 0.49999999999999478 0 0.48287362737208162 0.47154561643565601 0 0.46538917754767961 0.49276343806822831 0 0.46116453674588997 0.5 0 0.46538917754767961 0.49276343806822831 0 0.44495396029736067 0.47585162341893722 0 0.46538917754767961 0.49276343806822831 0 0.46310265699376102 0.473700850472973 0 0.44495396029736067 0.47585162341893722 0 0.46538917754767961 0.49276343806822831 0 0.44495396029736067 0.47585162341893722 0 0.46116453674588997 0.5 0 0.44495396029736067 0.47585162341893722 0 0.43677967723936101 0.5 0 0.44495396029736067 0.47585162341893722 0 0.43677967723936101 0.5 0 0.41353804208695061 0.478017538625224 0 0.44495396029736067 0.47585162341893722 0 0.41353804208695061 0.478017538625224 0 0.42451874304704179 0.45893980876964607 0 0.41353804208695061 0.478017538625224 0 0.42451874304704179 0.45893980876964607 0 0.3929751694025862 0.47016235963401137 0 0.43677967723936101 0.5 0 0.41239481773283182 0.5 0 0.41353804208695061 0.478017538625224 0 0.42451874304704179 0.45893980876964607 0 0.40408352579672291 0.44202799412035498 0 0.3929751694025862 0.47016235963401137 0 0.44495396029736067 0.47585162341893722 0 0.42451874304704179 0.45893980876964607 0 0.42027486217999233 0.42982604219683151 0 0.44425693251076492 0.42869660602115572 0 0.42451874304704179 0.45893980876964607 0 0.42451874304704179 0.45893980876964607 0 0.40408352579672291 0.44202799412035498 0 0.42027486217999233 0.42982604219683151 0 0.42451874304704179 0.45893980876964607 0 0.40408352579672291 0.44202799412035498 0 0.40408352579672291 0.44202799412035498 0 0.38063319215661412 0.44801346467292091 0 0.3929751694025862 0.47016235963401137 0 0.38364830854640408 0.42511617947106412 0 0.40408352579672291 0.44202799412035498 0 0.38063319215661412 0.44801346467292091 0 0.38063319215661412 0.44801346467292091 0 0.37569790257162938 0.46642536186925299 0 0.3929751694025862 0.47016235963401137 0 0.37793995942716357 0.48279771142300432 0 0.38800995822630269 0.5 0 0.3929751694025862 0.47016235963401137 0 0.37569790257162938 0.46642536186925299 0 0.37793995942716357 0.48279771142300432 0 0.3929751694025862 0.47016235963401137 0 0.36362509871977372 0.49999999999999922 0 0.37793995942716357 0.48279771142300432 0 0.38800995822630269 0.5 0 0.41239481773283182 0.5 0 0.41353804208695061 0.478017538625224 0 0.38800995822630269 0.5 0 0.41353804208695061 0.478017538625224 0 0.38800995822630269 0.5 0 0.3929751694025862 0.47016235963401137 0 0.33671747624544202 0.081579418240846829 0 0.34078607097792551 0.10239360909650271 0 0.34852742361882671 0.090134734719908516 0 0.33671747624544202 0.081579418240846829 0 0.34076091935430458 0.062662466209798817 0 0.32510704769786869 0.0645103973580817 0 0.32510704769786869 0.0645103973580817 0 0.31058471520523218 0.077404247370297552 0 0.30937532149939878 0.063447431402202825 0 0.33671747624544202 0.081579418240846829 0 0.32510704769786869 0.0645103973580817 0 0.31058471520523218 0.077404247370297552 0 0.33671747624544202 0.081579418240846829 0 0.31820998329657457 0.099314332099410665 0 0.31058471520523218 0.077404247370297552 0 0.31820998329657457 0.099314332099410665 0 0.3128697970081516 0.11703297440491391 0 0.32702672242749597 0.1148714895295436 0 0.32702672242749597 0.1148714895295436 0 0.33394311007430899 0.12730901417483911 0 0.31609128969904848 0.13063954066662409 0 0.3128697970081516 0.11703297440491391 0 0.32702672242749597 0.1148714895295436 0 0.31609128969904848 0.13063954066662409 0 0.32702672242749597 0.1148714895295436 0 0.34052908650430419 0.1178116156624293 0 0.33394311007430899 0.12730901417483911 0 0.32702672242749597 0.1148714895295436 0 0.34052908650430419 0.1178116156624293 0 0.34078607097792551 0.10239360909650271 0 0.34052908650430419 0.1178116156624293 0 0.33394311007430899 0.12730901417483911 0 0.34641119958987587 0.1283189572647547 0 0.33671747624544202 0.081579418240846829 0 0.31820998329657457 0.099314332099410665 0 0.34078607097792551 0.10239360909650271 0 0.31820998329657457 0.099314332099410665 0 0.32702672242749597 0.1148714895295436 0 0.34078607097792551 0.10239360909650271 0 0.34078607097792551 0.10239360909650271 0 0.35896044840752139 0.1005942503035199 0 0.34852742361882671 0.090134734719908516 0 0.34078607097792551 0.10239360909650271 0 0.35896044840752139 0.1005942503035199 0 0.35447832945191432 0.1161650082465065 0 0.34052908650430419 0.1178116156624293 0 0.35447832945191432 0.1161650082465065 0 0.34641119958987587 0.1283189572647547 0 0.34052908650430419 0.1178116156624293 0 0.34078607097792551 0.10239360909650271 0 0.35447832945191432 0.1161650082465065 0 0.35447832945191432 0.1161650082465065 0 0.3712307280555005 0.1112337656249484 0 0.36512180468911293 0.1258084677206398 0 0.3712307280555005 0.1112337656249484 0 0.36512180468911293 0.1258084677206398 0 0.37445057696629658 0.12828368227525569 0 0.35896044840752139 0.1005942503035199 0 0.35447832945191432 0.1161650082465065 0 0.3712307280555005 0.1112337656249484 0 0.35896044840752139 0.1005942503035199 0 0.3712307280555005 0.1112337656249484 0 0.37311263035399722 0.089064464589406617 0 0.35896044840752139 0.1005942503035199 0 0.37311263035399722 0.089064464589406617 0 0.35708064607169931 0.07809600359738976 0 0.35896044840752139 0.1005942503035199 0 0.35708064607169931 0.07809600359738976 0 0.33671747624544202 0.081579418240846829 0 0.34852742361882671 0.090134734719908516 0 0.35708064607169931 0.07809600359738976 0 0.35896044840752139 0.1005942503035199 0 0.34852742361882671 0.090134734719908516 0 0.35708064607169931 0.07809600359738976 0 0.34076091935430458 0.062662466209798817 0 0.35708064607169931 0.07809600359738976 0 0.35520084373587518 0.055597756891259842 0 0.35708064607169931 0.07809600359738976 0 0.35520084373587518 0.055597756891259842 0 0.33671747624544202 0.081579418240846829 0 0.34076091935430458 0.062662466209798817 0 0.35708064607169931 0.07809600359738976 0 0.37311263035399722 0.089064464589406617 0 0.35708064607169931 0.07809600359738976 0 0.37321242428311269 0.067167174221926695 0 0.35708064607169931 0.07809600359738976 0 0.37321242428311269 0.067167174221926695 0 0.35520084373587518 0.055597756891259842 0 0.37321242428311269 0.067167174221926695 0 0.35520084373587518 0.055597756891259842 0 0.36724877347032558 0.047154144814237207 0 0.37296313859008062 0.053296886614944479 0 0.35520084373587518 0.055597756891259842 0 0.37321242428311269 0.067167174221926695 0 0.37296313859008062 0.053296886614944479 0 0.35520084373587518 0.055597756891259842 0 0.36724877347032558 0.047154144814237207 0 0.36099460776396919 0.0432697765555645 0 0.35520084373587518 0.055597756891259842 0 0.36724877347032558 0.047154144814237207 0 0.37296313859008062 0.053296886614944479 0 0.37275415332123107 0.047443218013558247 0 0.37296313859008062 0.053296886614944479 0 0.37275415332123107 0.047443218013558247 0 0.37761312278541309 0.046675485298132258 0 0.37040638166551831 0.033768840663255639 0 0.36470424767515691 0.025889101426021369 0 0.38039914879997222 0.038296304769691633 0 0.37275415332123107 0.047443218013558247 0 0.37389897424011698 0.042538475553108607 0 0.37761312278541309 0.046675485298132258 0 0.36470424767515691 0.025889101426021369 0 0.38039914879997222 0.038296304769691633 0 0.36724877347032558 0.047154144814237207 0 0.37275415332123107 0.047443218013558247 0 0.37389897424011698 0.042538475553108607 0 0.37389897424011698 0.042538475553108607 0 0.37390782930614641 0.03714425036146534 0 0.3762021228740452 0.038772162621487347 0 0.37389897424011698 0.042538475553108607 0 0.36794593801052922 0.039716418035575622 0 0.37390782930614641 0.03714425036146534 0 0.36724877347032558 0.047154144814237207 0 0.37389897424011698 0.042538475553108607 0 0.36794593801052922 0.039716418035575622 0 0.37390782930614641 0.03714425036146534 0 0.37040638166551831 0.033768840663255639 0 0.38039914879997222 0.038296304769691633 0 0.36794593801052922 0.039716418035575622 0 0.37390782930614641 0.03714425036146534 0 0.37040638166551831 0.033768840663255639 0 0.36794593801052922 0.039716418035575622 0 0.37040638166551831 0.033768840663255639 0 0.36168406075690962 0.034077674649904813 0 0.36794593801052922 0.039716418035575622 0 0.36168406075690962 0.034077674649904813 0 0.36099460776396919 0.0432697765555645 0 0.36724877347032558 0.047154144814237207 0 0.36794593801052922 0.039716418035575622 0 0.36099460776396919 0.0432697765555645 0 0.36099460776396919 0.0432697765555645 0 0.35382342112582588 0.039112197155009992 0 0.35520084373587518 0.055597756891259842 0 0.36168406075690962 0.034077674649904813 0 0.35382342112582588 0.039112197155009992 0 0.35244599851577479 0.022626637418760288 0 0.35382342112582588 0.039112197155009992 0 0.35244599851577479 0.022626637418760288 0 0.34108673984045212 0.046531814133696711 0 0.36168406075690962 0.034077674649904813 0 0.36099460776396919 0.0432697765555645 0 0.35382342112582588 0.039112197155009992 0 0.35520084373587518 0.055597756891259842 0 0.34108673984045212 0.046531814133696711 0 0.34076091935430458 0.062662466209798817 0 0.35520084373587518 0.055597756891259842 0 0.34108673984045212 0.046531814133696711 0 0.35382342112582588 0.039112197155009992 0 0.35520084373587518 0.055597756891259842 0 0.35382342112582588 0.039112197155009992 0 0.35520084373587518 0.055597756891259842 0 0.34108673984045212 0.046531814133696711 0 0.36469363855011189 0.002720994333529239 0 0.36486541801191058 0.01539183789018787 0 0.38277725238075322 -0.0001380740817545148 0 0.36469363855011189 0.002720994333529239 0 0.36486541801191058 0.01539183789018787 0 0.3521975415141162 -0.0032869303745691161 0 0.36486541801191058 0.01539183789018787 0 0.38039914879997222 0.038296304769691633 0 0.36486541801191058 0.01539183789018787 0 0.36470424767515691 0.025889101426021369 0 0.38039914879997222 0.038296304769691633 0 0.36486541801191058 0.01539183789018787 0 0.37648626822911352 0.026273011910785869 0 0.38039914879997222 0.038296304769691633 0 0.36486541801191058 0.01539183789018787 0 0.36470424767515691 0.025889101426021369 0 0.35244599851577479 0.022626637418760288 0 0.36486541801191058 0.01539183789018787 0 0.37320023128233287 0.019636678600888361 0 0.37648626822911352 0.026273011910785869 0 0.36486541801191058 0.01539183789018787 0 0.37320023128233287 0.019636678600888361 0 0.37656511219875299 0.01506684164695265 0 0.37040638166551831 0.033768840663255639 0 0.36168406075690962 0.034077674649904813 0 0.36470424767515691 0.025889101426021369 0 0.36168406075690962 0.034077674649904813 0 0.36470424767515691 0.025889101426021369 0 0.35244599851577479 0.022626637418760288 0 0.35382342112582588 0.039112197155009992 0 0.35244599851577479 0.022626637418760288 0 0.36486541801191058 0.01539183789018787 0 0.35244599851577479 0.022626637418760288 0 0.36486541801191058 0.01539183789018787 0 0.3521975415141162 -0.0032869303745691161 0 0.35042692257865771 -0.0015384929707599889 0 0.35244599851577479 0.022626637418760288 0 0.35042692257865771 -0.0015384929707599889 0 0.35244599851577479 0.022626637418760288 0 0.34609985421586448 0.0082457889522802794 0 0.35042692257865771 -0.0015384929707599889 0 0.36486541801191058 0.01539183789018787 0 0.3521975415141162 -0.0032869303745691161 0 0.35244599851577479 0.022626637418760288 0 0.34609985421586448 0.0082457889522802794 0 0.33380843190639881 0.01493904347510412 0 0.36486541801191058 0.01539183789018787 0 0.35244599851577479 0.022626637418760288 0 0.35042692257865771 -0.0015384929707599889 0 0.34609985421586448 0.0082457889522802794 0 0.35042692257865771 -0.0015384929707599889 0 0.34771806386262583 -0.003044032113984102 0 0.33380843190639881 0.01493904347510412 0 0.34771806386262583 -0.003044032113984102 0 0.31910864726975802 -0.0014926955369813689 0 0.33380843190639881 0.01493904347510412 0 0.34771806386262583 -0.003044032113984102 0 0.34609985421586448 0.0082457889522802794 0 0.33380843190639881 0.01493904347510412 0 0.34771806386262583 -0.003044032113984102 0 0.35244599851577479 0.022626637418760288 0 0.33380843190639881 0.01493904347510412 0 0.32697263594502868 0.03746587137613399 0 0.35244599851577479 0.022626637418760288 0 0.32697263594502868 0.03746587137613399 0 0.31723828299267881 0.015955053829907181 0 0.31989879995017112 0.032922119064191749 0 0.30394672798553701 0.022675590317665511 0 0.33380843190639881 0.01493904347510412 0 0.31989879995017112 0.032922119064191749 0 0.33380843190639881 0.01493904347510412 0 0.31723828299267881 0.015955053829907181 0 0.31989879995017112 0.032922119064191749 0 0.33380843190639881 0.01493904347510412 0 0.32697263594502868 0.03746587137613399 0 0.31989879995017112 0.032922119064191749 0 0.33380843190639881 0.01493904347510412 0 0.31723828299267881 0.015955053829907181 0 0.31910864726975802 -0.0014926955369813689 0 0.31723828299267881 0.015955053829907181 0 0.30510955613601221 0.010063592923766979 0 0.31910864726975802 -0.0014926955369813689 0 0.34076091935430458 0.062662466209798817 0 0.32937276253448888 0.049659407037518283 0 0.34108673984045212 0.046531814133696711 0 0.34076091935430458 0.062662466209798817 0 0.32510704769786869 0.0645103973580817 0 0.32937276253448888 0.049659407037518283 0 0.35244599851577479 0.022626637418760288 0 0.34108673984045212 0.046531814133696711 0 0.32697263594502868 0.03746587137613399 0 0.32937276253448888 0.049659407037518283 0 0.34108673984045212 0.046531814133696711 0 0.32697263594502868 0.03746587137613399 0 0.34108673984045212 0.046531814133696711 0 0.32697263594502868 0.03746587137613399 0 0.31989879995017112 0.032922119064191749 0 0.30696174854162661 0.049647793338815603 0 0.32937276253448888 0.049659407037518283 0 0.32064807657993349 0.041150175552131033 0 0.32697263594502868 0.03746587137613399 0 0.32064807657993349 0.041150175552131033 0 0.31989879995017112 0.032922119064191749 0 0.30696174854162661 0.049647793338815603 0 0.32064807657993349 0.041150175552131033 0 0.32697263594502868 0.03746587137613399 0 0.32064807657993349 0.041150175552131033 0 0.32697263594502868 0.03746587137613399 0 0.31989879995017112 0.032922119064191749 0 0.32697263594502868 0.03746587137613399 0 0.31989879995017112 0.032922119064191749 0 0.32510704769786869 0.0645103973580817 0 0.3182929913706633 0.053683040937749893 0 0.30937532149939878 0.063447431402202825 0 0.32064807657993349 0.041150175552131033 0 0.3182929913706633 0.053683040937749893 0 0.30696174854162661 0.049647793338815603 0 0.32937276253448888 0.049659407037518283 0 0.32064807657993349 0.041150175552131033 0 0.3182929913706633 0.053683040937749893 0 0.32510704769786869 0.0645103973580817 0 0.32937276253448888 0.049659407037518283 0 0.3182929913706633 0.053683040937749893 0 0.30696174854162661 0.049647793338815603 0 0.2908513842435354 0.051485220899911588 0 0.2940246971330821 0.066373467613439485 0 0.30696174854162661 0.049647793338815603 0 0.2940246971330821 0.066373467613439485 0 0.30937532149939878 0.063447431402202825 0 0.30696174854162661 0.049647793338815603 0 0.2940246971330821 0.066373467613439485 0 0.3182929913706633 0.053683040937749893 0 0.30696174854162661 0.049647793338815603 0 0.30937532149939878 0.063447431402202825 0 0.31989879995017112 0.032922119064191749 0 0.30696174854162661 0.049647793338815603 0 0.30647191177661443 0.035641702878082493 0 0.30696174854162661 0.049647793338815603 0 0.29508037062912312 0.037321308791657147 0 0.2908513842435354 0.051485220899911588 0 0.30647191177661443 0.035641702878082493 0 0.29508037062912312 0.037321308791657147 0 0.30394672798553701 0.022675590317665511 0 0.30696174854162661 0.049647793338815603 0 0.30647191177661443 0.035641702878082493 0 0.29508037062912312 0.037321308791657147 0 0.29508037062912312 0.037321308791657147 0 0.28488374304438568 0.021971985532357321 0 0.27926825541188122 0.043885330024692533 0 0.28488374304438568 0.021971985532357321 0 0.27926825541188122 0.043885330024692533 0 0.29508037062912312 0.037321308791657147 0 0.2908513842435354 0.051485220899911588 0 0.27926825541188122 0.043885330024692533 0 0.2908513842435354 0.051485220899911588 0 0.27892184950196408 0.060198204730953157 0 0.27926825541188122 0.043885330024692533 0 0.2908513842435354 0.051485220899911588 0 0.27892184950196408 0.060198204730953157 0 0.2940246971330821 0.066373467613439485 0 0.30510955613601221 0.010063592923766979 0 0.29049923067689021 5.8641040022257979e-05 0 0.31910864726975802 -0.0014926955369813689 0 0.30510955613601221 0.010063592923766979 0 0.29544617884984459 0.01341274103211507 0 0.29049923067689021 5.8641040022257979e-05 0 0.30510955613601221 0.010063592923766979 0 0.30394672798553701 0.022675590317665511 0 0.29544617884984459 0.01341274103211507 0 0.31989879995017112 0.032922119064191749 0 0.30647191177661443 0.035641702878082493 0 0.30394672798553701 0.022675590317665511 0 0.31989879995017112 0.032922119064191749 0 0.30394672798553701 0.022675590317665511 0 0.31723828299267881 0.015955053829907181 0 0.30510955613601221 0.010063592923766979 0 0.30394672798553701 0.022675590317665511 0 0.29508037062912312 0.037321308791657147 0 0.30394672798553701 0.022675590317665511 0 0.28488374304438568 0.021971985532357321 0 0.30394672798553701 0.022675590317665511 0 0.28488374304438568 0.021971985532357321 0 0.29544617884984459 0.01341274103211507 0 0.28488374304438568 0.021971985532357321 0 0.29544617884984459 0.01341274103211507 0 0.29049923067689021 5.8641040022257979e-05 0 0.28488374304438568 0.021971985532357321 0 0.29049923067689021 5.8641040022257979e-05 0 0.28488374304438568 0.021971985532357321 0 0.29049923067689021 5.8641040022257979e-05 0 0.27911728463943741 0.010750521888911201 0 0.29049923067689021 5.8641040022257979e-05 0 0.26737833607943229 0.001312364245655997 0 0.27911728463943741 0.010750521888911201 0 0.26737833607943229 0.001312364245655997 0 0.27911728463943741 0.010750521888911201 0 0.27370782875703981 0.0196590967376091 0 0.29049923067689021 5.8641040022257979e-05 0 0.26737833607943229 0.001312364245655997 0 0.26737833607943229 0.001312364245655997 0 0.26501813352041731 0.030100526528733379 0 0.26737833607943229 0.001312364245655997 0 0.27370782875703981 0.0196590967376091 0 0.26501813352041731 0.030100526528733379 0 0.28488374304438568 0.021971985532357321 0 0.27911728463943741 0.010750521888911201 0 0.27370782875703981 0.0196590967376091 0 0.28488374304438568 0.021971985532357321 0 0.27370782875703981 0.0196590967376091 0 0.2735886708557369 0.034572652196835113 0 0.27370782875703981 0.0196590967376091 0 0.26501813352041731 0.030100526528733379 0 0.2735886708557369 0.034572652196835113 0 0.24691436097432229 0.032337925503222127 0 0.24804404622900281 0.01495656910991232 0 0.26501813352041731 0.030100526528733379 0 0.24804404622900281 0.01495656910991232 0 0.26501813352041731 0.030100526528733379 0 0.25870713869825979 0.001782557184409719 0 0.26737833607943229 0.001312364245655997 0 0.26501813352041731 0.030100526528733379 0 0.25870713869825979 0.001782557184409719 0 0.24802825784114241 0.0021228002410254841 0 0.24804404622900281 0.01495656910991232 0 0.25870713869825979 0.001782557184409719 0 0.26737833607943229 0.001312364245655997 0 0.25870713869825979 0.001782557184409719 0 0.27892184950196408 0.060198204730953157 0 0.27926825541188122 0.043885330024692533 0 0.26265793096139989 0.058888688811810773 0 0.2735886708557369 0.034572652196835113 0 0.26265793096139989 0.058888688811810773 0 0.26501813352041731 0.030100526528733379 0 0.2735886708557369 0.034572652196835113 0 0.26265793096139989 0.058888688811810773 0 0.28488374304438568 0.021971985532357321 0 0.27926825541188122 0.043885330024692533 0 0.2735886708557369 0.034572652196835113 0 0.27926825541188122 0.043885330024692533 0 0.2735886708557369 0.034572652196835113 0 0.26265793096139989 0.058888688811810773 0 0.26501813352041731 0.030100526528733379 0 0.25144808196574109 0.045684777086037229 0 0.26265793096139989 0.058888688811810773 0 0.26501813352041731 0.030100526528733379 0 0.26265793096139989 0.058888688811810773 0 0.24691436097432229 0.032337925503222127 0 0.26501813352041731 0.030100526528733379 0 0.25144808196574109 0.045684777086037229 0 0.24761487441592961 0.060066060549012402 0 0.25144808196574109 0.045684777086037229 0 0.26265793096139989 0.058888688811810773 0 0.24761487441592961 0.060066060549012402 0 0.26265793096139989 0.058888688811810773 0 0.2558834494063969 0.073958898434513837 0 0.26265793096139989 0.058888688811810773 0 0.26102733615588353 0.07877758677941761 0 0.26265793096139989 0.058888688811810773 0 0.2558834494063969 0.073958898434513837 0 0.26102733615588353 0.07877758677941761 0 0.26265793096139989 0.058888688811810773 0 0.2558834494063969 0.073958898434513837 0 0.2519770745650633 0.089509473518564947 0 0.26102733615588353 0.07877758677941761 0 0.2593967413503655 0.098666484747024441 0 0.26102733615588353 0.07877758677941761 0 0.2593967413503655 0.098666484747024441 0 0.26102733615588353 0.07877758677941761 0 0.26897235822091681 0.089790363750643573 0 0.2593967413503655 0.098666484747024441 0 0.24910896785139339 0.089029108057216727 0 0.2519770745650633 0.089509473518564947 0 0.2593967413503655 0.098666484747024441 0 0.24910896785139339 0.089029108057216727 0 0.2519770745650633 0.089509473518564947 0 0.2558834494063969 0.073958898434513837 0 0.2519770745650633 0.089509473518564947 0 0.26102733615588353 0.07877758677941761 0 0.24910896785139339 0.089029108057216727 0 0.2558834494063969 0.073958898434513837 0 0.2519770745650633 0.089509473518564947 0 0.24910896785139339 0.089029108057216727 0 0.2558834494063969 0.073958898434513837 0 0.26897235822091681 0.089790363750643573 0 0.27463686109459129 0.073976728069882453 0 0.28274730123123443 0.090225645667881993 0 0.26102733615588353 0.07877758677941761 0 0.26897235822091681 0.089790363750643573 0 0.27463686109459129 0.073976728069882453 0 0.27892184950196408 0.060198204730953157 0 0.26265793096139989 0.058888688811810773 0 0.27463686109459129 0.073976728069882453 0 0.26265793096139989 0.058888688811810773 0 0.26102733615588353 0.07877758677941761 0 0.27463686109459129 0.073976728069882453 0 0.27463686109459129 0.073976728069882453 0 0.2940246971330821 0.066373467613439485 0 0.28274730123123443 0.090225645667881993 0 0.27892184950196408 0.060198204730953157 0 0.27463686109459129 0.073976728069882453 0 0.2940246971330821 0.066373467613439485 0 0.2940246971330821 0.066373467613439485 0 0.28274730123123443 0.090225645667881993 0 0.29964783967707881 0.092173639472570082 0 0.2940246971330821 0.066373467613439485 0 0.29964783967707881 0.092173639472570082 0 0.31058471520523218 0.077404247370297552 0 0.31820998329657457 0.099314332099410665 0 0.29964783967707881 0.092173639472570082 0 0.31058471520523218 0.077404247370297552 0 0.2940246971330821 0.066373467613439485 0 0.31058471520523218 0.077404247370297552 0 0.30937532149939878 0.063447431402202825 0 0.3128697970081516 0.11703297440491391 0 0.29495954827896143 0.12593939907236881 0 0.31609128969904848 0.13063954066662409 0 0.3128697970081516 0.11703297440491391 0 0.30277367242458658 0.1083794987921982 0 0.29495954827896143 0.12593939907236881 0 0.31820998329657457 0.099314332099410665 0 0.29964783967707881 0.092173639472570082 0 0.30277367242458658 0.1083794987921982 0 0.29964783967707881 0.092173639472570082 0 0.30277367242458658 0.1083794987921982 0 0.28890487902683443 0.10514357842532179 0 0.31820998329657457 0.099314332099410665 0 0.3128697970081516 0.11703297440491391 0 0.30277367242458658 0.1083794987921982 0 0.28274730123123443 0.090225645667881993 0 0.29964783967707881 0.092173639472570082 0 0.28890487902683443 0.10514357842532179 0 0.28274730123123443 0.090225645667881993 0 0.28890487902683443 0.10514357842532179 0 0.27458814797005399 0.11289748507538661 0 0.30277367242458658 0.1083794987921982 0 0.28890487902683443 0.10514357842532179 0 0.29495954827896143 0.12593939907236881 0 0.28890487902683443 0.10514357842532179 0 0.27458814797005399 0.11289748507538661 0 0.29495954827896143 0.12593939907236881 0 0.27458814797005399 0.11289748507538661 0 0.25707021422622101 0.12704389674075681 0 0.27317661620020239 0.13238271373580651 0 0.27458814797005399 0.11289748507538661 0 0.27317661620020239 0.13238271373580651 0 0.29495954827896143 0.12593939907236881 0 0.26897235822091681 0.089790363750643573 0 0.27458814797005399 0.11289748507538661 0 0.2593967413503655 0.098666484747024441 0 0.26897235822091681 0.089790363750643573 0 0.28274730123123443 0.090225645667881993 0 0.27458814797005399 0.11289748507538661 0 0.27458814797005399 0.11289748507538661 0 0.2593967413503655 0.098666484747024441 0 0.2593967413503655 0.098666484747024441 0 0.25016541425903988 0.098941505616830655 0 0.25707021422622101 0.12704389674075681 0 0.24910896785139339 0.089029108057216727 0 0.2593967413503655 0.098666484747024441 0 0.24910896785139339 0.089029108057216727 0 0.2593967413503655 0.098666484747024441 0 0.25016541425903988 0.098941505616830655 0 0.2593967413503655 0.098666484747024441 0 0.25707021422622101 0.12704389674075681 0 0.27458814797005399 0.11289748507538661 0 0.2593967413503655 0.098666484747024441 0 0.25707021422622101 0.12704389674075681 0 0.25707021422622101 0.12704389674075681 0 0.27317661620020239 0.13238271373580651 0 0.25474368710207562 0.15542130873448909 0 0.25474368710207562 0.15542130873448909 0 0.27913824031869627 0.16561334454642371 0 0.28371042577150052 0.14623406053463181 0 0.27317661620020239 0.13238271373580651 0 0.25474368710207562 0.15542130873448909 0 0.28371042577150052 0.14623406053463181 0 0.25707021422622101 0.12704389674075681 0 0.25474368710207562 0.15542130873448909 0 0.25474368710207562 0.15542130873448909 0 0.25241715997793018 0.18379872072822129 0 0.25474368710207562 0.15542130873448909 0 0.26424123096860458 0.17250832479139319 0 0.25241715997793018 0.18379872072822129 0 0.26424123096860458 0.17250832479139319 0 0.25241715997793018 0.18379872072822129 0 0.27066583647571663 0.1851999251564386 0 0.2434233072438477 0.19033244946959679 0 0.25241715997793018 0.18379872072822129 0 0.27066583647571663 0.1851999251564386 0 0.26424123096860458 0.17250832479139319 0 0.27066583647571663 0.1851999251564386 0 0.27913824031869627 0.16561334454642371 0 0.25474368710207562 0.15542130873448909 0 0.26424123096860458 0.17250832479139319 0 0.27913824031869627 0.16561334454642371 0 0.27913824031869627 0.16561334454642371 0 0.29516862550547152 0.159385800263113 0 0.28371042577150052 0.14623406053463181 0 0.27913824031869627 0.16561334454642371 0 0.29516862550547152 0.159385800263113 0 0.2979083657075855 0.18006740084328041 0 0.27066583647571663 0.1851999251564386 0 0.27913824031869627 0.16561334454642371 0 0.2979083657075855 0.18006740084328041 0 0.27066583647571663 0.1851999251564386 0 0.2979083657075855 0.18006740084328041 0 0.2979083657075855 0.18006740084328041 0 0.32515089493945443 0.17493487653012221 0 0.2979083657075855 0.18006740084328041 0 0.30970606128196781 0.16498498018142141 0 0.32515089493945443 0.17493487653012221 0 0.29516862550547152 0.159385800263113 0 0.2979083657075855 0.18006740084328041 0 0.30970606128196781 0.16498498018142141 0 0.29516862550547152 0.159385800263113 0 0.30970606128196781 0.16498498018142141 0 0.30705664829421059 0.1522700755854601 0 0.30970606128196781 0.16498498018142141 0 0.30705664829421059 0.1522700755854601 0 0.31664222068461573 0.15483846479659569 0 0.29516862550547152 0.159385800263113 0 0.30705664829421059 0.1522700755854601 0 0.30258062748812831 0.13918972557671311 0 0.30705664829421059 0.1522700755854601 0 0.30258062748812831 0.13918972557671311 0 0.31669380564756072 0.14455180753421501 0 0.30258062748812831 0.13918972557671311 0 0.29495954827896143 0.12593939907236881 0 0.31609128969904848 0.13063954066662409 0 0.30258062748812831 0.13918972557671311 0 0.31609128969904848 0.13063954066662409 0 0.31669380564756072 0.14455180753421501 0 0.30258062748812831 0.13918972557671311 0 0.29495954827896143 0.12593939907236881 0 0.28371042577150052 0.14623406053463181 0 0.27317661620020239 0.13238271373580651 0 0.29495954827896143 0.12593939907236881 0 0.28371042577150052 0.14623406053463181 0 0.29516862550547152 0.159385800263113 0 0.30258062748812831 0.13918972557671311 0 0.28371042577150052 0.14623406053463181 0 0.27691279725061613 0.24025531578806869 0 0.25870383077257192 0.24455980595657351 0 0.27691279725061613 0.24025531578806869 0 0.26784178386543572 0.2470625135350395 0 0.25870383077257192 0.24455980595657351 0 0.28181747201641422 0.25603772552514881 0 0.27691279725061613 0.24025531578806869 0 0.26784178386543572 0.2470625135350395 0 0.27691279725061613 0.24025531578806869 0 0.25491916013298938 0.23034086136502999 0 0.27691279725061613 0.24025531578806869 0 0.25870383077257192 0.24455980595657351 0 0.25491916013298938 0.23034086136502999 0 0.2470679942702308 0.23994729708866841 0 0.25870383077257192 0.24455980595657351 0 0.25491916013298938 0.23034086136502999 0 0.25491916013298938 0.23034086136502999 0 0.26973354605324967 0.2216703449744136 0 0.27113549218712829 0.22949255042743641 0 0.249804190637087 0.21660705979732231 0 0.25491916013298938 0.23034086136502999 0 0.2591011344794143 0.21873415652245859 0 0.25491916013298938 0.23034086136502999 0 0.26973354605324967 0.2216703449744136 0 0.2591011344794143 0.21873415652245859 0 0.27691279725061613 0.24025531578806869 0 0.25491916013298938 0.23034086136502999 0 0.27113549218712829 0.22949255042743641 0 0.27691279725061613 0.24025531578806869 0 0.27113549218712829 0.22949255042743641 0 0.28297646531165821 0.2257036795822335 0 0.26973354605324967 0.2216703449744136 0 0.27835116145134081 0.21227276428355979 0 0.28297646531165821 0.2257036795822335 0 0.26973354605324967 0.2216703449744136 0 0.27113549218712829 0.22949255042743641 0 0.28297646531165821 0.2257036795822335 0 0.27835116145134081 0.21227276428355979 0 0.26969029766026759 0.20196663977456081 0 0.28688382928182199 0.20031264687088909 0 0.27835116145134081 0.21227276428355979 0 0.26753767718393151 0.2122954818523424 0 0.26969029766026759 0.20196663977456081 0 0.26973354605324967 0.2216703449744136 0 0.27835116145134081 0.21227276428355979 0 0.26753767718393151 0.2122954818523424 0 0.26973354605324967 0.2216703449744136 0 0.26753767718393151 0.2122954818523424 0 0.2591011344794143 0.21873415652245859 0 0.26753767718393151 0.2122954818523424 0 0.2591011344794143 0.21873415652245859 0 0.25716787185152928 0.20803893422380329 0 0.249804190637087 0.21660705979732231 0 0.2591011344794143 0.21873415652245859 0 0.25716787185152928 0.20803893422380329 0 0.24490726370613899 0.20549493993332879 0 0.249804190637087 0.21660705979732231 0 0.25716787185152928 0.20803893422380329 0 0.24490726370613899 0.20549493993332879 0 0.25716787185152928 0.20803893422380329 0 0.25716369064412092 0.19778686811751789 0 0.26753767718393151 0.2122954818523424 0 0.25716787185152928 0.20803893422380329 0 0.26969029766026759 0.20196663977456081 0 0.2434233072438477 0.19033244946959679 0 0.27066583647571663 0.1851999251564386 0 0.25716369064412092 0.19778686811751789 0 0.2434233072438477 0.19033244946959679 0 0.27066583647571663 0.1851999251564386 0 0.25716787185152928 0.20803893422380329 0 0.25716369064412092 0.19778686811751789 0 0.26969029766026759 0.20196663977456081 0 0.27066583647571663 0.1851999251564386 0 0.26969029766026759 0.20196663977456081 0 0.28688382928182199 0.20031264687088909 0 0.27066583647571663 0.1851999251564386 0 0.25716369064412092 0.19778686811751789 0 0.26969029766026759 0.20196663977456081 0 0.27066583647571663 0.1851999251564386 0 0.2979083657075855 0.18006740084328041 0 0.28688382928182199 0.20031264687088909 0 0.28688382928182199 0.20031264687088909 0 0.30466926492919483 0.19775119869538679 0 0.29893553650352878 0.21095318999491799 0 0.2979083657075855 0.18006740084328041 0 0.28688382928182199 0.20031264687088909 0 0.30466926492919483 0.19775119869538679 0 0.2979083657075855 0.18006740084328041 0 0.30466926492919483 0.19775119869538679 0 0.31564694693076412 0.18492540584472689 0 0.30466926492919483 0.19775119869538679 0 0.31074625075179008 0.21106424976717161 0 0.31789466039967867 0.19918429885133471 0 0.30466926492919483 0.19775119869538679 0 0.31074625075179008 0.21106424976717161 0 0.29893553650352878 0.21095318999491799 0 0.31074625075179008 0.21106424976717161 0 0.30367734047786871 0.2204659622025669 0 0.31671035944599851 0.22416124757468811 0 0.31074625075179008 0.21106424976717161 0 0.29893553650352878 0.21095318999491799 0 0.30367734047786871 0.2204659622025669 0 0.29893553650352878 0.21095318999491799 0 0.29426113453102798 0.22272758817929 0 0.30367734047786871 0.2204659622025669 0 0.29893553650352878 0.21095318999491799 0 0.28857994146730809 0.21426236908872531 0 0.29426113453102798 0.22272758817929 0 0.28688382928182199 0.20031264687088909 0 0.29893553650352878 0.21095318999491799 0 0.28857994146730809 0.21426236908872531 0 0.27835116145134081 0.21227276428355979 0 0.28688382928182199 0.20031264687088909 0 0.28857994146730809 0.21426236908872531 0 0.27835116145134081 0.21227276428355979 0 0.28857994146730809 0.21426236908872531 0 0.28297646531165821 0.2257036795822335 0 0.28297646531165821 0.2257036795822335 0 0.28797095456257499 0.23052752976158969 0 0.29426113453102798 0.22272758817929 0 0.28857994146730809 0.21426236908872531 0 0.28297646531165821 0.2257036795822335 0 0.29426113453102798 0.22272758817929 0 0.27691279725061613 0.24025531578806869 0 0.28297646531165821 0.2257036795822335 0 0.28797095456257499 0.23052752976158969 0 0.28797095456257499 0.23052752976158969 0 0.29426113453102798 0.22272758817929 0 0.2977334211569978 0.2334235354967667 0 0.30367734047786871 0.2204659622025669 0 0.2977334211569978 0.2334235354967667 0 0.31671035944599851 0.22416124757468811 0 0.2977334211569978 0.2334235354967667 0 0.31671035944599851 0.22416124757468811 0 0.30492591410018971 0.23363318343291481 0 0.2977334211569978 0.2334235354967667 0 0.31671035944599851 0.22416124757468811 0 0.29426113453102798 0.22272758817929 0 0.30367734047786871 0.2204659622025669 0 0.2977334211569978 0.2334235354967667 0 0.29869391558108321 0.25007396942026722 0 0.30492591410018971 0.23363318343291481 0 0.31269983928529449 0.2467602182311732 0 0.27691279725061613 0.24025531578806869 0 0.28797095456257499 0.23052752976158969 0 0.2977334211569978 0.2334235354967667 0 0.27691279725061613 0.24025531578806869 0 0.30492591410018971 0.23363318343291481 0 0.27691279725061613 0.24025531578806869 0 0.30492591410018971 0.23363318343291481 0 0.2977334211569978 0.2334235354967667 0 0.28181747201641422 0.25603772552514881 0 0.29869391558108321 0.25007396942026722 0 0.27691279725061613 0.24025531578806869 0 0.29869391558108321 0.25007396942026722 0 0.27691279725061613 0.24025531578806869 0 0.29869391558108321 0.25007396942026722 0 0.27691279725061613 0.24025531578806869 0 0.30492591410018971 0.23363318343291481 0 0.33826355553113502 0.24409768050765859 0 0.33293395318516089 0.22698957098562411 0 0.35147072372010862 0.2399284835336867 0 0.32670449354835551 0.2434410970190449 0 0.33293395318516089 0.22698957098562411 0 0.33826355553113502 0.24409768050765859 0 0.32670449354835551 0.2434410970190449 0 0.33293395318516089 0.22698957098562411 0 0.34009875516621119 0.25535308912150989 0 0.33826355553113502 0.24409768050765859 0 0.34704462329438002 0.2484556289787021 0 0.32982620303099153 0.25304545554162822 0 0.33826355553113502 0.24409768050765859 0 0.32670449354835551 0.2434410970190449 0 0.30492591410018971 0.23363318343291481 0 0.32670449354835551 0.2434410970190449 0 0.33293395318516089 0.22698957098562411 0 0.30492591410018971 0.23363318343291481 0 0.32670449354835551 0.2434410970190449 0 0.31269983928529449 0.2467602182311732 0 0.30492591410018971 0.23363318343291481 0 0.31671035944599851 0.22416124757468811 0 0.33293395318516089 0.22698957098562411 0 0.31671035944599851 0.22416124757468811 0 0.33568729773499928 0.2148989596526093 0 0.30492591410018971 0.23363318343291481 0 0.33293395318516089 0.22698957098562411 0 0.31671035944599851 0.22416124757468811 0 0.33293395318516089 0.22698957098562411 0 0.33568729773499928 0.2148989596526093 0 0.33293395318516089 0.22698957098562411 0 0.33568729773499928 0.2148989596526093 0 0.35707536792929317 0.2213053661693189 0 0.33568729773499928 0.2148989596526093 0 0.34070940967214308 0.20307718898618099 0 0.35466423602400021 0.20563667173053091 0 0.33568729773499928 0.2148989596526093 0 0.32234896603222901 0.20995777725603321 0 0.33029319640829091 0.2017970593988466 0 0.33568729773499928 0.2148989596526093 0 0.33029319640829091 0.2017970593988466 0 0.34070940967214308 0.20307718898618099 0 0.31671035944599851 0.22416124757468811 0 0.33568729773499928 0.2148989596526093 0 0.32234896603222901 0.20995777725603321 0 0.31074625075179008 0.21106424976717161 0 0.31671035944599851 0.22416124757468811 0 0.32234896603222901 0.20995777725603321 0 0.31074625075179008 0.21106424976717161 0 0.32234896603222901 0.20995777725603321 0 0.31789466039967867 0.19918429885133471 0 0.32234896603222901 0.20995777725603321 0 0.31789466039967867 0.19918429885133471 0 0.33029319640829091 0.2017970593988466 0 0.31789466039967867 0.19918429885133471 0 0.32616428185683799 0.18970185206592821 0 0.33029319640829091 0.2017970593988466 0 0.31789466039967867 0.19918429885133471 0 0.32616428185683799 0.18970185206592821 0 0.31564694693076412 0.18492540584472689 0 0.30466926492919483 0.19775119869538679 0 0.31789466039967867 0.19918429885133471 0 0.31564694693076412 0.18492540584472689 0 0.32616428185683799 0.18970185206592821 0 0.33029319640829091 0.2017970593988466 0 0.34219290852128209 0.18997606516273741 0 0.33029319640829091 0.2017970593988466 0 0.34070940967214308 0.20307718898618099 0 0.34219290852128209 0.18997606516273741 0 0.35640778377743187 0.18773461014757989 0 0.36623375545061237 0.18843582896135089 0 0.35466423602400021 0.20563667173053091 0 0.34219290852128209 0.18997606516273741 0 0.35640778377743187 0.18773461014757989 0 0.35466423602400021 0.20563667173053091 0 0.34219290852128209 0.18997606516273741 0 0.35466423602400021 0.20563667173053091 0 0.34070940967214308 0.20307718898618099 0 0.34219290852128209 0.18997606516273741 0 0.35466423602400021 0.20563667173053091 0 0.36623375545061237 0.18843582896135089 0 0.35466423602400021 0.20563667173053091 0 0.38125459295554132 0.1926584168561116 0 0.35466423602400021 0.20563667173053091 0 0.38125459295554132 0.1926584168561116 0 0.36952372101049102 0.20800097103330081 0 0.35466423602400021 0.20563667173053091 0 0.38125459295554132 0.1926584168561116 0 0.36952372101049102 0.20800097103330081 0 0.36588226367069437 0.21972347342852841 0 0.37629379139172808 0.21398532211803231 0 0.36952372101049102 0.20800097103330081 0 0.35466423602400021 0.20563667173053091 0 0.36588226367069437 0.21972347342852841 0 0.35466423602400021 0.20563667173053091 0 0.36588226367069437 0.21972347342852841 0 0.33568729773499928 0.2148989596526093 0 0.35466423602400021 0.20563667173053091 0 0.33568729773499928 0.2148989596526093 0 0.35466423602400021 0.20563667173053091 0 0.35707536792929317 0.2213053661693189 0 0.35466423602400021 0.20563667173053091 0 0.35707536792929317 0.2213053661693189 0 0.36588226367069437 0.21972347342852841 0 0.33293395318516089 0.22698957098562411 0 0.35119549033613179 0.23021877451464179 0 0.35147072372010862 0.2399284835336867 0 0.33293395318516089 0.22698957098562411 0 0.35119549033613179 0.23021877451464179 0 0.35707536792929317 0.2213053661693189 0 0.33293395318516089 0.22698957098562411 0 0.35707536792929317 0.2213053661693189 0 0.35119549033613179 0.23021877451464179 0 0.36329683874536239 0.23263019727780079 0 0.35147072372010862 0.2399284835336867 0 0.35119549033613179 0.23021877451464179 0 0.35707536792929317 0.2213053661693189 0 0.36329683874536239 0.23263019727780079 0 0.36588226367069437 0.21972347342852841 0 0.37710029131738992 0.23381027512652491 0 0.37629379139172808 0.21398532211803231 0 0.35707536792929317 0.2213053661693189 0 0.36588226367069437 0.21972347342852841 0 0.36329683874536239 0.23263019727780079 0 0.36588226367069437 0.21972347342852841 0 0.36329683874536239 0.23263019727780079 0 0.37710029131738992 0.23381027512652491 0 0.36588226367069437 0.21972347342852841 0 0.37710029131738992 0.23381027512652491 0 0.36329683874536239 0.23263019727780079 0 0.36510796554755648 0.24330238811117461 0 0.35147072372010862 0.2399284835336867 0 0.3743546098685348 0.25452028441578689 0 0.36510796554755648 0.24330238811117461 0 0.37710029131738992 0.23381027512652491 0 0.3743546098685348 0.25452028441578689 0 0.3569387515411846 0.25204543333116158 0 0.36510796554755648 0.24330238811117461 0 0.36329683874536239 0.23263019727780079 0 0.36510796554755648 0.24330238811117461 0 0.37710029131738992 0.23381027512652491 0 0.3569387515411846 0.25204543333116158 0 0.36510796554755648 0.24330238811117461 0 0.35147072372010862 0.2399284835336867 0 0.3569387515411846 0.25204543333116158 0 0.35147072372010862 0.2399284835336867 0 0.34704462329438002 0.2484556289787021 0 0.33826355553113502 0.24409768050765859 0 0.35147072372010862 0.2399284835336867 0 0.34704462329438002 0.2484556289787021 0 0.3417044714210995 0.14212945845946831 0 0.3274516160672476 0.13843129761362261 0 0.32678776442343149 0.1516676007648787 0 0.3417044714210995 0.14212945845946831 0 0.32678776442343149 0.1516676007648787 0 0.33835916693695389 0.15632170048512481 0 0.32678776442343149 0.1516676007648787 0 0.3291848321462722 0.15891468359537531 0 0.33835916693695389 0.15632170048512481 0 0.3417044714210995 0.14212945845946831 0 0.33835916693695389 0.15632170048512481 0 0.34614009435516402 0.1510865777660495 0 0.3417044714210995 0.14212945845946831 0 0.33394311007430899 0.12730901417483911 0 0.34641119958987587 0.1283189572647547 0 0.3417044714210995 0.14212945845946831 0 0.33394311007430899 0.12730901417483911 0 0.3274516160672476 0.13843129761362261 0 0.33394311007430899 0.12730901417483911 0 0.3274516160672476 0.13843129761362261 0 0.31609128969904848 0.13063954066662409 0 0.3274516160672476 0.13843129761362261 0 0.31609128969904848 0.13063954066662409 0 0.31669380564756072 0.14455180753421501 0 0.3274516160672476 0.13843129761362261 0 0.31669380564756072 0.14455180753421501 0 0.32678776442343149 0.1516676007648787 0 0.31669380564756072 0.14455180753421501 0 0.32678776442343149 0.1516676007648787 0 0.31664222068461573 0.15483846479659569 0 0.30705664829421059 0.1522700755854601 0 0.31669380564756072 0.14455180753421501 0 0.31664222068461573 0.15483846479659569 0 0.30970606128196781 0.16498498018142141 0 0.31664222068461573 0.15483846479659569 0 0.32274599198156129 0.1625585120521261 0 0.30970606128196781 0.16498498018142141 0 0.32274599198156129 0.1625585120521261 0 0.32515089493945443 0.17493487653012221 0 0.32274599198156129 0.1625585120521261 0 0.32515089493945443 0.17493487653012221 0 0.33260108133329302 0.16384290566503171 0 0.32678776442343149 0.1516676007648787 0 0.31664222068461573 0.15483846479659569 0 0.32274599198156129 0.1625585120521261 0 0.32678776442343149 0.1516676007648787 0 0.32274599198156129 0.1625585120521261 0 0.3291848321462722 0.15891468359537531 0 0.2979083657075855 0.18006740084328041 0 0.31564694693076412 0.18492540584472689 0 0.32515089493945443 0.17493487653012221 0 0.32515089493945443 0.17493487653012221 0 0.32940088089077563 0.1822534985978273 0 0.32967760452438089 0.17408203915935189 0 0.32515089493945443 0.17493487653012221 0 0.32967760452438089 0.17408203915935189 0 0.31564694693076412 0.18492540584472689 0 0.32515089493945443 0.17493487653012221 0 0.32377473811773799 0.18233924063540571 0 0.32616428185683799 0.18970185206592821 0 0.31564694693076412 0.18492540584472689 0 0.32377473811773799 0.18233924063540571 0 0.32515089493945443 0.17493487653012221 0 0.32377473811773799 0.18233924063540571 0 0.32940088089077563 0.1822534985978273 0 0.32616428185683799 0.18970185206592821 0 0.32377473811773799 0.18233924063540571 0 0.32940088089077563 0.1822534985978273 0 0.32967760452438089 0.17408203915935189 0 0.3523934241713233 0.1698023522169641 0 0.34219290852128209 0.18997606516273741 0 0.32967760452438089 0.17408203915935189 0 0.32616428185683799 0.18970185206592821 0 0.34219290852128209 0.18997606516273741 0 0.32940088089077563 0.1822534985978273 0 0.34219290852128209 0.18997606516273741 0 0.32940088089077563 0.1822534985978273 0 0.32967760452438089 0.17408203915935189 0 0.34219290852128209 0.18997606516273741 0 0.32967760452438089 0.17408203915935189 0 0.34397992334448257 0.17841480704079629 0 0.32967760452438089 0.17408203915935189 0 0.3523934241713233 0.1698023522169641 0 0.34397992334448257 0.17841480704079629 0 0.32967760452438089 0.17408203915935189 0 0.3393688069751255 0.16485462824602601 0 0.3523934241713233 0.1698023522169641 0 0.33260108133329302 0.16384290566503171 0 0.3291848321462722 0.15891468359537531 0 0.33835916693695389 0.15632170048512481 0 0.32274599198156129 0.1625585120521261 0 0.33260108133329302 0.16384290566503171 0 0.3291848321462722 0.15891468359537531 0 0.32515089493945443 0.17493487653012221 0 0.33260108133329302 0.16384290566503171 0 0.3393688069751255 0.16485462824602601 0 0.32515089493945443 0.17493487653012221 0 0.32967760452438089 0.17408203915935189 0 0.3393688069751255 0.16485462824602601 0 0.3393688069751255 0.16485462824602601 0 0.33835916693695389 0.15632170048512481 0 0.34833946749460282 0.15937130633288721 0 0.33260108133329302 0.16384290566503171 0 0.3393688069751255 0.16485462824602601 0 0.33835916693695389 0.15632170048512481 0 0.3393688069751255 0.16485462824602601 0 0.34833946749460282 0.15937130633288721 0 0.3523934241713233 0.1698023522169641 0 0.34833946749460282 0.15937130633288721 0 0.3523934241713233 0.1698023522169641 0 0.36200335448838661 0.1600642220441344 0 0.34219290852128209 0.18997606516273741 0 0.35640778377743187 0.18773461014757989 0 0.35176735883435062 0.18045154789168591 0 0.34219290852128209 0.18997606516273741 0 0.34397992334448257 0.17841480704079629 0 0.35176735883435062 0.18045154789168591 0 0.3523934241713233 0.1698023522169641 0 0.34397992334448257 0.17841480704079629 0 0.35176735883435062 0.18045154789168591 0 0.3523934241713233 0.1698023522169641 0 0.35176735883435062 0.18045154789168591 0 0.36417391269241511 0.17810229629664201 0 0.35640778377743187 0.18773461014757989 0 0.35176735883435062 0.18045154789168591 0 0.36417391269241511 0.17810229629664201 0 0.35640778377743187 0.18773461014757989 0 0.36623375545061237 0.18843582896135089 0 0.36417391269241511 0.17810229629664201 0 0.36417391269241511 0.17810229629664201 0 0.37466825180367352 0.17804714977588981 0 0.37963595340319217 0.16466982790380591 0 0.36623375545061237 0.18843582896135089 0 0.37466825180367352 0.17804714977588981 0 0.38125459295554132 0.1926584168561116 0 0.36623375545061237 0.18843582896135089 0 0.36417391269241511 0.17810229629664201 0 0.37466825180367352 0.17804714977588981 0 0.34833946749460282 0.15937130633288721 0 0.36200335448838661 0.1600642220441344 0 0.37086915429670242 0.14964407167474589 0 0.36200335448838661 0.1600642220441344 0 0.37086915429670242 0.14964407167474589 0 0.37963595340319217 0.16466982790380591 0 0.3523934241713233 0.1698023522169641 0 0.37963595340319217 0.16466982790380591 0 0.3523934241713233 0.1698023522169641 0 0.36200335448838661 0.1600642220441344 0 0.37963595340319217 0.16466982790380591 0 0.3523934241713233 0.1698023522169641 0 0.36417391269241511 0.17810229629664201 0 0.37963595340319217 0.16466982790380591 0 0.34833946749460282 0.15937130633288721 0 0.37086915429670242 0.14964407167474589 0 0.37086915429670242 0.14964407167474589 0 0.36791987650366742 0.13768947868831999 0 0.38048044536850523 0.13884757165864339 0 0.37086915429670242 0.14964407167474589 0 0.35615727156799992 0.1465238457867177 0 0.36791987650366742 0.13768947868831999 0 0.34833946749460282 0.15937130633288721 0 0.37086915429670242 0.14964407167474589 0 0.35615727156799992 0.1465238457867177 0 0.3417044714210995 0.14212945845946831 0 0.35615727156799992 0.1465238457867177 0 0.35693354713917558 0.13466470926600629 0 0.3417044714210995 0.14212945845946831 0 0.35615727156799992 0.1465238457867177 0 0.34614009435516402 0.1510865777660495 0 0.33835916693695389 0.15632170048512481 0 0.34833946749460282 0.15937130633288721 0 0.34614009435516402 0.1510865777660495 0 0.34833946749460282 0.15937130633288721 0 0.35615727156799992 0.1465238457867177 0 0.34614009435516402 0.1510865777660495 0 0.35447832945191432 0.1161650082465065 0 0.35693354713917558 0.13466470926600629 0 0.36512180468911293 0.1258084677206398 0 0.35447832945191432 0.1161650082465065 0 0.34641119958987587 0.1283189572647547 0 0.35693354713917558 0.13466470926600629 0 0.3417044714210995 0.14212945845946831 0 0.34641119958987587 0.1283189572647547 0 0.35693354713917558 0.13466470926600629 0 0.35693354713917558 0.13466470926600629 0 0.36512180468911293 0.1258084677206398 0 0.36791987650366742 0.13768947868831999 0 0.35615727156799992 0.1465238457867177 0 0.35693354713917558 0.13466470926600629 0 0.36791987650366742 0.13768947868831999 0 0.36791987650366742 0.13768947868831999 0 0.37445057696629658 0.12828368227525569 0 0.38048044536850523 0.13884757165864339 0 0.36512180468911293 0.1258084677206398 0 0.36791987650366742 0.13768947868831999 0 0.37445057696629658 0.12828368227525569 0 0.38048044536850523 0.13884757165864339 0 0.39290599264046888 0.12759778708536029 0 0.3840616318557879 0.1188105782899591 0 0.37445057696629658 0.12828368227525569 0 0.38048044536850523 0.13884757165864339 0 0.3840616318557879 0.1188105782899591 0 0.38048044536850523 0.13884757165864339 0 0.3840616318557879 0.1188105782899591 0 0.38048044536850523 0.13884757165864339 0 0.39290599264046888 0.12759778708536029 0 0.39339884109880202 0.13991683701660459 0 0.39339884109880202 0.13991683701660459 0 0.41592852790090168 0.13018960235846341 0 0.40596364667763901 0.124537592294043 0 0.39339884109880202 0.13991683701660459 0 0.41592852790090168 0.13018960235846341 0 0.39290599264046888 0.12759778708536029 0 0.39339884109880202 0.13991683701660459 0 0.40596364667763901 0.124537592294043 0 0.39521493257942991 0.15225620280920329 0 0.4068784826350611 0.15953730359064769 0 0.41114370854568433 0.14569757103286679 0 0.39339884109880202 0.13991683701660459 0 0.39521493257942991 0.15225620280920329 0 0.41114370854568433 0.14569757103286679 0 0.39339884109880202 0.13991683701660459 0 0.39521493257942991 0.15225620280920329 0 0.38501767721440983 0.1514594745020913 0 0.39521493257942991 0.15225620280920329 0 0.38501767721440983 0.1514594745020913 0 0.37963595340319217 0.16466982790380591 0 0.37086915429670242 0.14964407167474589 0 0.39339884109880202 0.13991683701660459 0 0.38501767721440983 0.1514594745020913 0 0.37086915429670242 0.14964407167474589 0 0.39339884109880202 0.13991683701660459 0 0.37086915429670242 0.14964407167474589 0 0.38048044536850523 0.13884757165864339 0 0.39339884109880202 0.13991683701660459 0 0.37086915429670242 0.14964407167474589 0 0.38501767721440983 0.1514594745020913 0 0.37963595340319217 0.16466982790380591 0 0.38876177171433929 0.1756697682097858 0 0.40102674678657169 0.18300799913152069 0 0.38125459295554132 0.1926584168561116 0 0.37466825180367352 0.17804714977588981 0 0.38876177171433929 0.1756697682097858 0 0.38125459295554132 0.1926584168561116 0 0.37466825180367352 0.17804714977588981 0 0.38125459295554132 0.1926584168561116 0 0.37466825180367352 0.17804714977588981 0 0.37963595340319217 0.16466982790380591 0 0.38876177171433929 0.1756697682097858 0 0.38876177171433929 0.1756697682097858 0 0.40102674678657169 0.18300799913152069 0 0.4068784826350611 0.15953730359064769 0 0.37963595340319217 0.16466982790380591 0 0.38876177171433929 0.1756697682097858 0 0.4068784826350611 0.15953730359064769 0 0.37963595340319217 0.16466982790380591 0 0.4068784826350611 0.15953730359064769 0 0.39521493257942991 0.15225620280920329 0 0.37963595340319217 0.16466982790380591 0 0.4068784826350611 0.15953730359064769 0 0.4068784826350611 0.15953730359064769 0 0.42079890061760222 0.17335758140693011 0 0.4275050007923285 0.1532406146353002 0 0.40102674678657169 0.18300799913152069 0 0.42079890061760222 0.17335758140693011 0 0.40102674678657169 0.18300799913152069 0 0.42079890061760222 0.17335758140693011 0 0.4179087076239707 0.19247550599413971 0 0.40102674678657169 0.18300799913152069 0 0.4068784826350611 0.15953730359064769 0 0.42079890061760222 0.17335758140693011 0 0.42079890061760222 0.17335758140693011 0 0.4179087076239707 0.19247550599413971 0 0.44031157633284612 0.17846750857657981 0 0.42079890061760222 0.17335758140693011 0 0.4275050007923285 0.1532406146353002 0 0.4405710544486327 0.1637071636823394 0 0.42079890061760222 0.17335758140693011 0 0.4405710544486327 0.1637071636823394 0 0.44031157633284612 0.17846750857657981 0 0.42079890061760222 0.17335758140693011 0 0.4405710544486327 0.1637071636823394 0 0.4275050007923285 0.1532406146353002 0 0.42577095374184259 0.13967904981681609 0 0.43908829098150298 0.13658526760980461 0 0.4275050007923285 0.1532406146353002 0 0.43908829098150298 0.13658526760980461 0 0.41592852790090168 0.13018960235846341 0 0.43845821470300128 0.12046236770032211 0 0.42577095374184259 0.13967904981681609 0 0.43908829098150298 0.13658526760980461 0 0.43845821470300128 0.12046236770032211 0 0.42577095374184259 0.13967904981681609 0 0.41592852790090168 0.13018960235846341 0 0.43845821470300128 0.12046236770032211 0 0.39339884109880202 0.13991683701660459 0 0.41592852790090168 0.13018960235846341 0 0.41114370854568433 0.14569757103286679 0 0.42577095374184259 0.13967904981681609 0 0.41592852790090168 0.13018960235846341 0 0.41114370854568433 0.14569757103286679 0 0.4275050007923285 0.1532406146353002 0 0.42577095374184259 0.13967904981681609 0 0.41114370854568433 0.14569757103286679 0 0.4068784826350611 0.15953730359064769 0 0.4275050007923285 0.1532406146353002 0 0.41114370854568433 0.14569757103286679 0 0.39886573647547352 0.25563570613769337 0 0.40175487420164457 0.2381366387701451 0 0.38778995577322739 0.2498672647236308 0 0.3743546098685348 0.25452028441578689 0 0.38778995577322739 0.2498672647236308 0 0.37710029131738992 0.23381027512652491 0 0.40175487420164457 0.2381366387701451 0 0.38778995577322739 0.2498672647236308 0 0.37710029131738992 0.23381027512652491 0 0.37710029131738992 0.23381027512652491 0 0.39150473357859511 0.2153975278131274 0 0.37629379139172808 0.21398532211803231 0 0.40175487420164457 0.2381366387701451 0 0.37710029131738992 0.23381027512652491 0 0.39150473357859511 0.2153975278131274 0 0.40175487420164457 0.2381366387701451 0 0.39150473357859511 0.2153975278131274 0 0.40175487420164457 0.2381366387701451 0 0.39150473357859511 0.2153975278131274 0 0.41432366922012892 0.21573109517594849 0 0.39150473357859511 0.2153975278131274 0 0.40120369003296152 0.19985410899416961 0 0.41432366922012892 0.21573109517594849 0 0.39150473357859511 0.2153975278131274 0 0.37629379139172808 0.21398532211803231 0 0.38125459295554132 0.1926584168561116 0 0.39150473357859511 0.2153975278131274 0 0.38125459295554132 0.1926584168561116 0 0.36952372101049102 0.20800097103330081 0 0.37629379139172808 0.21398532211803231 0 0.38125459295554132 0.1926584168561116 0 0.40102674678657169 0.18300799913152069 0 0.38125459295554132 0.1926584168561116 0 0.39150473357859511 0.2153975278131274 0 0.38125459295554132 0.1926584168561116 0 0.40120369003296152 0.19985410899416961 0 0.40102674678657169 0.18300799913152069 0 0.38125459295554132 0.1926584168561116 0 0.40120369003296152 0.19985410899416961 0 0.40102674678657169 0.18300799913152069 0 0.40120369003296152 0.19985410899416961 0 0.4179087076239707 0.19247550599413971 0 0.40120369003296152 0.19985410899416961 0 0.4179087076239707 0.19247550599413971 0 0.41432366922012892 0.21573109517594849 0 0.43423035188460668 0.20494048932114731 0 0.44031157633284612 0.17846750857657981 0 0.4179087076239707 0.19247550599413971 0 0.43423035188460668 0.20494048932114731 0 0.44031157633284612 0.17846750857657981 0 0.4179087076239707 0.19247550599413971 0 0.43423035188460668 0.20494048932114731 0 0.41432366922012892 0.21573109517594849 0 0.43423035188460668 0.20494048932114731 0 0.41432366922012892 0.21573109517594849 0 0.43454013463370622 0.22328507701084191 0 0.40175487420164457 0.2381366387701451 0 0.41432366922012892 0.21573109517594849 0 0.42327568895693168 0.23589878140177631 0 0.41432366922012892 0.21573109517594849 0 0.43454013463370622 0.22328507701084191 0 0.42327568895693168 0.23589878140177631 0 0.43454013463370622 0.22328507701084191 0 0.42327568895693168 0.23589878140177631 0 0.44673365205151278 0.2369941249660491 0 0.43467559665397992 0.25853208557548712 0 0.42814058904926222 0.24786009528357331 0 0.44673365205151278 0.2369941249660491 0 0.42327568895693168 0.23589878140177631 0 0.42814058904926222 0.24786009528357331 0 0.44673365205151278 0.2369941249660491 0 0.42327568895693168 0.23589878140177631 0 0.42814058904926222 0.24786009528357331 0 0.4152092440927056 0.24783501011872769 0 0.40175487420164457 0.2381366387701451 0 0.42327568895693168 0.23589878140177631 0 0.4152092440927056 0.24783501011872769 0 0.41200501482469432 0.26087574972716288 0 0.40175487420164457 0.2381366387701451 0 0.4152092440927056 0.24783501011872769 0 0.41200501482469432 0.26087574972716288 0 0.40175487420164457 0.2381366387701451 0 0.43467559665397992 0.25853208557548712 0 0.44673365205151278 0.2369941249660491 0 0.43467559665397992 0.25853208557548712 0 0.45020726170182263 0.2525733498901615 0 0.44673365205151278 0.2369941249660491 0 0.45020726170182263 0.2525733498901615 0 0.46146747632937801 0.24391054792094821 0 0.44673365205151278 0.2369941249660491 0 0.44673365205151278 0.2369941249660491 0 0.4587917074490428 0.2154561643566095 0 0.43454013463370622 0.22328507701084191 0 0.44673365205151278 0.2369941249660491 0 0.4587917074490428 0.2154561643566095 0 0.46146747632937801 0.24391054792094821 0 0.44673365205151278 0.2369941249660491 0 0.4587917074490428 0.2154561643566095 0 0.46146747632937801 0.24391054792094821 0 0.4587917074490428 0.2154561643566095 0 0.46146747632937801 0.24391054792094821 0 0.4587917074490428 0.2154561643566095 0 0.47668445726438669 0.24183389805940181 0 0.4587917074490428 0.2154561643566095 0 0.47098298386655613 0.19368024588530999 0 0.43423035188460668 0.20494048932114731 0 0.43454013463370622 0.22328507701084191 0 0.4587917074490428 0.2154561643566095 0 0.43423035188460668 0.20494048932114731 0 0.4587917074490428 0.2154561643566095 0 0.45642928569021279 0.1903339442125738 0 0.43423035188460668 0.20494048932114731 0 0.45642928569021279 0.1903339442125738 0 0.44031157633284612 0.17846750857657981 0 0.4587917074490428 0.2154561643566095 0 0.45642928569021279 0.1903339442125738 0 0.47098298386655613 0.19368024588530999 0 0.4587917074490428 0.2154561643566095 0 0.45642928569021279 0.1903339442125738 0 0.45642928569021279 0.1903339442125738 0 0.47098298386655613 0.19368024588530999 0 0.46549805536940098 0.18421369385917249 0 0.47098298386655613 0.19368024588530999 0 0.5 0.2171177048473539 0 0.5 0.16186920338457389 0 0.47098298386655613 0.19368024588530999 0 0.5 0.2171177048473539 0 0.47661478714499572 0.21702200328716889 0 0.4587917074490428 0.2154561643566095 0 0.47098298386655613 0.19368024588530999 0 0.47661478714499572 0.21702200328716889 0 0.4587917074490428 0.2154561643566095 0 0.47661478714499572 0.21702200328716889 0 0.47668445726438669 0.24183389805940181 0 0.5 0.2171177048473539 0 0.47661478714499572 0.21702200328716889 0 0.47668445726438669 0.24183389805940181 0 0.5 0.16186920338457389 0 0.495033019106214 0.14710681056537611 0 0.50000000000000111 0.090386631349772956 0 0.46528086357767973 0.1482377312638844 0 0.45170444217255817 0.1400895039245019 0 0.45406686393138551 0.1652117240685379 0 0.46528086357767973 0.1482377312638844 0 0.46118527929669489 0.13328604330626381 0 0.47285230013844559 0.13351836557484281 0 0.47285230013844559 0.13351836557484281 0 0.45067158117067752 0.1199299205843091 0 0.46118527929669489 0.13328604330626381 0 0.47285230013844559 0.13351836557484281 0 0.45067158117067752 0.1199299205843091 0 0.46118527929669489 0.13328604330626381 0 0.45247402522932512 0.1255215470874447 0 0.45067158117067752 0.1199299205843091 0 0.46118527929669489 0.13328604330626381 0 0.45170444217255817 0.1400895039245019 0 0.45247402522932512 0.1255215470874447 0 0.46528086357767973 0.1482377312638844 0 0.46118527929669489 0.13328604330626381 0 0.45170444217255817 0.1400895039245019 0 0.43908829098150298 0.13658526760980461 0 0.45247402522932512 0.1255215470874447 0 0.45067158117067752 0.1199299205843091 0 0.43908829098150298 0.13658526760980461 0 0.43845821470300128 0.12046236770032211 0 0.45067158117067752 0.1199299205843091 0 0.45247402522932512 0.1255215470874447 0 0.44639280078108567 0.1519945278320122 0 0.45170444217255817 0.1400895039245019 0 0.45247402522932512 0.1255215470874447 0 0.44639280078108567 0.1519945278320122 0 0.43908829098150298 0.13658526760980461 0 0.45247402522932512 0.1255215470874447 0 0.44639280078108567 0.1519945278320122 0 0.43908829098150298 0.13658526760980461 0 0.45067158117067752 0.1199299205843091 0 0.45170444217255817 0.1400895039245019 0 0.44639280078108567 0.1519945278320122 0 0.45406686393138551 0.1652117240685379 0 0.4275050007923285 0.1532406146353002 0 0.43908829098150298 0.13658526760980461 0 0.44639280078108567 0.1519945278320122 0 0.45170444217255817 0.1400895039245019 0 0.45406686393138551 0.1652117240685379 0 0.44639280078108567 0.1519945278320122 0 0.44031157633284612 0.17846750857657981 0 0.45406686393138551 0.1652117240685379 0 0.44639280078108567 0.1519945278320122 0 0.44031157633284612 0.17846750857657981 0 0.44639280078108567 0.1519945278320122 0 0.4405710544486327 0.1637071636823394 0 0.44031157633284612 0.17846750857657981 0 0.4275050007923285 0.1532406146353002 0 0.44639280078108567 0.1519945278320122 0 0.4405710544486327 0.1637071636823394 0 0.45642928569021279 0.1903339442125738 0 0.44031157633284612 0.17846750857657981 0 0.45406686393138551 0.1652117240685379 0 0.45642928569021279 0.1903339442125738 0 0.45406686393138551 0.1652117240685379 0 0.45642928569021279 0.1903339442125738 0 0.46549805536940098 0.18421369385917249 0 0.45406686393138551 0.1652117240685379 0 0.46549805536940098 0.18421369385917249 0 0.45406686393138551 0.1652117240685379 0 0.47143922795495558 0.17275138785768421 0 0.46528086357767973 0.1482377312638844 0 0.45406686393138551 0.1652117240685379 0 0.46653595784280377 0.161692725259721 0 0.45406686393138551 0.1652117240685379 0 0.46653595784280377 0.161692725259721 0 0.47143922795495558 0.17275138785768421 0 0.47098298386655613 0.19368024588530999 0 0.47143922795495558 0.17275138785768421 0 0.5 0.16186920338457389 0 0.47656940588171759 0.15707324814358289 0 0.47143922795495558 0.17275138785768421 0 0.5 0.16186920338457389 0 0.46653595784280377 0.161692725259721 0 0.47656940588171759 0.15707324814358289 0 0.47143922795495558 0.17275138785768421 0 0.47098298386655613 0.19368024588530999 0 0.46549805536940098 0.18421369385917249 0 0.47143922795495558 0.17275138785768421 0 0.47656940588171759 0.15707324814358289 0 0.5 0.16186920338457389 0 0.48433846200725489 0.1505722396002116 0 0.495033019106214 0.14710681056537611 0 0.48433846200725489 0.1505722396002116 0 0.4748096270142303 0.14460700250399419 0 0.5 0.16186920338457389 0 0.495033019106214 0.14710681056537611 0 0.48433846200725489 0.1505722396002116 0 0.495033019106214 0.14710681056537611 0 0.4748096270142303 0.14460700250399419 0 0.47285230013844559 0.13351836557484281 0 0.47656940588171759 0.15707324814358289 0 0.48433846200725489 0.1505722396002116 0 0.4748096270142303 0.14460700250399419 0 0.46528086357767973 0.1482377312638844 0 0.4748096270142303 0.14460700250399419 0 0.47285230013844559 0.13351836557484281 0 0.46528086357767973 0.1482377312638844 0 0.46653595784280377 0.161692725259721 0 0.47656940588171759 0.15707324814358289 0 0.46528086357767973 0.1482377312638844 0 0.47656940588171759 0.15707324814358289 0 0.4748096270142303 0.14460700250399419 0 0.495033019106214 0.14710681056537611 0 0.47285230013844559 0.13351836557484281 0 0.48324691355284982 0.1228385488935777 0 0.495033019106214 0.14710681056537611 0 0.47285230013844559 0.13351836557484281 0 0.48551140661220038 0.099633497154980211 0 0.48324691355284982 0.1228385488935777 0 0.50000000000000111 0.090386631349772956 0 0.495033019106214 0.14710681056537611 0 0.48324691355284982 0.1228385488935777 0 0.50000000000000111 0.090386631349772956 0 0.47913512164384608 0.1071761979472914 0 0.47502332973484301 0.091513847001004983 0 0.48551140661220038 0.099633497154980211 0 0.47913512164384608 0.1071761979472914 0 0.47502332973484301 0.091513847001004983 0 0.47913512164384608 0.1071761979472914 0 0.47201228672716578 0.1019274926709144 0 0.47502332973484301 0.091513847001004983 0 0.47201228672716578 0.1019274926709144 0 0.47502332973484301 0.091513847001004983 0 0.46896987987309757 0.09361921698561837 0 0.47201228672716578 0.1019274926709144 0 0.46948311248005348 0.1107101394589388 0 0.46810332459077048 0.1056275869560747 0 0.47913512164384608 0.1071761979472914 0 0.47201228672716578 0.1019274926709144 0 0.46948311248005348 0.1107101394589388 0 0.48551140661220038 0.099633497154980211 0 0.47913512164384608 0.1071761979472914 0 0.48324691355284982 0.1228385488935777 0 0.47913512164384608 0.1071761979472914 0 0.46948311248005348 0.1107101394589388 0 0.47547009471187468 0.11778993303702209 0 0.46948311248005348 0.1107101394589388 0 0.47547009471187468 0.11778993303702209 0 0.46613172855806861 0.1188264423465942 0 0.47285230013844559 0.13351836557484281 0 0.47547009471187468 0.11778993303702209 0 0.46613172855806861 0.1188264423465942 0 0.47913512164384608 0.1071761979472914 0 0.48324691355284982 0.1228385488935777 0 0.47547009471187468 0.11778993303702209 0 0.47285230013844559 0.13351836557484281 0 0.48324691355284982 0.1228385488935777 0 0.47547009471187468 0.11778993303702209 0 0.47913512164384608 0.1071761979472914 0 0.48324691355284982 0.1228385488935777 0 0.5 0.069694175508385192 0 0.48214357872583963 0.074677057856523066 0 0.49107178936291929 0.061839388761760497 0 0.48214357872583963 0.074677057856523066 0 0.49107178936291929 0.061839388761760497 0 0.5 0.069694175508385192 0 0.50000000000000111 0.090386631349772956 0 0.48214357872583963 0.074677057856523066 0 0.50000000000000111 0.090386631349772956 0 0.49015166812946359 0.086252260583253929 0 0.48214357872583963 0.074677057856523066 0 0.50000000000000111 0.090386631349772956 0 0.48214357872583963 0.074677057856523066 0 0.48551140661220038 0.099633497154980211 0 0.50000000000000111 0.090386631349772956 0 0.49015166812946359 0.086252260583253929 0 0.49015166812946359 0.086252260583253929 0 0.47502332973484301 0.091513847001004983 0 0.47376570872831753 0.086723404780790408 0 0.49015166812946359 0.086252260583253929 0 0.47376570872831753 0.086723404780790408 0 0.48214357872583963 0.074677057856523066 0 0.49015166812946359 0.086252260583253929 0 0.47502332973484301 0.091513847001004983 0 0.48551140661220038 0.099633497154980211 0 0.49015166812946359 0.086252260583253929 0 0.47502332973484301 0.091513847001004983 0 0.47502332973484301 0.091513847001004983 0 0.46896987987309757 0.09361921698561837 0 0.47376570872831753 0.086723404780790408 0 0.46896987987309757 0.09361921698561837 0 0.47376570872831753 0.086723404780790408 0 0.47502332973484301 0.091513847001004983 0 0.46896987987309757 0.09361921698561837 0 0.47502332973484301 0.091513847001004983 0 0.47376570872831753 0.086723404780790408 0 0.47376570872831753 0.086723404780790408 0 0.48214357872583963 0.074677057856523066 0 0.48214357872583963 0.074677057856523066 0 0.47915947859935898 0.058049526635483573 0 0.49107178936291929 0.061839388761760497 0 0.48214357872583963 0.074677057856523066 0 0.46713730902702888 0.061474966963086193 0 0.47915947859935898 0.058049526635483573 0 0.47376570872831753 0.086723404780790408 0 0.48214357872583963 0.074677057856523066 0 0.46713730902702888 0.061474966963086193 0 0.47376570872831753 0.086723404780790408 0 0.46713730902702888 0.061474966963086193 0 0.48214357872583963 0.074677057856523066 0 0.46713730902702888 0.061474966963086193 0 0.47376570872831753 0.086723404780790408 0 0.4575486445746928 0.068409855623107599 0 0.46713730902702888 0.061474966963086193 0 0.4575486445746928 0.068409855623107599 0 0.45280140616462228 0.059805189245329439 0 0.46713730902702888 0.061474966963086193 0 0.47376570872831753 0.086723404780790408 0 0.45600030534473041 0.079408962903774721 0 0.45838849658125519 0.088203237628234551 0 0.47376570872831753 0.086723404780790408 0 0.4575486445746928 0.068409855623107599 0 0.45600030534473041 0.079408962903774721 0 0.46896987987309757 0.09361921698561837 0 0.45838849658125519 0.088203237628234551 0 0.4560610295772225 0.098108872730609809 0 0.46896987987309757 0.09361921698561837 0 0.47376570872831753 0.086723404780790408 0 0.45838849658125519 0.088203237628234551 0 0.4560610295772225 0.098108872730609809 0 0.43714555938290922 0.083155730740381018 0 0.45600030534473041 0.079408962903774721 0 0.45838849658125519 0.088203237628234551 0 0.43714555938290922 0.083155730740381018 0 0.4560610295772225 0.098108872730609809 0 0.43688684241750519 0.097071178274589512 0 0.43714555938290922 0.083155730740381018 0 0.45838849658125519 0.088203237628234551 0 0.4560610295772225 0.098108872730609809 0 0.43714555938290922 0.083155730740381018 0 0.45600030534473041 0.079408962903774721 0 0.44363835297819249 0.066213879410677023 0 0.43714555938290922 0.083155730740381018 0 0.4575486445746928 0.068409855623107599 0 0.45600030534473041 0.079408962903774721 0 0.44363835297819249 0.066213879410677023 0 0.4575486445746928 0.068409855623107599 0 0.44363835297819249 0.066213879410677023 0 0.45280140616462228 0.059805189245329439 0 0.46212795592677819 0.1114205517333297 0 0.46237572810598587 0.1031007964182637 0 0.45067158117067752 0.1199299205843091 0 0.47285230013844559 0.13351836557484281 0 0.46613172855806861 0.1188264423465942 0 0.45067158117067752 0.1199299205843091 0 0.46237572810598587 0.1031007964182637 0 0.45067158117067752 0.1199299205843091 0 0.46613172855806861 0.1188264423465942 0 0.46212795592677819 0.1114205517333297 0 0.45067158117067752 0.1199299205843091 0 0.46948311248005348 0.1107101394589388 0 0.46613172855806861 0.1188264423465942 0 0.46578936221420109 0.1128851712493891 0 0.46613172855806861 0.1188264423465942 0 0.46212795592677819 0.1114205517333297 0 0.46578936221420109 0.1128851712493891 0 0.46212795592677819 0.1114205517333297 0 0.46578936221420109 0.1128851712493891 0 0.46576541666584947 0.10904677541974341 0 0.46948311248005348 0.1107101394589388 0 0.46578936221420109 0.1128851712493891 0 0.46576541666584947 0.10904677541974341 0 0.46948311248005348 0.1107101394589388 0 0.46810332459077048 0.1056275869560747 0 0.46576541666584947 0.10904677541974341 0 0.46810332459077048 0.1056275869560747 0 0.46576541666584947 0.10904677541974341 0 0.46237572810598587 0.1031007964182637 0 0.47201228672716578 0.1019274926709144 0 0.46810332459077048 0.1056275869560747 0 0.46237572810598587 0.1031007964182637 0 0.46212795592677819 0.1114205517333297 0 0.46576541666584947 0.10904677541974341 0 0.46237572810598587 0.1031007964182637 0 0.46237572810598587 0.1031007964182637 0 0.4560610295772225 0.098108872730609809 0 0.45067158117067752 0.1199299205843091 0 0.46896987987309757 0.09361921698561837 0 0.4560610295772225 0.098108872730609809 0 0.47201228672716578 0.1019274926709144 0 0.46896987987309757 0.09361921698561837 0 0.46237572810598587 0.1031007964182637 0 0.46896987987309757 0.09361921698561837 0 0.46237572810598587 0.1031007964182637 0 0.46896987987309757 0.09361921698561837 0 0.46237572810598587 0.1031007964182637 0 0.4560610295772225 0.098108872730609809 0 0.46237572810598587 0.1031007964182637 0 0.4560610295772225 0.098108872730609809 0 0.4560610295772225 0.098108872730609809 0 0.42990296267925499 0.1072065625042513 0 0.43688684241750519 0.097071178274589512 0 0.4560610295772225 0.098108872730609809 0 0.42990296267925499 0.1072065625042513 0 0.4560610295772225 0.098108872730609809 0 0.45067158117067752 0.1199299205843091 0 0.42990296267925499 0.1072065625042513 0 0.45067158117067752 0.1199299205843091 0 0.42990296267925499 0.1072065625042513 0 0.43845821470300128 0.12046236770032211 0 0.45067158117067752 0.1199299205843091 0 0.42990296267925499 0.1072065625042513 0 0.41592852790090168 0.13018960235846341 0 0.43845821470300128 0.12046236770032211 0 0.4213495469585764 0.11855066005561191 0 0.43845821470300128 0.12046236770032211 0 0.4213495469585764 0.11855066005561191 0 0.42990296267925499 0.1072065625042513 0 0.41403397804878012 0.1127257432508231 0 0.42990296267925499 0.1072065625042513 0 0.41592852790090168 0.13018960235846341 0 0.4213495469585764 0.11855066005561191 0 0.40596364667763901 0.124537592294043 0 0.4213495469585764 0.11855066005561191 0 0.41403397804878012 0.1127257432508231 0 0.42990296267925499 0.1072065625042513 0 0.4213495469585764 0.11855066005561191 0 0.41403397804878012 0.1127257432508231 0 0.40596364667763901 0.124537592294043 0 0.42131281322786102 0.10194402915488809 0 0.42876434967147992 0.1028499621179938 0 0.40999417725091553 0.090793276835293174 0 0.41403397804878012 0.1127257432508231 0 0.42131281322786102 0.10194402915488809 0 0.42990296267925499 0.1072065625042513 0 0.42876434967147992 0.1028499621179938 0 0.42421994454765671 0.089285516767205766 0 0.40999417725091553 0.090793276835293174 0 0.42876434967147992 0.1028499621179938 0 0.40999417725091553 0.090793276835293174 0 0.41168548742381011 0.1032923938335472 0 0.40999417725091553 0.090793276835293174 0 0.40196939725022529 0.1036103265037179 0 0.41403397804878012 0.1127257432508231 0 0.41168548742381011 0.1032923938335472 0 0.40196939725022529 0.1036103265037179 0 0.41403397804878012 0.1127257432508231 0 0.41168548742381011 0.1032923938335472 0 0.42131281322786102 0.10194402915488809 0 0.41168548742381011 0.1032923938335472 0 0.42131281322786102 0.10194402915488809 0 0.40999417725091553 0.090793276835293174 0 0.42876434967147992 0.1028499621179938 0 0.43175417400488769 0.093090596975042517 0 0.42421994454765671 0.089285516767205766 0 0.42131281322786102 0.10194402915488809 0 0.42990296267925499 0.1072065625042513 0 0.42131281322786102 0.10194402915488809 0 0.42876434967147992 0.1028499621179938 0 0.42990296267925499 0.1072065625042513 0 0.42876434967147992 0.1028499621179938 0 0.42990296267925499 0.1072065625042513 0 0.43688684241750519 0.097071178274589512 0 0.42876434967147992 0.1028499621179938 0 0.43688684241750519 0.097071178274589512 0 0.43175417400488769 0.093090596975042517 0 0.43714555938290922 0.083155730740381018 0 0.42421994454765671 0.089285516767205766 0 0.41823008918859672 0.068202588750151311 0 0.43688684241750519 0.097071178274589512 0 0.43175417400488769 0.093090596975042517 0 0.43714555938290922 0.083155730740381018 0 0.43175417400488769 0.093090596975042517 0 0.43714555938290922 0.083155730740381018 0 0.42421994454765671 0.089285516767205766 0 0.43714555938290922 0.083155730740381018 0 0.41823008918859672 0.068202588750151311 0 0.44363835297819249 0.066213879410677023 0 0.41823008918859672 0.068202588750151311 0 0.43147635587366051 0.053195217228823241 0 0.44363835297819249 0.066213879410677023 0 0.43714555938290922 0.083155730740381018 0 0.41823008918859672 0.068202588750151311 0 0.41823008918859672 0.068202588750151311 0 0.40999417725091553 0.090793276835293174 0 0.40305771159223119 0.067954943283569311 0 0.41823008918859672 0.068202588750151311 0 0.40305771159223119 0.067954943283569311 0 0.39931461899428428 0.053249446759921659 0 0.42421994454765671 0.089285516767205766 0 0.41823008918859672 0.068202588750151311 0 0.40999417725091553 0.090793276835293174 0 0.40999417725091553 0.090793276835293174 0 0.39122400483035241 0.078736591552590218 0 0.38764281834307063 0.098773584921274749 0 0.40999417725091553 0.090793276835293174 0 0.39122400483035241 0.078736591552590218 0 0.40999417725091553 0.090793276835293174 0 0.39122400483035241 0.078736591552590218 0 0.40305771159223119 0.067954943283569311 0 0.39122400483035241 0.078736591552590218 0 0.38742083261154348 0.061424165864568753 0 0.39550309630190061 0.054794770107697718 0 0.39122400483035241 0.078736591552590218 0 0.40305771159223119 0.067954943283569311 0 0.39550309630190061 0.054794770107697718 0 0.39122400483035241 0.078736591552590218 0 0.39550309630190061 0.054794770107697718 0 0.37321242428311269 0.067167174221926695 0 0.39122400483035241 0.078736591552590218 0 0.37321242428311269 0.067167174221926695 0 0.39122400483035241 0.078736591552590218 0 0.38742083261154348 0.061424165864568753 0 0.37311263035399722 0.089064464589406617 0 0.37321242428311269 0.067167174221926695 0 0.39122400483035241 0.078736591552590218 0 0.39122400483035241 0.078736591552590218 0 0.38764281834307063 0.098773584921274749 0 0.37311263035399722 0.089064464589406617 0 0.39122400483035241 0.078736591552590218 0 0.38764281834307063 0.098773584921274749 0 0.38764281834307063 0.098773584921274749 0 0.3840616318557879 0.1188105782899591 0 0.3712307280555005 0.1112337656249484 0 0.37311263035399722 0.089064464589406617 0 0.38764281834307063 0.098773584921274749 0 0.3712307280555005 0.1112337656249484 0 0.37445057696629658 0.12828368227525569 0 0.3840616318557879 0.1188105782899591 0 0.38764281834307063 0.098773584921274749 0 0.3840616318557879 0.1188105782899591 0 0.39816499341830502 0.1182449239973945 0 0.3712307280555005 0.1112337656249484 0 0.38764281834307063 0.098773584921274749 0 0.3840616318557879 0.1188105782899591 0 0.41403397804878012 0.1127257432508231 0 0.39816499341830502 0.1182449239973945 0 0.40596364667763901 0.124537592294043 0 0.41403397804878012 0.1127257432508231 0 0.39816499341830502 0.1182449239973945 0 0.40196939725022529 0.1036103265037179 0 0.41403397804878012 0.1127257432508231 0 0.39816499341830502 0.1182449239973945 0 0.39290599264046888 0.12759778708536029 0 0.3840616318557879 0.1188105782899591 0 0.39816499341830502 0.1182449239973945 0 0.39290599264046888 0.12759778708536029 0 0.39816499341830502 0.1182449239973945 0 0.40596364667763901 0.124537592294043 0 0.38764281834307063 0.098773584921274749 0 0.39816499341830502 0.1182449239973945 0 0.40196939725022529 0.1036103265037179 0 0.40999417725091553 0.090793276835293174 0 0.38764281834307063 0.098773584921274749 0 0.40196939725022529 0.1036103265037179 0 0.39541694445640008 0.018181198472856201 0 0.39273331072045808 0.02276943622408939 0 0.39916864415296838 0.021926892075876961 0 0.39541694445640008 0.018181198472856201 0 0.39152346431731128 0.019378361536505261 0 0.39024464589665731 0.01570328183419889 0 0.39152346431731128 0.019378361536505261 0 0.39273331072045808 0.02276943622408939 0 0.38796196501223651 0.020964661048733981 0 0.39541694445640008 0.018181198472856201 0 0.39152346431731128 0.019378361536505261 0 0.39273331072045808 0.02276943622408939 0 0.39231073690338469 0.02580701728295888 0 0.39170287355487909 0.029023232818461541 0 0.39567377541081178 0.026001392603775389 0 0.39273331072045808 0.02276943622408939 0 0.39231073690338469 0.02580701728295888 0 0.38913298792738982 0.025434007485509211 0 0.39231073690338469 0.02580701728295888 0 0.39170287355487909 0.029023232818461541 0 0.38913298792738982 0.025434007485509211 0 0.39273331072045808 0.02276943622408939 0 0.39231073690338469 0.02580701728295888 0 0.39567377541081178 0.026001392603775389 0 0.39170287355487909 0.029023232818461541 0 0.39720827988417368 0.02971578857539001 0 0.39413642133341498 0.032020902239633803 0 0.39720827988417368 0.02971578857539001 0 0.39567377541081178 0.026001392603775389 0 0.40098241229633008 0.02660815310365917 0 0.39170287355487909 0.029023232818461541 0 0.39720827988417368 0.02971578857539001 0 0.39567377541081178 0.026001392603775389 0 0.39273331072045808 0.02276943622408939 0 0.39567377541081178 0.026001392603775389 0 0.39916864415296838 0.021926892075876961 0 0.39567377541081178 0.026001392603775389 0 0.40098241229633008 0.02660815310365917 0 0.39916864415296838 0.021926892075876961 0 0.40098241229633008 0.02660815310365917 0 0.39916864415296838 0.021926892075876961 0 0.40649360029399989 0.02472771259161767 0 0.39720827988417368 0.02971578857539001 0 0.40098241229633008 0.02660815310365917 0 0.40291539041683311 0.030927539883910189 0 0.40098241229633008 0.02660815310365917 0 0.40291539041683311 0.030927539883910189 0 0.40649360029399989 0.02472771259161767 0 0.39916864415296838 0.021926892075876961 0 0.4029369592797214 0.018101455229931972 0 0.40649360029399989 0.02472771259161767 0 0.39541694445640008 0.018181198472856201 0 0.39916864415296838 0.021926892075876961 0 0.4029369592797214 0.018101455229931972 0 0.39541694445640008 0.018181198472856201 0 0.4029369592797214 0.018101455229931972 0 0.3995552579905704 0.01138423271473105 0 0.4029369592797214 0.018101455229931972 0 0.3995552579905704 0.01138423271473105 0 0.40951844202205379 0.014518066353574961 0 0.3995552579905704 0.01138423271473105 0 0.40020280054750379 0.002750994476724927 0 0.4101557776198666 0.0039100778627095996 0 0.3995552579905704 0.01138423271473105 0 0.40020280054750379 0.002750994476724927 0 0.39289391680897318 0.0076847426326344236 0 0.40020280054750379 0.002750994476724927 0 0.39289391680897318 0.0076847426326344236 0 0.38775815611000658 0.0020559190212459649 0 0.39541694445640008 0.018181198472856201 0 0.3995552579905704 0.01138423271473105 0 0.39401737286957061 0.01292773498318075 0 0.3995552579905704 0.01138423271473105 0 0.39289391680897318 0.0076847426326344236 0 0.39401737286957061 0.01292773498318075 0 0.39289391680897318 0.0076847426326344236 0 0.39401737286957061 0.01292773498318075 0 0.39050045949073042 0.01164006626157167 0 0.39401737286957061 0.01292773498318075 0 0.39050045949073042 0.01164006626157167 0 0.39024464589665731 0.01570328183419889 0 0.39541694445640008 0.018181198472856201 0 0.39401737286957061 0.01292773498318075 0 0.39024464589665731 0.01570328183419889 0 0.36486541801191058 0.01539183789018787 0 0.38775815611000658 0.0020559190212459649 0 0.37656511219875299 0.01506684164695265 0 0.38692886680390498 0.012697211401987639 0 0.38487774855256313 0.01708275495703512 0 0.39024464589665731 0.01570328183419889 0 0.38692886680390498 0.012697211401987639 0 0.39050045949073042 0.01164006626157167 0 0.39024464589665731 0.01570328183419889 0 0.36486541801191058 0.01539183789018787 0 0.38775815611000658 0.0020559190212459649 0 0.38277725238075322 -0.0001380740817545148 0 0.36486541801191058 0.01539183789018787 0 0.38775815611000658 0.0020559190212459649 0 0.39289391680897318 0.0076847426326344236 0 0.39050045949073042 0.01164006626157167 0 0.38841749507454593 0.0091873604558566409 0 0.38692886680390498 0.012697211401987639 0 0.39050045949073042 0.01164006626157167 0 0.38841749507454593 0.0091873604558566409 0 0.38692886680390498 0.012697211401987639 0 0.38841749507454593 0.0091873604558566409 0 0.38386166900953789 0.01211033733492713 0 0.38692886680390498 0.012697211401987639 0 0.38386166900953789 0.01211033733492713 0 0.38487774855256313 0.01708275495703512 0 0.38841749507454593 0.0091873604558566409 0 0.38386166900953789 0.01211033733492713 0 0.38775815611000658 0.0020559190212459649 0 0.39289391680897318 0.0076847426326344236 0 0.38841749507454593 0.0091873604558566409 0 0.38775815611000658 0.0020559190212459649 0 0.38386166900953789 0.01211033733492713 0 0.38775815611000658 0.0020559190212459649 0 0.37656511219875299 0.01506684164695265 0 0.38386166900953789 0.01211033733492713 0 0.37656511219875299 0.01506684164695265 0 0.38009781813059812 0.018659332476206169 0 0.37320023128233287 0.019636678600888361 0 0.37656511219875299 0.01506684164695265 0 0.37726927717673397 0.02072751532422731 0 0.37656511219875299 0.01506684164695265 0 0.37726927717673397 0.02072751532422731 0 0.38009781813059812 0.018659332476206169 0 0.37320023128233287 0.019636678600888361 0 0.37726927717673397 0.02072751532422731 0 0.37648626822911352 0.026273011910785869 0 0.38009781813059812 0.018659332476206169 0 0.38351703255951702 0.0216625488513894 0 0.37999695604287242 0.02400171198630353 0 0.37726927717673397 0.02072751532422731 0 0.38009781813059812 0.018659332476206169 0 0.37999695604287242 0.02400171198630353 0 0.38386166900953789 0.01211033733492713 0 0.38009781813059812 0.018659332476206169 0 0.38487774855256313 0.01708275495703512 0 0.38009781813059812 0.018659332476206169 0 0.38487774855256313 0.01708275495703512 0 0.38351703255951702 0.0216625488513894 0 0.38351703255951702 0.0216625488513894 0 0.38796196501223651 0.020964661048733981 0 0.38615211597140131 0.023911232677101799 0 0.38487774855256313 0.01708275495703512 0 0.38351703255951702 0.0216625488513894 0 0.38796196501223651 0.020964661048733981 0 0.38796196501223651 0.020964661048733981 0 0.38913298792738982 0.025434007485509211 0 0.38615211597140131 0.023911232677101799 0 0.39273331072045808 0.02276943622408939 0 0.38796196501223651 0.020964661048733981 0 0.38913298792738982 0.025434007485509211 0 0.38487774855256313 0.01708275495703512 0 0.38796196501223651 0.020964661048733981 0 0.39024464589665731 0.01570328183419889 0 0.39152346431731128 0.019378361536505261 0 0.38796196501223651 0.020964661048733981 0 0.39024464589665731 0.01570328183419889 0 0.38804919875565369 0.028341333137320578 0 0.38513940390719498 0.029457837926462171 0 0.38811639144655458 0.031260873616244543 0 0.39170287355487909 0.029023232818461541 0 0.38804919875565369 0.028341333137320578 0 0.38811639144655458 0.031260873616244543 0 0.39170287355487909 0.029023232818461541 0 0.38811639144655458 0.031260873616244543 0 0.39089567430187111 0.032730855744928893 0 0.39170287355487909 0.029023232818461541 0 0.38804919875565369 0.028341333137320578 0 0.38913298792738982 0.025434007485509211 0 0.38913298792738982 0.025434007485509211 0 0.38623350224738778 0.026566885660520421 0 0.38615211597140131 0.023911232677101799 0 0.38804919875565369 0.028341333137320578 0 0.38913298792738982 0.025434007485509211 0 0.38623350224738778 0.026566885660520421 0 0.38351703255951702 0.0216625488513894 0 0.38615211597140131 0.023911232677101799 0 0.38338412613610329 0.02600543535179662 0 0.38623350224738778 0.026566885660520421 0 0.38615211597140131 0.023911232677101799 0 0.38338412613610329 0.02600543535179662 0 0.38623350224738778 0.026566885660520421 0 0.38338412613610329 0.02600543535179662 0 0.38513940390719498 0.029457837926462171 0 0.38338412613610329 0.02600543535179662 0 0.38513940390719498 0.029457837926462171 0 0.38190871984835151 0.02946808399073517 0 0.38804919875565369 0.028341333137320578 0 0.38623350224738778 0.026566885660520421 0 0.38513940390719498 0.029457837926462171 0 0.38513940390719498 0.029457837926462171 0 0.38190871984835151 0.02946808399073517 0 0.3831541664430409 0.031951472705653218 0 0.38190871984835151 0.02946808399073517 0 0.37973105584237188 0.031865376427477547 0 0.3831541664430409 0.031951472705653218 0 0.38338412613610329 0.02600543535179662 0 0.38190871984835151 0.02946808399073517 0 0.38030720089480352 0.02688023516699618 0 0.38190871984835151 0.02946808399073517 0 0.3797599342175767 0.028652932595359729 0 0.38030720089480352 0.02688023516699618 0 0.38190871984835151 0.02946808399073517 0 0.3797599342175767 0.028652932595359729 0 0.37973105584237188 0.031865376427477547 0 0.38351703255951702 0.0216625488513894 0 0.38338412613610329 0.02600543535179662 0 0.37999695604287242 0.02400171198630353 0 0.38338412613610329 0.02600543535179662 0 0.38030720089480352 0.02688023516699618 0 0.37999695604287242 0.02400171198630353 0 0.38030720089480352 0.02688023516699618 0 0.37999695604287242 0.02400171198630353 0 0.37648626822911352 0.026273011910785869 0 0.37726927717673397 0.02072751532422731 0 0.37999695604287242 0.02400171198630353 0 0.37648626822911352 0.026273011910785869 0 0.3797599342175767 0.028652932595359729 0 0.38030720089480352 0.02688023516699618 0 0.37648626822911352 0.026273011910785869 0 0.3797599342175767 0.028652932595359729 0 0.37648626822911352 0.026273011910785869 0 0.37973105584237188 0.031865376427477547 0 0.37648626822911352 0.026273011910785869 0 0.37973105584237188 0.031865376427477547 0 0.38039914879997222 0.038296304769691633 0 0.38039914879997222 0.038296304769691633 0 0.38787738670569011 0.045980489760689108 0 0.39931461899428428 0.053249446759921659 0 0.38039914879997222 0.038296304769691633 0 0.38760066497762041 0.041934032763013128 0 0.39931461899428428 0.053249446759921659 0 0.38039914879997222 0.038296304769691633 0 0.39931461899428428 0.053249446759921659 0 0.37973105584237188 0.031865376427477547 0 0.38097235890201631 0.03548254728108359 0 0.38334855231413301 0.035382934354177178 0 0.37973105584237188 0.031865376427477547 0 0.3831541664430409 0.031951472705653218 0 0.38334855231413301 0.035382934354177178 0 0.37973105584237188 0.031865376427477547 0 0.38097235890201631 0.03548254728108359 0 0.38039914879997222 0.038296304769691633 0 0.38039914879997222 0.038296304769691633 0 0.3829552862359194 0.039036423623068237 0 0.38312454758429038 0.037373937160261723 0 0.38097235890201631 0.03548254728108359 0 0.38334855231413301 0.035382934354177178 0 0.38312454758429038 0.037373937160261723 0 0.38097235890201631 0.03548254728108359 0 0.38039914879997222 0.038296304769691633 0 0.38312454758429038 0.037373937160261723 0 0.37390782930614641 0.03714425036146534 0 0.38039914879997222 0.038296304769691633 0 0.3762021228740452 0.038772162621487347 0 0.38039914879997222 0.038296304769691633 0 0.3762021228740452 0.038772162621487347 0 0.37949524848152838 0.040500357418032477 0 0.37389897424011698 0.042538475553108607 0 0.37807115261018159 0.042907397960655319 0 0.37727665751814199 0.040612828254456917 0 0.37389897424011698 0.042538475553108607 0 0.3762021228740452 0.038772162621487347 0 0.37727665751814199 0.040612828254456917 0 0.37807115261018159 0.042907397960655319 0 0.37727665751814199 0.040612828254456917 0 0.37949524848152838 0.040500357418032477 0 0.3762021228740452 0.038772162621487347 0 0.37727665751814199 0.040612828254456917 0 0.37949524848152838 0.040500357418032477 0 0.37389897424011698 0.042538475553108607 0 0.37807115261018159 0.042907397960655319 0 0.37761312278541309 0.046675485298132258 0 0.37807115261018159 0.042907397960655319 0 0.37761312278541309 0.046675485298132258 0 0.38002860170279879 0.044908508941041397 0 0.38002860170279879 0.044908508941041397 0 0.38276838354196951 0.045805180064231288 0 0.38144640250703321 0.049361242327565988 0 0.37807115261018159 0.042907397960655319 0 0.38002860170279879 0.044908508941041397 0 0.38046650830774481 0.042506247805972987 0 0.38002860170279879 0.044908508941041397 0 0.38276838354196951 0.045805180064231288 0 0.38046650830774481 0.042506247805972987 0 0.38276838354196951 0.045805180064231288 0 0.38046650830774481 0.042506247805972987 0 0.38376230532520728 0.043674431742555177 0 0.38039914879997222 0.038296304769691633 0 0.37949524848152838 0.040500357418032477 0 0.38215043171525681 0.040963454972838861 0 0.37949524848152838 0.040500357418032477 0 0.38046650830774481 0.042506247805972987 0 0.38215043171525681 0.040963454972838861 0 0.37807115261018159 0.042907397960655319 0 0.37949524848152838 0.040500357418032477 0 0.38046650830774481 0.042506247805972987 0 0.38046650830774481 0.042506247805972987 0 0.38215043171525681 0.040963454972838861 0 0.38376230532520728 0.043674431742555177 0 0.38039914879997222 0.038296304769691633 0 0.38760066497762041 0.041934032763013128 0 0.3829552862359194 0.039036423623068237 0 0.38039914879997222 0.038296304769691633 0 0.38215043171525681 0.040963454972838861 0 0.38787738670569011 0.045980489760689108 0 0.38453740122136532 0.039594573897301533 0 0.38760066497762041 0.041934032763013128 0 0.3829552862359194 0.039036423623068237 0 0.38453740122136532 0.039594573897301533 0 0.38642804757856541 0.039446743703126827 0 0.38760066497762041 0.041934032763013128 0 0.38376230532520728 0.043674431742555177 0 0.38490650867122578 0.046102691729921152 0 0.38787738670569011 0.045980489760689108 0 0.38215043171525681 0.040963454972838861 0 0.38376230532520728 0.043674431742555177 0 0.38787738670569011 0.045980489760689108 0 0.38276838354196951 0.045805180064231288 0 0.38376230532520728 0.043674431742555177 0 0.38490650867122578 0.046102691729921152 0 0.38760066497762041 0.041934032763013128 0 0.38912057028799169 0.042073683923747739 0 0.3927854541269456 0.045238666533625703 0 0.38642804757856541 0.039446743703126827 0 0.38854587214686392 0.039560646522367231 0 0.38912057028799169 0.042073683923747739 0 0.38642804757856541 0.039446743703126827 0 0.38760066497762041 0.041934032763013128 0 0.38912057028799169 0.042073683923747739 0 0.38854587214686392 0.039560646522367231 0 0.38912057028799169 0.042073683923747739 0 0.39068973052897149 0.040139511502229927 0 0.38854587214686392 0.039560646522367231 0 0.38958882587343119 0.037707944924487778 0 0.39068973052897149 0.040139511502229927 0 0.38854587214686392 0.039560646522367231 0 0.38958882587343119 0.037707944924487778 0 0.38754796765115601 0.037324124024336769 0 0.38642804757856541 0.039446743703126827 0 0.38854587214686392 0.039560646522367231 0 0.38754796765115601 0.037324124024336769 0 0.38754796765115601 0.037324124024336769 0 0.38709750632688628 0.035198271570505119 0 0.38978347047255307 0.035596853636370253 0 0.38958882587343119 0.037707944924487778 0 0.38978347047255307 0.035596853636370253 0 0.39170453652093601 0.037917764233848579 0 0.38958882587343119 0.037707944924487778 0 0.38754796765115601 0.037324124024336769 0 0.38978347047255307 0.035596853636370253 0 0.38978347047255307 0.035596853636370253 0 0.38837103104034781 0.033572471784612021 0 0.39089567430187111 0.032730855744928893 0 0.38811639144655458 0.031260873616244543 0 0.38837103104034781 0.033572471784612021 0 0.39089567430187111 0.032730855744928893 0 0.38811639144655458 0.031260873616244543 0 0.38837103104034781 0.033572471784612021 0 0.38596211265387398 0.033075504355011283 0 0.38709750632688628 0.035198271570505119 0 0.38837103104034781 0.033572471784612021 0 0.38596211265387398 0.033075504355011283 0 0.38709750632688628 0.035198271570505119 0 0.38978347047255307 0.035596853636370253 0 0.38837103104034781 0.033572471784612021 0 0.38596211265387398 0.033075504355011283 0 0.38334855231413301 0.035382934354177178 0 0.38500323090117378 0.035514192234770911 0 0.38709750632688628 0.035198271570505119 0 0.38596211265387398 0.033075504355011283 0 0.38500323090117378 0.035514192234770911 0 0.38513940390719498 0.029457837926462171 0 0.38811639144655458 0.031260873616244543 0 0.38596211265387398 0.033075504355011283 0 0.38513940390719498 0.029457837926462171 0 0.38596211265387398 0.033075504355011283 0 0.3831541664430409 0.031951472705653218 0 0.38596211265387398 0.033075504355011283 0 0.3831541664430409 0.031951472705653218 0 0.38334855231413301 0.035382934354177178 0 0.38709750632688628 0.035198271570505119 0 0.38312454758429038 0.037373937160261723 0 0.38550597325197478 0.037864601874404782 0 0.38334855231413301 0.035382934354177178 0 0.38312454758429038 0.037373937160261723 0 0.38500323090117378 0.035514192234770911 0 0.38709750632688628 0.035198271570505119 0 0.38312454758429038 0.037373937160261723 0 0.38500323090117378 0.035514192234770911 0 0.38453740122136532 0.039594573897301533 0 0.38312454758429038 0.037373937160261723 0 0.38550597325197478 0.037864601874404782 0 0.38453740122136532 0.039594573897301533 0 0.3829552862359194 0.039036423623068237 0 0.38312454758429038 0.037373937160261723 0 0.38642804757856541 0.039446743703126827 0 0.38754796765115601 0.037324124024336769 0 0.38550597325197478 0.037864601874404782 0 0.38453740122136532 0.039594573897301533 0 0.38642804757856541 0.039446743703126827 0 0.38550597325197478 0.037864601874404782 0 0.38754796765115601 0.037324124024336769 0 0.38709750632688628 0.035198271570505119 0 0.38550597325197478 0.037864601874404782 0 0.37321242428311269 0.067167174221926695 0 0.38049429803613433 0.054525645143114747 0 0.38742083261154348 0.061424165864568753 0 0.37321242428311269 0.067167174221926695 0 0.37296313859008062 0.053296886614944479 0 0.38049429803613433 0.054525645143114747 0 0.37296313859008062 0.053296886614944479 0 0.37761312278541309 0.046675485298132258 0 0.38049429803613433 0.054525645143114747 0 0.37761312278541309 0.046675485298132258 0 0.38049429803613433 0.054525645143114747 0 0.38144640250703321 0.049361242327565988 0 0.38049429803613433 0.054525645143114747 0 0.38144640250703321 0.049361242327565988 0 0.38521795911203638 0.048950665352209023 0 0.37761312278541309 0.046675485298132258 0 0.38002860170279879 0.044908508941041397 0 0.38144640250703321 0.049361242327565988 0 0.38276838354196951 0.045805180064231288 0 0.38144640250703321 0.049361242327565988 0 0.38521795911203638 0.048950665352209023 0 0.38276838354196951 0.045805180064231288 0 0.38490650867122578 0.046102691729921152 0 0.38521795911203638 0.048950665352209023 0 0.38490650867122578 0.046102691729921152 0 0.38787738670569011 0.045980489760689108 0 0.38521795911203638 0.048950665352209023 0 0.38787738670569011 0.045980489760689108 0 0.38815999815065511 0.051847027338979147 0 0.39204202901757029 0.052729260246074952 0 0.38787738670569011 0.045980489760689108 0 0.38521795911203638 0.048950665352209023 0 0.38815999815065511 0.051847027338979147 0 0.38815999815065511 0.051847027338979147 0 0.38973374666948718 0.055179347368043488 0 0.39204202901757029 0.052729260246074952 0 0.38815999815065511 0.051847027338979147 0 0.38590210460466517 0.054590362593337168 0 0.38973374666948718 0.055179347368043488 0 0.38521795911203638 0.048950665352209023 0 0.38815999815065511 0.051847027338979147 0 0.38590210460466517 0.054590362593337168 0 0.38049429803613433 0.054525645143114747 0 0.38521795911203638 0.048950665352209023 0 0.38590210460466517 0.054590362593337168 0 0.38049429803613433 0.054525645143114747 0 0.38590210460466517 0.054590362593337168 0 0.38742083261154348 0.061424165864568753 0 0.38590210460466517 0.054590362593337168 0 0.38973374666948718 0.055179347368043488 0 0.38742083261154348 0.061424165864568753 0 0.38973374666948718 0.055179347368043488 0 0.38742083261154348 0.061424165864568753 0 0.39550309630190061 0.054794770107697718 0 0.38787738670569011 0.045980489760689108 0 0.39204202901757029 0.052729260246074952 0 0.39931461899428428 0.053249446759921659 0 0.39682318800360278 0.047997640701804699 0 0.39931461899428428 0.053249446759921659 0 0.3927854541269456 0.045238666533625703 0 0.39550309630190061 0.054794770107697718 0 0.39204202901757029 0.052729260246074952 0 0.39931461899428428 0.053249446759921659 0 0.38973374666948718 0.055179347368043488 0 0.39550309630190061 0.054794770107697718 0 0.39204202901757029 0.052729260246074952 0 0.39682318800360278 0.047997640701804699 0 0.40087438284979909 0.04788813182697061 0 0.39754001365512309 0.045304641728068043 0 0.40087438284979909 0.04788813182697061 0 0.39931461899428428 0.053249446759921659 0 0.40879560490985251 0.052675910074937521 0 0.40087438284979909 0.04788813182697061 0 0.40488459935387128 0.044552209675148641 0 0.40879560490985251 0.052675910074937521 0 0.39682318800360278 0.047997640701804699 0 0.40087438284979909 0.04788813182697061 0 0.39931461899428428 0.053249446759921659 0 0.40305771159223119 0.067954943283569311 0 0.39550309630190061 0.054794770107697718 0 0.39931461899428428 0.053249446759921659 0 0.39619837996639212 0.037942851585405613 0 0.39783880629277291 0.033713510802900033 0 0.39327637312672747 0.035045304289356143 0 0.39720827988417368 0.02971578857539001 0 0.39783880629277291 0.033713510802900033 0 0.39413642133341498 0.032020902239633803 0 0.39783880629277291 0.033713510802900033 0 0.39327637312672747 0.035045304289356143 0 0.39413642133341498 0.032020902239633803 0 0.39327637312672747 0.035045304289356143 0 0.39413642133341498 0.032020902239633803 0 0.39089567430187111 0.032730855744928893 0 0.39170287355487909 0.029023232818461541 0 0.39413642133341498 0.032020902239633803 0 0.39089567430187111 0.032730855744928893 0 0.38978347047255307 0.035596853636370253 0 0.39327637312672747 0.035045304289356143 0 0.39089567430187111 0.032730855744928893 0 0.39619837996639212 0.037942851585405613 0 0.39170453652093601 0.037917764233848579 0 0.39359032939702249 0.040744014770603153 0 0.39619837996639212 0.037942851585405613 0 0.39327637312672747 0.035045304289356143 0 0.39170453652093601 0.037917764233848579 0 0.38978347047255307 0.035596853636370253 0 0.39327637312672747 0.035045304289356143 0 0.39170453652093601 0.037917764233848579 0 0.38958882587343119 0.037707944924487778 0 0.39170453652093601 0.037917764233848579 0 0.39068973052897149 0.040139511502229927 0 0.38760066497762041 0.041934032763013128 0 0.39931461899428428 0.053249446759921659 0 0.3927854541269456 0.045238666533625703 0 0.39170453652093601 0.037917764233848579 0 0.39068973052897149 0.040139511502229927 0 0.39359032939702249 0.040744014770603153 0 0.39068973052897149 0.040139511502229927 0 0.39215100215053939 0.042341596670457712 0 0.39359032939702249 0.040744014770603153 0 0.38912057028799169 0.042073683923747739 0 0.39068973052897149 0.040139511502229927 0 0.39215100215053939 0.042341596670457712 0 0.39215100215053939 0.042341596670457712 0 0.39359032939702249 0.040744014770603153 0 0.39456892641176561 0.043512106622082027 0 0.38912057028799169 0.042073683923747739 0 0.39215100215053939 0.042341596670457712 0 0.3927854541269456 0.045238666533625703 0 0.3927854541269456 0.045238666533625703 0 0.39456731948126161 0.045512879061595873 0 0.39456892641176561 0.043512106622082027 0 0.39215100215053939 0.042341596670457712 0 0.3927854541269456 0.045238666533625703 0 0.39456892641176561 0.043512106622082027 0 0.39682318800360278 0.047997640701804699 0 0.3927854541269456 0.045238666533625703 0 0.39456731948126161 0.045512879061595873 0 0.39682318800360278 0.047997640701804699 0 0.39456731948126161 0.045512879061595873 0 0.39754001365512309 0.045304641728068043 0 0.39456731948126161 0.045512879061595873 0 0.39456892641176561 0.043512106622082027 0 0.39754001365512309 0.045304641728068043 0 0.39456892641176561 0.043512106622082027 0 0.39754001365512309 0.045304641728068043 0 0.39766432914838651 0.041854404659840992 0 0.39359032939702249 0.040744014770603153 0 0.39456892641176561 0.043512106622082027 0 0.39766432914838651 0.041854404659840992 0 0.39619837996639212 0.037942851585405613 0 0.39359032939702249 0.040744014770603153 0 0.39766432914838651 0.041854404659840992 0 0.39619837996639212 0.037942851585405613 0 0.39766432914838651 0.041854404659840992 0 0.40264441046988969 0.03813514636857375 0 0.39766432914838651 0.041854404659840992 0 0.40083008954478577 0.04400418333072529 0 0.40264441046988969 0.03813514636857375 0 0.40087438284979909 0.04788813182697061 0 0.40083008954478577 0.04400418333072529 0 0.40488459935387128 0.044552209675148641 0 0.40087438284979909 0.04788813182697061 0 0.39754001365512309 0.045304641728068043 0 0.40083008954478577 0.04400418333072529 0 0.39754001365512309 0.045304641728068043 0 0.39766432914838651 0.041854404659840992 0 0.40083008954478577 0.04400418333072529 0 0.40083008954478577 0.04400418333072529 0 0.40488459935387128 0.044552209675148641 0 0.40264441046988969 0.03813514636857375 0 0.40488459935387128 0.044552209675148641 0 0.40264441046988969 0.03813514636857375 0 0.40927883623419881 0.040731330257823162 0 0.40291539041683311 0.030927539883910189 0 0.40264441046988969 0.03813514636857375 0 0.41163925498087978 0.032776183754937932 0 0.39619837996639212 0.037942851585405613 0 0.39783880629277291 0.033713510802900033 0 0.40264441046988969 0.03813514636857375 0 0.39720827988417368 0.02971578857539001 0 0.40291539041683311 0.030927539883910189 0 0.39783880629277291 0.033713510802900033 0 0.40291539041683311 0.030927539883910189 0 0.39783880629277291 0.033713510802900033 0 0.40264441046988969 0.03813514636857375 0 0.41163925498087978 0.032776183754937932 0 0.40927883623419881 0.040731330257823162 0 0.41610024188971673 0.041071132545148603 0 0.40264441046988969 0.03813514636857375 0 0.41163925498087978 0.032776183754937932 0 0.40927883623419881 0.040731330257823162 0 0.40488459935387128 0.044552209675148641 0 0.40927883623419881 0.040731330257823162 0 0.41200102256855858 0.04695046089363257 0 0.40927883623419881 0.040731330257823162 0 0.41610024188971673 0.041071132545148603 0 0.41200102256855858 0.04695046089363257 0 0.41610024188971673 0.041071132545148603 0 0.41200102256855858 0.04695046089363257 0 0.4221145642689737 0.046893959500258341 0 0.41610024188971673 0.041071132545148603 0 0.4221145642689737 0.046893959500258341 0 0.42579893724826678 0.038112024617692287 0 0.41163925498087978 0.032776183754937932 0 0.41912875533312738 0.035032049674790823 0 0.4229765872136465 0.02816885778138447 0 0.41163925498087978 0.032776183754937932 0 0.41610024188971673 0.041071132545148603 0 0.41912875533312738 0.035032049674790823 0 0.41610024188971673 0.041071132545148603 0 0.41912875533312738 0.035032049674790823 0 0.42579893724826678 0.038112024617692287 0 0.41823008918859672 0.068202588750151311 0 0.39931461899428428 0.053249446759921659 0 0.41823008918859672 0.068202588750151311 0 0.39931461899428428 0.053249446759921659 0 0.40879560490985251 0.052675910074937521 0 0.40879560490985251 0.052675910074937521 0 0.41200102256855858 0.04695046089363257 0 0.41862236998438879 0.053678852152539439 0 0.40488459935387128 0.044552209675148641 0 0.40879560490985251 0.052675910074937521 0 0.41200102256855858 0.04695046089363257 0 0.41200102256855858 0.04695046089363257 0 0.41862236998438879 0.053678852152539439 0 0.4221145642689737 0.046893959500258341 0 0.41823008918859672 0.068202588750151311 0 0.40879560490985251 0.052675910074937521 0 0.41862236998438879 0.053678852152539439 0 0.43147635587366051 0.053195217228823241 0 0.43606802005744871 0.034141086844741743 0 0.44408005970095787 0.055119217325862328 0 0.41823008918859672 0.068202588750151311 0 0.41862236998438879 0.053678852152539439 0 0.43147635587366051 0.053195217228823241 0 0.41862236998438879 0.053678852152539439 0 0.4221145642689737 0.046893959500258341 0 0.43147635587366051 0.053195217228823241 0 0.43147635587366051 0.053195217228823241 0 0.42579893724826678 0.038112024617692287 0 0.43606802005744871 0.034141086844741743 0 0.42579893724826678 0.038112024617692287 0 0.43606802005744871 0.034141086844741743 0 0.4229765872136465 0.02816885778138447 0 0.41912875533312738 0.035032049674790823 0 0.42579893724826678 0.038112024617692287 0 0.4229765872136465 0.02816885778138447 0 0.4221145642689737 0.046893959500258341 0 0.43147635587366051 0.053195217228823241 0 0.42579893724826678 0.038112024617692287 0 0.43606802005744871 0.034141086844741743 0 0.43732116093053319 0.018376164127895639 0 0.4229765872136465 0.02816885778138447 0 0.43732116093053319 0.018376164127895639 0 0.42515881787162829 0.017309926023232312 0 0.4229765872136465 0.02816885778138447 0 0.41163925498087978 0.032776183754937932 0 0.4229765872136465 0.02816885778138447 0 0.41564651592527779 0.02137569793706862 0 0.42515881787162829 0.017309926023232312 0 0.4229765872136465 0.02816885778138447 0 0.41564651592527779 0.02137569793706862 0 0.42515881787162829 0.017309926023232312 0 0.41564651592527779 0.02137569793706862 0 0.41893123081502343 0.0098465326001110111 0 0.41564651592527779 0.02137569793706862 0 0.40649360029399989 0.02472771259161767 0 0.40951844202205379 0.014518066353574961 0 0.4029369592797214 0.018101455229931972 0 0.40649360029399989 0.02472771259161767 0 0.40951844202205379 0.014518066353574961 0 0.41163925498087978 0.032776183754937932 0 0.41564651592527779 0.02137569793706862 0 0.40649360029399989 0.02472771259161767 0 0.40291539041683311 0.030927539883910189 0 0.41163925498087978 0.032776183754937932 0 0.40649360029399989 0.02472771259161767 0 0.3995552579905704 0.01138423271473105 0 0.4101557776198666 0.0039100778627095996 0 0.40951844202205379 0.014518066353574961 0 0.4101557776198666 0.0039100778627095996 0 0.40951844202205379 0.014518066353574961 0 0.41893123081502343 0.0098465326001110111 0 0.41564651592527779 0.02137569793706862 0 0.40951844202205379 0.014518066353574961 0 0.41893123081502343 0.0098465326001110111 0 0.4101557776198666 0.0039100778627095996 0 0.41893123081502343 0.0098465326001110111 0 0.42324715161158399 -0.00039531998801555732 0 0.43732116093053319 0.018376164127895639 0 0.42914165442421942 0.0090725108290305636 0 0.43749603079344429 0.00080551770058690073 0 0.41893123081502343 0.0098465326001110111 0 0.42914165442421942 0.0090725108290305636 0 0.42324715161158399 -0.00039531998801555732 0 0.42515881787162829 0.017309926023232312 0 0.41893123081502343 0.0098465326001110111 0 0.42914165442421942 0.0090725108290305636 0 0.43732116093053319 0.018376164127895639 0 0.42515881787162829 0.017309926023232312 0 0.42914165442421942 0.0090725108290305636 0 0.42914165442421942 0.0090725108290305636 0 0.43749603079344429 0.00080551770058690073 0 0.42324715161158399 -0.00039531998801555732 0 0.43732116093053319 0.018376164127895639 0 0.43749603079344429 0.00080551770058690073 0 0.45546176144043482 0.003001642972557774 0 0.43732116093053319 0.018376164127895639 0 0.4525641434842651 0.018907381654454481 0 0.45546176144043482 0.003001642972557774 0 0.43732116093053319 0.018376164127895639 0 0.45546176144043482 0.003001642972557774 0 0.43732116093053319 0.018376164127895639 0 0.44502947927668979 0.027110696211624818 0 0.4525641434842651 0.018907381654454481 0 0.43606802005744871 0.034141086844741743 0 0.43732116093053319 0.018376164127895639 0 0.44502947927668979 0.027110696211624818 0 0.44502947927668979 0.027110696211624818 0 0.4525641434842651 0.018907381654454481 0 0.45462048412717371 0.029756355313588671 0 0.44502947927668979 0.027110696211624818 0 0.45462048412717371 0.029756355313588671 0 0.44837912384220568 0.035555292549748388 0 0.4525641434842651 0.018907381654454481 0 0.46454406671414561 0.02322116867561129 0 0.46031067644570289 0.012569662341601069 0 0.4525641434842651 0.018907381654454481 0 0.45462048412717371 0.029756355313588671 0 0.46454406671414561 0.02322116867561129 0 0.45462048412717371 0.029756355313588671 0 0.46454406671414561 0.02322116867561129 0 0.46765160925394678 0.037139300830236532 0 0.46454406671414561 0.02322116867561129 0 0.46031067644570289 0.012569662341601069 0 0.47080840863452572 0.017331211696876798 0 0.45546176144043482 0.003001642972557774 0 0.46031067644570289 0.012569662341601069 0 0.47360236195033778 -0.01237287818277838 0 0.46031067644570289 0.012569662341601069 0 0.47604574539546468 -0.01166042521736413 0 0.4525641434842651 0.018907381654454481 0 0.45546176144043482 0.003001642972557774 0 0.46031067644570289 0.012569662341601069 0 0.44363835297819249 0.066213879410677023 0 0.45280140616462228 0.059805189245329439 0 0.44408005970095787 0.055119217325862328 0 0.44363835297819249 0.066213879410677023 0 0.43147635587366051 0.053195217228823241 0 0.44408005970095787 0.055119217325862328 0 0.45280140616462228 0.059805189245329439 0 0.44408005970095787 0.055119217325862328 0 0.45160266454223869 0.047808026903914162 0 0.43606802005744871 0.034141086844741743 0 0.44408005970095787 0.055119217325862328 0 0.45160266454223869 0.047808026903914162 0 0.43606802005744871 0.034141086844741743 0 0.45160266454223869 0.047808026903914162 0 0.44837912384220568 0.035555292549748388 0 0.45160266454223869 0.047808026903914162 0 0.44837912384220568 0.035555292549748388 0 0.4564777392365662 0.03955169719102495 0 0.43606802005744871 0.034141086844741743 0 0.45160266454223869 0.047808026903914162 0 0.43606802005744871 0.034141086844741743 0 0.44502947927668979 0.027110696211624818 0 0.44837912384220568 0.035555292549748388 0 0.45462048412717371 0.029756355313588671 0 0.44837912384220568 0.035555292549748388 0 0.4564777392365662 0.03955169719102495 0 0.45462048412717371 0.029756355313588671 0 0.46765160925394678 0.037139300830236532 0 0.4564777392365662 0.03955169719102495 0 0.46765160925394678 0.037139300830236532 0 0.46318151267173008 0.046406823399432383 0 0.4564777392365662 0.03955169719102495 0 0.46765160925394678 0.037139300830236532 0 0.46318151267173008 0.046406823399432383 0 0.47258602378039688 0.050285562549417018 0 0.45160266454223869 0.047808026903914162 0 0.46318151267173008 0.046406823399432383 0 0.4564777392365662 0.03955169719102495 0 0.45160266454223869 0.047808026903914162 0 0.46713730902702888 0.061474966963086193 0 0.45160266454223869 0.047808026903914162 0 0.46318151267173008 0.046406823399432383 0 0.46713730902702888 0.061474966963086193 0 0.46318151267173008 0.046406823399432383 0 0.46713730902702888 0.061474966963086193 0 0.47258602378039688 0.050285562549417018 0 0.46318151267173008 0.046406823399432383 0 0.46713730902702888 0.061474966963086193 0 0.45280140616462228 0.059805189245329439 0 0.45160266454223869 0.047808026903914162 0 0.46713730902702888 0.061474966963086193 0 0.46713730902702888 0.061474966963086193 0 0.47915947859935898 0.058049526635483573 0 0.47258602378039688 0.050285562549417018 0 0.47915947859935898 0.058049526635483573 0 0.47258602378039688 0.050285562549417018 0 0.48291411995600952 0.044793731528750963 0 0.48291411995600952 0.044793731528750963 0 0.49053785956190382 0.035479552838611143 0 0.47923731829160582 0.025959767153830408 0 0.46765160925394678 0.037139300830236532 0 0.48291411995600952 0.044793731528750963 0 0.47923731829160582 0.025959767153830408 0 0.46765160925394678 0.037139300830236532 0 0.47258602378039688 0.050285562549417018 0 0.48291411995600952 0.044793731528750963 0 0.49053785956190382 0.035479552838611143 0 0.49999999999999822 0.049001719666997408 0 0.5 0.022162993004865791 0 0.48291411995600952 0.044793731528750963 0 0.49053785956190382 0.035479552838611143 0 0.49999999999999822 0.049001719666997408 0 0.48291411995600952 0.044793731528750963 0 0.49999999999999822 0.049001719666997408 0 0.49107178936291929 0.061839388761760497 0 0.5 0.069694175508385192 0 0.49999999999999822 0.049001719666997408 0 0.49107178936291929 0.061839388761760497 0 0.47915947859935898 0.058049526635483573 0 0.48291411995600952 0.044793731528750963 0 0.49107178936291929 0.061839388761760497 0 0.49999999999999822 0.049001719666997408 0 0.49107178936291929 0.061839388761760497 0 0.46031067644570289 0.012569662341601069 0 0.47914157308664862 0.007574248616464419 0 0.47080840863452572 0.017331211696876798 0 0.46031067644570289 0.012569662341601069 0 0.47914157308664862 0.007574248616464419 0 0.47604574539546468 -0.01166042521736413 0 0.47914157308664862 0.007574248616464419 0 0.47080840863452572 0.017331211696876798 0 0.47923731829160582 0.025959767153830408 0 0.46454406671414561 0.02322116867561129 0 0.47080840863452572 0.017331211696876798 0 0.47923731829160582 0.025959767153830408 0 0.46454406671414561 0.02322116867561129 0 0.46765160925394678 0.037139300830236532 0 0.47923731829160582 0.025959767153830408 0 0.49053785956190382 0.035479552838611143 0 0.47923731829160582 0.025959767153830408 0 0.5 0.022162993004865791 0 0.47914157308664862 0.007574248616464419 0 0.47923731829160582 0.025959767153830408 0 0.5 0.022162993004865791 0 0.47914157308664862 0.007574248616464419 0 0.5 0.022162993004865791 0 0.50000000000000355 -0.004675733657265823 0 0.50000000000000355 -0.004675733657265823 0 0.47604574539546468 -0.01166042521736413 0 0.50000000000000355 -0.004675733657265823 0 0.47604574539546468 -0.01166042521736413 0 0.48006573046615941 -0.017850712057520039 0 0.47914157308664862 0.007574248616464419 0 0.50000000000000355 -0.004675733657265823 0 0.47604574539546468 -0.01166042521736413 0 0.46031067644570289 0.012569662341601069 0 0.47604574539546468 -0.01166042521736413 0 0.47360236195033778 -0.01237287818277838 0 0.47360236195033778 -0.01237287818277838 0 0.48006573046615941 -0.017850712057520039 0 0.47604574539546468 -0.01166042521736413 0 0.48006573046615941 -0.017850712057520039 0 0.47604574539546468 -0.01166042521736413 0 0.47360236195033778 -0.01237287818277838 0 0.48006573046615941 -0.017850712057520039 0 0.47604574539546468 -0.01166042521736413 0 0.47360236195033778 -0.01237287818277838 0 0.47595059259881661 -0.028693882209225981 0 0.46940064999854059 -0.021679352880791449 0 0.46439729685477338 -0.029692509223078121 0 0.47595059259881661 -0.028693882209225981 0 0.46940064999854059 -0.021679352880791449 0 0.48006573046615941 -0.017850712057520039 0 0.47360236195033778 -0.01237287818277838 0 0.46940064999854059 -0.021679352880791449 0 0.48006573046615941 -0.017850712057520039 0 0.47595059259881661 -0.028693882209225981 0 0.48006573046615941 -0.017850712057520039 0 0.49003286523307882 -0.033198884276245101 0 0.50000000000000355 -0.004675733657265823 0 0.48006573046615941 -0.017850712057520039 0 0.50000000000000056 -0.034745403525808183 0 0.48006573046615941 -0.017850712057520039 0 0.50000000000000056 -0.034745403525808183 0 0.48006573046615941 -0.017850712057520039 0 0.50000000000000056 -0.034745403525808183 0 0.49003286523307882 -0.033198884276245101 0 0.48006573046615941 -0.017850712057520039 0 0.49003286523307882 -0.033198884276245101 0 0.49003286523307882 -0.033198884276245101 0 0.48650937881506418 -0.056505162497716713 0 0.49999999999999889 -0.048547056494969702 0 0.50000000000000056 -0.034745403525808183 0 0.49003286523307882 -0.033198884276245101 0 0.49999999999999889 -0.048547056494969702 0 0.49003286523307882 -0.033198884276245101 0 0.49999999999999889 -0.048547056494969702 0 0.48650937881506418 -0.056505162497716713 0 0.49999999999999889 -0.048547056494969702 0 0.5 -0.064442825494084421 0 0.47091726956718039 -0.059001909431052671 0 0.47585642044153031 -0.04104795260849517 0 0.46081873490225489 -0.044962983785459751 0 0.48650937881506418 -0.056505162497716713 0 0.47091726956718039 -0.059001909431052671 0 0.47585642044153031 -0.04104795260849517 0 0.49003286523307882 -0.033198884276245101 0 0.48650937881506418 -0.056505162497716713 0 0.47585642044153031 -0.04104795260849517 0 0.47595059259881661 -0.028693882209225981 0 0.49003286523307882 -0.033198884276245101 0 0.47585642044153031 -0.04104795260849517 0 0.47595059259881661 -0.028693882209225981 0 0.47585642044153031 -0.04104795260849517 0 0.46439729685477338 -0.029692509223078121 0 0.47585642044153031 -0.04104795260849517 0 0.46081873490225489 -0.044962983785459751 0 0.46439729685477338 -0.029692509223078121 0 0.46081873490225489 -0.044962983785459751 0 0.4462002799030792 -0.035685585545536157 0 0.46439729685477338 -0.029692509223078121 0 0.47091726956718039 -0.059001909431052671 0 0.46081873490225489 -0.044962983785459751 0 0.45671832416987962 -0.062361555495819392 0 0.46081873490225489 -0.044962983785459751 0 0.45671832416987962 -0.062361555495819392 0 0.44688906830761937 -0.049110485113168033 0 0.44688906830761937 -0.049110485113168033 0 0.44133317137932332 -0.063791810092170387 0 0.42930579809081681 -0.047268187514157338 0 0.45671832416987962 -0.062361555495819392 0 0.44688906830761937 -0.049110485113168033 0 0.44133317137932332 -0.063791810092170387 0 0.44688906830761937 -0.049110485113168033 0 0.4462002799030792 -0.035685585545536157 0 0.42930579809081681 -0.047268187514157338 0 0.46081873490225489 -0.044962983785459751 0 0.44688906830761937 -0.049110485113168033 0 0.4462002799030792 -0.035685585545536157 0 0.4462002799030792 -0.035685585545536157 0 0.44925136021424578 -0.019473255093431261 0 0.42490035847815399 -0.026573632004085329 0 0.43749603079344429 0.00080551770058690073 0 0.45546176144043482 0.003001642972557774 0 0.4475300901513688 -0.0069021261782762442 0 0.44925136021424578 -0.019473255093431261 0 0.4475300901513688 -0.0069021261782762442 0 0.4319367621046995 -0.011722171143253921 0 0.43749603079344429 0.00080551770058690073 0 0.4475300901513688 -0.0069021261782762442 0 0.4319367621046995 -0.011722171143253921 0 0.44925136021424578 -0.019473255093431261 0 0.4475300901513688 -0.0069021261782762442 0 0.45765591852817372 -0.0090334043449977162 0 0.45546176144043482 0.003001642972557774 0 0.47360236195033778 -0.01237287818277838 0 0.45765591852817372 -0.0090334043449977162 0 0.47360236195033778 -0.01237287818277838 0 0.44925136021424578 -0.019473255093431261 0 0.45765591852817372 -0.0090334043449977162 0 0.45546176144043482 0.003001642972557774 0 0.47360236195033778 -0.01237287818277838 0 0.45546176144043482 0.003001642972557774 0 0.4475300901513688 -0.0069021261782762442 0 0.45765591852817372 -0.0090334043449977162 0 0.4462002799030792 -0.035685585545536157 0 0.44925136021424578 -0.019473255093431261 0 0.46439729685477338 -0.029692509223078121 0 0.47360236195033778 -0.01237287818277838 0 0.46940064999854059 -0.021679352880791449 0 0.44925136021424578 -0.019473255093431261 0 0.46940064999854059 -0.021679352880791449 0 0.44925136021424578 -0.019473255093431261 0 0.46439729685477338 -0.029692509223078121 0 0.47360236195033778 -0.01237287818277838 0 0.44925136021424578 -0.019473255093431261 0 0.47505225320150618 -0.12418507433103559 0 0.48752612660075251 -0.1022618344121171 0 0.47505225320150618 -0.12418507433103559 0 0.47364157323786121 -0.11016501971688381 0 0.48752612660075251 -0.1022618344121171 0 0.47505225320150618 -0.12418507433103559 0 0.47364157323786121 -0.11016501971688381 0 0.46153798728186518 -0.1170906641854986 0 0.47505225320150618 -0.12418507433103559 0 0.5 -0.1088100830942126 0 0.50000000000000178 -0.13728157169522609 0 0.47505225320150618 -0.12418507433103559 0 0.48752612660075251 -0.1022618344121171 0 0.5 -0.1088100830942126 0 0.48752612660075251 -0.1022618344121171 0 0.5 -0.1088100830942126 0 0.49999999999999961 -0.080338594493199189 0 0.47364157323786121 -0.11016501971688381 0 0.48752612660075251 -0.1022618344121171 0 0.47044992586732071 -0.097122505938883899 0 0.48752612660075251 -0.1022618344121171 0 0.47044992586732071 -0.097122505938883899 0 0.48604054477235958 -0.086400848984710038 0 0.47044992586732071 -0.097122505938883899 0 0.48604054477235958 -0.086400848984710038 0 0.47850928467982801 -0.076906799185527563 0 0.47044992586732071 -0.097122505938883899 0 0.47850928467982801 -0.076906799185527563 0 0.46615283846970701 -0.075492666984101175 0 0.48752612660075251 -0.1022618344121171 0 0.49999999999999961 -0.080338594493199189 0 0.48752612660075251 -0.1022618344121171 0 0.48604054477235958 -0.086400848984710038 0 0.49999999999999961 -0.080338594493199189 0 0.48604054477235958 -0.086400848984710038 0 0.49024981178383381 -0.072390709993641805 0 0.47850928467982801 -0.076906799185527563 0 0.48604054477235958 -0.086400848984710038 0 0.49999999999999961 -0.080338594493199189 0 0.49024981178383381 -0.072390709993641805 0 0.48650937881506418 -0.056505162497716713 0 0.49024981178383381 -0.072390709993641805 0 0.47850928467982801 -0.076906799185527563 0 0.49999999999999961 -0.080338594493199189 0 0.5 -0.064442825494084421 0 0.49024981178383381 -0.072390709993641805 0 0.48650937881506418 -0.056505162497716713 0 0.5 -0.064442825494084421 0 0.49024981178383381 -0.072390709993641805 0 0.47091726956718039 -0.059001909431052671 0 0.47850928467982801 -0.076906799185527563 0 0.46615283846970701 -0.075492666984101175 0 0.48650937881506418 -0.056505162497716713 0 0.47091726956718039 -0.059001909431052671 0 0.47850928467982801 -0.076906799185527563 0 0.47091726956718039 -0.059001909431052671 0 0.45671832416987962 -0.062361555495819392 0 0.46615283846970701 -0.075492666984101175 0 0.45671832416987962 -0.062361555495819392 0 0.46615283846970701 -0.075492666984101175 0 0.45416938806432661 -0.08207056486922229 0 0.44133317137932332 -0.063791810092170387 0 0.45416938806432661 -0.08207056486922229 0 0.4356477301783237 -0.07679587698005115 0 0.45671832416987962 -0.062361555495819392 0 0.44133317137932332 -0.063791810092170387 0 0.45416938806432661 -0.08207056486922229 0 0.45416938806432661 -0.08207056486922229 0 0.44701085723480771 -0.09738228249688427 0 0.4362077054599327 -0.089901753401903789 0 0.45416938806432661 -0.08207056486922229 0 0.4362077054599327 -0.089901753401903789 0 0.4356477301783237 -0.07679587698005115 0 0.47044992586732071 -0.097122505938883899 0 0.46615283846970701 -0.075492666984101175 0 0.45416938806432661 -0.08207056486922229 0 0.47044992586732071 -0.097122505938883899 0 0.45416938806432661 -0.08207056486922229 0 0.45851773523521161 -0.1031422115272321 0 0.47044992586732071 -0.097122505938883899 0 0.45851773523521161 -0.1031422115272321 0 0.46153798728186518 -0.1170906641854986 0 0.47364157323786121 -0.11016501971688381 0 0.47044992586732071 -0.097122505938883899 0 0.46153798728186518 -0.1170906641854986 0 0.45416938806432661 -0.08207056486922229 0 0.45851773523521161 -0.1031422115272321 0 0.44701085723480771 -0.09738228249688427 0 0.47044992586732071 -0.097122505938883899 0 0.46153798728186518 -0.1170906641854986 0 0.44701085723480771 -0.09738228249688427 0 0.43794297391402742 -0.1016174879589697 0 0.4362077054599327 -0.089901753401903789 0 0.44701085723480771 -0.09738228249688427 0 0.43794297391402742 -0.1016174879589697 0 0.44730955257458882 -0.1096213460484543 0 0.43794297391402742 -0.1016174879589697 0 0.44730955257458882 -0.1096213460484543 0 0.43420336873243842 -0.1124427378033423 0 0.45851773523521161 -0.1031422115272321 0 0.44701085723480771 -0.09738228249688427 0 0.44730955257458882 -0.1096213460484543 0 0.43420336873243842 -0.1124427378033423 0 0.45770187081776792 -0.12568589628601501 0 0.44730955257458882 -0.1096213460484543 0 0.43420336873243842 -0.1124427378033423 0 0.45770187081776792 -0.12568589628601501 0 0.43420336873243842 -0.1124427378033423 0 0.45770187081776792 -0.12568589628601501 0 0.43942826896843201 -0.13064104711527141 0 0.44730955257458882 -0.1096213460484543 0 0.46153798728186518 -0.1170906641854986 0 0.45770187081776792 -0.12568589628601501 0 0.46153798728186518 -0.1170906641854986 0 0.45770187081776792 -0.12568589628601501 0 0.44730955257458882 -0.1096213460484543 0 0.46153798728186518 -0.1170906641854986 0 0.45851773523521161 -0.1031422115272321 0 0.44730955257458882 -0.1096213460484543 0 0.46153798728186518 -0.1170906641854986 0 0.47505225320150618 -0.12418507433103559 0 0.46153798728186518 -0.1170906641854986 0 0.47505225320150618 -0.12418507433103559 0 0.46153798728186518 -0.1170906641854986 0 0.46413707305310659 -0.1237207154511608 0 0.46153798728186518 -0.1170906641854986 0 0.46413707305310659 -0.1237207154511608 0 0.45770187081776792 -0.12568589628601501 0 0.42165060292430601 -0.11777874991001509 0 0.40407314973488162 -0.1160498156152385 0 0.41073172961654059 -0.13759585085037621 0 0.41639186611546158 -0.11104203840496329 0 0.42165060292430601 -0.11777874991001509 0 0.40407314973488162 -0.1160498156152385 0 0.42165060292430601 -0.11777874991001509 0 0.43002067516741038 -0.1232511444017223 0 0.4248004600444652 -0.13214204277826039 0 0.41639186611546158 -0.11104203840496329 0 0.42165060292430601 -0.11777874991001509 0 0.43420336873243842 -0.1124427378033423 0 0.42165060292430601 -0.11777874991001509 0 0.43002067516741038 -0.1232511444017223 0 0.43420336873243842 -0.1124427378033423 0 0.43002067516741038 -0.1232511444017223 0 0.43420336873243842 -0.1124427378033423 0 0.43942826896843201 -0.13064104711527141 0 0.43420336873243842 -0.1124427378033423 0 0.41070486664710931 -0.099199579320668529 0 0.43794297391402742 -0.1016174879589697 0 0.43420336873243842 -0.1124427378033423 0 0.42523695083156382 -0.09534610373225158 0 0.43420336873243842 -0.1124427378033423 0 0.42523695083156382 -0.09534610373225158 0 0.41070486664710931 -0.099199579320668529 0 0.43794297391402742 -0.1016174879589697 0 0.42523695083156382 -0.09534610373225158 0 0.4362077054599327 -0.089901753401903789 0 0.41639186611546158 -0.11104203840496329 0 0.41070486664710931 -0.099199579320668529 0 0.40407314973488162 -0.1160498156152385 0 0.41639186611546158 -0.11104203840496329 0 0.43420336873243842 -0.1124427378033423 0 0.41070486664710931 -0.099199579320668529 0 0.41124686589479509 -0.086568637143934118 0 0.42244885459787129 -0.081839005429004477 0 0.40576716669667751 -0.071038994424242982 0 0.41070486664710931 -0.099199579320668529 0 0.41124686589479509 -0.086568637143934118 0 0.39847455593335163 -0.082983880402206847 0 0.42523695083156382 -0.09534610373225158 0 0.41124686589479509 -0.086568637143934118 0 0.42244885459787129 -0.081839005429004477 0 0.42523695083156382 -0.09534610373225158 0 0.41070486664710931 -0.099199579320668529 0 0.41124686589479509 -0.086568637143934118 0 0.42523695083156382 -0.09534610373225158 0 0.4362077054599327 -0.089901753401903789 0 0.42244885459787129 -0.081839005429004477 0 0.4362077054599327 -0.089901753401903789 0 0.42244885459787129 -0.081839005429004477 0 0.4356477301783237 -0.07679587698005115 0 0.42244885459787129 -0.081839005429004477 0 0.4356477301783237 -0.07679587698005115 0 0.42407953139016458 -0.066376251107954878 0 0.44133317137932332 -0.063791810092170387 0 0.4356477301783237 -0.07679587698005115 0 0.42407953139016458 -0.066376251107954878 0 0.42244885459787129 -0.081839005429004477 0 0.42407953139016458 -0.066376251107954878 0 0.40576716669667751 -0.071038994424242982 0 0.42407953139016458 -0.066376251107954878 0 0.40576716669667751 -0.071038994424242982 0 0.41396695376387882 -0.056527209780239271 0 0.40576716669667751 -0.071038994424242982 0 0.38789958320723628 -0.065740464939952517 0 0.39726973527020681 -0.051047094295582428 0 0.40576716669667751 -0.071038994424242982 0 0.39253267341605791 -0.076365829236299032 0 0.38789958320723628 -0.065740464939952517 0 0.40576716669667751 -0.071038994424242982 0 0.39253267341605791 -0.076365829236299032 0 0.39847455593335163 -0.082983880402206847 0 0.38789958320723628 -0.065740464939952517 0 0.38331569668124371 -0.076109385577098052 0 0.36991717326486129 -0.076212672085374911 0 0.38789958320723628 -0.065740464939952517 0 0.37420386630349189 -0.050854472750834767 0 0.36991717326486129 -0.076212672085374911 0 0.39253267341605791 -0.076365829236299032 0 0.38789958320723628 -0.065740464939952517 0 0.38331569668124371 -0.076109385577098052 0 0.3872063645617802 -0.085956420837994624 0 0.36738617106911148 -0.091184973021687071 0 0.38331569668124371 -0.076109385577098052 0 0.3872063645617802 -0.085956420837994624 0 0.36991717326486129 -0.076212672085374911 0 0.3872063645617802 -0.085956420837994624 0 0.37962410948918718 -0.095166090959961133 0 0.36738617106911148 -0.091184973021687071 0 0.39253267341605791 -0.076365829236299032 0 0.38331569668124371 -0.076109385577098052 0 0.3872063645617802 -0.085956420837994624 0 0.3872063645617802 -0.085956420837994624 0 0.36991717326486129 -0.076212672085374911 0 0.3872063645617802 -0.085956420837994624 0 0.3902616862095637 -0.099104878618330255 0 0.37962410948918718 -0.095166090959961133 0 0.41070486664710931 -0.099199579320668529 0 0.3872063645617802 -0.085956420837994624 0 0.41070486664710931 -0.099199579320668529 0 0.3872063645617802 -0.085956420837994624 0 0.39847455593335163 -0.082983880402206847 0 0.39253267341605791 -0.076365829236299032 0 0.3872063645617802 -0.085956420837994624 0 0.39847455593335163 -0.082983880402206847 0 0.3872063645617802 -0.085956420837994624 0 0.39847455593335163 -0.082983880402206847 0 0.41124686589479509 -0.086568637143934118 0 0.40576716669667751 -0.071038994424242982 0 0.39847455593335163 -0.082983880402206847 0 0.41070486664710931 -0.099199579320668529 0 0.39511345770587958 -0.10730899483825961 0 0.3902616862095637 -0.099104878618330255 0 0.41070486664710931 -0.099199579320668529 0 0.39511345770587958 -0.10730899483825961 0 0.40407314973488162 -0.1160498156152385 0 0.41070486664710931 -0.099199579320668529 0 0.3872063645617802 -0.085956420837994624 0 0.3902616862095637 -0.099104878618330255 0 0.3902616862095637 -0.099104878618330255 0 0.38075322256534982 -0.10108613364592919 0 0.37962410948918718 -0.095166090959961133 0 0.38075322256534982 -0.10108613364592919 0 0.37962410948918718 -0.095166090959961133 0 0.37251310304013069 -0.098498048675864355 0 0.38075322256534982 -0.10108613364592919 0 0.37550306002753742 -0.11067908922506869 0 0.37251310304013069 -0.098498048675864355 0 0.38075322256534982 -0.10108613364592919 0 0.38541524009189371 -0.10737947597780161 0 0.37550306002753742 -0.11067908922506869 0 0.3902616862095637 -0.099104878618330255 0 0.38075322256534982 -0.10108613364592919 0 0.38541524009189371 -0.10737947597780161 0 0.39511345770587958 -0.10730899483825961 0 0.3902616862095637 -0.099104878618330255 0 0.38541524009189371 -0.10737947597780161 0 0.38524269927198751 -0.1169100348772064 0 0.37550306002753742 -0.11067908922506869 0 0.37326451831426077 -0.12693746981884729 0 0.39511345770587958 -0.10730899483825961 0 0.38541524009189371 -0.10737947597780161 0 0.38524269927198751 -0.1169100348772064 0 0.38541524009189371 -0.10737947597780161 0 0.38524269927198751 -0.1169100348772064 0 0.37550306002753742 -0.11067908922506869 0 0.39511345770587958 -0.10730899483825961 0 0.38524269927198751 -0.1169100348772064 0 0.40407314973488162 -0.1160498156152385 0 0.38524269927198751 -0.1169100348772064 0 0.39479865834708638 -0.12493157334112 0 0.40407314973488162 -0.1160498156152385 0 0.42490035847815399 -0.026573632004085329 0 0.40054935674206232 -0.033674008914739387 0 0.41065089420810241 -0.01127999984769641 0 0.42490035847815399 -0.026573632004085329 0 0.40054935674206232 -0.033674008914739387 0 0.40020280054750379 0.002750994476724927 0 0.4101557776198666 0.0039100778627095996 0 0.41065089420810241 -0.01127999984769641 0 0.4101557776198666 0.0039100778627095996 0 0.41065089420810241 -0.01127999984769641 0 0.42324715161158399 -0.00039531998801555732 0 0.41065089420810241 -0.01127999984769641 0 0.42324715161158399 -0.00039531998801555732 0 0.4319367621046995 -0.011722171143253921 0 0.43749603079344429 0.00080551770058690073 0 0.42324715161158399 -0.00039531998801555732 0 0.4319367621046995 -0.011722171143253921 0 0.41065089420810241 -0.01127999984769641 0 0.4319367621046995 -0.011722171143253921 0 0.42490035847815399 -0.026573632004085329 0 0.44925136021424578 -0.019473255093431261 0 0.4319367621046995 -0.011722171143253921 0 0.42490035847815399 -0.026573632004085329 0 0.44925136021424578 -0.019473255093431261 0 0.42490035847815399 -0.026573632004085329 0 0.42490035847815399 -0.026573632004085329 0 0.42930579809081681 -0.047268187514157338 0 0.41368392610869731 -0.04287527842510315 0 0.4462002799030792 -0.035685585545536157 0 0.42490035847815399 -0.026573632004085329 0 0.42930579809081681 -0.047268187514157338 0 0.42407953139016458 -0.066376251107954878 0 0.42930579809081681 -0.047268187514157338 0 0.41396695376387882 -0.056527209780239271 0 0.44133317137932332 -0.063791810092170387 0 0.42407953139016458 -0.066376251107954878 0 0.42930579809081681 -0.047268187514157338 0 0.41396695376387882 -0.056527209780239271 0 0.41368392610869731 -0.04287527842510315 0 0.39726973527020681 -0.051047094295582428 0 0.42930579809081681 -0.047268187514157338 0 0.41396695376387882 -0.056527209780239271 0 0.41368392610869731 -0.04287527842510315 0 0.42490035847815399 -0.026573632004085329 0 0.41368392610869731 -0.04287527842510315 0 0.40054935674206232 -0.033674008914739387 0 0.40054935674206232 -0.033674008914739387 0 0.39726973527020681 -0.051047094295582428 0 0.38709274957945722 -0.040118371116742928 0 0.41368392610869731 -0.04287527842510315 0 0.40054935674206232 -0.033674008914739387 0 0.39726973527020681 -0.051047094295582428 0 0.40576716669667751 -0.071038994424242982 0 0.41396695376387882 -0.056527209780239271 0 0.39726973527020681 -0.051047094295582428 0 0.38789958320723628 -0.065740464939952517 0 0.39726973527020681 -0.051047094295582428 0 0.37420386630349189 -0.050854472750834767 0 0.39726973527020681 -0.051047094295582428 0 0.38709274957945722 -0.040118371116742928 0 0.37420386630349189 -0.050854472750834767 0 0.40054935674206232 -0.033674008914739387 0 0.38709274957945722 -0.040118371116742928 0 0.3784905593421225 -0.025496273416294641 0 0.3784905593421225 -0.025496273416294641 0 0.37420386630349189 -0.050854472750834767 0 0.38709274957945722 -0.040118371116742928 0 0.3784905593421225 -0.025496273416294641 0 0.37420386630349189 -0.050854472750834767 0 0.3784905593421225 -0.025496273416294641 0 0.39458405653035572 -0.0192898988506384 0 0.39022167860423018 -0.0096524219461120477 0 0.41065089420810241 -0.01127999984769641 0 0.40054935674206232 -0.033674008914739387 0 0.39458405653035572 -0.0192898988506384 0 0.40054935674206232 -0.033674008914739387 0 0.3784905593421225 -0.025496273416294641 0 0.39458405653035572 -0.0192898988506384 0 0.41065089420810241 -0.01127999984769641 0 0.39458405653035572 -0.0192898988506384 0 0.39022167860423018 -0.0096524219461120477 0 0.40020280054750379 0.002750994476724927 0 0.38775815611000658 0.0020559190212459649 0 0.41065089420810241 -0.01127999984769641 0 0.38775815611000658 0.0020559190212459649 0 0.41065089420810241 -0.01127999984769641 0 0.38775815611000658 0.0020559190212459649 0 0.41065089420810241 -0.01127999984769641 0 0.39022167860423018 -0.0096524219461120477 0 0.3784905593421225 -0.025496273416294641 0 0.39022167860423018 -0.0096524219461120477 0 0.38277725238075322 -0.0001380740817545148 0 0.38775815611000658 0.0020559190212459649 0 0.39022167860423018 -0.0096524219461120477 0 0.38277725238075322 -0.0001380740817545148 0 0.3784905593421225 -0.025496273416294641 0 0.38277725238075322 -0.0001380740817545148 0 0.37252934434162038 -0.0043894159600502049 0 0.3784905593421225 -0.025496273416294641 0 0.38277725238075322 -0.0001380740817545148 0 0.37252934434162038 -0.0043894159600502049 0 0.36706403482436262 -0.017055389893454561 0 0.35437318117101041 -0.011648104312840191 0 0.36469363855011189 0.002720994333529239 0 0.38277725238075322 -0.0001380740817545148 0 0.37252934434162038 -0.0043894159600502049 0 0.37252934434162038 -0.0043894159600502049 0 0.3521975415141162 -0.0032869303745691161 0 0.35437318117101041 -0.011648104312840191 0 0.37252934434162038 -0.0043894159600502049 0 0.3521975415141162 -0.0032869303745691161 0 0.36469363855011189 0.002720994333529239 0 0.37252934434162038 -0.0043894159600502049 0 0.3521975415141162 -0.0032869303745691161 0 0.3784905593421225 -0.025496273416294641 0 0.37252934434162038 -0.0043894159600502049 0 0.36706403482436262 -0.017055389893454561 0 0.3784905593421225 -0.025496273416294641 0 0.36706403482436262 -0.017055389893454561 0 0.36048606177264492 -0.02766129935406832 0 0.36706403482436262 -0.017055389893454561 0 0.35852761846470771 -0.019493981058526368 0 0.35437318117101041 -0.011648104312840191 0 0.36706403482436262 -0.017055389893454561 0 0.36048606177264492 -0.02766129935406832 0 0.35852761846470771 -0.019493981058526368 0 0.35170274733652751 -0.021312535578678921 0 0.33843030970152371 -0.02358669669447715 0 0.34820672136646902 -0.039241905418865727 0 0.36048606177264492 -0.02766129935406832 0 0.35170274733652751 -0.021312535578678921 0 0.34820672136646902 -0.039241905418865727 0 0.35170274733652751 -0.021312535578678921 0 0.35019259154281013 -0.0062432266332951673 0 0.33843030970152371 -0.02358669669447715 0 0.36048606177264492 -0.02766129935406832 0 0.35852761846470771 -0.019493981058526368 0 0.35170274733652751 -0.021312535578678921 0 0.35852761846470771 -0.019493981058526368 0 0.35170274733652751 -0.021312535578678921 0 0.35437318117101041 -0.011648104312840191 0 0.35019259154281013 -0.0062432266332951673 0 0.33843030970152371 -0.02358669669447715 0 0.3521975415141162 -0.0032869303745691161 0 0.35437318117101041 -0.011648104312840191 0 0.35019259154281013 -0.0062432266332951673 0 0.35170274733652751 -0.021312535578678921 0 0.35437318117101041 -0.011648104312840191 0 0.35019259154281013 -0.0062432266332951673 0 0.35437318117101041 -0.011648104312840191 0 0.35019259154281013 -0.0062432266332951673 0 0.35019259154281013 -0.0062432266332951673 0 0.34771806386262583 -0.003044032113984102 0 0.33971032671353968 -0.01179449522844787 0 0.3521975415141162 -0.0032869303745691161 0 0.35019259154281013 -0.0062432266332951673 0 0.34771806386262583 -0.003044032113984102 0 0.35019259154281013 -0.0062432266332951673 0 0.34771806386262583 -0.003044032113984102 0 0.3521975415141162 -0.0032869303745691161 0 0.35019259154281013 -0.0062432266332951673 0 0.3521975415141162 -0.0032869303745691161 0 0.35042692257865771 -0.0015384929707599889 0 0.34771806386262583 -0.003044032113984102 0 0.3521975415141162 -0.0032869303745691161 0 0.34771806386262583 -0.003044032113984102 0 0.35019259154281013 -0.0062432266332951673 0 0.33971032671353968 -0.01179449522844787 0 0.33843030970152371 -0.02358669669447715 0 0.34771806386262583 -0.003044032113984102 0 0.33971032671353968 -0.01179449522844787 0 0.31910864726975802 -0.0014926955369813689 0 0.34771806386262583 -0.003044032113984102 0 0.31910864726975802 -0.0014926955369813689 0 0.33843030970152371 -0.02358669669447715 0 0.32621139268869892 -0.028728140705789811 0 0.3266680278602348 -0.040930166755657471 0 0.33971032671353968 -0.01179449522844787 0 0.33843030970152371 -0.02358669669447715 0 0.32360245919958402 -0.017972328004331382 0 0.33843030970152371 -0.02358669669447715 0 0.32360245919958402 -0.017972328004331382 0 0.32621139268869892 -0.028728140705789811 0 0.32360245919958402 -0.017972328004331382 0 0.31596875311694089 -0.028599396706485029 0 0.30730589566212252 -0.018840287865519639 0 0.32621139268869892 -0.028728140705789811 0 0.31596875311694089 -0.028599396706485029 0 0.32095100506151147 -0.033897866314806173 0 0.32360245919958402 -0.017972328004331382 0 0.32621139268869892 -0.028728140705789811 0 0.31596875311694089 -0.028599396706485029 0 0.32360245919958402 -0.017972328004331382 0 0.31910864726975802 -0.0014926955369813689 0 0.30730589566212252 -0.018840287865519639 0 0.33971032671353968 -0.01179449522844787 0 0.32360245919958402 -0.017972328004331382 0 0.31910864726975802 -0.0014926955369813689 0 0.32464889886902398 -0.050700623279697252 0 0.31585302420500849 -0.057228069813704013 0 0.3020147616711053 -0.037944598876858401 0 0.31585302420500849 -0.057228069813704013 0 0.32464573415435538 -0.065143630868494978 0 0.30703208885692013 -0.064457611234286838 0 0.32464889886902398 -0.050700623279697252 0 0.31585302420500849 -0.057228069813704013 0 0.32464573415435538 -0.065143630868494978 0 0.31728647900886181 -0.041895039964688831 0 0.31581422763508321 -0.038004770946542241 0 0.3266680278602348 -0.040930166755657471 0 0.32464889886902398 -0.050700623279697252 0 0.31728647900886181 -0.041895039964688831 0 0.3020147616711053 -0.037944598876858401 0 0.32464889886902398 -0.050700623279697252 0 0.3020147616711053 -0.037944598876858401 0 0.31596875311694089 -0.028599396706485029 0 0.31528102209864761 -0.033342472206916218 0 0.3083901025810547 -0.032867854859831458 0 0.31528102209864761 -0.033342472206916218 0 0.31581422763508321 -0.038004770946542241 0 0.3083901025810547 -0.032867854859831458 0 0.31528102209864761 -0.033342472206916218 0 0.31581422763508321 -0.038004770946542241 0 0.32095100506151147 -0.033897866314806173 0 0.31596875311694089 -0.028599396706485029 0 0.31528102209864761 -0.033342472206916218 0 0.32095100506151147 -0.033897866314806173 0 0.32621139268869892 -0.028728140705789811 0 0.32095100506151147 -0.033897866314806173 0 0.3266680278602348 -0.040930166755657471 0 0.31581422763508321 -0.038004770946542241 0 0.32095100506151147 -0.033897866314806173 0 0.3266680278602348 -0.040930166755657471 0 0.32464889886902398 -0.050700623279697252 0 0.31728647900886181 -0.041895039964688831 0 0.3266680278602348 -0.040930166755657471 0 0.32464889886902398 -0.050700623279697252 0 0.3266680278602348 -0.040930166755657471 0 0.33708516376599368 -0.042383814075928457 0 0.33843030970152371 -0.02358669669447715 0 0.3266680278602348 -0.040930166755657471 0 0.33708516376599368 -0.042383814075928457 0 0.33843030970152371 -0.02358669669447715 0 0.3266680278602348 -0.040930166755657471 0 0.33843030970152371 -0.02358669669447715 0 0.33708516376599368 -0.042383814075928457 0 0.34820672136646902 -0.039241905418865727 0 0.33708516376599368 -0.042383814075928457 0 0.34229590803795862 -0.049769809672134027 0 0.34820672136646902 -0.039241905418865727 0 0.32464889886902398 -0.050700623279697252 0 0.33708516376599368 -0.042383814075928457 0 0.34229590803795862 -0.049769809672134027 0 0.32464889886902398 -0.050700623279697252 0 0.34229590803795862 -0.049769809672134027 0 0.34728303606694272 -0.063456647682536116 0 0.32464889886902398 -0.050700623279697252 0 0.34728303606694272 -0.063456647682536116 0 0.32464889886902398 -0.050700623279697252 0 0.34728303606694272 -0.063456647682536116 0 0.32464573415435538 -0.065143630868494978 0 0.35425572012136342 -0.053066057903642633 0 0.36301317624270057 -0.062004158437810028 0 0.34728303606694272 -0.063456647682536116 0 0.34229590803795862 -0.049769809672134027 0 0.35425572012136342 -0.053066057903642633 0 0.34728303606694272 -0.063456647682536116 0 0.34229590803795862 -0.049769809672134027 0 0.35425572012136342 -0.053066057903642633 0 0.34820672136646902 -0.039241905418865727 0 0.35425572012136342 -0.053066057903642633 0 0.34820672136646902 -0.039241905418865727 0 0.36033271902116443 -0.041864146260964047 0 0.36048606177264492 -0.02766129935406832 0 0.34820672136646902 -0.039241905418865727 0 0.36033271902116443 -0.041864146260964047 0 0.3784905593421225 -0.025496273416294641 0 0.36048606177264492 -0.02766129935406832 0 0.36033271902116443 -0.041864146260964047 0 0.3784905593421225 -0.025496273416294641 0 0.36033271902116443 -0.041864146260964047 0 0.37420386630349189 -0.050854472750834767 0 0.35425572012136342 -0.053066057903642633 0 0.36301317624270057 -0.062004158437810028 0 0.37420386630349189 -0.050854472750834767 0 0.35425572012136342 -0.053066057903642633 0 0.36033271902116443 -0.041864146260964047 0 0.37420386630349189 -0.050854472750834767 0 0.37420386630349189 -0.050854472750834767 0 0.36991717326486129 -0.076212672085374911 0 0.36301317624270057 -0.062004158437810028 0 0.37420386630349189 -0.050854472750834767 0 0.36991717326486129 -0.076212672085374911 0 0.36301317624270057 -0.062004158437810028 0 0.36991717326486129 -0.076212672085374911 0 0.34728303606694272 -0.063456647682536116 0 0.3872063645617802 -0.085956420837994624 0 0.36991717326486129 -0.076212672085374911 0 0.36738617106911148 -0.091184973021687071 0 0.36991717326486129 -0.076212672085374911 0 0.36738617106911148 -0.091184973021687071 0 0.36991717326486129 -0.076212672085374911 0 0.36738617106911148 -0.091184973021687071 0 0.35341653748189961 -0.083715230715445163 0 0.36738617106911148 -0.091184973021687071 0 0.35341653748189961 -0.083715230715445163 0 0.33981180618767209 -0.098459069804248095 0 0.36991717326486129 -0.076212672085374911 0 0.35341653748189961 -0.083715230715445163 0 0.34959565265588732 -0.075044350861349307 0 0.35341653748189961 -0.083715230715445163 0 0.33981180618767209 -0.098459069804248095 0 0.34184890417466829 -0.082865612901555627 0 0.35341653748189961 -0.083715230715445163 0 0.34959565265588732 -0.075044350861349307 0 0.34184890417466829 -0.082865612901555627 0 0.34959565265588732 -0.075044350861349307 0 0.34728303606694272 -0.063456647682536116 0 0.33845610624144751 -0.072880094440881976 0 0.36991717326486129 -0.076212672085374911 0 0.34728303606694272 -0.063456647682536116 0 0.36991717326486129 -0.076212672085374911 0 0.34959565265588732 -0.075044350861349307 0 0.34728303606694272 -0.063456647682536116 0 0.37550306002753742 -0.11067908922506869 0 0.36155129542977399 -0.1166926072026542 0 0.37326451831426077 -0.12693746981884729 0 0.37550306002753742 -0.11067908922506869 0 0.36155129542977399 -0.1166926072026542 0 0.36641833693540099 -0.1060240503035761 0 0.36155129542977399 -0.1166926072026542 0 0.36641833693540099 -0.1060240503035761 0 0.35441590126676131 -0.1070631764438755 0 0.36641833693540099 -0.1060240503035761 0 0.36184015224691313 -0.099331241490814126 0 0.35441590126676131 -0.1070631764438755 0 0.37550306002753742 -0.11067908922506869 0 0.36641833693540099 -0.1060240503035761 0 0.37251310304013069 -0.098498048675864355 0 0.37962410948918718 -0.095166090959961133 0 0.36738617106911148 -0.091184973021687071 0 0.37251310304013069 -0.098498048675864355 0 0.37251310304013069 -0.098498048675864355 0 0.36880814690588543 -0.095882371255100407 0 0.36184015224691313 -0.099331241490814126 0 0.36738617106911148 -0.091184973021687071 0 0.37251310304013069 -0.098498048675864355 0 0.36880814690588543 -0.095882371255100407 0 0.36641833693540099 -0.1060240503035761 0 0.37251310304013069 -0.098498048675864355 0 0.36184015224691313 -0.099331241490814126 0 0.36738617106911148 -0.091184973021687071 0 0.36880814690588543 -0.095882371255100407 0 0.36184015224691313 -0.099331241490814126 0 0.35441590126676131 -0.1070631764438755 0 0.34041306522580889 -0.1163561030877573 0 0.33981180618767209 -0.098459069804248095 0 0.36738617106911148 -0.091184973021687071 0 0.33981180618767209 -0.098459069804248095 0 0.36184015224691313 -0.099331241490814126 0 0.35441590126676131 -0.1070631764438755 0 0.33981180618767209 -0.098459069804248095 0 0.36738617106911148 -0.091184973021687071 0 0.36184015224691313 -0.099331241490814126 0 0.33981180618767209 -0.098459069804248095 0 0.36155129542977399 -0.1166926072026542 0 0.34041306522580889 -0.1163561030877573 0 0.35480182430886531 -0.13535040708588519 0 0.36155129542977399 -0.1166926072026542 0 0.35441590126676131 -0.1070631764438755 0 0.34041306522580889 -0.1163561030877573 0 0.34041306522580889 -0.1163561030877573 0 0.32065551998497688 -0.12558405685066701 0 0.33567922955598051 -0.13195365653897459 0 0.34041306522580889 -0.1163561030877573 0 0.33981180618767209 -0.098459069804248095 0 0.3122374413062331 -0.1057331665868097 0 0.33981180618767209 -0.098459069804248095 0 0.3122374413062331 -0.1057331665868097 0 0.33981180618767209 -0.098459069804248095 0 0.32943616528162678 -0.086183570445377167 0 0.3122374413062331 -0.1057331665868097 0 0.34041306522580889 -0.1163561030877573 0 0.3122374413062331 -0.1057331665868097 0 0.32065551998497688 -0.12558405685066701 0 0.3122374413062331 -0.1057331665868097 0 0.30584663986671612 -0.13275627386590161 0 0.32065551998497688 -0.12558405685066701 0 0.34728303606694272 -0.063456647682536116 0 0.33845610624144751 -0.072880094440881976 0 0.32464573415435538 -0.065143630868494978 0 0.34959565265588732 -0.075044350861349307 0 0.33845610624144751 -0.072880094440881976 0 0.34184890417466829 -0.082865612901555627 0 0.33845610624144751 -0.072880094440881976 0 0.34184890417466829 -0.082865612901555627 0 0.32943616528162678 -0.086183570445377167 0 0.33981180618767209 -0.098459069804248095 0 0.34184890417466829 -0.082865612901555627 0 0.32943616528162678 -0.086183570445377167 0 0.32943616528162678 -0.086183570445377167 0 0.31415514521200211 -0.081200375250267187 0 0.3122374413062331 -0.1057331665868097 0 0.33845610624144751 -0.072880094440881976 0 0.32943616528162678 -0.086183570445377167 0 0.31415514521200211 -0.081200375250267187 0 0.31415514521200211 -0.081200375250267187 0 0.32464573415435538 -0.065143630868494978 0 0.30703208885692013 -0.064457611234286838 0 0.33845610624144751 -0.072880094440881976 0 0.31415514521200211 -0.081200375250267187 0 0.32464573415435538 -0.065143630868494978 0 0.33845610624144751 -0.072880094440881976 0 0.31415514521200211 -0.081200375250267187 0 0.30703208885692013 -0.064457611234286838 0 0.29302563212237109 -0.075171781822907374 0 0.29397392471566453 -0.056773051805919551 0 0.31415514521200211 -0.081200375250267187 0 0.30703208885692013 -0.064457611234286838 0 0.29302563212237109 -0.075171781822907374 0 0.31415514521200211 -0.081200375250267187 0 0.30454867994963991 -0.092790795584477767 0 0.28985418418255648 -0.089520656059652662 0 0.31415514521200211 -0.081200375250267187 0 0.30454867994963991 -0.092790795584477767 0 0.3122374413062331 -0.1057331665868097 0 0.31415514521200211 -0.081200375250267187 0 0.28985418418255648 -0.089520656059652662 0 0.29302563212237109 -0.075171781822907374 0 0.31415514521200211 -0.081200375250267187 0 0.28985418418255648 -0.089520656059652662 0 0.28985418418255648 -0.089520656059652662 0 0.29302563212237109 -0.075171781822907374 0 0.28985418418255648 -0.089520656059652662 0 0.28214545050503731 -0.083271811759526859 0 0.27203037137930458 -0.088153406792276456 0 0.28985418418255648 -0.089520656059652662 0 0.28214545050503731 -0.083271811759526859 0 0.29302563212237109 -0.075171781822907374 0 0.282259340457163 -0.075527753065700504 0 0.28424961178648678 -0.062904799724158841 0 0.29302563212237109 -0.075171781822907374 0 0.28424961178648678 -0.062904799724158841 0 0.29302563212237109 -0.075171781822907374 0 0.29397392471566453 -0.056773051805919551 0 0.28214545050503731 -0.083271811759526859 0 0.282259340457163 -0.075527753065700504 0 0.29302563212237109 -0.075171781822907374 0 0.3122374413062331 -0.1057331665868097 0 0.29238001106274558 -0.12624341493958621 0 0.30584663986671612 -0.13275627386590161 0 0.30454867994963991 -0.092790795584477767 0 0.3122374413062331 -0.1057331665868097 0 0.28466307642479333 -0.11300726336936889 0 0.3122374413062331 -0.1057331665868097 0 0.28466307642479333 -0.11300726336936889 0 0.28985418418255648 -0.089520656059652662 0 0.28466307642479333 -0.11300726336936889 0 0.30454867994963991 -0.092790795584477767 0 0.28985418418255648 -0.089520656059652662 0 0.28466307642479333 -0.11300726336936889 0 0.3122374413062331 -0.1057331665868097 0 0.28466307642479333 -0.11300726336936889 0 0.29238001106274558 -0.12624341493958621 0 0.28466307642479333 -0.11300726336936889 0 0.26603719079544058 -0.117920758034122 0 0.28466307642479333 -0.11300726336936889 0 0.26603719079544058 -0.117920758034122 0 0.26349481557684079 -0.09854570443086294 0 0.28466307642479333 -0.11300726336936889 0 0.26603719079544058 -0.117920758034122 0 0.27256879903954628 -0.1257065808245309 0 0.28985418418255648 -0.089520656059652662 0 0.26349481557684079 -0.09854570443086294 0 0.28985418418255648 -0.089520656059652662 0 0.28466307642479333 -0.11300726336936889 0 0.26349481557684079 -0.09854570443086294 0 0.26603719079544058 -0.117920758034122 0 0.26349481557684079 -0.09854570443086294 0 0.25482505302443081 -0.110426741359908 0 0.26349481557684079 -0.09854570443086294 0 0.24617179466915581 -0.088675955199177675 0 0.2423569005593546 -0.1024062502757746 0 0.26349481557684079 -0.09854570443086294 0 0.25482505302443081 -0.110426741359908 0 0.2423569005593546 -0.1024062502757746 0 0.26603719079544058 -0.117920758034122 0 0.24741130516608731 -0.1228342526988727 0 0.26603719079544058 -0.117920758034122 0 0.26047724928148502 -0.13371100094567459 0 0.24741130516608731 -0.1228342526988727 0 0.26603719079544058 -0.117920758034122 0 0.25482505302443081 -0.110426741359908 0 0.24741130516608731 -0.1228342526988727 0 0.27340132976701143 -0.072152058985951534 0 0.27199637485662048 -0.055015364592360831 0 0.27340132976701143 -0.072152058985951534 0 0.25917534442807849 -0.063867019964717581 0 0.27199637485662048 -0.055015364592360831 0 0.28424961178648678 -0.062904799724158841 0 0.27340132976701143 -0.072152058985951534 0 0.27199637485662048 -0.055015364592360831 0 0.282259340457163 -0.075527753065700504 0 0.28424961178648678 -0.062904799724158841 0 0.27340132976701143 -0.072152058985951534 0 0.282259340457163 -0.075527753065700504 0 0.27340132976701143 -0.072152058985951534 0 0.27469491160225751 -0.081785341700602268 0 0.28214545050503731 -0.083271811759526859 0 0.27469491160225751 -0.081785341700602268 0 0.27203037137930458 -0.088153406792276456 0 0.28214545050503731 -0.083271811759526859 0 0.282259340457163 -0.075527753065700504 0 0.27469491160225751 -0.081785341700602268 0 0.28985418418255648 -0.089520656059652662 0 0.26349481557684079 -0.09854570443086294 0 0.27203037137930458 -0.088153406792276456 0 0.27469491160225751 -0.081785341700602268 0 0.27203037137930458 -0.088153406792276456 0 0.25958680995309208 -0.086127426084610284 0 0.26349481557684079 -0.09854570443086294 0 0.25958680995309208 -0.086127426084610284 0 0.24617179466915581 -0.088675955199177675 0 0.27469491160225751 -0.081785341700602268 0 0.25958680995309208 -0.086127426084610284 0 0.24635431399953089 -0.072718675337066219 0 0.25958680995309208 -0.086127426084610284 0 0.24635431399953089 -0.072718675337066219 0 0.24617179466915581 -0.088675955199177675 0 0.26349481557684079 -0.09854570443086294 0 0.27203037137930458 -0.088153406792276456 0 0.25958680995309208 -0.086127426084610284 0 0.27469491160225751 -0.081785341700602268 0 0.24635431399953089 -0.072718675337066219 0 0.27340132976701143 -0.072152058985951534 0 0.27469491160225751 -0.081785341700602268 0 0.24635431399953089 -0.072718675337066219 0 0.27340132976701143 -0.072152058985951534 0 0.25917534442807849 -0.063867019964717581 0 0.24635431399953089 -0.072718675337066219 0 0.25917534442807849 -0.063867019964717581 0 0.24635431399953089 -0.072718675337066219 0 0.25917534442807849 -0.063867019964717581 0 0.25481996922065991 -0.046995106790129949 0 0.24372055895925629 -0.059330660909075739 0 0.25917534442807849 -0.063867019964717581 0 0.25481996922065991 -0.046995106790129949 0 0.27199637485662048 -0.055015364592360831 0 0.25917534442807849 -0.063867019964717581 0 0.27199637485662048 -0.055015364592360831 0 0.28424961178648678 -0.062904799724158841 0 0.27199637485662048 -0.055015364592360831 0 0.28585288855638968 -0.045448810280203818 0 0.27199637485662048 -0.055015364592360831 0 0.28585288855638968 -0.045448810280203818 0 0.26968735546802552 -0.026851500173352399 0 0.28637842352411907 -0.02814844421461922 0 0.28585288855638968 -0.045448810280203818 0 0.27199637485662048 -0.055015364592360831 0 0.26968735546802552 -0.026851500173352399 0 0.27199637485662048 -0.055015364592360831 0 0.26968735546802552 -0.026851500173352399 0 0.28585288855638968 -0.045448810280203818 0 0.25481996922065991 -0.046995106790129949 0 0.26968735546802552 -0.026851500173352399 0 0.24371914536904471 -0.02777119600878741 0 0.25481996922065991 -0.046995106790129949 0 0.27199637485662048 -0.055015364592360831 0 0.26968735546802552 -0.026851500173352399 0 0.25012120287673428 -0.0087041627990332212 0 0.26968735546802552 -0.026851500173352399 0 0.24371914536904471 -0.02777119600878741 0 0.26737833607943229 0.001312364245655997 0 0.25870713869825979 0.001782557184409719 0 0.25012120287673428 -0.0087041627990332212 0 0.26737833607943229 0.001312364245655997 0 0.25012120287673428 -0.0087041627990332212 0 0.26968735546802552 -0.026851500173352399 0 0.24802825784114241 0.0021228002410254841 0 0.25870713869825979 0.001782557184409719 0 0.25012120287673428 -0.0087041627990332212 0 0.29049923067689021 5.8641040022257979e-05 0 0.26737833607943229 0.001312364245655997 0 0.28153815487350481 -0.014647847187490751 0 0.26737833607943229 0.001312364245655997 0 0.26968735546802552 -0.026851500173352399 0 0.28153815487350481 -0.014647847187490751 0 0.26737833607943229 0.001312364245655997 0 0.26968735546802552 -0.026851500173352399 0 0.26968735546802552 -0.026851500173352399 0 0.28637842352411907 -0.02814844421461922 0 0.28153815487350481 -0.014647847187490751 0 0.28637842352411907 -0.02814844421461922 0 0.29510431646652102 -0.017911807464008219 0 0.29970940225615311 -0.035882255968038367 0 0.28637842352411907 -0.02814844421461922 0 0.29510431646652102 -0.017911807464008219 0 0.28153815487350481 -0.014647847187490751 0 0.29049923067689021 5.8641040022257979e-05 0 0.29510431646652102 -0.017911807464008219 0 0.28153815487350481 -0.014647847187490751 0 0.29049923067689021 5.8641040022257979e-05 0 0.29510431646652102 -0.017911807464008219 0 0.29049923067689021 5.8641040022257979e-05 0 0.31910864726975802 -0.0014926955369813689 0 0.30730589566212252 -0.018840287865519639 0 0.29049923067689021 5.8641040022257979e-05 0 0.29510431646652102 -0.017911807464008219 0 0.30730589566212252 -0.018840287865519639 0 0.29049923067689021 5.8641040022257979e-05 0 0.31910864726975802 -0.0014926955369813689 0 0.29510431646652102 -0.017911807464008219 0 0.30730589566212252 -0.018840287865519639 0 0.29970940225615311 -0.035882255968038367 0 0.30730589566212252 -0.018840287865519639 0 0.3083901025810547 -0.032867854859831458 0 0.29970940225615311 -0.035882255968038367 0 0.29510431646652102 -0.017911807464008219 0 0.29970940225615311 -0.035882255968038367 0 0.31596875311694089 -0.028599396706485029 0 0.30730589566212252 -0.018840287865519639 0 0.3083901025810547 -0.032867854859831458 0 0.30703208885692013 -0.064457611234286838 0 0.3020147616711053 -0.037944598876858401 0 0.29970940225615311 -0.035882255968038367 0 0.31581422763508321 -0.038004770946542241 0 0.3083901025810547 -0.032867854859831458 0 0.3020147616711053 -0.037944598876858401 0 0.3083901025810547 -0.032867854859831458 0 0.3020147616711053 -0.037944598876858401 0 0.29970940225615311 -0.035882255968038367 0 0.31728647900886181 -0.041895039964688831 0 0.31581422763508321 -0.038004770946542241 0 0.3020147616711053 -0.037944598876858401 0 0.30703208885692013 -0.064457611234286838 0 0.29970940225615311 -0.035882255968038367 0 0.31585302420500849 -0.057228069813704013 0 0.30703208885692013 -0.064457611234286838 0 0.3020147616711053 -0.037944598876858401 0 0.30703208885692013 -0.064457611234286838 0 0.29970940225615311 -0.035882255968038367 0 0.29397392471566453 -0.056773051805919551 0 0.28424961178648678 -0.062904799724158841 0 0.29397392471566453 -0.056773051805919551 0 0.28585288855638968 -0.045448810280203818 0 0.29970940225615311 -0.035882255968038367 0 0.29397392471566453 -0.056773051805919551 0 0.28585288855638968 -0.045448810280203818 0 0.28637842352411907 -0.02814844421461922 0 0.29970940225615311 -0.035882255968038367 0 0.28585288855638968 -0.045448810280203818 0 0.29970940225615311 -0.035882255968038367 0 0.28585288855638968 -0.045448810280203818 0 0.29002550467742411 -0.20083400218863851 0 0.27393228432387678 -0.21760180878097701 0 0.29682570701568201 -0.21628161437037199 0 0.29002550467742411 -0.20083400218863851 0 0.27393228432387678 -0.21760180878097701 0 0.29682570701568201 -0.21628161437037199 0 0.29002550467742411 -0.20083400218863851 0 0.28456006224484581 -0.18841848410544171 0 0.29002550467742411 -0.20083400218863851 0 0.30141928388957812 -0.18896262517470819 0 0.28169067443839801 -0.19158793103180161 0 0.29002550467742411 -0.20083400218863851 0 0.28052982067430132 -0.1986930301830272 0 0.29002550467742411 -0.20083400218863851 0 0.27643606604638993 -0.20472560750700969 0 0.28052982067430132 -0.1986930301830272 0 0.28456006224484581 -0.18841848410544171 0 0.28169067443839801 -0.19158793103180161 0 0.29002550467742411 -0.20083400218863851 0 0.28456006224484581 -0.18841848410544171 0 0.29002550467742411 -0.20083400218863851 0 0.28456006224484581 -0.18841848410544171 0 0.28169067443839801 -0.19158793103180161 0 0.29002550467742411 -0.20083400218863851 0 0.30141928388957812 -0.18896262517470819 0 0.29002550467742411 -0.20083400218863851 0 0.30141928388957812 -0.18896262517470819 0 0.3053420678721131 -0.20197761918523749 0 0.30141928388957812 -0.18896262517470819 0 0.3053420678721131 -0.20197761918523749 0 0.31329400409191072 -0.18895622673588169 0 0.3053420678721131 -0.20197761918523749 0 0.30998471351115858 -0.21394551498275191 0 0.31971433882829298 -0.20067751264986899 0 0.29682570701568201 -0.21628161437037199 0 0.29002550467742411 -0.20083400218863851 0 0.3053420678721131 -0.20197761918523749 0 0.29682570701568201 -0.21628161437037199 0 0.3053420678721131 -0.20197761918523749 0 0.30998471351115858 -0.21394551498275191 0 0.29682570701568201 -0.21628161437037199 0 0.30998471351115858 -0.21394551498275191 0 0.30362590935393952 -0.23172922655210579 0 0.29682570701568201 -0.21628161437037199 0 0.30362590935393952 -0.23172922655210579 0 0.30362590935393952 -0.23172922655210579 0 0.31205500684387361 -0.25087710224603388 0 0.30362590935393952 -0.23172922655210579 0 0.29719014723087572 -0.25246254488436259 0 0.31205500684387361 -0.25087710224603388 0 0.30362590935393952 -0.23172922655210579 0 0.28616134549128258 -0.24237080510064299 0 0.30362590935393952 -0.23172922655210579 0 0.28616134549128258 -0.24237080510064299 0 0.29719014723087572 -0.25246254488436259 0 0.28616134549128258 -0.24237080510064299 0 0.28585435593711828 -0.22791798266968741 0 0.27327511330203291 -0.2363280037205118 0 0.28616134549128258 -0.24237080510064299 0 0.29719014723087572 -0.25246254488436259 0 0.28301575013854241 -0.25483799571847598 0 0.29682570701568201 -0.21628161437037199 0 0.28585435593711828 -0.22791798266968741 0 0.27393228432387678 -0.21760180878097701 0 0.30362590935393952 -0.23172922655210579 0 0.28616134549128258 -0.24237080510064299 0 0.28585435593711828 -0.22791798266968741 0 0.29682570701568201 -0.21628161437037199 0 0.30362590935393952 -0.23172922655210579 0 0.28585435593711828 -0.22791798266968741 0 0.25783906397032952 -0.23436961537331541 0 0.27393228432387678 -0.21760180878097701 0 0.28585435593711828 -0.22791798266968741 0 0.27327511330203291 -0.2363280037205118 0 0.27393228432387678 -0.21760180878097701 0 0.27327511330203291 -0.2363280037205118 0 0.25783906397032952 -0.23436961537331541 0 0.27393228432387678 -0.21760180878097701 0 0.27327511330203291 -0.2363280037205118 0 0.26132401080732032 -0.2432087234131956 0 0.26361919680387791 -0.25284898630566671 0 0.27327511330203291 -0.2363280037205118 0 0.26869678162862731 -0.25301238364918271 0 0.26361919680387791 -0.25284898630566671 0 0.27327511330203291 -0.2363280037205118 0 0.26361919680387791 -0.25284898630566671 0 0.28616134549128258 -0.24237080510064299 0 0.27327511330203291 -0.2363280037205118 0 0.26869678162862731 -0.25301238364918271 0 0.28616134549128258 -0.24237080510064299 0 0.26869678162862731 -0.25301238364918271 0 0.25783906397032952 -0.23436961537331541 0 0.24587095960275271 -0.246839391770072 0 0.24855557647589949 -0.2306875748904797 0 0.26132401080732032 -0.2432087234131956 0 0.26361919680387791 -0.25284898630566671 0 0.25558160920453382 -0.25118700939966832 0 0.26132401080732032 -0.2432087234131956 0 0.25630507075582731 -0.24131000226681529 0 0.25783906397032952 -0.23436961537331541 0 0.27327511330203291 -0.2363280037205118 0 0.26132401080732032 -0.2432087234131956 0 0.25783906397032952 -0.23436961537331541 0 0.25783906397032952 -0.23436961537331541 0 0.24587095960275271 -0.246839391770072 0 0.25630507075582731 -0.24131000226681529 0 0.25783906397032952 -0.23436961537331541 0 0.24587095960275271 -0.246839391770072 0 0.25630507075582731 -0.24131000226681529 0 0.25783906397032952 -0.23436961537331541 0 0.26132401080732032 -0.2432087234131956 0 0.25630507075582731 -0.24131000226681529 0 0.25558160920453382 -0.25118700939966832 0 0.25630507075582731 -0.24131000226681529 0 0.25558160920453382 -0.25118700939966832 0 0.24587095960275271 -0.246839391770072 0 0.25783906397032952 -0.23436961537331541 0 0.25393809799796457 -0.2219108146201339 0 0.26307013694293407 -0.210702189758393 0 0.25783906397032952 -0.23436961537331541 0 0.26307013694293407 -0.210702189758393 0 0.27393228432387678 -0.21760180878097701 0 0.25783906397032952 -0.23436961537331541 0 0.26307013694293407 -0.210702189758393 0 0.25783906397032952 -0.23436961537331541 0 0.25393809799796457 -0.2219108146201339 0 0.24855557647589949 -0.2306875748904797 0 0.25393809799796457 -0.2219108146201339 0 0.24855557647589949 -0.2306875748904797 0 0.24788466871589601 -0.22136535314091699 0 0.25393809799796457 -0.2219108146201339 0 0.25202470740374783 -0.21361279141663569 0 0.24788466871589601 -0.22136535314091699 0 0.25393809799796457 -0.2219108146201339 0 0.25202470740374783 -0.21361279141663569 0 0.26307013694293407 -0.210702189758393 0 0.25202470740374783 -0.21361279141663569 0 0.25536009584364899 -0.2076565207554105 0 0.26307013694293407 -0.210702189758393 0 0.25536009584364899 -0.2076565207554105 0 0.25419690850411131 -0.20336210764276849 0 0.24875812785136009 -0.20715300703924919 0 0.25419690850411131 -0.20336210764276849 0 0.2491142232596113 -0.20170981235651661 0 0.24875812785136009 -0.20715300703924919 0 0.25202470740374783 -0.21361279141663569 0 0.25536009584364899 -0.2076565207554105 0 0.24875812785136009 -0.20715300703924919 0 0.25536009584364899 -0.2076565207554105 0 0.25419690850411131 -0.20336210764276849 0 0.25845630280060983 -0.20267435714772139 0 0.26307013694293407 -0.210702189758393 0 0.25942312770748283 -0.19803559664586021 0 0.25845630280060983 -0.20267435714772139 0 0.25536009584364899 -0.2076565207554105 0 0.26307013694293407 -0.210702189758393 0 0.25845630280060983 -0.20267435714772139 0 0.26307013694293407 -0.210702189758393 0 0.27643606604638993 -0.20472560750700969 0 0.27393228432387678 -0.21760180878097701 0 0.29002550467742411 -0.20083400218863851 0 0.27643606604638993 -0.20472560750700969 0 0.27393228432387678 -0.21760180878097701 0 0.26307013694293407 -0.210702189758393 0 0.27643606604638993 -0.20472560750700969 0 0.27396703753499307 -0.19762458000465899 0 0.26307013694293407 -0.210702189758393 0 0.26830120991553941 -0.18703476414347081 0 0.26307013694293407 -0.210702189758393 0 0.27396703753499307 -0.19762458000465899 0 0.26830120991553941 -0.18703476414347081 0 0.28456006224484581 -0.18841848410544171 0 0.28169067443839801 -0.19158793103180161 0 0.26830120991553941 -0.18703476414347081 0 0.28169067443839801 -0.19158793103180161 0 0.27396703753499307 -0.19762458000465899 0 0.26830120991553941 -0.18703476414347081 0 0.28169067443839801 -0.19158793103180161 0 0.28052982067430132 -0.1986930301830272 0 0.27396703753499307 -0.19762458000465899 0 0.27643606604638993 -0.20472560750700969 0 0.28052982067430132 -0.1986930301830272 0 0.27396703753499307 -0.19762458000465899 0 0.26147087054294321 -0.18970080418770829 0 0.25849265243381342 -0.1964009177954581 0 0.25942312770748283 -0.19803559664586021 0 0.26147087054294321 -0.18970080418770829 0 0.25942312770748283 -0.19803559664586021 0 0.26830120991553941 -0.18703476414347081 0 0.26307013694293407 -0.210702189758393 0 0.25942312770748283 -0.19803559664586021 0 0.26830120991553941 -0.18703476414347081 0 0.26147087054294321 -0.18970080418770829 0 0.25849265243381342 -0.1964009177954581 0 0.24728142903306341 -0.1767048008765707 0 0.25849265243381342 -0.1964009177954581 0 0.25942312770748283 -0.19803559664586021 0 0.25942312770748283 -0.19803559664586021 0 0.25695652189472912 -0.20026303550310401 0 0.25714697927562979 -0.19852545462755339 0 0.25849265243381342 -0.1964009177954581 0 0.25942312770748283 -0.19803559664586021 0 0.25714697927562979 -0.19852545462755339 0 0.25942312770748283 -0.19803559664586021 0 0.25845630280060983 -0.20267435714772139 0 0.25695652189472912 -0.20026303550310401 0 0.25849265243381342 -0.1964009177954581 0 0.25371561506649393 -0.19940226856579121 0 0.24493123288357929 -0.19776397957759309 0 0.25419690850411131 -0.20336210764276849 0 0.25695652189472912 -0.20026303550310401 0 0.25371561506649393 -0.19940226856579121 0 0.25419690850411131 -0.20336210764276849 0 0.25845630280060983 -0.20267435714772139 0 0.25695652189472912 -0.20026303550310401 0 0.25695652189472912 -0.20026303550310401 0 0.25714697927562979 -0.19852545462755339 0 0.25371561506649393 -0.19940226856579121 0 0.25849265243381342 -0.1964009177954581 0 0.25714697927562979 -0.19852545462755339 0 0.25371561506649393 -0.19940226856579121 0 0.25419690850411131 -0.20336210764276849 0 0.25371561506649393 -0.19940226856579121 0 0.2491142232596113 -0.20170981235651661 0 0.26147087054294321 -0.18970080418770829 0 0.26033188838995502 -0.17670014148186861 0 0.24728142903306341 -0.1767048008765707 0 0.25849265243381342 -0.1964009177954581 0 0.24728142903306341 -0.1767048008765707 0 0.26147087054294321 -0.18970080418770829 0 0.26033188838995502 -0.17670014148186861 0 0.26830120991553941 -0.18703476414347081 0 0.26033188838995502 -0.17670014148186861 0 0.24785622809759569 -0.16620527398175361 0 0.24728142903306341 -0.1767048008765707 0 0.25300193151261952 -0.15703509430280579 0 0.26142227626264408 -0.1642810949452761 0 0.26700476608481633 -0.14853916973711151 0 0.26033188838995502 -0.17670014148186861 0 0.26142227626264408 -0.1642810949452761 0 0.24785622809759569 -0.16620527398175361 0 0.25300193151261952 -0.15703509430280579 0 0.26142227626264408 -0.1642810949452761 0 0.24785622809759569 -0.16620527398175361 0 0.26033188838995502 -0.17670014148186861 0 0.26142227626264408 -0.1642810949452761 0 0.27353228288814629 -0.16336733852854901 0 0.26142227626264408 -0.1642810949452761 0 0.27353228288814629 -0.16336733852854901 0 0.26700476608481633 -0.14853916973711151 0 0.26033188838995502 -0.17670014148186861 0 0.27353228288814629 -0.16336733852854901 0 0.26830120991553941 -0.18703476414347081 0 0.28456006224484581 -0.18841848410544171 0 0.27353228288814629 -0.16336733852854901 0 0.27353228288814629 -0.16336733852854901 0 0.26830120991553941 -0.18703476414347081 0 0.28456006224484581 -0.18841848410544171 0 0.27353228288814629 -0.16336733852854901 0 0.26830120991553941 -0.18703476414347081 0 0.25061313159862209 -0.13768002728381479 0 0.26047724928148502 -0.13371100094567459 0 0.24741130516608731 -0.1228342526988727 0 0.25061313159862209 -0.13768002728381479 0 0.26047724928148502 -0.13371100094567459 0 0.25611030931106932 -0.14572537974126371 0 0.26047724928148502 -0.13371100094567459 0 0.25611030931106932 -0.14572537974126371 0 0.26700476608481633 -0.14853916973711151 0 0.26047724928148502 -0.13371100094567459 0 0.26700476608481633 -0.14853916973711151 0 0.25061313159862209 -0.13768002728381479 0 0.25611030931106932 -0.14572537974126371 0 0.2472723070945613 -0.1467743816972317 0 0.25300193151261952 -0.15703509430280579 0 0.25611030931106932 -0.14572537974126371 0 0.2472723070945613 -0.1467743816972317 0 0.25300193151261952 -0.15703509430280579 0 0.25611030931106932 -0.14572537974126371 0 0.26700476608481633 -0.14853916973711151 0 0.27353228288814629 -0.16336733852854901 0 0.27909767965646631 -0.1381873009489582 0 0.27353228288814629 -0.16336733852854901 0 0.26700476608481633 -0.14853916973711151 0 0.27909767965646631 -0.1381873009489582 0 0.27353228288814629 -0.16336733852854901 0 0.27909767965646631 -0.1381873009489582 0 0.28882547916306872 -0.15191371999074041 0 0.27353228288814629 -0.16336733852854901 0 0.26700476608481633 -0.14853916973711151 0 0.26603719079544058 -0.117920758034122 0 0.26047724928148502 -0.13371100094567459 0 0.27256879903954628 -0.1257065808245309 0 0.26047724928148502 -0.13371100094567459 0 0.27256879903954628 -0.1257065808245309 0 0.27909767965646631 -0.1381873009489582 0 0.26047724928148502 -0.13371100094567459 0 0.26700476608481633 -0.14853916973711151 0 0.27909767965646631 -0.1381873009489582 0 0.28466307642479333 -0.11300726336936889 0 0.27256879903954628 -0.1257065808245309 0 0.27909767965646631 -0.1381873009489582 0 0.28466307642479333 -0.11300726336936889 0 0.27909767965646631 -0.1381873009489582 0 0.28466307642479333 -0.11300726336936889 0 0.27909767965646631 -0.1381873009489582 0 0.29238001106274558 -0.12624341493958621 0 0.27909767965646631 -0.1381873009489582 0 0.29238001106274558 -0.12624341493958621 0 0.29349458843669157 -0.13967517370051799 0 0.29349458843669157 -0.13967517370051799 0 0.28882547916306872 -0.15191371999074041 0 0.30001648936365499 -0.1512381896271541 0 0.27909767965646631 -0.1381873009489582 0 0.29349458843669157 -0.13967517370051799 0 0.28882547916306872 -0.15191371999074041 0 0.28882547916306872 -0.15191371999074041 0 0.30001648936365499 -0.1512381896271541 0 0.29169293691462822 -0.16271182956134861 0 0.29349458843669157 -0.13967517370051799 0 0.30001648936365499 -0.1512381896271541 0 0.30584663986671612 -0.13275627386590161 0 0.30001648936365499 -0.1512381896271541 0 0.30584663986671612 -0.13275627386590161 0 0.31863950711893541 -0.1507752657277969 0 0.29238001106274558 -0.12624341493958621 0 0.29349458843669157 -0.13967517370051799 0 0.30584663986671612 -0.13275627386590161 0 0.28456006224484581 -0.18841848410544171 0 0.30141928388957812 -0.18896262517470819 0 0.30159978468189041 -0.16959687491661909 0 0.28456006224484581 -0.18841848410544171 0 0.28665958669887859 -0.1724046981366022 0 0.30159978468189041 -0.16959687491661909 0 0.28456006224484581 -0.18841848410544171 0 0.27353228288814629 -0.16336733852854901 0 0.28665958669887859 -0.1724046981366022 0 0.28456006224484581 -0.18841848410544171 0 0.30159978468189041 -0.16959687491661909 0 0.27353228288814629 -0.16336733852854901 0 0.28665958669887859 -0.1724046981366022 0 0.29169293691462822 -0.16271182956134861 0 0.27353228288814629 -0.16336733852854901 0 0.28882547916306872 -0.15191371999074041 0 0.29169293691462822 -0.16271182956134861 0 0.28665958669887859 -0.1724046981366022 0 0.29169293691462822 -0.16271182956134861 0 0.30159978468189041 -0.16959687491661909 0 0.30001648936365499 -0.1512381896271541 0 0.30159978468189041 -0.16959687491661909 0 0.31863950711893541 -0.1507752657277969 0 0.30159978468189041 -0.16959687491661909 0 0.31863950711893541 -0.1507752657277969 0 0.30001648936365499 -0.1512381896271541 0 0.29169293691462822 -0.16271182956134861 0 0.30159978468189041 -0.16959687491661909 0 0.30141928388957812 -0.18896262517470819 0 0.30159978468189041 -0.16959687491661909 0 0.31281306310173229 -0.17709124816077801 0 0.30141928388957812 -0.18896262517470819 0 0.31281306310173229 -0.17709124816077801 0 0.30141928388957812 -0.18896262517470819 0 0.31281306310173229 -0.17709124816077801 0 0.31329400409191072 -0.18895622673588169 0 0.32709436224278482 -0.18280696837855959 0 0.31281306310173229 -0.17709124816077801 0 0.31329400409191072 -0.18895622673588169 0 0.32709436224278482 -0.18280696837855959 0 0.31281306310173229 -0.17709124816077801 0 0.32406722167461532 -0.1682999924236103 0 0.32406722167461532 -0.1682999924236103 0 0.31863950711893541 -0.1507752657277969 0 0.33967164488321011 -0.1543819050338591 0 0.30159978468189041 -0.16959687491661909 0 0.32406722167461532 -0.1682999924236103 0 0.31863950711893541 -0.1507752657277969 0 0.30159978468189041 -0.16959687491661909 0 0.31281306310173229 -0.17709124816077801 0 0.32406722167461532 -0.1682999924236103 0 0.32406722167461532 -0.1682999924236103 0 0.33967164488321011 -0.1543819050338591 0 0.34458496801913951 -0.17514769232404909 0 0.32709436224278482 -0.18280696837855959 0 0.34458496801913951 -0.17514769232404909 0 0.33514898226664958 -0.1957932752961741 0 0.32709436224278482 -0.18280696837855959 0 0.32406722167461532 -0.1682999924236103 0 0.34458496801913951 -0.17514769232404909 0 0.34458496801913951 -0.17514769232404909 0 0.34987950040632237 -0.19067189850814589 0 0.33514898226664958 -0.1957932752961741 0 0.32065551998497688 -0.12558405685066701 0 0.31863950711893541 -0.1507752657277969 0 0.33567922955598051 -0.13195365653897459 0 0.30584663986671612 -0.13275627386590161 0 0.32065551998497688 -0.12558405685066701 0 0.31863950711893541 -0.1507752657277969 0 0.31863950711893541 -0.1507752657277969 0 0.33567922955598051 -0.13195365653897459 0 0.31863950711893541 -0.1507752657277969 0 0.33967164488321011 -0.1543819050338591 0 0.33567922955598051 -0.13195365653897459 0 0.33967164488321011 -0.1543819050338591 0 0.33567922955598051 -0.13195365653897459 0 0.35480182430886531 -0.13535040708588519 0 0.34041306522580889 -0.1163561030877573 0 0.33567922955598051 -0.13195365653897459 0 0.35480182430886531 -0.13535040708588519 0 0.33967164488321011 -0.1543819050338591 0 0.35480182430886531 -0.13535040708588519 0 0.35929139242968777 -0.15802324528748971 0 0.35480182430886531 -0.13535040708588519 0 0.37169677401509821 -0.1446550523012865 0 0.35929139242968777 -0.15802324528748971 0 0.37169677401509821 -0.1446550523012865 0 0.35929139242968777 -0.15802324528748971 0 0.37851350660467148 -0.16188325007887211 0 0.36155129542977399 -0.1166926072026542 0 0.35480182430886531 -0.13535040708588519 0 0.37326451831426077 -0.12693746981884729 0 0.35480182430886531 -0.13535040708588519 0 0.37169677401509821 -0.1446550523012865 0 0.37326451831426077 -0.12693746981884729 0 0.34458496801913951 -0.17514769232404909 0 0.36673947551007507 -0.17618887252757531 0 0.34987950040632237 -0.19067189850814589 0 0.34458496801913951 -0.17514769232404909 0 0.36673947551007507 -0.17618887252757531 0 0.33967164488321011 -0.1543819050338591 0 0.34458496801913951 -0.17514769232404909 0 0.35929139242968777 -0.15802324528748971 0 0.34458496801913951 -0.17514769232404909 0 0.35929139242968777 -0.15802324528748971 0 0.36673947551007507 -0.17618887252757531 0 0.35929139242968777 -0.15802324528748971 0 0.36673947551007507 -0.17618887252757531 0 0.37851350660467148 -0.16188325007887211 0 0.36673947551007507 -0.17618887252757531 0 0.36599481474942069 -0.1937263533643179 0 0.38678444988124738 -0.18105872896838801 0 0.36673947551007507 -0.17618887252757531 0 0.36599481474942069 -0.1937263533643179 0 0.34987950040632237 -0.19067189850814589 0 0.36599481474942069 -0.1937263533643179 0 0.36721114421555778 -0.21658310618023879 0 0.37699779704840169 -0.19882091757431289 0 0.36721114421555778 -0.21658310618023879 0 0.37699779704840169 -0.19882091757431289 0 0.36599481474942069 -0.1937263533643179 0 0.36721114421555778 -0.21658310618023879 0 0.34520517961759312 -0.2063939777602464 0 0.36721114421555778 -0.21658310618023879 0 0.34520517961759312 -0.2063939777602464 0 0.35585568214894397 -0.2261129593480577 0 0.36599481474942069 -0.1937263533643179 0 0.34520517961759312 -0.2063939777602464 0 0.36599481474942069 -0.1937263533643179 0 0.34520517961759312 -0.2063939777602464 0 0.34987950040632237 -0.19067189850814589 0 0.34520517961759312 -0.2063939777602464 0 0.34987950040632237 -0.19067189850814589 0 0.33514898226664958 -0.1957932752961741 0 0.34520517961759312 -0.2063939777602464 0 0.32441554448576548 -0.2190616021561749 0 0.34520517961759312 -0.2063939777602464 0 0.33514898226664958 -0.1957932752961741 0 0.32441554448576548 -0.2190616021561749 0 0.34520517961759312 -0.2063939777602464 0 0.32441554448576548 -0.2190616021561749 0 0.34103745212438002 -0.22946491128827609 0 0.33514898226664958 -0.1957932752961741 0 0.31971433882829298 -0.20067751264986899 0 0.32441554448576548 -0.2190616021561749 0 0.30998471351115858 -0.21394551498275191 0 0.31971433882829298 -0.20067751264986899 0 0.32441554448576548 -0.2190616021561749 0 0.3053420678721131 -0.20197761918523749 0 0.31971433882829298 -0.20067751264986899 0 0.31329400409191072 -0.18895622673588169 0 0.32709436224278482 -0.18280696837855959 0 0.33514898226664958 -0.1957932752961741 0 0.31971433882829298 -0.20067751264986899 0 0.32709436224278482 -0.18280696837855959 0 0.31971433882829298 -0.20067751264986899 0 0.31329400409191072 -0.18895622673588169 0 0.30362590935393952 -0.23172922655210579 0 0.32440112861951897 -0.2379724830967247 0 0.31205500684387361 -0.25087710224603388 0 0.32440112861951897 -0.2379724830967247 0 0.32662070412229749 -0.25323695071805491 0 0.31205500684387361 -0.25087710224603388 0 0.30998471351115858 -0.21394551498275191 0 0.30362590935393952 -0.23172922655210579 0 0.32441554448576548 -0.2190616021561749 0 0.30362590935393952 -0.23172922655210579 0 0.32441554448576548 -0.2190616021561749 0 0.30362590935393952 -0.23172922655210579 0 0.32440112861951897 -0.2379724830967247 0 0.32441554448576548 -0.2190616021561749 0 0.32440112861951897 -0.2379724830967247 0 0.32441554448576548 -0.2190616021561749 0 0.34103745212438002 -0.22946491128827609 0 0.32440112861951897 -0.2379724830967247 0 0.34103745212438002 -0.22946491128827609 0 0.3387850440639687 -0.24492953814714299 0 0.32440112861951897 -0.2379724830967247 0 0.3387850440639687 -0.24492953814714299 0 0.32662070412229749 -0.25323695071805491 0 0.34103745212438002 -0.22946491128827609 0 0.3387850440639687 -0.24492953814714299 0 0.35611784693120302 -0.24152366655560631 0 0.3387850440639687 -0.24492953814714299 0 0.35611784693120302 -0.24152366655560631 0 0.35047144216815013 -0.25462251175469103 0 0.35611784693120302 -0.24152366655560631 0 0.35047144216815013 -0.25462251175469103 0 0.36245145780581273 -0.25366726859043198 0 0.34520517961759312 -0.2063939777602464 0 0.34103745212438002 -0.22946491128827609 0 0.35585568214894397 -0.2261129593480577 0 0.34103745212438002 -0.22946491128827609 0 0.35611784693120302 -0.24152366655560631 0 0.35585568214894397 -0.2261129593480577 0 0.36721114421555778 -0.21658310618023879 0 0.35585568214894397 -0.2261129593480577 0 0.36970678785598621 -0.23659913495592111 0 0.36721114421555778 -0.21658310618023879 0 0.36970678785598621 -0.23659913495592111 0 0.3809137111871142 -0.2256454713970571 0 0.35611784693120302 -0.24152366655560631 0 0.36741984179296311 -0.24634761426810001 0 0.36245145780581273 -0.25366726859043198 0 0.35611784693120302 -0.24152366655560631 0 0.36970678785598621 -0.23659913495592111 0 0.36741984179296311 -0.24634761426810001 0 0.35611784693120302 -0.24152366655560631 0 0.35585568214894397 -0.2261129593480577 0 0.36970678785598621 -0.23659913495592111 0 0.36741984179296311 -0.24634761426810001 0 0.37629875754551051 -0.24626025604008611 0 0.37252435882630303 -0.25368774519845427 0 0.36970678785598621 -0.23659913495592111 0 0.36741984179296311 -0.24634761426810001 0 0.37629875754551051 -0.24626025604008611 0 0.38091024090237852 -0.2370941755445812 0 0.39760175907332318 -0.22966253291178851 0 0.38403048223307962 -0.25365357019094342 0 0.37629875754551051 -0.24626025604008611 0 0.38091024090237852 -0.2370941755445812 0 0.38403048223307962 -0.25365357019094342 0 0.36970678785598621 -0.23659913495592111 0 0.37629875754551051 -0.24626025604008611 0 0.38091024090237852 -0.2370941755445812 0 0.40582943847424219 -0.24969399153345659 0 0.39760175907332318 -0.22966253291178851 0 0.38403048223307962 -0.25365357019094342 0 0.39760175907332318 -0.22966253291178851 0 0.38403048223307962 -0.25365357019094342 0 0.39760175907332318 -0.22966253291178851 0 0.3809137111871142 -0.2256454713970571 0 0.38869024553484582 -0.20962674123779371 0 0.38091024090237852 -0.2370941755445812 0 0.39760175907332318 -0.22966253291178851 0 0.3809137111871142 -0.2256454713970571 0 0.36970678785598621 -0.23659913495592111 0 0.38091024090237852 -0.2370941755445812 0 0.3809137111871142 -0.2256454713970571 0 0.36721114421555778 -0.21658310618023879 0 0.38869024553484582 -0.20962674123779371 0 0.37699779704840169 -0.19882091757431289 0 0.36721114421555778 -0.21658310618023879 0 0.3809137111871142 -0.2256454713970571 0 0.38869024553484582 -0.20962674123779371 0 0.36599481474942069 -0.1937263533643179 0 0.37699779704840169 -0.19882091757431289 0 0.38678444988124738 -0.18105872896838801 0 0.37699779704840169 -0.19882091757431289 0 0.38863543676018703 -0.19460902345691949 0 0.38678444988124738 -0.18105872896838801 0 0.37699779704840169 -0.19882091757431289 0 0.38678444988124738 -0.18105872896838801 0 0.38869024553484582 -0.20962674123779371 0 0.37699779704840169 -0.19882091757431289 0 0.38863543676018703 -0.19460902345691949 0 0.38863543676018703 -0.19460902345691949 0 0.39979877529348568 -0.19503594401329191 0 0.39390579753838489 -0.18578539049418319 0 0.38869024553484582 -0.20962674123779371 0 0.38863543676018703 -0.19460902345691949 0 0.39979877529348568 -0.19503594401329191 0 0.38869024553484582 -0.20962674123779371 0 0.39979877529348568 -0.19503594401329191 0 0.41117303591356669 -0.20567149563263359 0 0.39760175907332318 -0.22966253291178851 0 0.38869024553484582 -0.20962674123779371 0 0.41117303591356669 -0.20567149563263359 0 0.39760175907332318 -0.22966253291178851 0 0.41117303591356669 -0.20567149563263359 0 0.41117303591356669 -0.20567149563263359 0 0.43131794535901857 -0.20123306439027869 0 0.41872435083045878 -0.22446437562795149 0 0.41117303591356669 -0.20567149563263359 0 0.42474431275381042 -0.18168045835347871 0 0.41117303591356669 -0.20567149563263359 0 0.41261297775563199 -0.1878354356707656 0 0.42474431275381042 -0.18168045835347871 0 0.39979877529348568 -0.19503594401329191 0 0.41117303591356669 -0.20567149563263359 0 0.41261297775563199 -0.1878354356707656 0 0.41117303591356669 -0.20567149563263359 0 0.43131794535901857 -0.20123306439027869 0 0.42474431275381042 -0.18168045835347871 0 0.43131794535901857 -0.20123306439027869 0 0.42474431275381042 -0.18168045835347871 0 0.43673791375171411 -0.18651618284020061 0 0.43131794535901857 -0.20123306439027869 0 0.41872435083045878 -0.22446437562795149 0 0.43840649712714652 -0.21968862305393219 0 0.42977969853686138 -0.2421751179997928 0 0.41872435083045878 -0.22446437562795149 0 0.43840649712714652 -0.21968862305393219 0 0.40582943847424219 -0.24969399153345659 0 0.39760175907332318 -0.22966253291178851 0 0.41872435083045878 -0.22446437562795149 0 0.40582943847424219 -0.24969399153345659 0 0.42977969853686138 -0.2421751179997928 0 0.41872435083045878 -0.22446437562795149 0 0.39760175907332318 -0.22966253291178851 0 0.41117303591356669 -0.20567149563263359 0 0.41872435083045878 -0.22446437562795149 0 0.39479865834708638 -0.12493157334112 0 0.40407314973488162 -0.1160498156152385 0 0.41073172961654059 -0.13759585085037621 0 0.39479865834708638 -0.12493157334112 0 0.38988630730795332 -0.13669045022918139 0 0.41073172961654059 -0.13759585085037621 0 0.38524269927198751 -0.1169100348772064 0 0.37326451831426077 -0.12693746981884729 0 0.38988630730795332 -0.13669045022918139 0 0.37169677401509821 -0.1446550523012865 0 0.37326451831426077 -0.12693746981884729 0 0.38988630730795332 -0.13669045022918139 0 0.38524269927198751 -0.1169100348772064 0 0.39479865834708638 -0.12493157334112 0 0.38988630730795332 -0.13669045022918139 0 0.37169677401509821 -0.1446550523012865 0 0.38988630730795332 -0.13669045022918139 0 0.38497736105912461 -0.15016042610001931 0 0.37169677401509821 -0.1446550523012865 0 0.38497736105912461 -0.15016042610001931 0 0.37851350660467148 -0.16188325007887211 0 0.38988630730795332 -0.13669045022918139 0 0.39981285630877528 -0.1574129517907373 0 0.41073172961654059 -0.13759585085037621 0 0.38988630730795332 -0.13669045022918139 0 0.38497736105912461 -0.15016042610001931 0 0.39981285630877528 -0.1574129517907373 0 0.39981285630877528 -0.1574129517907373 0 0.41073172961654059 -0.13759585085037621 0 0.39981285630877528 -0.1574129517907373 0 0.38889398300101102 -0.1772300527310989 0 0.39981285630877528 -0.1574129517907373 0 0.38889398300101102 -0.1772300527310989 0 0.40541424927276931 -0.17800644436184179 0 0.38497736105912461 -0.15016042610001931 0 0.39981285630877528 -0.1574129517907373 0 0.37851350660467148 -0.16188325007887211 0 0.39981285630877528 -0.1574129517907373 0 0.37851350660467148 -0.16188325007887211 0 0.38889398300101102 -0.1772300527310989 0 0.36673947551007507 -0.17618887252757531 0 0.37851350660467148 -0.16188325007887211 0 0.38889398300101102 -0.1772300527310989 0 0.36673947551007507 -0.17618887252757531 0 0.38889398300101102 -0.1772300527310989 0 0.36673947551007507 -0.17618887252757531 0 0.38889398300101102 -0.1772300527310989 0 0.38678444988124738 -0.18105872896838801 0 0.36599481474942069 -0.1937263533643179 0 0.38678444988124738 -0.18105872896838801 0 0.39039601723195072 -0.17885811417216069 0 0.38889398300101102 -0.1772300527310989 0 0.38678444988124738 -0.18105872896838801 0 0.38889398300101102 -0.1772300527310989 0 0.38678444988124738 -0.18105872896838801 0 0.38863543676018703 -0.19460902345691949 0 0.38678444988124738 -0.18105872896838801 0 0.39390579753838489 -0.18578539049418319 0 0.39039601723195072 -0.17885811417216069 0 0.38678444988124738 -0.18105872896838801 0 0.39390579753838489 -0.18578539049418319 0 0.39039601723195072 -0.17885811417216069 0 0.38678444988124738 -0.18105872896838801 0 0.39979877529348568 -0.19503594401329191 0 0.39390579753838489 -0.18578539049418319 0 0.40541424927276931 -0.17800644436184179 0 0.38889398300101102 -0.1772300527310989 0 0.40541424927276931 -0.17800644436184179 0 0.39979877529348568 -0.19503594401329191 0 0.41261297775563199 -0.1878354356707656 0 0.40541424927276931 -0.17800644436184179 0 0.39039601723195072 -0.17885811417216069 0 0.38889398300101102 -0.1772300527310989 0 0.40541424927276931 -0.17800644436184179 0 0.39039601723195072 -0.17885811417216069 0 0.39390579753838489 -0.18578539049418319 0 0.40541424927276931 -0.17800644436184179 0 0.40541424927276931 -0.17800644436184179 0 0.42193451554452782 -0.1787828359925821 0 0.41261297775563199 -0.1878354356707656 0 0.40541424927276931 -0.17800644436184179 0 0.42193451554452782 -0.1787828359925821 0 0.40541424927276931 -0.17800644436184179 0 0.42193451554452782 -0.1787828359925821 0 0.41376418003410609 -0.16843927660070179 0 0.42193451554452782 -0.1787828359925821 0 0.42261099091320042 -0.16854388552912561 0 0.41376418003410609 -0.16843927660070179 0 0.41261297775563199 -0.1878354356707656 0 0.42474431275381042 -0.18168045835347871 0 0.42193451554452782 -0.1787828359925821 0 0.42474431275381042 -0.18168045835347871 0 0.43673791375171411 -0.18651618284020061 0 0.43479136275073599 -0.1777993580966481 0 0.43479136275073599 -0.1777993580966481 0 0.42815196974940628 -0.17415241629190051 0 0.43818388046930751 -0.1694180558152589 0 0.42474431275381042 -0.18168045835347871 0 0.43479136275073599 -0.1777993580966481 0 0.42815196974940628 -0.17415241629190051 0 0.42815196974940628 -0.17415241629190051 0 0.42193451554452782 -0.1787828359925821 0 0.42261099091320042 -0.16854388552912561 0 0.42474431275381042 -0.18168045835347871 0 0.42815196974940628 -0.17415241629190051 0 0.42193451554452782 -0.1787828359925821 0 0.42815196974940628 -0.17415241629190051 0 0.42261099091320042 -0.16854388552912561 0 0.43095573362641643 -0.16036605340961241 0 0.42815196974940628 -0.17415241629190051 0 0.43095573362641643 -0.16036605340961241 0 0.43818388046930751 -0.1694180558152589 0 0.42261099091320042 -0.16854388552912561 0 0.43095573362641643 -0.16036605340961241 0 0.41935965480532988 -0.1575479378404295 0 0.39981285630877528 -0.1574129517907373 0 0.41935965480532988 -0.1575479378404295 0 0.41376418003410609 -0.16843927660070179 0 0.39981285630877528 -0.1574129517907373 0 0.40541424927276931 -0.17800644436184179 0 0.41376418003410609 -0.16843927660070179 0 0.42261099091320042 -0.16854388552912561 0 0.41935965480532988 -0.1575479378404295 0 0.41376418003410609 -0.16843927660070179 0 0.39981285630877528 -0.1574129517907373 0 0.41935965480532988 -0.1575479378404295 0 0.41073172961654059 -0.13759585085037621 0 0.41935965480532988 -0.1575479378404295 0 0.42948503017771672 -0.14498204893032271 0 0.41073172961654059 -0.13759585085037621 0 0.43095573362641643 -0.16036605340961241 0 0.41935965480532988 -0.1575479378404295 0 0.42948503017771672 -0.14498204893032271 0 0.43095573362641643 -0.16036605340961241 0 0.42948503017771672 -0.14498204893032271 0 0.44794287564353769 -0.147551976050637 0 0.42948503017771672 -0.14498204893032271 0 0.4248004600444652 -0.13214204277826039 0 0.43942826896843201 -0.13064104711527141 0 0.43002067516741038 -0.1232511444017223 0 0.4248004600444652 -0.13214204277826039 0 0.43942826896843201 -0.13064104711527141 0 0.42165060292430601 -0.11777874991001509 0 0.4248004600444652 -0.13214204277826039 0 0.41073172961654059 -0.13759585085037621 0 0.42948503017771672 -0.14498204893032271 0 0.4248004600444652 -0.13214204277826039 0 0.41073172961654059 -0.13759585085037621 0 0.42165060292430601 -0.11777874991001509 0 0.41073172961654059 -0.13759585085037621 0 0.46374745463163558 -0.12909303365488381 0 0.45770187081776792 -0.12568589628601501 0 0.46257386765692021 -0.1461162444927615 0 0.47505225320150618 -0.12418507433103559 0 0.46374745463163558 -0.12909303365488381 0 0.46257386765692021 -0.1461162444927615 0 0.45770187081776792 -0.12568589628601501 0 0.44794287564353769 -0.147551976050637 0 0.46257386765692021 -0.1461162444927615 0 0.47505225320150618 -0.12418507433103559 0 0.46413707305310659 -0.1237207154511608 0 0.46374745463163558 -0.12909303365488381 0 0.46413707305310659 -0.1237207154511608 0 0.46374745463163558 -0.12909303365488381 0 0.45770187081776792 -0.12568589628601501 0 0.46374745463163558 -0.12909303365488381 0 0.45770187081776792 -0.12568589628601501 0 0.45770187081776792 -0.12568589628601501 0 0.43942826896843201 -0.13064104711527141 0 0.44794287564353769 -0.147551976050637 0 0.45770187081776792 -0.12568589628601501 0 0.44794287564353769 -0.147551976050637 0 0.42948503017771672 -0.14498204893032271 0 0.43942826896843201 -0.13064104711527141 0 0.44794287564353769 -0.147551976050637 0 0.44794287564353769 -0.147551976050637 0 0.46257386765692021 -0.1461162444927615 0 0.45438695715319621 -0.15816830981402691 0 0.46257386765692021 -0.1461162444927615 0 0.45438695715319621 -0.15816830981402691 0 0.46946660694592113 -0.15865592804875961 0 0.45376755505029442 -0.1690993446627172 0 0.47688377752514688 -0.18014474099399391 0 0.46946660694592113 -0.15865592804875961 0 0.45376755505029442 -0.1690993446627172 0 0.45438695715319621 -0.15816830981402691 0 0.46946660694592113 -0.15865592804875961 0 0.44794287564353769 -0.147551976050637 0 0.45438695715319621 -0.15816830981402691 0 0.43818388046930751 -0.1694180558152589 0 0.43095573362641643 -0.16036605340961241 0 0.44794287564353769 -0.147551976050637 0 0.43818388046930751 -0.1694180558152589 0 0.45376755505029442 -0.1690993446627172 0 0.45438695715319621 -0.15816830981402691 0 0.43818388046930751 -0.1694180558152589 0 0.44794287564353769 -0.147551976050637 0 0.43818388046930751 -0.1694180558152589 0 0.45376755505029442 -0.1690993446627172 0 0.43818388046930751 -0.1694180558152589 0 0.4459915584668539 -0.17997741654253699 0 0.4459915584668539 -0.17997741654253699 0 0.4628849162198046 -0.18538381721770431 0 0.44958372255926699 -0.19164774062269291 0 0.43479136275073599 -0.1777993580966481 0 0.43818388046930751 -0.1694180558152589 0 0.4459915584668539 -0.17997741654253699 0 0.43673791375171411 -0.18651618284020061 0 0.4459915584668539 -0.17997741654253699 0 0.44958372255926699 -0.19164774062269291 0 0.43673791375171411 -0.18651618284020061 0 0.43479136275073599 -0.1777993580966481 0 0.4459915584668539 -0.17997741654253699 0 0.45376755505029442 -0.1690993446627172 0 0.4459915584668539 -0.17997741654253699 0 0.4628849162198046 -0.18538381721770431 0 0.45376755505029442 -0.1690993446627172 0 0.47688377752514688 -0.18014474099399391 0 0.45376755505029442 -0.1690993446627172 0 0.4628849162198046 -0.18538381721770431 0 0.47688377752514688 -0.18014474099399391 0 0.4628849162198046 -0.18538381721770431 0 0.47688377752514688 -0.18014474099399391 0 0.47713882426751419 -0.19112915738221961 0 0.47688377752514688 -0.18014474099399391 0 0.5 -0.16423585451024841 0 0.49999999999999961 -0.1911901373252706 0 0.47688377752514688 -0.18014474099399391 0 0.49999999999999961 -0.1911901373252706 0 0.47688377752514688 -0.18014474099399391 0 0.48555741099753558 -0.1565302659239155 0 0.5 -0.16423585451024841 0 0.47688377752514688 -0.18014474099399391 0 0.48555741099753558 -0.1565302659239155 0 0.46946660694592113 -0.15865592804875961 0 0.46257386765692021 -0.1461162444927615 0 0.46946660694592113 -0.15865592804875961 0 0.48143667051661021 -0.14233323437134929 0 0.48555741099753558 -0.1565302659239155 0 0.46946660694592113 -0.15865592804875961 0 0.48143667051661021 -0.14233323437134929 0 0.48555741099753558 -0.1565302659239155 0 0.48143667051661021 -0.14233323437134929 0 0.50000000000000178 -0.13728157169522609 0 0.48555741099753558 -0.1565302659239155 0 0.5 -0.16423585451024841 0 0.50000000000000178 -0.13728157169522609 0 0.47505225320150618 -0.12418507433103559 0 0.48143667051661021 -0.14233323437134929 0 0.50000000000000178 -0.13728157169522609 0 0.47505225320150618 -0.12418507433103559 0 0.50000000000000178 -0.13728157169522609 0 0.47505225320150618 -0.12418507433103559 0 0.46257386765692021 -0.1461162444927615 0 0.48143667051661021 -0.14233323437134929 0 0.47505225320150618 -0.12418507433103559 0 0.46257386765692021 -0.1461162444927615 0 0.46628386385890469 -0.24155215346824679 0 0.45793379320908589 -0.21659994704547 0 0.47241452054635868 -0.2266349637214671 0 0.46628386385890469 -0.24155215346824679 0 0.44820132999689938 -0.23458597540784931 0 0.45793379320908589 -0.21659994704547 0 0.46628386385890469 -0.24155215346824679 0 0.45793379320908589 -0.21659994704547 0 0.45793379320908589 -0.21659994704547 0 0.47237850371623091 -0.21535774774395361 0 0.47241452054635868 -0.2266349637214671 0 0.46628386385890469 -0.24155215346824679 0 0.44820132999689938 -0.23458597540784931 0 0.44860279725249852 -0.25291403547180452 0 0.42977969853686138 -0.2421751179997928 0 0.44820132999689938 -0.23458597540784931 0 0.44860279725249852 -0.25291403547180452 0 0.42977969853686138 -0.2421751179997928 0 0.44820132999689938 -0.23458597540784931 0 0.43840649712714652 -0.21968862305393219 0 0.44820132999689938 -0.23458597540784931 0 0.43840649712714652 -0.21968862305393219 0 0.45793379320908589 -0.21659994704547 0 0.43840649712714652 -0.21968862305393219 0 0.44958372255926699 -0.19164774062269291 0 0.45793379320908589 -0.21659994704547 0 0.43131794535901857 -0.20123306439027869 0 0.43840649712714652 -0.21968862305393219 0 0.44958372255926699 -0.19164774062269291 0 0.43131794535901857 -0.20123306439027869 0 0.43673791375171411 -0.18651618284020061 0 0.44958372255926699 -0.19164774062269291 0 0.4628849162198046 -0.18538381721770431 0 0.44958372255926699 -0.19164774062269291 0 0.47225446743571209 -0.20216297433456359 0 0.44958372255926699 -0.19164774062269291 0 0.45793379320908589 -0.21659994704547 0 0.47225446743571209 -0.20216297433456359 0 0.44958372255926699 -0.19164774062269291 0 0.45793379320908589 -0.21659994704547 0 0.45793379320908589 -0.21659994704547 0 0.47237850371623091 -0.21535774774395361 0 0.47225446743571209 -0.20216297433456359 0 0.47225446743571209 -0.20216297433456359 0 0.49060926823582129 -0.19341030737249221 0 0.48528415699345562 -0.21777499154533611 0 0.47237850371623091 -0.21535774774395361 0 0.47225446743571209 -0.20216297433456359 0 0.48528415699345562 -0.21777499154533611 0 0.4628849162198046 -0.18538381721770431 0 0.47225446743571209 -0.20216297433456359 0 0.47713882426751419 -0.19112915738221961 0 0.47225446743571209 -0.20216297433456359 0 0.47713882426751419 -0.19112915738221961 0 0.49060926823582129 -0.19341030737249221 0 0.47688377752514688 -0.18014474099399391 0 0.47713882426751419 -0.19112915738221961 0 0.49060926823582129 -0.19341030737249221 0 0.47688377752514688 -0.18014474099399391 0 0.49999999999999961 -0.1911901373252706 0 0.49060926823582129 -0.19341030737249221 0 0.49999999999999961 -0.1911901373252706 0 0.49060926823582129 -0.19341030737249221 0 0.5 -0.22090401382346811 0 0.49060926823582129 -0.19341030737249221 0 0.48528415699345562 -0.21777499154533611 0 0.49060926823582129 -0.19341030737249221 0 0.48528415699345562 -0.21777499154533611 0 0.5 -0.22090401382346811 0 0.5 -0.22090401382346811 0 0.49003968140588239 -0.23157861881253489 0 0.5 -0.25061789032166548 0 0.48528415699345562 -0.21777499154533611 0 0.49003968140588239 -0.23157861881253489 0 0.47995904575108989 -0.2421396757181799 0 0.48528415699345562 -0.21777499154533611 0 0.5 -0.22090401382346811 0 0.49003968140588239 -0.23157861881253489 0 0.48528415699345562 -0.21777499154533611 0 0.47241452054635868 -0.2266349637214671 0 0.47995904575108989 -0.2421396757181799 0 0.48528415699345562 -0.21777499154533611 0 0.47995904575108989 -0.2421396757181799 0 0.47237850371623091 -0.21535774774395361 0 0.48528415699345562 -0.21777499154533611 0 0.47241452054635868 -0.2266349637214671 0 0.46628386385890469 -0.24155215346824679 0 0.47241452054635868 -0.2266349637214671 0 0.47995904575108989 -0.2421396757181799 0 0.49003968140588239 -0.23157861881253489 0 0.47995904575108989 -0.2421396757181799 0 0.5 -0.25061789032166548 0 0.47995904575108989 -0.2421396757181799 0 0.5 -0.25061789032166548 0 0.48583015842726551 -0.25618712439356978 0 0.5 -0.25061789032166548 0 0.48583015842726551 -0.25618712439356978 0 0.5 -0.28033176681986272 0 0.5 -0.28033176681986272 0 0.47463393450872388 -0.26650435989102361 0 0.48335659016677951 -0.29256994827491778 0 0.48583015842726551 -0.25618712439356978 0 0.5 -0.28033176681986272 0 0.47463393450872388 -0.26650435989102361 0 0.47463393450872388 -0.26650435989102361 0 0.46965363078861999 -0.28929140070620762 0 0.47463393450872388 -0.26650435989102361 0 0.48335659016677951 -0.29256994827491778 0 0.47995904575108989 -0.2421396757181799 0 0.47463393450872388 -0.26650435989102361 0 0.46628386385890469 -0.24155215346824679 0 0.47995904575108989 -0.2421396757181799 0 0.47463393450872388 -0.26650435989102361 0 0.47995904575108989 -0.2421396757181799 0 0.48583015842726551 -0.25618712439356978 0 0.47463393450872388 -0.26650435989102361 0 0.46628386385890469 -0.24155215346824679 0 0.47463393450872388 -0.26650435989102361 0 0.46628386385890469 -0.24155215346824679 0 0.47463393450872388 -0.26650435989102361 0 0.44860279725249852 -0.25291403547180452 0 0.47463393450872388 -0.26650435989102361 0 0.45359519383878988 -0.27177437716218239 0 0.44860279725249852 -0.25291403547180452 0 0.47463393450872388 -0.26650435989102361 0 0.45359519383878988 -0.27177437716218239 0 0.4562590842348403 -0.28529255435229378 0 0.47463393450872388 -0.26650435989102361 0 0.4562590842348403 -0.28529255435229378 0 0.46965363078861999 -0.28929140070620762 0 0.45359519383878988 -0.27177437716218239 0 0.44860279725249852 -0.25291403547180452 0 0.43619321715671561 -0.28075268094489531 0 0.45359519383878988 -0.27177437716218239 0 0.4562590842348403 -0.28529255435229378 0 0.43619321715671561 -0.28075268094489531 0 0.44491772381290878 -0.29735311160783218 0 0.4476886529210452 -0.31570140364781302 0 0.43623948301420262 -0.30910569830066809 0 0.44491772381290878 -0.29735311160783218 0 0.45670299119935032 -0.30014928885819869 0 0.4476886529210452 -0.31570140364781302 0 0.44491772381290878 -0.29735311160783218 0 0.4562590842348403 -0.28529255435229378 0 0.43619321715671561 -0.28075268094489531 0 0.44491772381290878 -0.29735311160783218 0 0.4562590842348403 -0.28529255435229378 0 0.45670299119935032 -0.30014928885819869 0 0.4562590842348403 -0.28529255435229378 0 0.45670299119935032 -0.30014928885819869 0 0.46965363078861999 -0.28929140070620762 0 0.45670299119935032 -0.30014928885819869 0 0.46467332706851561 -0.31207844152139153 0 0.46965363078861999 -0.28929140070620762 0 0.45670299119935032 -0.30014928885819869 0 0.46467332706851561 -0.31207844152139153 0 0.4476886529210452 -0.31570140364781302 0 0.46467332706851561 -0.31207844152139153 0 0.46965363078861999 -0.28929140070620762 0 0.46467332706851561 -0.31207844152139153 0 0.47416629822244388 -0.30059928015774118 0 0.47898164486586081 -0.30845733012844778 0 0.46467332706851561 -0.31207844152139153 0 0.47416629822244388 -0.30059928015774118 0 0.46965363078861999 -0.28929140070620762 0 0.47416629822244388 -0.30059928015774118 0 0.47898164486586081 -0.30845733012844778 0 0.48335659016677951 -0.29256994827491778 0 0.47463393450872388 -0.26650435989102361 0 0.46965363078861999 -0.28929140070620762 0 0.48335659016677951 -0.29256994827491778 0 0.47416629822244388 -0.30059928015774118 0 0.46965363078861999 -0.28929140070620762 0 0.48335659016677951 -0.29256994827491778 0 0.5 -0.28033176681986272 0 0.48335659016677951 -0.29256994827491778 0 0.5 -0.31004564331805989 0 0.48335659016677951 -0.29256994827491778 0 0.49207924582483531 -0.31863553665881178 0 0.48335659016677951 -0.29256994827491778 0 0.5 -0.31004564331805989 0 0.49207924582483531 -0.31863553665881178 0 0.47898164486586081 -0.30845733012844778 0 0.48335659016677951 -0.29256994827491778 0 0.49207924582483531 -0.31863553665881178 0 0.5 -0.31004564331805989 0 0.49207924582483531 -0.31863553665881178 0 0.5 -0.33975951981625718 0 0.49207924582483531 -0.31863553665881178 0 0.48448897825986548 -0.33313441521330461 0 0.48019404426591938 -0.32013045264805529 0 0.49207924582483531 -0.31863553665881178 0 0.5 -0.33975951981625718 0 0.48448897825986548 -0.33313441521330461 0 0.5 -0.33975951981625718 0 0.48448897825986548 -0.33313441521330461 0 0.48105100775028858 -0.3520741061053595 0 0.48448897825986548 -0.33313441521330461 0 0.47009395803414589 -0.34075410997417549 0 0.48105100775028858 -0.3520741061053595 0 0.48448897825986548 -0.33313441521330461 0 0.47009395803414589 -0.34075410997417549 0 0.47033081472113358 -0.32692820910572767 0 0.46467332706851561 -0.31207844152139153 0 0.47898164486586081 -0.30845733012844778 0 0.48019404426591938 -0.32013045264805529 0 0.46467332706851561 -0.31207844152139153 0 0.47033081472113358 -0.32692820910572767 0 0.48019404426591938 -0.32013045264805529 0 0.47898164486586081 -0.30845733012844778 0 0.49207924582483531 -0.31863553665881178 0 0.48019404426591938 -0.32013045264805529 0 0.48448897825986548 -0.33313441521330461 0 0.47033081472113358 -0.32692820910572767 0 0.48019404426591938 -0.32013045264805529 0 0.49999999999999839 -0.36947339631445453 0 0.4750594544168254 -0.37407229409885018 0 0.49999999999999839 -0.36947339631445453 0 0.48105100775028858 -0.3520741061053595 0 0.4750594544168254 -0.37407229409885018 0 0.5 -0.33975951981625718 0 0.49999999999999839 -0.36947339631445453 0 0.48105100775028858 -0.3520741061053595 0 0.48105100775028858 -0.3520741061053595 0 0.4750594544168254 -0.37407229409885018 0 0.45490596609103112 -0.35676833710991041 0 0.4750594544168254 -0.37407229409885018 0 0.45490596609103112 -0.35676833710991041 0 0.45011890883365241 -0.37867119188324577 0 0.47009395803414589 -0.34075410997417549 0 0.45490596609103112 -0.35676833710991041 0 0.45969302334841278 -0.3348654823365757 0 0.47009395803414589 -0.34075410997417549 0 0.48105100775028858 -0.3520741061053595 0 0.45490596609103112 -0.35676833710991041 0 0.45490596609103112 -0.35676833710991041 0 0.45969302334841278 -0.3348654823365757 0 0.45490596609103112 -0.35676833710991041 0 0.44699419460917678 -0.3443405763559596 0 0.45969302334841278 -0.3348654823365757 0 0.45490596609103112 -0.35676833710991041 0 0.44469609876793548 -0.3674727671716812 0 0.43429536586994022 -0.35381567037534262 0 0.45490596609103112 -0.35676833710991041 0 0.44699419460917678 -0.3443405763559596 0 0.43429536586994022 -0.35381567037534262 0 0.44699419460917678 -0.3443405763559596 0 0.43429536586994022 -0.35381567037534262 0 0.45490596609103112 -0.35676833710991041 0 0.45011890883365241 -0.37867119188324577 0 0.44469609876793548 -0.3674727671716812 0 0.43429536586994022 -0.35381567037534262 0 0.43946415427711799 -0.38063586931822557 0 0.45490596609103112 -0.35676833710991041 0 0.44469609876793548 -0.3674727671716812 0 0.45011890883365241 -0.37867119188324577 0 0.46467332706851561 -0.31207844152139153 0 0.47033081472113358 -0.32692820910572767 0 0.45969302334841278 -0.3348654823365757 0 0.46467332706851561 -0.31207844152139153 0 0.45738327419021518 -0.33466758934745899 0 0.45969302334841278 -0.3348654823365757 0 0.46467332706851561 -0.31207844152139153 0 0.45738327419021518 -0.33466758934745899 0 0.4476886529210452 -0.31570140364781302 0 0.46467332706851561 -0.31207844152139153 0 0.45969302334841278 -0.3348654823365757 0 0.47009395803414589 -0.34075410997417549 0 0.47033081472113358 -0.32692820910572767 0 0.45969302334841278 -0.3348654823365757 0 0.47033081472113358 -0.32692820910572767 0 0.45969302334841278 -0.3348654823365757 0 0.44699419460917678 -0.3443405763559596 0 0.45969302334841278 -0.3348654823365757 0 0.44699419460917678 -0.3443405763559596 0 0.45738327419021518 -0.33466758934745899 0 0.45969302334841278 -0.3348654823365757 0 0.45738327419021518 -0.33466758934745899 0 0.42894707436105239 -0.32606405220627188 0 0.44699419460917678 -0.3443405763559596 0 0.45738327419021518 -0.33466758934745899 0 0.42894707436105239 -0.32606405220627188 0 0.4476886529210452 -0.31570140364781302 0 0.42894707436105239 -0.32606405220627188 0 0.43623948301420262 -0.30910569830066809 0 0.45738327419021518 -0.33466758934745899 0 0.4476886529210452 -0.31570140364781302 0 0.42894707436105239 -0.32606405220627188 0 0.42894707436105239 -0.32606405220627188 0 0.41321662526132502 -0.3343191371571721 0 0.43429536586994022 -0.35381567037534262 0 0.42894707436105239 -0.32606405220627188 0 0.43429536586994022 -0.35381567037534262 0 0.44699419460917678 -0.3443405763559596 0 0.42894707436105239 -0.32606405220627188 0 0.43429536586994022 -0.35381567037534262 0 0.42894707436105239 -0.32606405220627188 0 0.41321662526132502 -0.3343191371571721 0 0.40203645458557791 -0.31792208815617151 0 0.42894707436105239 -0.32606405220627188 0 0.40203645458557791 -0.31792208815617151 0 0.41113008243465349 -0.31229761021403091 0 0.42894707436105239 -0.32606405220627188 0 0.40203645458557791 -0.31792208815617151 0 0.40203645458557791 -0.31792208815617151 0 0.41113008243465349 -0.31229761021403091 0 0.43429536586994022 -0.35381567037534262 0 0.43132484987325792 -0.38213671174625541 0 0.41996641389449119 -0.37913033145276909 0 0.43429536586994022 -0.35381567037534262 0 0.41229315791135968 -0.37023238039816442 0 0.43429536586994022 -0.35381567037534262 0 0.43946415427711799 -0.38063586931822557 0 0.43429536586994022 -0.35381567037534262 0 0.43946415427711799 -0.38063586931822557 0 0.43132484987325792 -0.38213671174625541 0 0.43429536586994022 -0.35381567037534262 0 0.41229315791135968 -0.37023238039816442 0 0.41996641389449119 -0.37913033145276909 0 0.41321662526132502 -0.3343191371571721 0 0.43429536586994022 -0.35381567037534262 0 0.40358128164331508 -0.34924406964574689 0 0.43429536586994022 -0.35381567037534262 0 0.41229315791135968 -0.37023238039816442 0 0.40358128164331508 -0.34924406964574689 0 0.41229315791135968 -0.37023238039816442 0 0.39175917104005331 -0.37046056985631709 0 0.40358128164331508 -0.34924406964574689 0 0.39175917104005331 -0.37046056985631709 0 0.40358128164331508 -0.34924406964574689 0 0.38732448798562269 -0.35670974041057452 0 0.40358128164331508 -0.34924406964574689 0 0.38563795138159418 -0.34648932485568451 0 0.38732448798562269 -0.35670974041057452 0 0.40358128164331508 -0.34924406964574689 0 0.38563795138159418 -0.34648932485568451 0 0.37880559887013521 -0.3360174835103551 0 0.37999922837005989 -0.35225083943772562 0 0.378642085669466 -0.34111244539821173 0 0.37123248141919629 -0.35082839473023048 0 0.38563795138159418 -0.34648932485568451 0 0.37999922837005989 -0.35225083943772562 0 0.378642085669466 -0.34111244539821173 0 0.37999922837005989 -0.35225083943772562 0 0.37717060256999912 -0.36631755433082092 0 0.37123248141919629 -0.35082839473023048 0 0.37999922837005989 -0.35225083943772562 0 0.38732448798562269 -0.35670974041057452 0 0.37717060256999912 -0.36631755433082092 0 0.38563795138159418 -0.34648932485568451 0 0.37999922837005989 -0.35225083943772562 0 0.38732448798562269 -0.35670974041057452 0 0.39175917104005331 -0.37046056985631709 0 0.37717060256999912 -0.36631755433082092 0 0.39029094995278002 -0.38664909042098711 0 0.39175917104005331 -0.37046056985631709 0 0.38732448798562269 -0.35670974041057452 0 0.37717060256999912 -0.36631755433082092 0 0.40203645458557791 -0.31792208815617151 0 0.37960415319331481 -0.31113506529973911 0 0.40203645458557791 -0.31792208815617151 0 0.39531351809419779 -0.33394357004109398 0 0.37892763011063602 -0.33221507173602421 0 0.40203645458557791 -0.31792208815617151 0 0.39894111756653872 -0.30748720859051598 0 0.41113008243465349 -0.31229761021403091 0 0.41321662526132502 -0.3343191371571721 0 0.40203645458557791 -0.31792208815617151 0 0.39531351809419779 -0.33394357004109398 0 0.41321662526132502 -0.3343191371571721 0 0.40358128164331508 -0.34924406964574689 0 0.39531351809419779 -0.33394357004109398 0 0.40358128164331508 -0.34924406964574689 0 0.37880559887013521 -0.3360174835103551 0 0.40358128164331508 -0.34924406964574689 0 0.39531351809419779 -0.33394357004109398 0 0.37880559887013521 -0.3360174835103551 0 0.378642085669466 -0.34111244539821173 0 0.37557142655256798 -0.33429090914602089 0 0.37123248141919629 -0.35082839473023048 0 0.39531351809419779 -0.33394357004109398 0 0.37880559887013521 -0.3360174835103551 0 0.37892763011063602 -0.33221507173602421 0 0.38563795138159418 -0.34648932485568451 0 0.37880559887013521 -0.3360174835103551 0 0.378642085669466 -0.34111244539821173 0 0.37880559887013521 -0.3360174835103551 0 0.378642085669466 -0.34111244539821173 0 0.37880559887013521 -0.3360174835103551 0 0.378642085669466 -0.34111244539821173 0 0.37557142655256798 -0.33429090914602089 0 0.37892763011063602 -0.33221507173602421 0 0.37557142655256798 -0.33429090914602089 0 0.37880559887013521 -0.3360174835103551 0 0.37892763011063602 -0.33221507173602421 0 0.37557142655256798 -0.33429090914602089 0 0.37880559887013521 -0.3360174835103551 0 0.37557142655256798 -0.33429090914602089 0 0.37880559887013521 -0.3360174835103551 0 0.37892763011063602 -0.33221507173602421 0 0.37892763011063602 -0.33221507173602421 0 0.37960415319331481 -0.31113506529973911 0 0.40203645458557791 -0.31792208815617151 0 0.37892763011063602 -0.33221507173602421 0 0.37960415319331481 -0.31113506529973911 0 0.37892763011063602 -0.33221507173602421 0 0.37960415319331481 -0.31113506529973911 0 0.36990263654498168 -0.32137457248966428 0 0.40203645458557791 -0.31792208815617151 0 0.37892763011063602 -0.33221507173602421 0 0.37960415319331481 -0.31113506529973911 0 0.38049414563372908 -0.28340349655890917 0 0.37960415319331481 -0.31113506529973911 0 0.39499082396063478 -0.2967197267451413 0 0.38049414563372908 -0.28340349655890917 0 0.40203645458557791 -0.31792208815617151 0 0.37960415319331481 -0.31113506529973911 0 0.39894111756653872 -0.30748720859051598 0 0.37960415319331481 -0.31113506529973911 0 0.39894111756653872 -0.30748720859051598 0 0.39499082396063478 -0.2967197267451413 0 0.39894111756653872 -0.30748720859051598 0 0.39499082396063478 -0.2967197267451413 0 0.40694407365851271 -0.29936155253749669 0 0.39894111756653872 -0.30748720859051598 0 0.41113008243465349 -0.31229761021403091 0 0.40694407365851271 -0.29936155253749669 0 0.40359383655324932 -0.28343142421247491 0 0.39499082396063478 -0.2967197267451413 0 0.38049414563372908 -0.28340349655890917 0 0.40359383655324932 -0.28343142421247491 0 0.39499082396063478 -0.2967197267451413 0 0.40694407365851271 -0.29936155253749669 0 0.38049414563372908 -0.28340349655890917 0 0.38138413807414112 -0.25567192781807913 0 0.39438142454355712 -0.26996911692031622 0 0.38049414563372908 -0.28340349655890917 0 0.38138413807414112 -0.25567192781807913 0 0.38049414563372908 -0.28340349655890917 0 0.38138413807414112 -0.25567192781807913 0 0.3680562190181661 -0.27151950715159229 0 0.37804914601253259 -0.25200638955333737 0 0.38138413807414112 -0.25567192781807913 0 0.37252435882630303 -0.25368774519845427 0 0.37804914601253259 -0.25200638955333737 0 0.38138413807414112 -0.25567192781807913 0 0.38403048223307962 -0.25365357019094342 0 0.37629875754551051 -0.24626025604008611 0 0.37804914601253259 -0.25200638955333737 0 0.38403048223307962 -0.25365357019094342 0 0.37629875754551051 -0.24626025604008611 0 0.37804914601253259 -0.25200638955333737 0 0.37252435882630303 -0.25368774519845427 0 0.38138413807414112 -0.25567192781807913 0 0.39503392097903989 -0.25811395251385122 0 0.39438142454355712 -0.26996911692031622 0 0.38138413807414112 -0.25567192781807913 0 0.38403048223307962 -0.25365357019094342 0 0.39503392097903989 -0.25811395251385122 0 0.40582943847424219 -0.24969399153345659 0 0.39503392097903989 -0.25811395251385122 0 0.4178618875625516 -0.2685443992752351 0 0.40582943847424219 -0.24969399153345659 0 0.38403048223307962 -0.25365357019094342 0 0.39503392097903989 -0.25811395251385122 0 0.39503392097903989 -0.25811395251385122 0 0.39438142454355712 -0.26996911692031622 0 0.4178618875625516 -0.2685443992752351 0 0.40359383655324932 -0.28343142421247491 0 0.38049414563372908 -0.28340349655890917 0 0.39438142454355712 -0.26996911692031622 0 0.40359383655324932 -0.28343142421247491 0 0.39438142454355712 -0.26996911692031622 0 0.4178618875625516 -0.2685443992752351 0 0.40582943847424219 -0.24969399153345659 0 0.42977969853686138 -0.2421751179997928 0 0.4178618875625516 -0.2685443992752351 0 0.42977969853686138 -0.2421751179997928 0 0.44860279725249852 -0.25291403547180452 0 0.4178618875625516 -0.2685443992752351 0 0.44860279725249852 -0.25291403547180452 0 0.4178618875625516 -0.2685443992752351 0 0.43619321715671561 -0.28075268094489531 0 0.44491772381290878 -0.29735311160783218 0 0.43619321715671561 -0.28075268094489531 0 0.4234044809618045 -0.29730422574075288 0 0.4178618875625516 -0.2685443992752351 0 0.43619321715671561 -0.28075268094489531 0 0.4234044809618045 -0.29730422574075288 0 0.42894707436105239 -0.32606405220627188 0 0.43623948301420262 -0.30910569830066809 0 0.4234044809618045 -0.29730422574075288 0 0.44491772381290878 -0.29735311160783218 0 0.43623948301420262 -0.30910569830066809 0 0.4234044809618045 -0.29730422574075288 0 0.42894707436105239 -0.32606405220627188 0 0.4234044809618045 -0.29730422574075288 0 0.4234044809618045 -0.29730422574075288 0 0.41113008243465349 -0.31229761021403091 0 0.40694407365851271 -0.29936155253749669 0 0.42894707436105239 -0.32606405220627188 0 0.4234044809618045 -0.29730422574075288 0 0.41113008243465349 -0.31229761021403091 0 0.4178618875625516 -0.2685443992752351 0 0.4234044809618045 -0.29730422574075288 0 0.40359383655324932 -0.28343142421247491 0 0.4178618875625516 -0.2685443992752351 0 0.4234044809618045 -0.29730422574075288 0 0.40359383655324932 -0.28343142421247491 0 0.4234044809618045 -0.29730422574075288 0 0.40694407365851271 -0.29936155253749669 0 0.44950574495785361 -0.49999999999999573 0 0.45641209360039309 -0.48436357738822089 0 0.44950574495785361 -0.49999999999999573 0 0.44036737943238002 -0.48893457258832262 0 0.42428122922269718 -0.5 0 0.44950574495785361 -0.49999999999999573 0 0.44036737943238002 -0.48893457258832262 0 0.45641209360039309 -0.48436357738822089 0 0.45641209360039309 -0.48436357738822089 0 0.43695961191703159 -0.47550053560852851 0 0.45025892576361187 -0.47208992521785359 0 0.45641209360039309 -0.48436357738822089 0 0.43695961191703159 -0.47550053560852851 0 0.44036737943238002 -0.48893457258832262 0 0.45641209360039309 -0.48436357738822089 0 0.43695961191703159 -0.47550053560852851 0 0.45025892576361187 -0.47208992521785359 0 0.44320860040025528 -0.46030871457133621 0 0.43695961191703159 -0.47550053560852851 0 0.45641209360039309 -0.48436357738822089 0 0.46943257926918069 -0.47851919091443251 0 0.46554697775119169 -0.46368160541079739 0 0.45641209360039309 -0.48436357738822089 0 0.46554697775119169 -0.46368160541079739 0 0.45025892576361187 -0.47208992521785359 0 0.45641209360039309 -0.48436357738822089 0 0.46554697775119169 -0.46368160541079739 0 0.45641209360039309 -0.48436357738822089 0 0.47011822146958632 -0.5 0 0.47357139579085622 -0.49218178869410922 0 0.44950574495785361 -0.49999999999999573 0 0.45641209360039309 -0.48436357738822089 0 0.47011822146958632 -0.5 0 0.45641209360039309 -0.48436357738822089 0 0.47357139579085622 -0.49218178869410922 0 0.46943257926918069 -0.47851919091443251 0 0.45641209360039309 -0.48436357738822089 0 0.47357139579085622 -0.49218178869410922 0 0.5 -0.5 0 0.48900638632057603 -0.47865227319150111 0 0.5 -0.45095494790942398 0 0.47357139579085622 -0.49218178869410922 0 0.49073069798131891 -0.49999999999999861 0 0.47357139579085622 -0.49218178869410922 0 0.49073069798131891 -0.49999999999999861 0 0.48560817459448591 -0.49023058835799249 0 0.47011822146958632 -0.5 0 0.47357139579085622 -0.49218178869410922 0 0.49073069798131891 -0.49999999999999861 0 0.47357139579085622 -0.49218178869410922 0 0.48560817459448591 -0.49023058835799249 0 0.47912331415394221 -0.48031613358857689 0 0.48560817459448591 -0.49023058835799249 0 0.5 -0.5 0 0.48900638632057603 -0.47865227319150111 0 0.49073069798131891 -0.49999999999999861 0 0.48560817459448591 -0.49023058835799249 0 0.5 -0.5 0 0.48560817459448591 -0.49023058835799249 0 0.48900638632057603 -0.47865227319150111 0 0.47912331415394221 -0.48031613358857689 0 0.47912331415394221 -0.48031613358857689 0 0.47228545246137971 -0.47122019251292968 0 0.48354759997948038 -0.46629666366993289 0 0.48900638632057603 -0.47865227319150111 0 0.47912331415394221 -0.48031613358857689 0 0.48354759997948038 -0.46629666366993289 0 0.47357139579085622 -0.49218178869410922 0 0.47912331415394221 -0.48031613358857689 0 0.46943257926918069 -0.47851919091443251 0 0.47912331415394221 -0.48031613358857689 0 0.46943257926918069 -0.47851919091443251 0 0.47228545246137971 -0.47122019251292968 0 0.46943257926918069 -0.47851919091443251 0 0.47228545246137971 -0.47122019251292968 0 0.46554697775119169 -0.46368160541079739 0 0.47228545246137971 -0.47122019251292968 0 0.4689139594952762 -0.46418998888480673 0 0.46554697775119169 -0.46368160541079739 0 0.4689139594952762 -0.46418998888480673 0 0.47882683517637847 -0.4574476239974421 0 0.46554697775119169 -0.46368160541079739 0 0.4689139594952762 -0.46418998888480673 0 0.47589346177812858 -0.46478861726627779 0 0.47882683517637847 -0.4574476239974421 0 0.47228545246137971 -0.47122019251292968 0 0.4689139594952762 -0.46418998888480673 0 0.47589346177812858 -0.46478861726627779 0 0.47589346177812858 -0.46478861726627779 0 0.47882683517637847 -0.4574476239974421 0 0.48354759997948038 -0.46629666366993289 0 0.47228545246137971 -0.47122019251292968 0 0.47589346177812858 -0.46478861726627779 0 0.48354759997948038 -0.46629666366993289 0 0.47882683517637847 -0.4574476239974421 0 0.48354759997948038 -0.46629666366993289 0 0.5 -0.45095494790942398 0 0.48900638632057603 -0.47865227319150111 0 0.48354759997948038 -0.46629666366993289 0 0.5 -0.45095494790942398 0 0.47882683517637847 -0.4574476239974421 0 0.5 -0.45095494790942398 0 0.47703131850079228 -0.43768031085231052 0 0.47882683517637847 -0.4574476239974421 0 0.47703131850079228 -0.43768031085231052 0 0.46554697775119169 -0.46368160541079739 0 0.47703131850079228 -0.43768031085231052 0 0.46554697775119169 -0.46368160541079739 0 0.47703131850079228 -0.43768031085231052 0 0.45588379703873899 -0.44732078364472971 0 0.45008996478847291 -0.42950468975165912 0 0.47703131850079228 -0.43768031085231052 0 0.45588379703873899 -0.44732078364472971 0 0.46554697775119169 -0.46368160541079739 0 0.45588379703873899 -0.44732078364472971 0 0.46554697775119169 -0.46368160541079739 0 0.44320860040025528 -0.46030871457133621 0 0.46554697775119169 -0.46368160541079739 0 0.44320860040025528 -0.46030871457133621 0 0.4689139594952762 -0.46418998888480673 0 0.46554697775119169 -0.46368160541079739 0 0.45025892576361187 -0.47208992521785359 0 0.46554697775119169 -0.46368160541079739 0 0.44320860040025528 -0.46030871457133621 0 0.45588379703873899 -0.44732078364472971 0 0.44320860040025528 -0.46030871457133621 0 0.43386508275467411 -0.44273825639662162 0 0.45588379703873899 -0.44732078364472971 0 0.45008996478847291 -0.42950468975165912 0 0.43386508275467411 -0.44273825639662162 0 0.5 -0.45095494790942398 0 0.48851565925039409 -0.41167901629382408 0 0.49999999999999778 -0.38567772173533837 0 0.45008996478847291 -0.42950468975165912 0 0.43237603002658309 -0.42035700718849478 0 0.43386508275467411 -0.44273825639662162 0 0.45008996478847291 -0.42950468975165912 0 0.4471771758430263 -0.40246122767494069 0 0.43237603002658309 -0.42035700718849478 0 0.45008996478847291 -0.42950468975165912 0 0.46638567153270882 -0.41568223880759808 0 0.4471771758430263 -0.40246122767494069 0 0.47703131850079228 -0.43768031085231052 0 0.45008996478847291 -0.42950468975165912 0 0.46638567153270882 -0.41568223880759808 0 0.5 -0.45095494790942398 0 0.47703131850079228 -0.43768031085231052 0 0.48851565925039409 -0.41167901629382408 0 0.47703131850079228 -0.43768031085231052 0 0.48851565925039409 -0.41167901629382408 0 0.46638567153270882 -0.41568223880759808 0 0.48851565925039409 -0.41167901629382408 0 0.46911423928085882 -0.39708594946525622 0 0.47703131850079228 -0.43768031085231052 0 0.46638567153270882 -0.41568223880759808 0 0.48851565925039409 -0.41167901629382408 0 0.48851565925039409 -0.41167901629382408 0 0.46911423928085882 -0.39708594946525622 0 0.48332925139821331 -0.38890200474105607 0 0.48851565925039409 -0.41167901629382408 0 0.49999999999999778 -0.38567772173533837 0 0.48851565925039409 -0.41167901629382408 0 0.49999999999999778 -0.38567772173533837 0 0.48332925139821331 -0.38890200474105607 0 0.49999999999999839 -0.36947339631445453 0 0.4750594544168254 -0.37407229409885018 0 0.48332925139821331 -0.38890200474105607 0 0.49999999999999839 -0.36947339631445453 0 0.49999999999999778 -0.38567772173533837 0 0.48332925139821331 -0.38890200474105607 0 0.4750594544168254 -0.37407229409885018 0 0.46911423928085882 -0.39708594946525622 0 0.48332925139821331 -0.38890200474105607 0 0.4750594544168254 -0.37407229409885018 0 0.46911423928085882 -0.39708594946525622 0 0.45611640260839309 -0.38762719759654463 0 0.4750594544168254 -0.37407229409885018 0 0.45611640260839309 -0.38762719759654463 0 0.45011890883365241 -0.37867119188324577 0 0.4750594544168254 -0.37407229409885018 0 0.45011890883365241 -0.37867119188324577 0 0.46638567153270882 -0.41568223880759808 0 0.46911423928085882 -0.39708594946525622 0 0.4471771758430263 -0.40246122767494069 0 0.46911423928085882 -0.39708594946525622 0 0.45611640260839309 -0.38762719759654463 0 0.4471771758430263 -0.40246122767494069 0 0.45611640260839309 -0.38762719759654463 0 0.44582154649701727 -0.39154445549614458 0 0.4471771758430263 -0.40246122767494069 0 0.44582154649701727 -0.39154445549614458 0 0.4471771758430263 -0.40246122767494069 0 0.4352044801123669 -0.39345778997524983 0 0.44582154649701727 -0.39154445549614458 0 0.43998076212781889 -0.38822404248811487 0 0.4352044801123669 -0.39345778997524983 0 0.44582154649701727 -0.39154445549614458 0 0.43998076212781889 -0.38822404248811487 0 0.44300463490724379 -0.38516390635406039 0 0.44300463490724379 -0.38516390635406039 0 0.43994490267553388 -0.38313041284974397 0 0.43946415427711799 -0.38063586931822557 0 0.43998076212781889 -0.38822404248811487 0 0.44300463490724379 -0.38516390635406039 0 0.43994490267553388 -0.38313041284974397 0 0.43998076212781889 -0.38822404248811487 0 0.43994490267553388 -0.38313041284974397 0 0.43511881008742681 -0.38711027845089041 0 0.44469609876793548 -0.3674727671716812 0 0.43946415427711799 -0.38063586931822557 0 0.45011890883365241 -0.37867119188324577 0 0.43946415427711799 -0.38063586931822557 0 0.45011890883365241 -0.37867119188324577 0 0.44300463490724379 -0.38516390635406039 0 0.43946415427711799 -0.38063586931822557 0 0.44940709077897828 -0.38192806696082993 0 0.43994490267553388 -0.38313041284974397 0 0.43946415427711799 -0.38063586931822557 0 0.45611640260839309 -0.38762719759654463 0 0.45011890883365241 -0.37867119188324577 0 0.44940709077897828 -0.38192806696082993 0 0.43946415427711799 -0.38063586931822557 0 0.45011890883365241 -0.37867119188324577 0 0.44940709077897828 -0.38192806696082993 0 0.45011890883365241 -0.37867119188324577 0 0.44940709077897828 -0.38192806696082993 0 0.44582154649701727 -0.39154445549614458 0 0.44300463490724379 -0.38516390635406039 0 0.44940709077897828 -0.38192806696082993 0 0.45611640260839309 -0.38762719759654463 0 0.44582154649701727 -0.39154445549614458 0 0.44940709077897828 -0.38192806696082993 0 0.4268646811447836 -0.38894950758652053 0 0.43132484987325792 -0.38213671174625541 0 0.41996641389449119 -0.37913033145276909 0 0.43946415427711799 -0.38063586931822557 0 0.43132484987325792 -0.38213671174625541 0 0.43994490267553388 -0.38313041284974397 0 0.43946415427711799 -0.38063586931822557 0 0.43132484987325792 -0.38213671174625541 0 0.43994490267553388 -0.38313041284974397 0 0.43132484987325792 -0.38213671174625541 0 0.43511881008742681 -0.38711027845089041 0 0.4268646811447836 -0.38894950758652053 0 0.43132484987325792 -0.38213671174625541 0 0.43511881008742681 -0.38711027845089041 0 0.4268646811447836 -0.38894950758652053 0 0.43511881008742681 -0.38711027845089041 0 0.4352044801123669 -0.39345778997524983 0 0.43998076212781889 -0.38822404248811487 0 0.43511881008742681 -0.38711027845089041 0 0.4352044801123669 -0.39345778997524983 0 0.4268646811447836 -0.38894950758652053 0 0.4352044801123669 -0.39345778997524983 0 0.4271977693986066 -0.40242683979745708 0 0.4471771758430263 -0.40246122767494069 0 0.4352044801123669 -0.39345778997524983 0 0.4271977693986066 -0.40242683979745708 0 0.4268646811447836 -0.38894950758652053 0 0.4271977693986066 -0.40242683979745708 0 0.41237576350255228 -0.38943509409650129 0 0.4271977693986066 -0.40242683979745708 0 0.4002273576109443 -0.40811206335384831 0 0.4271977693986066 -0.40242683979745708 0 0.41237576350255228 -0.38943509409650129 0 0.4002273576109443 -0.40811206335384831 0 0.41229315791135968 -0.37023238039816442 0 0.41237576350255228 -0.38943509409650129 0 0.41996641389449119 -0.37913033145276909 0 0.4268646811447836 -0.38894950758652053 0 0.41237576350255228 -0.38943509409650129 0 0.41996641389449119 -0.37913033145276909 0 0.41229315791135968 -0.37023238039816442 0 0.41237576350255228 -0.38943509409650129 0 0.39029094995278002 -0.38664909042098711 0 0.41229315791135968 -0.37023238039816442 0 0.39175917104005331 -0.37046056985631709 0 0.39029094995278002 -0.38664909042098711 0 0.41229315791135968 -0.37023238039816442 0 0.39029094995278002 -0.38664909042098711 0 0.37717060256999912 -0.36631755433082092 0 0.39029094995278002 -0.38664909042098711 0 0.36453410621123561 -0.38081230887723072 0 0.39029094995278002 -0.38664909042098711 0 0.38463099805994028 -0.40201583092992582 0 0.3682887419942002 -0.40306580044380957 0 0.39029094995278002 -0.38664909042098711 0 0.3682887419942002 -0.40306580044380957 0 0.39029094995278002 -0.38664909042098711 0 0.38463099805994028 -0.40201583092992582 0 0.4002273576109443 -0.40811206335384831 0 0.41237576350255228 -0.38943509409650129 0 0.39029094995278002 -0.38664909042098711 0 0.4002273576109443 -0.40811206335384831 0 0.4002273576109443 -0.40811206335384831 0 0.39603861123737771 -0.42150477354954302 0 0.41514416442782037 -0.41638291200694 0 0.4002273576109443 -0.40811206335384831 0 0.39603861123737771 -0.42150477354954302 0 0.37325694582328212 -0.41379728691023959 0 0.38463099805994028 -0.40201583092992582 0 0.37325694582328212 -0.41379728691023959 0 0.3682887419942002 -0.40306580044380957 0 0.38463099805994028 -0.40201583092992582 0 0.4002273576109443 -0.40811206335384831 0 0.37325694582328212 -0.41379728691023959 0 0.4002273576109443 -0.40811206335384831 0 0.37325694582328212 -0.41379728691023959 0 0.39603861123737771 -0.42150477354954302 0 0.38203075412589432 -0.42419336502531613 0 0.37325694582328212 -0.41379728691023959 0 0.38203075412589432 -0.42419336502531613 0 0.37174586838965978 -0.42288621570213702 0 0.37325694582328212 -0.41379728691023959 0 0.39066795227393269 -0.43470321566446768 0 0.36145485068227468 -0.43989255518357828 0 0.38203075412589432 -0.42419336502531613 0 0.39066795227393269 -0.43470321566446768 0 0.36938078128192819 -0.42919699764099289 0 0.39603861123737771 -0.42150477354954302 0 0.38203075412589432 -0.42419336502531613 0 0.39066795227393269 -0.43470321566446768 0 0.39603861123737771 -0.42150477354954302 0 0.39066795227393269 -0.43470321566446768 0 0.39918315418220501 -0.43319059730598353 0 0.39603861123737771 -0.42150477354954302 0 0.39918315418220501 -0.43319059730598353 0 0.41988105386559071 -0.42951387614535702 0 0.39066795227393269 -0.43470321566446768 0 0.39918315418220501 -0.43319059730598353 0 0.39918315418220501 -0.43319059730598353 0 0.41988105386559071 -0.42951387614535702 0 0.41135693981193039 -0.4442824534118599 0 0.39603861123737771 -0.42150477354954302 0 0.41988105386559071 -0.42951387614535702 0 0.41514416442782037 -0.41638291200694 0 0.39918315418220501 -0.43319059730598353 0 0.41988105386559071 -0.42951387614535702 0 0.4271977693986066 -0.40242683979745708 0 0.4002273576109443 -0.40811206335384831 0 0.41514416442782037 -0.41638291200694 0 0.4271977693986066 -0.40242683979745708 0 0.41514416442782037 -0.41638291200694 0 0.43237603002658309 -0.42035700718849478 0 0.4471771758430263 -0.40246122767494069 0 0.4271977693986066 -0.40242683979745708 0 0.43237603002658309 -0.42035700718849478 0 0.41988105386559071 -0.42951387614535702 0 0.41514416442782037 -0.41638291200694 0 0.43237603002658309 -0.42035700718849478 0 0.41988105386559071 -0.42951387614535702 0 0.43237603002658309 -0.42035700718849478 0 0.43386508275467411 -0.44273825639662162 0 0.43386508275467411 -0.44273825639662162 0 0.42087022304931959 -0.45693582373186958 0 0.41135693981193039 -0.4442824534118599 0 0.44320860040025528 -0.46030871457133621 0 0.42087022304931959 -0.45693582373186958 0 0.43695961191703159 -0.47550053560852851 0 0.44320860040025528 -0.46030871457133621 0 0.43386508275467411 -0.44273825639662162 0 0.42087022304931959 -0.45693582373186958 0 0.44320860040025528 -0.46030871457133621 0 0.42087022304931959 -0.45693582373186958 0 0.42087022304931959 -0.45693582373186958 0 0.39853184569838401 -0.45356293289240301 0 0.42087022304931959 -0.45693582373186958 0 0.41135693981193039 -0.4442824534118599 0 0.39853184569838401 -0.45356293289240301 0 0.41988105386559071 -0.42951387614535702 0 0.43386508275467411 -0.44273825639662162 0 0.41135693981193039 -0.4442824534118599 0 0.39918315418220501 -0.43319059730598353 0 0.37619346834744838 -0.45019004205293628 0 0.39853184569838401 -0.45356293289240301 0 0.39918315418220501 -0.43319059730598353 0 0.41135693981193039 -0.4442824534118599 0 0.39853184569838401 -0.45356293289240301 0 0.39918315418220501 -0.43319059730598353 0 0.37619346834744838 -0.45019004205293628 0 0.39066795227393269 -0.43470321566446768 0 0.39918315418220501 -0.43319059730598353 0 0.37619346834744838 -0.45019004205293628 0 0.37619346834744838 -0.45019004205293628 0 0.39853184569838401 -0.45356293289240301 0 0.39066795227393269 -0.43470321566446768 0 0.37619346834744838 -0.45019004205293628 0 0.36145485068227468 -0.43989255518357828 0 0.37619346834744838 -0.45019004205293628 0 0.39853184569838401 -0.45356293289240301 0 0.38017369897970249 -0.47052726307458043 0 0.42087022304931959 -0.45693582373186958 0 0.39853184569838401 -0.45356293289240301 0 0.39918275268269049 -0.47063558279532858 0 0.39853184569838401 -0.45356293289240301 0 0.39918275268269049 -0.47063558279532858 0 0.38017369897970249 -0.47052726307458043 0 0.39918275268269049 -0.47063558279532858 0 0.38756571063334272 -0.4855982398437636 0 0.41392404067718291 -0.48007852428488468 0 0.39918275268269049 -0.47063558279532858 0 0.38017369897970249 -0.47052726307458043 0 0.38756571063334272 -0.4855982398437636 0 0.38017369897970249 -0.47052726307458043 0 0.38756571063334272 -0.4855982398437636 0 0.36191587225266769 -0.4842650887497596 0 0.38756571063334272 -0.4855982398437636 0 0.39905671348754068 -0.5 0 0.37383219775238419 -0.49999999999999789 0 0.38756571063334272 -0.4855982398437636 0 0.39905671348754068 -0.5 0 0.41392404067718291 -0.48007852428488468 0 0.39905671348754068 -0.5 0 0.41392404067718291 -0.48007852428488468 0 0.42428122922269718 -0.5 0 0.42087022304931959 -0.45693582373186958 0 0.39918275268269049 -0.47063558279532858 0 0.41392404067718291 -0.48007852428488468 0 0.42087022304931959 -0.45693582373186958 0 0.41392404067718291 -0.48007852428488468 0 0.43695961191703159 -0.47550053560852851 0 0.41392404067718291 -0.48007852428488468 0 0.43695961191703159 -0.47550053560852851 0 0.42914114318893248 -0.48679660040612288 0 0.44036737943238002 -0.48893457258832262 0 0.43695961191703159 -0.47550053560852851 0 0.42914114318893248 -0.48679660040612288 0 0.41392404067718291 -0.48007852428488468 0 0.42428122922269718 -0.5 0 0.42914114318893248 -0.48679660040612288 0 0.44036737943238002 -0.48893457258832262 0 0.42428122922269718 -0.5 0 0.42914114318893248 -0.48679660040612288 0 0.32797967886106311 -0.5 0 0.32752648308417598 -0.48426508874975771 0 0.30505341941540243 -0.4999999999999965 0 0.32752648308417598 -0.48426508874975771 0 0.30505341941540243 -0.4999999999999965 0 0.32752648308417598 -0.48426508874975771 0 0.32795356872862441 -0.4642119691064549 0 0.31680601144680659 -0.46650917242786621 0 0.32752648308417598 -0.48426508874975771 0 0.31680601144680659 -0.46650917242786621 0 0.30385591974963222 -0.47347701168107797 0 0.32752648308417598 -0.48426508874975771 0 0.34999954675295131 -0.46853017749952119 0 0.32752648308417598 -0.48426508874975771 0 0.34999954675295131 -0.46853017749952119 0 0.32795356872862441 -0.4642119691064549 0 0.32752648308417598 -0.48426508874975771 0 0.34366550385151629 -0.48741207099980771 0 0.34999954675295131 -0.46853017749952119 0 0.32797967886106311 -0.5 0 0.34366550385151629 -0.48741207099980771 0 0.35090593830672362 -0.5 0 0.32797967886106311 -0.5 0 0.32752648308417598 -0.48426508874975771 0 0.34366550385151629 -0.48741207099980771 0 0.34366550385151629 -0.48741207099980771 0 0.35090593830672362 -0.5 0 0.36191587225266769 -0.4842650887497596 0 0.35090593830672362 -0.5 0 0.37383219775238419 -0.49999999999999789 0 0.36191587225266769 -0.4842650887497596 0 0.37383219775238419 -0.49999999999999789 0 0.36191587225266769 -0.4842650887497596 0 0.38756571063334272 -0.4855982398437636 0 0.37383219775238419 -0.49999999999999789 0 0.36191587225266769 -0.4842650887497596 0 0.38017369897970249 -0.47052726307458043 0 0.36191587225266769 -0.4842650887497596 0 0.36329489841419033 -0.47099062919672752 0 0.36191587225266769 -0.4842650887497596 0 0.34999954675295131 -0.46853017749952119 0 0.36191587225266769 -0.4842650887497596 0 0.36329489841419033 -0.47099062919672752 0 0.34999954675295131 -0.46853017749952119 0 0.34366550385151629 -0.48741207099980771 0 0.36191587225266769 -0.4842650887497596 0 0.34999954675295131 -0.46853017749952119 0 0.34999954675295131 -0.46853017749952119 0 0.35114060221130511 -0.45566874898754323 0 0.3322417490906166 -0.44508189470268872 0 0.35114060221130511 -0.45566874898754323 0 0.36309650755019979 -0.45936010977622882 0 0.35829325761523378 -0.44748727381446002 0 0.36329489841419033 -0.47099062919672752 0 0.34999954675295131 -0.46853017749952119 0 0.36309650755019979 -0.45936010977622882 0 0.34999954675295131 -0.46853017749952119 0 0.36309650755019979 -0.45936010977622882 0 0.34999954675295131 -0.46853017749952119 0 0.35114060221130511 -0.45566874898754323 0 0.36309650755019979 -0.45936010977622882 0 0.38017369897970249 -0.47052726307458043 0 0.36329489841419033 -0.47099062919672752 0 0.36309650755019979 -0.45936010977622882 0 0.37619346834744838 -0.45019004205293628 0 0.38017369897970249 -0.47052726307458043 0 0.36309650755019979 -0.45936010977622882 0 0.37619346834744838 -0.45019004205293628 0 0.36309650755019979 -0.45936010977622882 0 0.37619346834744838 -0.45019004205293628 0 0.36309650755019979 -0.45936010977622882 0 0.35829325761523378 -0.44748727381446002 0 0.37619346834744838 -0.45019004205293628 0 0.36145485068227468 -0.43989255518357828 0 0.35829325761523378 -0.44748727381446002 0 0.37619346834744838 -0.45019004205293628 0 0.35829325761523378 -0.44748727381446002 0 0.35114060221130511 -0.45566874898754323 0 0.35829325761523378 -0.44748727381446002 0 0.3322417490906166 -0.44508189470268872 0 0.36145485068227468 -0.43989255518357828 0 0.35829325761523378 -0.44748727381446002 0 0.3322417490906166 -0.44508189470268872 0 0.36145485068227468 -0.43989255518357828 0 0.3322417490906166 -0.44508189470268872 0 0.34762205971836102 -0.43644250241091298 0 0.36145485068227468 -0.43989255518357828 0 0.3322417490906166 -0.44508189470268872 0 0.3322417490906166 -0.44508189470268872 0 0.34277703366952039 -0.43360626109865258 0 0.34762205971836102 -0.43644250241091298 0 0.3322417490906166 -0.44508189470268872 0 0.33531649068864888 -0.43465331446212152 0 0.34277703366952039 -0.43360626109865258 0 0.3322417490906166 -0.44508189470268872 0 0.32492533617026881 -0.43542093772610491 0 0.33531649068864888 -0.43465331446212152 0 0.3322417490906166 -0.44508189470268872 0 0.32492533617026881 -0.43542093772610491 0 0.34999954675295131 -0.46853017749952119 0 0.3322417490906166 -0.44508189470268872 0 0.34999954675295131 -0.46853017749952119 0 0.3322417490906166 -0.44508189470268872 0 0.32795356872862441 -0.4642119691064549 0 0.3322417490906166 -0.44508189470268872 0 0.32795356872862441 -0.4642119691064549 0 0.3249103331559407 -0.45133233273910423 0 0.32121840308707938 -0.45983200849281441 0 0.32795356872862441 -0.4642119691064549 0 0.3249103331559407 -0.45133233273910423 0 0.32121840308707938 -0.45983200849281441 0 0.31556533587563262 -0.45613027625057062 0 0.3249103331559407 -0.45133233273910423 0 0.32121840308707938 -0.45983200849281441 0 0.32795356872862441 -0.4642119691064549 0 0.31680601144680659 -0.46650917242786621 0 0.32121840308707938 -0.45983200849281441 0 0.31680601144680659 -0.46650917242786621 0 0.31556533587563262 -0.45613027625057062 0 0.31556533587563262 -0.45613027625057062 0 0.32136365250874632 -0.4470142515360726 0 0.30564549310613631 -0.44980638456240551 0 0.31681301757812269 -0.44147385669636319 0 0.32136365250874632 -0.4470142515360726 0 0.30564549310613631 -0.44980638456240551 0 0.32136365250874632 -0.4470142515360726 0 0.30564549310613631 -0.44980638456240551 0 0.31681301757812269 -0.44147385669636319 0 0.32136365250874632 -0.4470142515360726 0 0.31681301757812269 -0.44147385669636319 0 0.32492533617026881 -0.43542093772610491 0 0.3322417490906166 -0.44508189470268872 0 0.32136365250874632 -0.4470142515360726 0 0.32492533617026881 -0.43542093772610491 0 0.31681301757812269 -0.44147385669636319 0 0.32136365250874632 -0.4470142515360726 0 0.32492533617026881 -0.43542093772610491 0 0.31556533587563262 -0.45613027625057062 0 0.3249103331559407 -0.45133233273910423 0 0.32136365250874632 -0.4470142515360726 0 0.3322417490906166 -0.44508189470268872 0 0.32136365250874632 -0.4470142515360726 0 0.3322417490906166 -0.44508189470268872 0 0.3249103331559407 -0.45133233273910423 0 0.32136365250874632 -0.4470142515360726 0 0.3249103331559407 -0.45133233273910423 0 0.32136365250874632 -0.4470142515360726 0 0.31481235202026919 -0.42206724844670918 0 0.33864842958013408 -0.42518159967648061 0 0.31681301757812269 -0.44147385669636319 0 0.32492533617026881 -0.43542093772610491 0 0.31481235202026919 -0.42206724844670918 0 0.32492533617026881 -0.43542093772610491 0 0.31481235202026919 -0.42206724844670918 0 0.33864842958013408 -0.42518159967648061 0 0.32492533617026881 -0.43542093772610491 0 0.31481235202026919 -0.42206724844670918 0 0.31481235202026919 -0.42206724844670918 0 0.32794516003653329 -0.4071993091926836 0 0.31540019196592861 -0.40591150940773602 0 0.31481235202026919 -0.42206724844670918 0 0.32794516003653329 -0.4071993091926836 0 0.33557225903352578 -0.41571595020902091 0 0.31481235202026919 -0.42206724844670918 0 0.33557225903352578 -0.41571595020902091 0 0.33864842958013408 -0.42518159967648061 0 0.32794516003653329 -0.4071993091926836 0 0.33557225903352578 -0.41571595020902091 0 0.34464919458129378 -0.40809726311051148 0 0.33557225903352578 -0.41571595020902091 0 0.3426713272177781 -0.41621417588397808 0 0.34464919458129378 -0.40809726311051148 0 0.33557225903352578 -0.41571595020902091 0 0.34066325796093411 -0.41917625318054119 0 0.33864842958013408 -0.42518159967648061 0 0.33557225903352578 -0.41571595020902091 0 0.3426713272177781 -0.41621417588397808 0 0.34066325796093411 -0.41917625318054119 0 0.3426713272177781 -0.41621417588397808 0 0.34066325796093411 -0.41917625318054119 0 0.34628653403561999 -0.4194825104666316 0 0.34066325796093411 -0.41917625318054119 0 0.33864842958013408 -0.42518159967648061 0 0.34628653403561999 -0.4194825104666316 0 0.33864842958013408 -0.42518159967648061 0 0.34628653403561999 -0.4194825104666316 0 0.32492533617026881 -0.43542093772610491 0 0.33864842958013408 -0.42518159967648061 0 0.33531649068864888 -0.43465331446212152 0 0.32492533617026881 -0.43542093772610491 0 0.33864842958013408 -0.42518159967648061 0 0.33864842958013408 -0.42518159967648061 0 0.33531649068864888 -0.43465331446212152 0 0.34277703366952039 -0.43360626109865258 0 0.34277703366952039 -0.43360626109865258 0 0.34762205971836102 -0.43644250241091298 0 0.35401460543103169 -0.42718929865873262 0 0.33864842958013408 -0.42518159967648061 0 0.34277703366952039 -0.43360626109865258 0 0.35401460543103169 -0.42718929865873262 0 0.33864842958013408 -0.42518159967648061 0 0.35401460543103169 -0.42718929865873262 0 0.34628653403561999 -0.4194825104666316 0 0.33864842958013408 -0.42518159967648061 0 0.35401460543103169 -0.42718929865873262 0 0.36145485068227468 -0.43989255518357828 0 0.34762205971836102 -0.43644250241091298 0 0.35401460543103169 -0.42718929865873262 0 0.39066795227393269 -0.43470321566446768 0 0.36145485068227468 -0.43989255518357828 0 0.36938078128192819 -0.42919699764099289 0 0.35401460543103169 -0.42718929865873262 0 0.37174586838965978 -0.42288621570213702 0 0.36938078128192819 -0.42919699764099289 0 0.36145485068227468 -0.43989255518357828 0 0.35401460543103169 -0.42718929865873262 0 0.36938078128192819 -0.42919699764099289 0 0.35401460543103169 -0.42718929865873262 0 0.36938078128192819 -0.42919699764099289 0 0.38203075412589432 -0.42419336502531613 0 0.37174586838965978 -0.42288621570213702 0 0.36938078128192819 -0.42919699764099289 0 0.37325694582328212 -0.41379728691023959 0 0.34628653403561999 -0.4194825104666316 0 0.35401460543103169 -0.42718929865873262 0 0.37174586838965978 -0.42288621570213702 0 0.37325694582328212 -0.41379728691023959 0 0.37325694582328212 -0.41379728691023959 0 0.34628653403561999 -0.4194825104666316 0 0.3682887419942002 -0.40306580044380957 0 0.35401460543103169 -0.42718929865873262 0 0.37325694582328212 -0.41379728691023959 0 0.34628653403561999 -0.4194825104666316 0 0.34628653403561999 -0.4194825104666316 0 0.34464919458129378 -0.40809726311051148 0 0.3682887419942002 -0.40306580044380957 0 0.34628653403561999 -0.4194825104666316 0 0.3682887419942002 -0.40306580044380957 0 0.3426713272177781 -0.41621417588397808 0 0.34628653403561999 -0.4194825104666316 0 0.34464919458129378 -0.40809726311051148 0 0.34464919458129378 -0.40809726311051148 0 0.35129411845295833 -0.39502685053861369 0 0.3682887419942002 -0.40306580044380957 0 0.34464919458129378 -0.40809726311051148 0 0.35129411845295833 -0.39502685053861369 0 0.33675097686460248 -0.40052229271144379 0 0.35129411845295833 -0.39502685053861369 0 0.3682887419942002 -0.40306580044380957 0 0.36453410621123561 -0.38081230887723072 0 0.39029094995278002 -0.38664909042098711 0 0.3682887419942002 -0.40306580044380957 0 0.36453410621123561 -0.38081230887723072 0 0.36453410621123561 -0.38081230887723072 0 0.34964780801256218 -0.38154924042584021 0 0.35110400010073078 -0.36532560486377558 0 0.35129411845295833 -0.39502685053861369 0 0.36453410621123561 -0.38081230887723072 0 0.34964780801256218 -0.38154924042584021 0 0.35129411845295833 -0.39502685053861369 0 0.34964780801256218 -0.38154924042584021 0 0.34081405871359549 -0.38984648720894821 0 0.34964780801256218 -0.38154924042584021 0 0.34049275658429112 -0.37673495064063278 0 0.34081405871359549 -0.38984648720894821 0 0.34049275658429112 -0.37673495064063278 0 0.33001044884249342 -0.38281232454350939 0 0.34081405871359549 -0.38984648720894821 0 0.33001044884249342 -0.38281232454350939 0 0.34081405871359549 -0.38984648720894821 0 0.33675097686460248 -0.40052229271144379 0 0.32794516003653329 -0.4071993091926836 0 0.34464919458129378 -0.40809726311051148 0 0.33675097686460248 -0.40052229271144379 0 0.32794516003653329 -0.4071993091926836 0 0.33675097686460248 -0.40052229271144379 0 0.32014808050856358 -0.39359415652497209 0 0.33001044884249342 -0.38281232454350939 0 0.33675097686460248 -0.40052229271144379 0 0.32014808050856358 -0.39359415652497209 0 0.35129411845295833 -0.39502685053861369 0 0.34081405871359549 -0.38984648720894821 0 0.33675097686460248 -0.40052229271144379 0 0.32794516003653329 -0.4071993091926836 0 0.31540019196592861 -0.40591150940773602 0 0.32014808050856358 -0.39359415652497209 0 0.33001044884249342 -0.38281232454350939 0 0.32014808050856358 -0.39359415652497209 0 0.30968006088896921 -0.3750452196261983 0 0.30968006088896921 -0.3750452196261983 0 0.29869517529834932 -0.40078532346658158 0 0.32014808050856358 -0.39359415652497209 0 0.30968006088896921 -0.3750452196261983 0 0.29869517529834932 -0.40078532346658158 0 0.29762003192281639 -0.37776570922364228 0 0.30264258504835129 -0.37679747700315291 0 0.29869517529834932 -0.40078532346658158 0 0.30264258504835129 -0.37679747700315291 0 0.30772847577674961 -0.37625228985142722 0 0.29869517529834932 -0.40078532346658158 0 0.30772847577674961 -0.37625228985142722 0 0.30968006088896921 -0.3750452196261983 0 0.29869517529834932 -0.40078532346658158 0 0.29762003192281639 -0.37776570922364228 0 0.30264258504835129 -0.37679747700315291 0 0.30386961796560552 -0.37192768240195678 0 0.30772847577674961 -0.37625228985142722 0 0.30968006088896921 -0.3750452196261983 0 0.31540019196592861 -0.40591150940773602 0 0.32014808050856358 -0.39359415652497209 0 0.29869517529834932 -0.40078532346658158 0 0.27498051186056699 -0.39054281029450238 0 0.2934630792964259 -0.41304532319815201 0 0.27498051186056699 -0.39054281029450238 0 0.28033574368676589 -0.41021056188543092 0 0.2934630792964259 -0.41304532319815201 0 0.29869517529834932 -0.40078532346658158 0 0.28798946048641128 -0.39670902132861402 0 0.28481907549030361 -0.38246262835521999 0 0.28798946048641128 -0.39670902132861402 0 0.27498051186056699 -0.39054281029450238 0 0.2934630792964259 -0.41304532319815201 0 0.29869517529834932 -0.40078532346658158 0 0.28798946048641128 -0.39670902132861402 0 0.2934630792964259 -0.41304532319815201 0 0.29869517529834932 -0.40078532346658158 0 0.28481907549030361 -0.38246262835521999 0 0.29869517529834932 -0.40078532346658158 0 0.2924010987595792 -0.37790370788934002 0 0.28767338931580411 -0.38011844724405208 0 0.29762003192281639 -0.37776570922364228 0 0.29869517529834932 -0.40078532346658158 0 0.2924010987595792 -0.37790370788934002 0 0.29869517529834932 -0.40078532346658158 0 0.28767338931580411 -0.38011844724405208 0 0.28481907549030361 -0.38246262835521999 0 0.28798946048641128 -0.39670902132861402 0 0.28481907549030361 -0.38246262835521999 0 0.27498051186056699 -0.39054281029450238 0 0.29762003192281639 -0.37776570922364228 0 0.2924010987595792 -0.37790370788934002 0 0.29642336222020998 -0.37313490099927571 0 0.2924010987595792 -0.37790370788934002 0 0.28813266713835112 -0.37607225008672102 0 0.29076869086770468 -0.37224684918654027 0 0.2924010987595792 -0.37790370788934002 0 0.28813266713835112 -0.37607225008672102 0 0.28767338931580411 -0.38011844724405208 0 0.28813266713835112 -0.37607225008672102 0 0.28767338931580411 -0.38011844724405208 0 0.28428559271976528 -0.37747626289807618 0 0.28813266713835112 -0.37607225008672102 0 0.28428559271976528 -0.37747626289807618 0 0.28553456402890232 -0.37261598321559608 0 0.28767338931580411 -0.38011844724405208 0 0.28481907549030361 -0.38246262835521999 0 0.28428559271976528 -0.37747626289807618 0 0.28767338931580411 -0.38011844724405208 0 0.28481907549030361 -0.38246262835521999 0 0.28481907549030361 -0.38246262835521999 0 0.28428559271976528 -0.37747626289807618 0 0.27976247383596881 -0.37979482082562671 0 0.28428559271976528 -0.37747626289807618 0 0.27976247383596881 -0.37979482082562671 0 0.28127396334598509 -0.37376290170076992 0 0.27976247383596881 -0.37979482082562671 0 0.28127396334598509 -0.37376290170076992 0 0.27535643848583852 -0.37259162049575528 0 0.27976247383596881 -0.37979482082562671 0 0.27328011200269459 -0.37989534586085349 0 0.27535643848583852 -0.37259162049575528 0 0.28481907549030361 -0.38246262835521999 0 0.27976247383596881 -0.37979482082562671 0 0.27498051186056699 -0.39054281029450238 0 0.27976247383596881 -0.37979482082562671 0 0.27498051186056699 -0.39054281029450238 0 0.27328011200269459 -0.37989534586085349 0 0.28481907549030361 -0.38246262835521999 0 0.27498051186056699 -0.39054281029450238 0 0.27498051186056699 -0.39054281029450238 0 0.26372889990477039 -0.37684398062158192 0 0.27498051186056699 -0.39054281029450238 0 0.26372889990477039 -0.37684398062158192 0 0.26365927960303331 -0.39061148895561049 0 0.27498051186056699 -0.39054281029450238 0 0.27328011200269459 -0.37989534586085349 0 0.26372889990477039 -0.37684398062158192 0 0.27328011200269459 -0.37989534586085349 0 0.26372889990477039 -0.37684398062158192 0 0.27535643848583852 -0.37259162049575528 0 0.26372889990477039 -0.37684398062158192 0 0.25341829370851587 -0.39081368394957239 0 0.2436333884971312 -0.38169595188492073 0 0.26372889990477039 -0.37684398062158192 0 0.24399418892849731 -0.37094226420446957 0 0.2436333884971312 -0.38169595188492073 0 0.26372889990477039 -0.37684398062158192 0 0.26365927960303331 -0.39061148895561049 0 0.25341829370851587 -0.39081368394957239 0 0.26106952043827752 -0.40196758182397241 0 0.24715852901598831 -0.41339235335344282 0 0.24684603199547001 -0.40171876365560061 0 0.25341829370851587 -0.39081368394957239 0 0.26106952043827752 -0.40196758182397241 0 0.24684603199547001 -0.40171876365560061 0 0.26365927960303331 -0.39061148895561049 0 0.25341829370851587 -0.39081368394957239 0 0.26106952043827752 -0.40196758182397241 0 0.27498051186056699 -0.39054281029450238 0 0.26106952043827752 -0.40196758182397241 0 0.27287479257991032 -0.40374224172387457 0 0.27498051186056699 -0.39054281029450238 0 0.27287479257991032 -0.40374224172387457 0 0.28033574368676589 -0.41021056188543092 0 0.26106952043827752 -0.40196758182397241 0 0.27287479257991032 -0.40374224172387457 0 0.26844336038772648 -0.40819799221192882 0 0.27498051186056699 -0.39054281029450238 0 0.26106952043827752 -0.40196758182397241 0 0.27498051186056699 -0.39054281029450238 0 0.26365927960303331 -0.39061148895561049 0 0.26106952043827752 -0.40196758182397241 0 0.27287479257991032 -0.40374224172387457 0 0.28033574368676589 -0.41021056188543092 0 0.26844336038772648 -0.40819799221192882 0 0.2662144375618381 -0.41571758901648048 0 0.29094376669893651 -0.41894864984919927 0 0.28033574368676589 -0.41021056188543092 0 0.2662144375618381 -0.41571758901648048 0 0.29094376669893651 -0.41894864984919927 0 0.2662144375618381 -0.41571758901648048 0 0.27743437589161102 -0.42609442520706331 0 0.29094376669893651 -0.41894864984919927 0 0.28033574368676589 -0.41021056188543092 0 0.2662144375618381 -0.41571758901648048 0 0.26844336038772648 -0.40819799221192882 0 0.26106952043827752 -0.40196758182397241 0 0.26844336038772648 -0.40819799221192882 0 0.26172230767184052 -0.40935198660988598 0 0.2662144375618381 -0.41571758901648048 0 0.26844336038772648 -0.40819799221192882 0 0.26172230767184052 -0.40935198660988598 0 0.2662144375618381 -0.41571758901648048 0 0.26172230767184052 -0.40935198660988598 0 0.25659359971589463 -0.41884481770315618 0 0.2662144375618381 -0.41571758901648048 0 0.25659359971589463 -0.41884481770315618 0 0.26693587594062568 -0.42972469131915608 0 0.25659359971589463 -0.41884481770315618 0 0.24712708468846631 -0.42461779804007299 0 0.24715852901598831 -0.41339235335344282 0 0.26172230767184052 -0.40935198660988598 0 0.25659359971589463 -0.41884481770315618 0 0.24715852901598831 -0.41339235335344282 0 0.26172230767184052 -0.40935198660988598 0 0.24715852901598831 -0.41339235335344282 0 0.26106952043827752 -0.40196758182397241 0 0.24715852901598831 -0.41339235335344282 0 0.26106952043827752 -0.40196758182397241 0 0.26172230767184052 -0.40935198660988598 0 0.24715852901598831 -0.41339235335344282 0 0.25659359971589463 -0.41884481770315618 0 0.25429639529336329 -0.43289227060042901 0 0.24712708468846631 -0.42461779804007299 0 0.25659359971589463 -0.41884481770315618 0 0.25429639529336329 -0.43289227060042901 0 0.26693587594062568 -0.42972469131915608 0 0.25429639529336329 -0.43289227060042901 0 0.26693587594062568 -0.42972469131915608 0 0.26530901500154802 -0.44404588602984729 0 0.2662144375618381 -0.41571758901648048 0 0.26693587594062568 -0.42972469131915608 0 0.27743437589161102 -0.42609442520706331 0 0.26693587594062568 -0.42972469131915608 0 0.27743437589161102 -0.42609442520706331 0 0.28162166775605202 -0.44079246358951729 0 0.27743437589161102 -0.42609442520706331 0 0.29094376669893651 -0.41894864984919927 0 0.28162166775605202 -0.44079246358951729 0 0.29403371604781869 -0.43308129055582673 0 0.29094376669893651 -0.41894864984919927 0 0.28162166775605202 -0.44079246358951729 0 0.29094376669893651 -0.41894864984919927 0 0.28162166775605202 -0.44079246358951729 0 0.29403371604781869 -0.43308129055582673 0 0.29094376669893651 -0.41894864984919927 0 0.29919757525135549 -0.42002706800549838 0 0.28033574368676589 -0.41021056188543092 0 0.2934630792964259 -0.41304532319815201 0 0.29094376669893651 -0.41894864984919927 0 0.29869517529834932 -0.40078532346658158 0 0.2934630792964259 -0.41304532319815201 0 0.29094376669893651 -0.41894864984919927 0 0.29919757525135549 -0.42002706800549838 0 0.2934630792964259 -0.41304532319815201 0 0.29094376669893651 -0.41894864984919927 0 0.29919757525135549 -0.42002706800549838 0 0.2934630792964259 -0.41304532319815201 0 0.29094376669893651 -0.41894864984919927 0 0.2934630792964259 -0.41304532319815201 0 0.29919757525135549 -0.42002706800549838 0 0.29869517529834932 -0.40078532346658158 0 0.2934630792964259 -0.41304532319815201 0 0.29919757525135549 -0.42002706800549838 0 0.31481235202026919 -0.42206724844670918 0 0.31540019196592861 -0.40591150940773602 0 0.29869517529834932 -0.40078532346658158 0 0.31481235202026919 -0.42206724844670918 0 0.29869517529834932 -0.40078532346658158 0 0.29919757525135549 -0.42002706800549838 0 0.31481235202026919 -0.42206724844670918 0 0.29869517529834932 -0.40078532346658158 0 0.31481235202026919 -0.42206724844670918 0 0.29919757525135549 -0.42002706800549838 0 0.31681301757812269 -0.44147385669636319 0 0.29919757525135549 -0.42002706800549838 0 0.31681301757812269 -0.44147385669636319 0 0.29919757525135549 -0.42002706800549838 0 0.30199422871053189 -0.43755960135629368 0 0.31681301757812269 -0.44147385669636319 0 0.31481235202026919 -0.42206724844670918 0 0.29919757525135549 -0.42002706800549838 0 0.29403371604781869 -0.43308129055582673 0 0.29919757525135549 -0.42002706800549838 0 0.30199422871053189 -0.43755960135629368 0 0.30199422871053189 -0.43755960135629368 0 0.30564549310613631 -0.44980638456240551 0 0.29428134156922658 -0.44340940696137388 0 0.31681301757812269 -0.44147385669636319 0 0.30199422871053189 -0.43755960135629368 0 0.30564549310613631 -0.44980638456240551 0 0.31681301757812269 -0.44147385669636319 0 0.30564549310613631 -0.44980638456240551 0 0.31556533587563262 -0.45613027625057062 0 0.30564549310613631 -0.44980638456240551 0 0.30504628296556191 -0.46247166269629908 0 0.30504628296556191 -0.46247166269629908 0 0.28335865464960069 -0.46643546855957418 0 0.30385591974963222 -0.47347701168107797 0 0.30564549310613631 -0.44980638456240551 0 0.30504628296556191 -0.46247166269629908 0 0.28335865464960069 -0.46643546855957418 0 0.31680601144680659 -0.46650917242786621 0 0.31556533587563262 -0.45613027625057062 0 0.30504628296556191 -0.46247166269629908 0 0.31680601144680659 -0.46650917242786621 0 0.30504628296556191 -0.46247166269629908 0 0.30385591974963222 -0.47347701168107797 0 0.30564549310613631 -0.44980638456240551 0 0.28335865464960069 -0.46643546855957418 0 0.30564549310613631 -0.44980638456240551 0 0.28335865464960069 -0.46643546855957418 0 0.28337944516101432 -0.45376166750877428 0 0.30564549310613631 -0.44980638456240551 0 0.28337944516101432 -0.45376166750877428 0 0.29428134156922658 -0.44340940696137388 0 0.30564549310613631 -0.44980638456240551 0 0.28337944516101432 -0.45376166750877428 0 0.28337944516101432 -0.45376166750877428 0 0.29428134156922658 -0.44340940696137388 0 0.28162166775605202 -0.44079246358951729 0 0.29403371604781869 -0.43308129055582673 0 0.29428134156922658 -0.44340940696137388 0 0.28162166775605202 -0.44079246358951729 0 0.29403371604781869 -0.43308129055582673 0 0.30199422871053189 -0.43755960135629368 0 0.29428134156922658 -0.44340940696137388 0 0.26693587594062568 -0.42972469131915608 0 0.28162166775605202 -0.44079246358951729 0 0.26530901500154802 -0.44404588602984729 0 0.28162166775605202 -0.44079246358951729 0 0.27229956881316453 -0.46263627732983392 0 0.28337944516101432 -0.45376166750877428 0 0.28162166775605202 -0.44079246358951729 0 0.27229956881316453 -0.46263627732983392 0 0.28162166775605202 -0.44079246358951729 0 0.26530901500154802 -0.44404588602984729 0 0.27229956881316453 -0.46263627732983392 0 0.25429639529336329 -0.43289227060042901 0 0.26530901500154802 -0.44404588602984729 0 0.24932054627619191 -0.45474216183225569 0 0.27229956881316453 -0.46263627732983392 0 0.26849563390882653 -0.47154976838370999 0 0.25307811433339228 -0.46979713794065031 0 0.26530901500154802 -0.44404588602984729 0 0.27229956881316453 -0.46263627732983392 0 0.24932054627619191 -0.45474216183225569 0 0.27229956881316453 -0.46263627732983392 0 0.24932054627619191 -0.45474216183225569 0 0.27229956881316453 -0.46263627732983392 0 0.25307811433339228 -0.46979713794065031 0 0.24932054627619191 -0.45474216183225569 0 0.27229956881316453 -0.46263627732983392 0 0.26849563390882653 -0.47154976838370999 0 0.28335865464960069 -0.46643546855957418 0 0.28337944516101432 -0.45376166750877428 0 0.27229956881316453 -0.46263627732983392 0 0.28335865464960069 -0.46643546855957418 0 0.27229956881316453 -0.46263627732983392 0 0.28335865464960069 -0.46643546855957418 0 0.27229956881316453 -0.46263627732983392 0 0.26849563390882653 -0.47154976838370999 0 0.28335865464960069 -0.46643546855957418 0 0.27831710364577739 -0.48314209766645749 0 0.26086651707277642 -0.48321773427978432 0 0.28335865464960069 -0.46643546855957418 0 0.26849563390882653 -0.47154976838370999 0 0.26086651707277642 -0.48321773427978432 0 0.28335865464960069 -0.46643546855957418 0 0.26086651707277642 -0.48321773427978432 0 0.26849563390882653 -0.47154976838370999 0 0.26086651707277642 -0.48321773427978432 0 0.25307811433339228 -0.46979713794065031 0 0.26086651707277642 -0.48321773427978432 0 0.25307811433339228 -0.46979713794065031 0 0.24754846303622149 -0.48296439785234058 0 0.26086651707277642 -0.48321773427978432 0 0.26060072613576962 -0.5 0 0.23837437949595311 -0.49999999999999573 0 0.27831710364577739 -0.48314209766645749 0 0.26086651707277642 -0.48321773427978432 0 0.26060072613576962 -0.5 0 0.27831710364577739 -0.48314209766645749 0 0.26060072613576962 -0.5 0 0.28282707277558589 -0.5 0 0.27831710364577739 -0.48314209766645749 0 0.29175814234238839 -0.48534789069237111 0 0.28282707277558589 -0.5 0 0.29175814234238839 -0.48534789069237111 0 0.28282707277558589 -0.5 0 0.30505341941540243 -0.4999999999999965 0 0.28335865464960069 -0.46643546855957418 0 0.30385591974963222 -0.47347701168107797 0 0.28335865464960069 -0.46643546855957418 0 0.27831710364577739 -0.48314209766645749 0 0.29175814234238839 -0.48534789069237111 0 0.28335865464960069 -0.46643546855957418 0 0.29175814234238839 -0.48534789069237111 0 0.30385591974963222 -0.47347701168107797 0 0.29175814234238839 -0.48534789069237111 0 0.30385591974963222 -0.47347701168107797 0 0.30505341941540243 -0.4999999999999965 0 0.32752648308417598 -0.48426508874975771 0 0.30385591974963222 -0.47347701168107797 0 0.30505341941540243 -0.4999999999999965 0 0.3388637913353798 -0.29880883259298469 0 0.31849361040641228 -0.29264571623960728 0 0.32891320182374117 -0.28917285363389039 0 0.3388637913353798 -0.29880883259298469 0 0.31849361040641228 -0.29264571623960728 0 0.32891320182374117 -0.28917285363389039 0 0.33820408703435562 -0.2895343504936102 0 0.3388637913353798 -0.29880883259298469 0 0.32891320182374117 -0.28917285363389039 0 0.33820408703435562 -0.2895343504936102 0 0.33347677277278559 -0.27652743192690188 0 0.33820408703435562 -0.2895343504936102 0 0.33347677277278559 -0.27652743192690188 0 0.34419018849094279 -0.28236529262423821 0 0.33820408703435562 -0.2895343504936102 0 0.3388637913353798 -0.29880883259298469 0 0.34977351241352211 -0.29036272963058157 0 0.3388637913353798 -0.29880883259298469 0 0.3430122337787414 -0.30668591000325812 0 0.33722754059289289 -0.30579450622194271 0 0.3430122337787414 -0.30668591000325812 0 0.34607972915835528 -0.31221401172282243 0 0.33607160345125231 -0.31320378846542007 0 0.3430122337787414 -0.30668591000325812 0 0.33722754059289289 -0.30579450622194271 0 0.33607160345125231 -0.31320378846542007 0 0.33722754059289289 -0.30579450622194271 0 0.33066998179362161 -0.30516501022227288 0 0.33607160345125231 -0.31320378846542007 0 0.3388637913353798 -0.29880883259298469 0 0.33066998179362161 -0.30516501022227288 0 0.32589297655007088 -0.29971622315665891 0 0.3388637913353798 -0.29880883259298469 0 0.33722754059289289 -0.30579450622194271 0 0.33066998179362161 -0.30516501022227288 0 0.33066998179362161 -0.30516501022227288 0 0.31554452266486982 -0.3022453335717708 0 0.33607160345125231 -0.31320378846542007 0 0.33066998179362161 -0.30516501022227288 0 0.32589297655007088 -0.29971622315665891 0 0.31554452266486982 -0.3022453335717708 0 0.31554452266486982 -0.3022453335717708 0 0.33607160345125231 -0.31320378846542007 0 0.31554452266486982 -0.3022453335717708 0 0.33607160345125231 -0.31320378846542007 0 0.32048348198109672 -0.31769842202192539 0 0.3388637913353798 -0.29880883259298469 0 0.32589297655007088 -0.29971622315665891 0 0.31849361040641228 -0.29264571623960728 0 0.31554452266486982 -0.3022453335717708 0 0.32048348198109672 -0.31769842202192539 0 0.31039604354573952 -0.3133734735491307 0 0.32589297655007088 -0.29971622315665891 0 0.31554452266486982 -0.3022453335717708 0 0.31849361040641228 -0.29264571623960728 0 0.32891320182374117 -0.28917285363389039 0 0.31849361040641228 -0.29264571623960728 0 0.32048410433380742 -0.27002497793996222 0 0.32891320182374117 -0.28917285363389039 0 0.32048410433380742 -0.27002497793996222 0 0.33347677277278559 -0.27652743192690188 0 0.32891320182374117 -0.28917285363389039 0 0.32048410433380742 -0.27002497793996222 0 0.31849361040641228 -0.29264571623960728 0 0.32048410433380742 -0.27002497793996222 0 0.30697709301938791 -0.27938930633765929 0 0.32048410433380742 -0.27002497793996222 0 0.31205500684387361 -0.25087710224603388 0 0.32048410433380742 -0.27002497793996222 0 0.32662070412229749 -0.25323695071805491 0 0.31205500684387361 -0.25087710224603388 0 0.32048410433380742 -0.27002497793996222 0 0.31205500684387361 -0.25087710224603388 0 0.3050180078668927 -0.26364250419936708 0 0.32048410433380742 -0.27002497793996222 0 0.32662070412229749 -0.25323695071805491 0 0.33737823675031858 -0.2623806521604109 0 0.3387850440639687 -0.24492953814714299 0 0.32662070412229749 -0.25323695071805491 0 0.33737823675031858 -0.2623806521604109 0 0.3387850440639687 -0.24492953814714299 0 0.33737823675031858 -0.2623806521604109 0 0.35047144216815013 -0.25462251175469103 0 0.32048410433380742 -0.27002497793996222 0 0.33737823675031858 -0.2623806521604109 0 0.33347677277278559 -0.27652743192690188 0 0.33737823675031858 -0.2623806521604109 0 0.33347677277278559 -0.27652743192690188 0 0.34337236418612471 -0.27289479184168408 0 0.33737823675031858 -0.2623806521604109 0 0.34337236418612471 -0.27289479184168408 0 0.34986351919887648 -0.26669390490080103 0 0.33347677277278559 -0.27652743192690188 0 0.34337236418612471 -0.27289479184168408 0 0.34419018849094279 -0.28236529262423821 0 0.34337236418612471 -0.27289479184168408 0 0.35418881953067699 -0.27651037997943589 0 0.34419018849094279 -0.28236529262423821 0 0.34337236418612471 -0.27289479184168408 0 0.34986351919887648 -0.26669390490080103 0 0.35418881953067699 -0.27651037997943589 0 0.34986351919887648 -0.26669390490080103 0 0.35418881953067699 -0.27651037997943589 0 0.35947431653091211 -0.26388177803418011 0 0.33737823675031858 -0.2623806521604109 0 0.34986351919887648 -0.26669390490080103 0 0.35047144216815013 -0.25462251175469103 0 0.34986351919887648 -0.26669390490080103 0 0.35047144216815013 -0.25462251175469103 0 0.35947431653091211 -0.26388177803418011 0 0.35047144216815013 -0.25462251175469103 0 0.36245145780581273 -0.25366726859043198 0 0.35947431653091211 -0.26388177803418011 0 0.38138413807414112 -0.25567192781807913 0 0.36861896331870642 -0.25999555841641631 0 0.3680562190181661 -0.27151950715159229 0 0.35947431653091211 -0.26388177803418011 0 0.36861896331870642 -0.25999555841641631 0 0.3680562190181661 -0.27151950715159229 0 0.36245145780581273 -0.25366726859043198 0 0.35947431653091211 -0.26388177803418011 0 0.36861896331870642 -0.25999555841641631 0 0.38138413807414112 -0.25567192781807913 0 0.36861896331870642 -0.25999555841641631 0 0.37252435882630303 -0.25368774519845427 0 0.36245145780581273 -0.25366726859043198 0 0.36861896331870642 -0.25999555841641631 0 0.37252435882630303 -0.25368774519845427 0 0.36741984179296311 -0.24634761426810001 0 0.36245145780581273 -0.25366726859043198 0 0.37252435882630303 -0.25368774519845427 0 0.35418881953067699 -0.27651037997943589 0 0.3680562190181661 -0.27151950715159229 0 0.36309440230286788 -0.28806017452004112 0 0.38049414563372908 -0.28340349655890917 0 0.3680562190181661 -0.27151950715159229 0 0.36309440230286788 -0.28806017452004112 0 0.35418881953067699 -0.27651037997943589 0 0.35947431653091211 -0.26388177803418011 0 0.3680562190181661 -0.27151950715159229 0 0.37960415319331481 -0.31113506529973911 0 0.38049414563372908 -0.28340349655890917 0 0.36309440230286788 -0.28806017452004112 0 0.36309440230286788 -0.28806017452004112 0 0.34977351241352211 -0.29036272963058157 0 0.35923397226434722 -0.30497194894636209 0 0.35418881953067699 -0.27651037997943589 0 0.36309440230286788 -0.28806017452004112 0 0.34977351241352211 -0.29036272963058157 0 0.35418881953067699 -0.27651037997943589 0 0.34977351241352211 -0.29036272963058157 0 0.34419018849094279 -0.28236529262423821 0 0.33820408703435562 -0.2895343504936102 0 0.34977351241352211 -0.29036272963058157 0 0.34419018849094279 -0.28236529262423821 0 0.3388637913353798 -0.29880883259298469 0 0.3430122337787414 -0.30668591000325812 0 0.35923397226434722 -0.30497194894636209 0 0.3388637913353798 -0.29880883259298469 0 0.35923397226434722 -0.30497194894636209 0 0.3430122337787414 -0.30668591000325812 0 0.35923397226434722 -0.30497194894636209 0 0.34607972915835528 -0.31221401172282243 0 0.3388637913353798 -0.29880883259298469 0 0.34977351241352211 -0.29036272963058157 0 0.35923397226434722 -0.30497194894636209 0 0.37960415319331481 -0.31113506529973911 0 0.35923397226434722 -0.30497194894636209 0 0.37960415319331481 -0.31113506529973911 0 0.36309440230286788 -0.28806017452004112 0 0.35923397226434722 -0.30497194894636209 0 0.37960415319331481 -0.31113506529973911 0 0.35923397226434722 -0.30497194894636209 0 0.36990263654498168 -0.32137457248966428 0 0.37557142655256798 -0.33429090914602089 0 0.36990263654498168 -0.32137457248966428 0 0.35582151500191 -0.32374734880572081 0 0.35923397226434722 -0.30497194894636209 0 0.36990263654498168 -0.32137457248966428 0 0.35582151500191 -0.32374734880572081 0 0.37892763011063602 -0.33221507173602421 0 0.37557142655256798 -0.33429090914602089 0 0.36990263654498168 -0.32137457248966428 0 0.37557142655256798 -0.33429090914602089 0 0.35582151500191 -0.32374734880572081 0 0.37557142655256798 -0.33429090914602089 0 0.35387409302375461 -0.34771087484744162 0 0.37557142655256798 -0.33429090914602089 0 0.35582151500191 -0.32374734880572081 0 0.35387409302375461 -0.34771087484744162 0 0.35582151500191 -0.32374734880572081 0 0.35387409302375461 -0.34771087484744162 0 0.33806775477498391 -0.34640531920008161 0 0.35923397226434722 -0.30497194894636209 0 0.34607972915835528 -0.31221401172282243 0 0.35582151500191 -0.32374734880572081 0 0.35582151500191 -0.32374734880572081 0 0.33607160345125231 -0.31320378846542007 0 0.34607972915835528 -0.31221401172282243 0 0.35582151500191 -0.32374734880572081 0 0.33607160345125231 -0.31320378846542007 0 0.36453410621123561 -0.38081230887723072 0 0.36358305666498331 -0.3621989475298999 0 0.35110400010073078 -0.36532560486377558 0 0.37717060256999912 -0.36631755433082092 0 0.36453410621123561 -0.38081230887723072 0 0.36358305666498331 -0.3621989475298999 0 0.37717060256999912 -0.36631755433082092 0 0.36358305666498331 -0.3621989475298999 0 0.37123248141919629 -0.35082839473023048 0 0.36358305666498331 -0.3621989475298999 0 0.37123248141919629 -0.35082839473023048 0 0.35387409302375461 -0.34771087484744162 0 0.37557142655256798 -0.33429090914602089 0 0.37123248141919629 -0.35082839473023048 0 0.35387409302375461 -0.34771087484744162 0 0.36358305666498331 -0.3621989475298999 0 0.35387409302375461 -0.34771087484744162 0 0.35110400010073078 -0.36532560486377558 0 0.35387409302375461 -0.34771087484744162 0 0.35110400010073078 -0.36532560486377558 0 0.33217675949494202 -0.36113084054886352 0 0.34964780801256218 -0.38154924042584021 0 0.34049275658429112 -0.37673495064063278 0 0.35110400010073078 -0.36532560486377558 0 0.34049275658429112 -0.37673495064063278 0 0.33001044884249342 -0.38281232454350939 0 0.33217675949494202 -0.36113084054886352 0 0.34049275658429112 -0.37673495064063278 0 0.35110400010073078 -0.36532560486377558 0 0.33217675949494202 -0.36113084054886352 0 0.35110400010073078 -0.36532560486377558 0 0.33217675949494202 -0.36113084054886352 0 0.33217675949494202 -0.36113084054886352 0 0.33806775477498391 -0.34640531920008161 0 0.31704898741398579 -0.35777813637972528 0 0.35387409302375461 -0.34771087484744162 0 0.33217675949494202 -0.36113084054886352 0 0.33806775477498391 -0.34640531920008161 0 0.35387409302375461 -0.34771087484744162 0 0.33217675949494202 -0.36113084054886352 0 0.31704898741398579 -0.35777813637972528 0 0.32656029543262038 -0.33549096242257331 0 0.31704898741398579 -0.35777813637972528 0 0.32656029543262038 -0.33549096242257331 0 0.30396243390910871 -0.33973989823326878 0 0.33806775477498391 -0.34640531920008161 0 0.31704898741398579 -0.35777813637972528 0 0.32656029543262038 -0.33549096242257331 0 0.30968006088896921 -0.3750452196261983 0 0.31704898741398579 -0.35777813637972528 0 0.30968006088896921 -0.3750452196261983 0 0.33217675949494202 -0.36113084054886352 0 0.30968006088896921 -0.3750452196261983 0 0.33217675949494202 -0.36113084054886352 0 0.31704898741398579 -0.35777813637972528 0 0.33001044884249342 -0.38281232454350939 0 0.30968006088896921 -0.3750452196261983 0 0.33217675949494202 -0.36113084054886352 0 0.33217675949494202 -0.36113084054886352 0 0.31704898741398579 -0.35777813637972528 0 0.33607160345125231 -0.31320378846542007 0 0.32656029543262038 -0.33549096242257331 0 0.35582151500191 -0.32374734880572081 0 0.33607160345125231 -0.31320378846542007 0 0.32656029543262038 -0.33549096242257331 0 0.35582151500191 -0.32374734880572081 0 0.33806775477498391 -0.34640531920008161 0 0.32656029543262038 -0.33549096242257331 0 0.32656029543262038 -0.33549096242257331 0 0.30707376181183033 -0.32403879370589489 0 0.30396243390910871 -0.33973989823326878 0 0.32656029543262038 -0.33549096242257331 0 0.32048348198109672 -0.31769842202192539 0 0.30707376181183033 -0.32403879370589489 0 0.33607160345125231 -0.31320378846542007 0 0.32656029543262038 -0.33549096242257331 0 0.32048348198109672 -0.31769842202192539 0 0.32048348198109672 -0.31769842202192539 0 0.31039604354573952 -0.3133734735491307 0 0.30707376181183033 -0.32403879370589489 0 0.31039604354573952 -0.3133734735491307 0 0.30707376181183033 -0.32403879370589489 0 0.29848240772516133 -0.30951134489693161 0 0.30707376181183033 -0.32403879370589489 0 0.29528620943280792 -0.32724481472484201 0 0.29848240772516133 -0.30951134489693161 0 0.30707376181183033 -0.32403879370589489 0 0.30396243390910871 -0.33973989823326878 0 0.29528620943280792 -0.32724481472484201 0 0.30396243390910871 -0.33973989823326878 0 0.2853250780738128 -0.33931618197517982 0 0.29528620943280792 -0.32724481472484201 0 0.2853250780738128 -0.33931618197517982 0 0.29528620943280792 -0.32724481472484201 0 0.28158736564412667 -0.32361785481293481 0 0.29528620943280792 -0.32724481472484201 0 0.28158736564412667 -0.32361785481293481 0 0.29848240772516133 -0.30951134489693161 0 0.30968006088896921 -0.3750452196261983 0 0.31704898741398579 -0.35777813637972528 0 0.30386961796560552 -0.37192768240195678 0 0.31704898741398579 -0.35777813637972528 0 0.30386961796560552 -0.37192768240195678 0 0.2974573715853438 -0.36583055629489902 0 0.29762003192281639 -0.37776570922364228 0 0.30386961796560552 -0.37192768240195678 0 0.29642336222020998 -0.37313490099927571 0 0.30386961796560552 -0.37192768240195678 0 0.2974573715853438 -0.36583055629489902 0 0.29642336222020998 -0.37313490099927571 0 0.30264258504835129 -0.37679747700315291 0 0.30772847577674961 -0.37625228985142722 0 0.30386961796560552 -0.37192768240195678 0 0.30772847577674961 -0.37625228985142722 0 0.30968006088896921 -0.3750452196261983 0 0.30386961796560552 -0.37192768240195678 0 0.31704898741398579 -0.35777813637972528 0 0.30396243390910871 -0.33973989823326878 0 0.29428983491631971 -0.35273412163276591 0 0.31704898741398579 -0.35777813637972528 0 0.29428983491631971 -0.35273412163276591 0 0.31704898741398579 -0.35777813637972528 0 0.2974573715853438 -0.36583055629489902 0 0.29428983491631971 -0.35273412163276591 0 0.29428983491631971 -0.35273412163276591 0 0.27153068241865341 -0.34769010688580648 0 0.30396243390910871 -0.33973989823326878 0 0.2853250780738128 -0.33931618197517982 0 0.29428983491631971 -0.35273412163276591 0 0.2853250780738128 -0.33931618197517982 0 0.29428983491631971 -0.35273412163276591 0 0.27153068241865341 -0.34769010688580648 0 0.29428983491631971 -0.35273412163276591 0 0.28123975485927738 -0.35784791804668542 0 0.27153068241865341 -0.34769010688580648 0 0.29428983491631971 -0.35273412163276591 0 0.28622439996611942 -0.36562033447876169 0 0.28123975485927738 -0.35784791804668542 0 0.2974573715853438 -0.36583055629489902 0 0.29428983491631971 -0.35273412163276591 0 0.28622439996611942 -0.36562033447876169 0 0.28622439996611942 -0.36562033447876169 0 0.27791072816300982 -0.36450639302278243 0 0.28123975485927738 -0.35784791804668542 0 0.28622439996611942 -0.36562033447876169 0 0.28148615131285892 -0.36889710977893642 0 0.27791072816300982 -0.36450639302278243 0 0.28622439996611942 -0.36562033447876169 0 0.28553456402890232 -0.37261598321559608 0 0.29076869086770468 -0.37224684918654027 0 0.28622439996611942 -0.36562033447876169 0 0.28148615131285892 -0.36889710977893642 0 0.28553456402890232 -0.37261598321559608 0 0.28148615131285892 -0.36889710977893642 0 0.28127396334598509 -0.37376290170076992 0 0.28553456402890232 -0.37261598321559608 0 0.28428559271976528 -0.37747626289807618 0 0.28127396334598509 -0.37376290170076992 0 0.28553456402890232 -0.37261598321559608 0 0.28813266713835112 -0.37607225008672102 0 0.28553456402890232 -0.37261598321559608 0 0.29076869086770468 -0.37224684918654027 0 0.2974573715853438 -0.36583055629489902 0 0.28622439996611942 -0.36562033447876169 0 0.29076869086770468 -0.37224684918654027 0 0.2974573715853438 -0.36583055629489902 0 0.29076869086770468 -0.37224684918654027 0 0.29642336222020998 -0.37313490099927571 0 0.2924010987595792 -0.37790370788934002 0 0.29076869086770468 -0.37224684918654027 0 0.29642336222020998 -0.37313490099927571 0 0.26372889990477039 -0.37684398062158192 0 0.27102569217121059 -0.36667229397364348 0 0.26472744781028601 -0.36031129773039849 0 0.26372889990477039 -0.37684398062158192 0 0.27535643848583852 -0.37259162049575528 0 0.27102569217121059 -0.36667229397364348 0 0.27535643848583852 -0.37259162049575528 0 0.27791072816300982 -0.36450639302278243 0 0.27102569217121059 -0.36667229397364348 0 0.28148615131285892 -0.36889710977893642 0 0.27535643848583852 -0.37259162049575528 0 0.27791072816300982 -0.36450639302278243 0 0.28148615131285892 -0.36889710977893642 0 0.28127396334598509 -0.37376290170076992 0 0.27535643848583852 -0.37259162049575528 0 0.27791072816300982 -0.36450639302278243 0 0.27340494649214842 -0.35910817799769901 0 0.28123975485927738 -0.35784791804668542 0 0.27791072816300982 -0.36450639302278243 0 0.27102569217121059 -0.36667229397364348 0 0.27340494649214842 -0.35910817799769901 0 0.27102569217121059 -0.36667229397364348 0 0.27340494649214842 -0.35910817799769901 0 0.26472744781028601 -0.36031129773039849 0 0.27340494649214842 -0.35910817799769901 0 0.27153068241865341 -0.34769010688580648 0 0.26472744781028601 -0.36031129773039849 0 0.27340494649214842 -0.35910817799769901 0 0.28123975485927738 -0.35784791804668542 0 0.27153068241865341 -0.34769010688580648 0 0.25804438550711539 -0.35452665734125272 0 0.26102462500059642 -0.34170152865144438 0 0.24046188435706631 -0.35978520248995399 0 0.26102462500059642 -0.34170152865144438 0 0.24046188435706631 -0.35978520248995399 0 0.25804438550711539 -0.35452665734125272 0 0.25247728794897512 -0.36314515094866018 0 0.24046188435706631 -0.35978520248995399 0 0.27153068241865341 -0.34769010688580648 0 0.25804438550711539 -0.35452665734125272 0 0.26102462500059642 -0.34170152865144438 0 0.27153068241865341 -0.34769010688580648 0 0.25804438550711539 -0.35452665734125272 0 0.26472744781028601 -0.36031129773039849 0 0.25804438550711539 -0.35452665734125272 0 0.26472744781028601 -0.36031129773039849 0 0.25247728794897512 -0.36314515094866018 0 0.26372889990477039 -0.37684398062158192 0 0.25247728794897512 -0.36314515094866018 0 0.24399418892849731 -0.37094226420446957 0 0.26372889990477039 -0.37684398062158192 0 0.26472744781028601 -0.36031129773039849 0 0.25247728794897512 -0.36314515094866018 0 0.26372889990477039 -0.37684398062158192 0 0.25247728794897512 -0.36314515094866018 0 0.28158736564412667 -0.32361785481293481 0 0.27050730657966621 -0.31638040304845461 0 0.27660256992026722 -0.30271837617716407 0 0.28158736564412667 -0.32361785481293481 0 0.27050730657966621 -0.31638040304845461 0 0.26777942284606282 -0.33084539531918777 0 0.2853250780738128 -0.33931618197517982 0 0.28158736564412667 -0.32361785481293481 0 0.27153068241865341 -0.34769010688580648 0 0.28158736564412667 -0.32361785481293481 0 0.26102462500059642 -0.34170152865144438 0 0.28158736564412667 -0.32361785481293481 0 0.27153068241865341 -0.34769010688580648 0 0.26102462500059642 -0.34170152865144438 0 0.28158736564412667 -0.32361785481293481 0 0.26777942284606282 -0.33084539531918777 0 0.26102462500059642 -0.34170152865144438 0 0.26777942284606282 -0.33084539531918777 0 0.26102462500059642 -0.34170152865144438 0 0.25193842149291462 -0.32851848032959408 0 0.26102462500059642 -0.34170152865144438 0 0.25187995157369453 -0.33828156357578082 0 0.25193842149291462 -0.32851848032959408 0 0.26102462500059642 -0.34170152865144438 0 0.25187995157369453 -0.33828156357578082 0 0.246275759558999 -0.34549628854361708 0 0.26777942284606282 -0.33084539531918777 0 0.25605986790820828 -0.3083399858845316 0 0.26777942284606282 -0.33084539531918777 0 0.25193842149291462 -0.32851848032959408 0 0.25605986790820828 -0.3083399858845316 0 0.27050730657966621 -0.31638040304845461 0 0.26777942284606282 -0.33084539531918777 0 0.25605986790820828 -0.3083399858845316 0 0.25605986790820828 -0.3083399858845316 0 0.2443403129703545 -0.28583457644987509 0 0.25605986790820828 -0.3083399858845316 0 0.26095074625171522 -0.29148894260875152 0 0.27660256992026722 -0.30271837617716407 0 0.25605986790820828 -0.3083399858845316 0 0.26095074625171522 -0.29148894260875152 0 0.2443403129703545 -0.28583457644987509 0 0.26095074625171522 -0.29148894260875152 0 0.2539632803057229 -0.26936996889082149 0 0.2443403129703545 -0.28583457644987509 0 0.26095074625171522 -0.29148894260875152 0 0.27660256992026722 -0.30271837617716407 0 0.27449036109210478 -0.28032842378447198 0 0.27050730657966621 -0.31638040304845461 0 0.25605986790820828 -0.3083399858845316 0 0.27660256992026722 -0.30271837617716407 0 0.27660256992026722 -0.30271837617716407 0 0.29501744187848727 -0.29128687867812142 0 0.29848240772516133 -0.30951134489693161 0 0.28158736564412667 -0.32361785481293481 0 0.27660256992026722 -0.30271837617716407 0 0.29848240772516133 -0.30951134489693161 0 0.29501744187848727 -0.29128687867812142 0 0.27449036109210478 -0.28032842378447198 0 0.27660256992026722 -0.30271837617716407 0 0.29501744187848727 -0.29128687867812142 0 0.27449036109210478 -0.28032842378447198 0 0.31554452266486982 -0.3022453335717708 0 0.29501744187848727 -0.29128687867812142 0 0.31554452266486982 -0.3022453335717708 0 0.31849361040641228 -0.29264571623960728 0 0.29501744187848727 -0.29128687867812142 0 0.31849361040641228 -0.29264571623960728 0 0.29501744187848727 -0.29128687867812142 0 0.30697709301938791 -0.27938930633765929 0 0.31554452266486982 -0.3022453335717708 0 0.29501744187848727 -0.29128687867812142 0 0.29848240772516133 -0.30951134489693161 0 0.31554452266486982 -0.3022453335717708 0 0.31039604354573952 -0.3133734735491307 0 0.29848240772516133 -0.30951134489693161 0 0.29719014723087572 -0.25246254488436259 0 0.31205500684387361 -0.25087710224603388 0 0.3050180078668927 -0.26364250419936708 0 0.3050180078668927 -0.26364250419936708 0 0.30697709301938791 -0.27938930633765929 0 0.28838368790651869 -0.2654585895888173 0 0.32048410433380742 -0.27002497793996222 0 0.3050180078668927 -0.26364250419936708 0 0.30697709301938791 -0.27938930633765929 0 0.29501744187848727 -0.29128687867812142 0 0.28838368790651869 -0.2654585895888173 0 0.27449036109210478 -0.28032842378447198 0 0.29501744187848727 -0.29128687867812142 0 0.30697709301938791 -0.27938930633765929 0 0.28838368790651869 -0.2654585895888173 0 0.29719014723087572 -0.25246254488436259 0 0.3050180078668927 -0.26364250419936708 0 0.28838368790651869 -0.2654585895888173 0 0.28838368790651869 -0.2654585895888173 0 0.28301575013854241 -0.25483799571847598 0 0.27625856533292781 -0.26349361069636051 0 0.29719014723087572 -0.25246254488436259 0 0.28838368790651869 -0.2654585895888173 0 0.28301575013854241 -0.25483799571847598 0 0.28301575013854241 -0.25483799571847598 0 0.27625856533292781 -0.26349361069636051 0 0.26869678162862731 -0.25301238364918271 0 0.28616134549128258 -0.24237080510064299 0 0.28301575013854241 -0.25483799571847598 0 0.26869678162862731 -0.25301238364918271 0 0.27625856533292781 -0.26349361069636051 0 0.26670624589884562 -0.26383066074085398 0 0.26869678162862731 -0.25301238364918271 0 0.26670624589884562 -0.26383066074085398 0 0.26869678162862731 -0.25301238364918271 0 0.26361919680387791 -0.25284898630566671 0 0.28838368790651869 -0.2654585895888173 0 0.27625856533292781 -0.26349361069636051 0 0.27449036109210478 -0.28032842378447198 0 0.27625856533292781 -0.26349361069636051 0 0.26670624589884562 -0.26383066074085398 0 0.27449036109210478 -0.28032842378447198 0 0.27449036109210478 -0.28032842378447198 0 0.2539632803057229 -0.26936996889082149 0 0.26670624589884562 -0.26383066074085398 0 0.27449036109210478 -0.28032842378447198 0 0.2539632803057229 -0.26936996889082149 0 0.26095074625171522 -0.29148894260875152 0 0.27449036109210478 -0.28032842378447198 0 0.2539632803057229 -0.26936996889082149 0 0.2539632803057229 -0.26936996889082149 0 0.26361919680387791 -0.25284898630566671 0 0.26670624589884562 -0.26383066074085398 0 0.2539632803057229 -0.26936996889082149 0 0.26361919680387791 -0.25284898630566671 0 0.2539632803057229 -0.26936996889082149 0 0.26361919680387791 -0.25284898630566671 0 0.25558160920453382 -0.25118700939966832 0 0.2539632803057229 -0.26936996889082149 0 0.25558160920453382 -0.25118700939966832 0 0.24587095960275271 -0.246839391770072 0 0.2539632803057229 -0.26936996889082149 0 0.23656330135946521 -0.2709001500651505 0 0.22878628974857651 -0.25596572368042558 0 0.2539632803057229 -0.26936996889082149 0 0.22878628974857651 -0.25596572368042558 0 0.2539632803057229 -0.26936996889082149 0 0.22878628974857651 -0.25596572368042558 0 0.24587095960275271 -0.246839391770072 0 0.23656330135946521 -0.2709001500651505 0 0.22721937528070141 -0.28388900744517492 0 0.2443403129703545 -0.28583457644987509 0 0.2539632803057229 -0.26936996889082149 0 0.2443403129703545 -0.28583457644987509 0 0.2539632803057229 -0.26936996889082149 0 0.23656330135946521 -0.2709001500651505 0 0.2443403129703545 -0.28583457644987509 0 0.23656330135946521 -0.2709001500651505 0 0.2443403129703545 -0.28583457644987509 0 0.23656330135946521 -0.2709001500651505 0 0.22233073009309279 -0.2658854569727887 0 0.22721937528070141 -0.28388900744517492 0 0.22233073009309279 -0.2658854569727887 0 0.2142841834188664 -0.27810108514800552 0 0.22721937528070141 -0.28388900744517492 0 0.22878628974857651 -0.25596572368042558 0 0.2350048755684131 -0.2471221443027069 0 0.22908324479563191 -0.24958367017612801 0 0.22878628974857651 -0.25596572368042558 0 0.2249570203721919 -0.25095081026743721 0 0.22908324479563191 -0.24958367017612801 0 0.23656330135946521 -0.2709001500651505 0 0.22878628974857651 -0.25596572368042558 0 0.23656330135946521 -0.2709001500651505 0 0.22233073009309279 -0.2658854569727887 0 0.22878628974857651 -0.25596572368042558 0 0.22233073009309279 -0.2658854569727887 0 0.22878628974857651 -0.25596572368042558 0 0.22218723903118939 -0.25753860272673451 0 0.22233073009309279 -0.2658854569727887 0 0.22218723903118939 -0.25753860272673451 0 0.21323901672966389 -0.25813166984500691 0 0.22218723903118939 -0.25753860272673451 0 0.22356149145079121 -0.25391031089100191 0 0.21967370958763061 -0.25194781690082851 0 0.22878628974857651 -0.25596572368042558 0 0.22218723903118939 -0.25753860272673451 0 0.22356149145079121 -0.25391031089100191 0 0.22356149145079121 -0.25391031089100191 0 0.2249570203721919 -0.25095081026743721 0 0.21967370958763061 -0.25194781690082851 0 0.22878628974857651 -0.25596572368042558 0 0.22356149145079121 -0.25391031089100191 0 0.2249570203721919 -0.25095081026743721 0 0.21967370958763061 -0.25194781690082851 0 0.21323901672966389 -0.25813166984500691 0 0.20891887688369851 -0.24909046752316061 0 0.22218723903118939 -0.25753860272673451 0 0.21967370958763061 -0.25194781690082851 0 0.21323901672966389 -0.25813166984500691 0 0.22233073009309279 -0.2658854569727887 0 0.21323901672966389 -0.25813166984500691 0 0.20518738922089361 -0.26715126419290941 0 0.21323901672966389 -0.25813166984500691 0 0.20129317996490911 -0.25453285704701167 0 0.20891887688369851 -0.24909046752316061 0 0.21323901672966389 -0.25813166984500691 0 0.20518738922089361 -0.26715126419290941 0 0.20129317996490911 -0.25453285704701167 0 0.22233073009309279 -0.2658854569727887 0 0.2142841834188664 -0.27810108514800552 0 0.20518738922089361 -0.26715126419290941 0 0.2142841834188664 -0.27810108514800552 0 0.20518738922089361 -0.26715126419290941 0 0.2018459939194758 -0.27924683203947898 0 0.20518738922089361 -0.26715126419290941 0 0.2018459939194758 -0.27924683203947898 0 0.19211108626748519 -0.27150070125308828 0 0.2018459939194758 -0.27924683203947898 0 0.19211108626748519 -0.27150070125308828 0 0.1875099285831644 -0.28517593635388933 0 0.20518738922089361 -0.26715126419290941 0 0.19211108626748519 -0.27150070125308828 0 0.18864195926146179 -0.25778901709164648 0 0.20518738922089361 -0.26715126419290941 0 0.18864195926146179 -0.25778901709164648 0 0.20129317996490911 -0.25453285704701167 0 0.18864195926146179 -0.25778901709164648 0 0.20129317996490911 -0.25453285704701167 0 0.19671120542098669 -0.244967996220675 0 0.19903660132915271 -0.30581254181970441 0 0.1875099285831644 -0.28517593635388933 0 0.1835042501992738 -0.31106574418450711 0 0.19903660132915271 -0.30581254181970441 0 0.1875099285831644 -0.28517593635388933 0 0.21013738210696961 -0.29430517324950278 0 0.1875099285831644 -0.28517593635388933 0 0.21013738210696961 -0.29430517324950278 0 0.2018459939194758 -0.27924683203947898 0 0.1875099285831644 -0.28517593635388933 0 0.21013738210696961 -0.29430517324950278 0 0.2142841834188664 -0.27810108514800552 0 0.21013738210696961 -0.29430517324950278 0 0.22721937528070141 -0.28388900744517492 0 0.2142841834188664 -0.27810108514800552 0 0.2018459939194758 -0.27924683203947898 0 0.21013738210696961 -0.29430517324950278 0 0.19903660132915271 -0.30581254181970441 0 0.21013738210696961 -0.29430517324950278 0 0.2146871317247126 -0.30952105947760788 0 0.19903660132915271 -0.30581254181970441 0 0.2146871317247126 -0.30952105947760788 0 0.2038925997719328 -0.32069462728275577 0 0.21013738210696961 -0.29430517324950278 0 0.2146871317247126 -0.30952105947760788 0 0.23601045344088389 -0.30008671546220878 0 0.2146871317247126 -0.30952105947760788 0 0.23601045344088389 -0.30008671546220878 0 0.22768059391141229 -0.31433885447454202 0 0.23601045344088389 -0.30008671546220878 0 0.23927584143907071 -0.32139799029049332 0 0.22768059391141229 -0.31433885447454202 0 0.23601045344088389 -0.30008671546220878 0 0.22768059391141229 -0.31433885447454202 0 0.21013738210696961 -0.29430517324950278 0 0.22721937528070141 -0.28388900744517492 0 0.23601045344088389 -0.30008671546220878 0 0.22721937528070141 -0.28388900744517492 0 0.2443403129703545 -0.28583457644987509 0 0.23601045344088389 -0.30008671546220878 0 0.2443403129703545 -0.28583457644987509 0 0.23601045344088389 -0.30008671546220878 0 0.25605986790820828 -0.3083399858845316 0 0.2443403129703545 -0.28583457644987509 0 0.23601045344088389 -0.30008671546220878 0 0.25605986790820828 -0.3083399858845316 0 0.23601045344088389 -0.30008671546220878 0 0.23927584143907071 -0.32139799029049332 0 0.25193842149291462 -0.32851848032959408 0 0.25605986790820828 -0.3083399858845316 0 0.23927584143907071 -0.32139799029049332 0 0.25193842149291462 -0.32851848032959408 0 0.23927584143907071 -0.32139799029049332 0 0.23953664560034491 -0.33730572618495941 0 0.25187995157369453 -0.33828156357578082 0 0.25193842149291462 -0.32851848032959408 0 0.23953664560034491 -0.33730572618495941 0 0.25187995157369453 -0.33828156357578082 0 0.23953664560034491 -0.33730572618495941 0 0.246275759558999 -0.34549628854361708 0 0.2214875007775555 -0.32874165012930717 0 0.22898796848257061 -0.34903963169619628 0 0.21400658443464551 -0.34366003656634059 0 0.23953664560034491 -0.33730572618495941 0 0.2214875007775555 -0.32874165012930717 0 0.22898796848257061 -0.34903963169619628 0 0.23927584143907071 -0.32139799029049332 0 0.23953664560034491 -0.33730572618495941 0 0.2214875007775555 -0.32874165012930717 0 0.23927584143907071 -0.32139799029049332 0 0.2214875007775555 -0.32874165012930717 0 0.22768059391141229 -0.31433885447454202 0 0.2146871317247126 -0.30952105947760788 0 0.2214875007775555 -0.32874165012930717 0 0.22768059391141229 -0.31433885447454202 0 0.24399418892849731 -0.37094226420446957 0 0.24046188435706631 -0.35978520248995399 0 0.21989914371353619 -0.37786887632846361 0 0.25247728794897512 -0.36314515094866018 0 0.24399418892849731 -0.37094226420446957 0 0.24046188435706631 -0.35978520248995399 0 0.26102462500059642 -0.34170152865144438 0 0.24046188435706631 -0.35978520248995399 0 0.246275759558999 -0.34549628854361708 0 0.24046188435706631 -0.35978520248995399 0 0.23847569126329279 -0.35040742181594708 0 0.22898796848257061 -0.34903963169619628 0 0.24046188435706631 -0.35978520248995399 0 0.246275759558999 -0.34549628854361708 0 0.23847569126329279 -0.35040742181594708 0 0.23953664560034491 -0.33730572618495941 0 0.23847569126329279 -0.35040742181594708 0 0.22898796848257061 -0.34903963169619628 0 0.23953664560034491 -0.33730572618495941 0 0.246275759558999 -0.34549628854361708 0 0.23847569126329279 -0.35040742181594708 0 0.22898796848257061 -0.34903963169619628 0 0.21511309244303981 -0.36051269413950021 0 0.21400658443464551 -0.34366003656634059 0 0.24046188435706631 -0.35978520248995399 0 0.22898796848257061 -0.34903963169619628 0 0.21511309244303981 -0.36051269413950021 0 0.24046188435706631 -0.35978520248995399 0 0.21511309244303981 -0.36051269413950021 0 0.21989914371353619 -0.37786887632846361 0 0.24046188435706631 -0.35978520248995399 0 0.21989914371353619 -0.37786887632846361 0 0.21511309244303981 -0.36051269413950021 0 0.21989914371353619 -0.37786887632846361 0 0.20164182133087061 -0.37789316212646579 0 0.21511309244303981 -0.36051269413950021 0 0.19323046993871179 -0.36174678118481951 0 0.20164182133087061 -0.37789316212646579 0 0.21511309244303981 -0.36051269413950021 0 0.1980939078549174 -0.34621539033583698 0 0.21400658443464551 -0.34366003656634059 0 0.1980939078549174 -0.34621539033583698 0 0.18554293387407719 -0.33216015871671412 0 0.17896590718242711 -0.35505867632633131 0 0.21511309244303981 -0.36051269413950021 0 0.1980939078549174 -0.34621539033583698 0 0.19323046993871179 -0.36174678118481951 0 0.1980939078549174 -0.34621539033583698 0 0.19323046993871179 -0.36174678118481951 0 0.17896590718242711 -0.35505867632633131 0 0.19323046993871179 -0.36174678118481951 0 0.20164182133087061 -0.37789316212646579 0 0.1842999212798393 -0.37632834622226208 0 0.2146871317247126 -0.30952105947760788 0 0.2214875007775555 -0.32874165012930717 0 0.2038925997719328 -0.32069462728275577 0 0.2214875007775555 -0.32874165012930717 0 0.2038925997719328 -0.32069462728275577 0 0.20460470534262559 -0.33429437260619088 0 0.2214875007775555 -0.32874165012930717 0 0.21400658443464551 -0.34366003656634059 0 0.20460470534262559 -0.33429437260619088 0 0.1980939078549174 -0.34621539033583698 0 0.21400658443464551 -0.34366003656634059 0 0.20460470534262559 -0.33429437260619088 0 0.2038925997719328 -0.32069462728275577 0 0.20460470534262559 -0.33429437260619088 0 0.18554293387407719 -0.33216015871671412 0 0.1980939078549174 -0.34621539033583698 0 0.20460470534262559 -0.33429437260619088 0 0.18554293387407719 -0.33216015871671412 0 0.2038925997719328 -0.32069462728275577 0 0.18554293387407719 -0.33216015871671412 0 0.1835042501992738 -0.31106574418450711 0 0.19903660132915271 -0.30581254181970441 0 0.2038925997719328 -0.32069462728275577 0 0.1835042501992738 -0.31106574418450711 0 0.17159625467004919 -0.32418532733637151 0 0.1835042501992738 -0.31106574418450711 0 0.16285152437735301 -0.31154404995930551 0 0.18554293387407719 -0.33216015871671412 0 0.17159625467004919 -0.32418532733637151 0 0.1835042501992738 -0.31106574418450711 0 0.18554293387407719 -0.33216015871671412 0 0.16431390047825639 -0.33791518712708168 0 0.17896590718242711 -0.35505867632633131 0 0.18554293387407719 -0.33216015871671412 0 0.16431390047825639 -0.33791518712708168 0 0.17159625467004919 -0.32418532733637151 0 0.16431390047825639 -0.33791518712708168 0 0.17159625467004919 -0.32418532733637151 0 0.15454491654066221 -0.32658836928690149 0 0.17159625467004919 -0.32418532733637151 0 0.15454491654066221 -0.32658836928690149 0 0.16285152437735301 -0.31154404995930551 0 0.17896590718242711 -0.35505867632633131 0 0.16752407648589271 -0.37357165753381649 0 0.1842999212798393 -0.37632834622226208 0 0.19323046993871179 -0.36174678118481951 0 0.17896590718242711 -0.35505867632633131 0 0.1842999212798393 -0.37632834622226208 0 0.16431390047825639 -0.33791518712708168 0 0.15930571331079019 -0.35638363565412629 0 0.14607142967272421 -0.34424213152302469 0 0.16431390047825639 -0.33791518712708168 0 0.17896590718242711 -0.35505867632633131 0 0.15930571331079019 -0.35638363565412629 0 0.15930571331079019 -0.35638363565412629 0 0.16752407648589271 -0.37357165753381649 0 0.15267784527322559 -0.37038339340826087 0 0.17896590718242711 -0.35505867632633131 0 0.15930571331079019 -0.35638363565412629 0 0.16752407648589271 -0.37357165753381649 0 0.15267784527322559 -0.37038339340826087 0 0.13996521910809881 -0.36705646590751129 0 0.14327575248377769 -0.38209800658698612 0 0.15930571331079019 -0.35638363565412629 0 0.15267784527322559 -0.37038339340826087 0 0.14628112077221539 -0.35713076800624288 0 0.15267784527322559 -0.37038339340826087 0 0.14628112077221539 -0.35713076800624288 0 0.13996521910809881 -0.36705646590751129 0 0.14628112077221539 -0.35713076800624288 0 0.14607142967272421 -0.34424213152302469 0 0.13168687140786969 -0.35437751514881188 0 0.15930571331079019 -0.35638363565412629 0 0.14628112077221539 -0.35713076800624288 0 0.14607142967272421 -0.34424213152302469 0 0.14607142967272421 -0.34424213152302469 0 0.13168687140786969 -0.35437751514881188 0 0.13116002769932089 -0.34144081493774853 0 0.13168687140786969 -0.35437751514881188 0 0.13116002769932089 -0.34144081493774853 0 0.1161782158873771 -0.3439241840397082 0 0.1259045056034053 -0.37129264638725462 0 0.13996521910809881 -0.36705646590751129 0 0.14327575248377769 -0.38209800658698612 0 0.13168687140786969 -0.35437751514881188 0 0.1259045056034053 -0.37129264638725462 0 0.13996521910809881 -0.36705646590751129 0 0.14628112077221539 -0.35713076800624288 0 0.13168687140786969 -0.35437751514881188 0 0.13996521910809881 -0.36705646590751129 0 0.15454491654066221 -0.32658836928690149 0 0.14300866839020199 -0.31287878236606098 0 0.13761347423793949 -0.33151124697419498 0 0.15454491654066221 -0.32658836928690149 0 0.14300866839020199 -0.31287878236606098 0 0.16285152437735301 -0.31154404995930551 0 0.16431390047825639 -0.33791518712708168 0 0.14607142967272421 -0.34424213152302469 0 0.15454491654066221 -0.32658836928690149 0 0.14607142967272421 -0.34424213152302469 0 0.15454491654066221 -0.32658836928690149 0 0.13761347423793949 -0.33151124697419498 0 0.14607142967272421 -0.34424213152302469 0 0.13761347423793949 -0.33151124697419498 0 0.13116002769932089 -0.34144081493774853 0 0.13761347423793949 -0.33151124697419498 0 0.12230367674569891 -0.3198271358464933 0 0.124250147290694 -0.33314899700300282 0 0.13761347423793949 -0.33151124697419498 0 0.13116002769932089 -0.34144081493774853 0 0.124250147290694 -0.33314899700300282 0 0.14300866839020199 -0.31287878236606098 0 0.13761347423793949 -0.33151124697419498 0 0.12230367674569891 -0.3198271358464933 0 0.13761347423793949 -0.33151124697419498 0 0.12230367674569891 -0.3198271358464933 0 0.14300866839020199 -0.31287878236606098 0 0.12951202051656341 -0.3067737877337271 0 0.12230367674569891 -0.3198271358464933 0 0.14300866839020199 -0.31287878236606098 0 0.12951202051656341 -0.3067737877337271 0 0.13670693104486731 -0.29445551865045561 0 0.12951202051656341 -0.3067737877337271 0 0.13670693104486731 -0.29445551865045561 0 0.1209347629788675 -0.29854924464306509 0 0.14300866839020199 -0.31287878236606098 0 0.15569551495852541 -0.29349238983775072 0 0.16285152437735301 -0.31154404995930551 0 0.14300866839020199 -0.31287878236606098 0 0.15569551495852541 -0.29349238983775072 0 0.13670693104486731 -0.29445551865045561 0 0.15569551495852541 -0.29349238983775072 0 0.1473080277738826 -0.28220418930035029 0 0.16488247505935921 -0.27604669945827559 0 0.15569551495852541 -0.29349238983775072 0 0.1473080277738826 -0.28220418930035029 0 0.13670693104486731 -0.29445551865045561 0 0.1473080277738826 -0.28220418930035029 0 0.13670693104486731 -0.29445551865045561 0 0.13700019627110691 -0.28010887599260748 0 0.13670693104486731 -0.29445551865045561 0 0.1281685823970308 -0.28617180311328722 0 0.1209347629788675 -0.29854924464306509 0 0.13670693104486731 -0.29445551865045561 0 0.1281685823970308 -0.28617180311328722 0 0.13700019627110691 -0.28010887599260748 0 0.1281685823970308 -0.28617180311328722 0 0.1297815624042809 -0.2736575891249427 0 0.12219308676426741 -0.27967318271272779 0 0.1281685823970308 -0.28617180311328722 0 0.1297815624042809 -0.2736575891249427 0 0.13700019627110691 -0.28010887599260748 0 0.1297815624042809 -0.2736575891249427 0 0.12999280966638771 -0.26432786528260938 0 0.1195420446226967 -0.26902419949671469 0 0.1297815624042809 -0.2736575891249427 0 0.12999280966638771 -0.26432786528260938 0 0.14225502153555411 -0.26691746256266219 0 0.1297815624042809 -0.2736575891249427 0 0.13700019627110691 -0.28010887599260748 0 0.14225502153555411 -0.26691746256266219 0 0.14225502153555411 -0.26691746256266219 0 0.11962756801174911 -0.25778822566704868 0 0.12999280966638771 -0.26432786528260938 0 0.14225502153555411 -0.26691746256266219 0 0.11962756801174911 -0.25778822566704868 0 0.13332465569580021 -0.25696026307819608 0 0.14225502153555411 -0.26691746256266219 0 0.11962756801174911 -0.25778822566704868 0 0.1265736553547038 -0.25375209061515241 0 0.1200765022515741 -0.24927850493146661 0 0.13164938523525449 -0.24843784611654959 0 0.1265736553547038 -0.25375209061515241 0 0.13332465569580021 -0.25696026307819608 0 0.11962756801174911 -0.25778822566704868 0 0.1265736553547038 -0.25375209061515241 0 0.13332465569580021 -0.25696026307819608 0 0.13164938523525449 -0.24843784611654959 0 0.13332465569580021 -0.25696026307819608 0 0.1432846278928647 -0.25281864509487117 0 0.14225502153555411 -0.26691746256266219 0 0.13332465569580021 -0.25696026307819608 0 0.1432846278928647 -0.25281864509487117 0 0.13164938523525449 -0.24843784611654959 0 0.1432846278928647 -0.25281864509487117 0 0.15734539887511531 -0.26154374963173072 0 0.15396261507686049 -0.24368433993276239 0 0.1432846278928647 -0.25281864509487117 0 0.14225502153555411 -0.26691746256266219 0 0.15734539887511531 -0.26154374963173072 0 0.14225502153555411 -0.26691746256266219 0 0.16488247505935921 -0.27604669945827559 0 0.1473080277738826 -0.28220418930035029 0 0.14225502153555411 -0.26691746256266219 0 0.16488247505935921 -0.27604669945827559 0 0.14225502153555411 -0.26691746256266219 0 0.16488247505935921 -0.27604669945827559 0 0.15734539887511531 -0.26154374963173072 0 0.1473080277738826 -0.28220418930035029 0 0.13700019627110691 -0.28010887599260748 0 0.14225502153555411 -0.26691746256266219 0 0.16488247505935921 -0.27604669945827559 0 0.15734539887511531 -0.26154374963173072 0 0.17734092357746781 -0.26785087291400772 0 0.1695190053705353 -0.25500353607263387 0 0.15734539887511531 -0.26154374963173072 0 0.15396261507686049 -0.24368433993276239 0 0.1695190053705353 -0.25500353607263387 0 0.15734539887511531 -0.26154374963173072 0 0.17734092357746781 -0.26785087291400772 0 0.18864195926146179 -0.25778901709164648 0 0.1695190053705353 -0.25500353607263387 0 0.1819569641919582 -0.24054432707074991 0 0.18864195926146179 -0.25778901709164648 0 0.1695190053705353 -0.25500353607263387 0 0.17734092357746781 -0.26785087291400772 0 0.1875099285831644 -0.28517593635388933 0 0.16488247505935921 -0.27604669945827559 0 0.19211108626748519 -0.27150070125308828 0 0.1875099285831644 -0.28517593635388933 0 0.17734092357746781 -0.26785087291400772 0 0.1875099285831644 -0.28517593635388933 0 0.16488247505935921 -0.27604669945827559 0 0.17734092357746781 -0.26785087291400772 0 0.19211108626748519 -0.27150070125308828 0 0.18864195926146179 -0.25778901709164648 0 0.17734092357746781 -0.26785087291400772 0 0.1875099285831644 -0.28517593635388933 0 0.16488247505935921 -0.27604669945827559 0 0.17163339588888729 -0.29606060422770258 0 0.1835042501992738 -0.31106574418450711 0 0.16285152437735301 -0.31154404995930551 0 0.17163339588888729 -0.29606060422770258 0 0.1875099285831644 -0.28517593635388933 0 0.1835042501992738 -0.31106574418450711 0 0.17163339588888729 -0.29606060422770258 0 0.15569551495852541 -0.29349238983775072 0 0.16285152437735301 -0.31154404995930551 0 0.17163339588888729 -0.29606060422770258 0 0.15569551495852541 -0.29349238983775072 0 0.16488247505935921 -0.27604669945827559 0 0.17163339588888729 -0.29606060422770258 0 0.1970463093927983 -0.48598808991338788 0 0.18755895080547 -0.5 0 0.2129666651507115 -0.5 0 0.1970463093927983 -0.48598808991338788 0 0.19515454341809371 -0.46799444469872858 0 0.17766476478857321 -0.48328352522061668 0 0.1970463093927983 -0.48598808991338788 0 0.21188662280114279 -0.47866247964759451 0 0.19515454341809371 -0.46799444469872858 0 0.21188662280114279 -0.47866247964759451 0 0.2191140732701817 -0.46275526299113651 0 0.21188662280114279 -0.47866247964759451 0 0.20780448733076351 -0.46632833097189308 0 0.19515454341809371 -0.46799444469872858 0 0.21188662280114279 -0.47866247964759451 0 0.2191140732701817 -0.46275526299113651 0 0.20780448733076351 -0.46632833097189308 0 0.21188662280114279 -0.47866247964759451 0 0.2129666651507115 -0.5 0 0.2261768270313646 -0.48732469029783998 0 0.1970463093927983 -0.48598808991338788 0 0.21188662280114279 -0.47866247964759451 0 0.2129666651507115 -0.5 0 0.2129666651507115 -0.5 0 0.2261768270313646 -0.48732469029783998 0 0.23837437949595311 -0.49999999999999573 0 0.2261768270313646 -0.48732469029783998 0 0.23837437949595311 -0.49999999999999573 0 0.23787484124276431 -0.47884271918892768 0 0.26086651707277642 -0.48321773427978432 0 0.23837437949595311 -0.49999999999999573 0 0.24754846303622149 -0.48296439785234058 0 0.23837437949595311 -0.49999999999999573 0 0.24754846303622149 -0.48296439785234058 0 0.23787484124276431 -0.47884271918892768 0 0.26086651707277642 -0.48321773427978432 0 0.23837437949595311 -0.49999999999999573 0 0.25307811433339228 -0.46979713794065031 0 0.23787484124276431 -0.47884271918892768 0 0.235200053423991 -0.46456663066696741 0 0.25307811433339228 -0.46979713794065031 0 0.24754846303622149 -0.48296439785234058 0 0.23787484124276431 -0.47884271918892768 0 0.23787484124276431 -0.47884271918892768 0 0.22562200830019261 -0.47441859483440241 0 0.235200053423991 -0.46456663066696741 0 0.21188662280114279 -0.47866247964759451 0 0.22562200830019261 -0.47441859483440241 0 0.2191140732701817 -0.46275526299113651 0 0.2261768270313646 -0.48732469029783998 0 0.23787484124276431 -0.47884271918892768 0 0.22562200830019261 -0.47441859483440241 0 0.21188662280114279 -0.47866247964759451 0 0.2261768270313646 -0.48732469029783998 0 0.22562200830019261 -0.47441859483440241 0 0.2191140732701817 -0.46275526299113651 0 0.22634152373921901 -0.44684804633467778 0 0.21567730407786101 -0.45187281261858331 0 0.22562200830019261 -0.47441859483440241 0 0.2191140732701817 -0.46275526299113651 0 0.235200053423991 -0.46456663066696741 0 0.2191140732701817 -0.46275526299113651 0 0.22634152373921901 -0.44684804633467778 0 0.2191140732701817 -0.46275526299113651 0 0.235200053423991 -0.46456663066696741 0 0.22634152373921901 -0.44684804633467778 0 0.24932054627619191 -0.45474216183225569 0 0.235200053423991 -0.46456663066696741 0 0.22634152373921901 -0.44684804633467778 0 0.25307811433339228 -0.46979713794065031 0 0.24932054627619191 -0.45474216183225569 0 0.235200053423991 -0.46456663066696741 0 0.24932054627619191 -0.45474216183225569 0 0.22634152373921901 -0.44684804633467778 0 0.24200864242821979 -0.43632409249452919 0 0.25429639529336329 -0.43289227060042901 0 0.24932054627619191 -0.45474216183225569 0 0.24200864242821979 -0.43632409249452919 0 0.24932054627619191 -0.45474216183225569 0 0.22634152373921901 -0.44684804633467778 0 0.22634152373921901 -0.44684804633467778 0 0.21219090946840771 -0.44198680459840589 0 0.21219090946840771 -0.44198680459840589 0 0.20506270983363589 -0.45590113655011277 0 0.19577082451321759 -0.44363045396441692 0 0.22634152373921901 -0.44684804633467778 0 0.21219090946840771 -0.44198680459840589 0 0.2177094704368874 -0.43757817561519108 0 0.21219090946840771 -0.44198680459840589 0 0.2177094704368874 -0.43757817561519108 0 0.20456348517676959 -0.43506926568187082 0 0.21219090946840771 -0.44198680459840589 0 0.19577082451321759 -0.44363045396441692 0 0.20456348517676959 -0.43506926568187082 0 0.22634152373921901 -0.44684804633467778 0 0.21219090946840771 -0.44198680459840589 0 0.21567730407786101 -0.45187281261858331 0 0.21219090946840771 -0.44198680459840589 0 0.21567730407786101 -0.45187281261858331 0 0.20506270983363589 -0.45590113655011277 0 0.2191140732701817 -0.46275526299113651 0 0.21567730407786101 -0.45187281261858331 0 0.20506270983363589 -0.45590113655011277 0 0.2191140732701817 -0.46275526299113651 0 0.20780448733076351 -0.46632833097189308 0 0.20506270983363589 -0.45590113655011277 0 0.20506270983363589 -0.45590113655011277 0 0.18888054333841461 -0.45589884660534818 0 0.19515454341809371 -0.46799444469872858 0 0.20780448733076351 -0.46632833097189308 0 0.20506270983363589 -0.45590113655011277 0 0.19515454341809371 -0.46799444469872858 0 0.20506270983363589 -0.45590113655011277 0 0.18888054333841461 -0.45589884660534818 0 0.19577082451321759 -0.44363045396441692 0 0.21253760727054211 -0.42299708741024672 0 0.20456348517676959 -0.43506926568187082 0 0.18434312596501501 -0.43081896161683719 0 0.19435662819004801 -0.41644378155016032 0 0.21253760727054211 -0.42299708741024672 0 0.18434312596501501 -0.43081896161683719 0 0.19577082451321759 -0.44363045396441692 0 0.20456348517676959 -0.43506926568187082 0 0.18434312596501501 -0.43081896161683719 0 0.21253760727054211 -0.42299708741024672 0 0.18434312596501501 -0.43081896161683719 0 0.19435662819004801 -0.41644378155016032 0 0.19933640307000619 -0.39595255016697312 0 0.1787736624264761 -0.41403622400548262 0 0.19435662819004801 -0.41644378155016032 0 0.21253760727054211 -0.42299708741024672 0 0.19933640307000619 -0.39595255016697312 0 0.2177094704368874 -0.43757817561519108 0 0.21253760727054211 -0.42299708741024672 0 0.20456348517676959 -0.43506926568187082 0 0.2177094704368874 -0.43757817561519108 0 0.2381988518338731 -0.42075072643240569 0 0.2177094704368874 -0.43757817561519108 0 0.21253760727054211 -0.42299708741024672 0 0.2381988518338731 -0.42075072643240569 0 0.22634152373921901 -0.44684804633467778 0 0.2177094704368874 -0.43757817561519108 0 0.2381988518338731 -0.42075072643240569 0 0.22634152373921901 -0.44684804633467778 0 0.2381988518338731 -0.42075072643240569 0 0.22634152373921901 -0.44684804633467778 0 0.24200864242821979 -0.43632409249452919 0 0.2381988518338731 -0.42075072643240569 0 0.24200864242821979 -0.43632409249452919 0 0.24712708468846631 -0.42461779804007299 0 0.2381988518338731 -0.42075072643240569 0 0.25429639529336329 -0.43289227060042901 0 0.24200864242821979 -0.43632409249452919 0 0.24712708468846631 -0.42461779804007299 0 0.24073208857606959 -0.41517521320365702 0 0.24684603199547001 -0.40171876365560061 0 0.24715852901598831 -0.41339235335344282 0 0.24073208857606959 -0.41517521320365702 0 0.24684603199547001 -0.40171876365560061 0 0.24715852901598831 -0.41339235335344282 0 0.2381988518338731 -0.42075072643240569 0 0.24712708468846631 -0.42461779804007299 0 0.24715852901598831 -0.41339235335344282 0 0.2381988518338731 -0.42075072643240569 0 0.24715852901598831 -0.41339235335344282 0 0.24073208857606959 -0.41517521320365702 0 0.24073208857606959 -0.41517521320365702 0 0.2381988518338731 -0.42075072643240569 0 0.24715852901598831 -0.41339235335344282 0 0.24073208857606959 -0.41517521320365702 0 0.2381988518338731 -0.42075072643240569 0 0.24073208857606959 -0.41517521320365702 0 0.23145179649538161 -0.40634438337986922 0 0.24684603199547001 -0.40171876365560061 0 0.21253760727054211 -0.42299708741024672 0 0.24073208857606959 -0.41517521320365702 0 0.23145179649538161 -0.40634438337986922 0 0.21253760727054211 -0.42299708741024672 0 0.24073208857606959 -0.41517521320365702 0 0.21253760727054211 -0.42299708741024672 0 0.24073208857606959 -0.41517521320365702 0 0.2381988518338731 -0.42075072643240569 0 0.21253760727054211 -0.42299708741024672 0 0.23145179649538161 -0.40634438337986922 0 0.2207299877526446 -0.39888560688408758 0 0.23145179649538161 -0.40634438337986922 0 0.2207299877526446 -0.39888560688408758 0 0.23641326688218181 -0.39294524574575529 0 0.23145179649538161 -0.40634438337986922 0 0.23641326688218181 -0.39294524574575529 0 0.24684603199547001 -0.40171876365560061 0 0.25341829370851587 -0.39081368394957239 0 0.23641326688218181 -0.39294524574575529 0 0.24684603199547001 -0.40171876365560061 0 0.25341829370851587 -0.39081368394957239 0 0.23641326688218181 -0.39294524574575529 0 0.2436333884971312 -0.38169595188492073 0 0.24399418892849731 -0.37094226420446957 0 0.2436333884971312 -0.38169595188492073 0 0.21989914371353619 -0.37786887632846361 0 0.23641326688218181 -0.39294524574575529 0 0.2436333884971312 -0.38169595188492073 0 0.21989914371353619 -0.37786887632846361 0 0.2207299877526446 -0.39888560688408758 0 0.23641326688218181 -0.39294524574575529 0 0.21989914371353619 -0.37786887632846361 0 0.21989914371353619 -0.37786887632846361 0 0.19933640307000619 -0.39595255016697312 0 0.20164182133087061 -0.37789316212646579 0 0.21989914371353619 -0.37786887632846361 0 0.19933640307000619 -0.39595255016697312 0 0.2207299877526446 -0.39888560688408758 0 0.21989914371353619 -0.37786887632846361 0 0.19933640307000619 -0.39595255016697312 0 0.21253760727054211 -0.42299708741024672 0 0.2207299877526446 -0.39888560688408758 0 0.19933640307000619 -0.39595255016697312 0 0.19933640307000619 -0.39595255016697312 0 0.1787736624264761 -0.41403622400548262 0 0.19933640307000619 -0.39595255016697312 0 0.20164182133087061 -0.37789316212646579 0 0.1842999212798393 -0.37632834622226208 0 0.19933640307000619 -0.39595255016697312 0 0.1842999212798393 -0.37632834622226208 0 0.17872631024231611 -0.39324971374357731 0 0.16752407648589271 -0.37357165753381649 0 0.1842999212798393 -0.37632834622226208 0 0.17872631024231611 -0.39324971374357731 0 0.19933640307000619 -0.39595255016697312 0 0.17872631024231611 -0.39324971374357731 0 0.1787736624264761 -0.41403622400548262 0 0.17872631024231611 -0.39324971374357731 0 0.16978730014287149 -0.40366338609520619 0 0.1787736624264761 -0.41403622400548262 0 0.17872631024231611 -0.39324971374357731 0 0.16978730014287149 -0.40366338609520619 0 0.15918180793946751 -0.39050730833732078 0 0.16978730014287149 -0.40366338609520619 0 0.15699090100593319 -0.40560589560693328 0 0.15918180793946751 -0.39050730833732078 0 0.16752407648589271 -0.37357165753381649 0 0.17872631024231611 -0.39324971374357731 0 0.15918180793946751 -0.39050730833732078 0 0.16752407648589271 -0.37357165753381649 0 0.15267784527322559 -0.37038339340826087 0 0.15918180793946751 -0.39050730833732078 0 0.15267784527322559 -0.37038339340826087 0 0.15918180793946751 -0.39050730833732078 0 0.14327575248377769 -0.38209800658698612 0 0.15918180793946751 -0.39050730833732078 0 0.14327575248377769 -0.38209800658698612 0 0.1483656464362747 -0.39746760184351881 0 0.1259045056034053 -0.37129264638725462 0 0.13563079531943359 -0.3986611087348011 0 0.1237418929809718 -0.39523367077538119 0 0.1259045056034053 -0.37129264638725462 0 0.14327575248377769 -0.38209800658698612 0 0.13563079531943359 -0.3986611087348011 0 0.1259045056034053 -0.37129264638725462 0 0.13563079531943359 -0.3986611087348011 0 0.13563079531943359 -0.3986611087348011 0 0.13767017367311529 -0.41756842320304388 0 0.1237418929809718 -0.39523367077538119 0 0.13563079531943359 -0.3986611087348011 0 0.1483656464362747 -0.39746760184351881 0 0.14743629691192331 -0.40934442213973249 0 0.14327575248377769 -0.38209800658698612 0 0.13563079531943359 -0.3986611087348011 0 0.1483656464362747 -0.39746760184351881 0 0.15699090100593319 -0.40560589560693328 0 0.15918180793946751 -0.39050730833732078 0 0.1483656464362747 -0.39746760184351881 0 0.15699090100593319 -0.40560589560693328 0 0.1483656464362747 -0.39746760184351881 0 0.14743629691192331 -0.40934442213973249 0 0.15380106264132079 -0.41685621623849028 0 0.14743629691192331 -0.40934442213973249 0 0.1453570850354618 -0.42602957108234751 0 0.15699090100593319 -0.40560589560693328 0 0.15380106264132079 -0.41685621623849028 0 0.14743629691192331 -0.40934442213973249 0 0.13563079531943359 -0.3986611087348011 0 0.14743629691192331 -0.40934442213973249 0 0.1453570850354618 -0.42602957108234751 0 0.13563079531943359 -0.3986611087348011 0 0.13767017367311529 -0.41756842320304388 0 0.1453570850354618 -0.42602957108234751 0 0.13563079531943359 -0.3986611087348011 0 0.1453570850354618 -0.42602957108234751 0 0.13767017367311529 -0.41756842320304388 0 0.1200152787403255 -0.4130679590661156 0 0.1237418929809718 -0.39523367077538119 0 0.13767017367311529 -0.41756842320304388 0 0.1237418929809718 -0.39523367077538119 0 0.13767017367311529 -0.41756842320304388 0 0.12640916916308151 -0.42486480513064501 0 0.1200152787403255 -0.4130679590661156 0 0.12640916916308151 -0.42486480513064501 0 0.14129966564432411 -0.43074498702325231 0 0.13036329189404491 -0.44073681571632051 0 0.13767017367311529 -0.41756842320304388 0 0.12640916916308151 -0.42486480513064501 0 0.14129966564432411 -0.43074498702325231 0 0.14129966564432411 -0.43074498702325231 0 0.1410672452508131 -0.4397181682102681 0 0.13036329189404491 -0.44073681571632051 0 0.13767017367311529 -0.41756842320304388 0 0.1453570850354618 -0.42602957108234751 0 0.15159845436526051 -0.43990317563070552 0 0.13767017367311529 -0.41756842320304388 0 0.14129966564432411 -0.43074498702325231 0 0.15159845436526051 -0.43990317563070552 0 0.14129966564432411 -0.43074498702325231 0 0.15159845436526051 -0.43990317563070552 0 0.1410672452508131 -0.4397181682102681 0 0.13767017367311529 -0.41756842320304388 0 0.15159845436526051 -0.43990317563070552 0 0.15380106264132079 -0.41685621623849028 0 0.1453570850354618 -0.42602957108234751 0 0.154278367311946 -0.42762043608189698 0 0.1453570850354618 -0.42602957108234751 0 0.154278367311946 -0.42762043608189698 0 0.15159845436526051 -0.43990317563070552 0 0.154278367311946 -0.42762043608189698 0 0.15673441871097171 -0.43341839206896021 0 0.15159845436526051 -0.43990317563070552 0 0.15673441871097171 -0.43341839206896021 0 0.1561486446594875 -0.43864083582342611 0 0.15159845436526051 -0.43990317563070552 0 0.154278367311946 -0.42762043608189698 0 0.1582109217829463 -0.43211989784399252 0 0.1633732919637412 -0.41579643898733082 0 0.1582109217829463 -0.43211989784399252 0 0.1787736624264761 -0.41403622400548262 0 0.1582109217829463 -0.43211989784399252 0 0.1693690887084813 -0.428903979822435 0 0.1787736624264761 -0.41403622400548262 0 0.1582109217829463 -0.43211989784399252 0 0.1561486446594875 -0.43864083582342611 0 0.1582109217829463 -0.43211989784399252 0 0.1633732919637412 -0.41579643898733082 0 0.1693690887084813 -0.428903979822435 0 0.18434312596501501 -0.43081896161683719 0 0.1561486446594875 -0.43864083582342611 0 0.18434312596501501 -0.43081896161683719 0 0.1561486446594875 -0.43864083582342611 0 0.1582109217829463 -0.43211989784399252 0 0.1693690887084813 -0.428903979822435 0 0.1561486446594875 -0.43864083582342611 0 0.15673441871097171 -0.43341839206896021 0 0.1582109217829463 -0.43211989784399252 0 0.1561486446594875 -0.43864083582342611 0 0.154278367311946 -0.42762043608189698 0 0.15673441871097171 -0.43341839206896021 0 0.1582109217829463 -0.43211989784399252 0 0.15673441871097171 -0.43341839206896021 0 0.1582109217829463 -0.43211989784399252 0 0.15380106264132079 -0.41685621623849028 0 0.154278367311946 -0.42762043608189698 0 0.1633732919637412 -0.41579643898733082 0 0.1582109217829463 -0.43211989784399252 0 0.1633732919637412 -0.41579643898733082 0 0.1787736624264761 -0.41403622400548262 0 0.16978730014287149 -0.40366338609520619 0 0.15699090100593319 -0.40560589560693328 0 0.1633732919637412 -0.41579643898733082 0 0.15699090100593319 -0.40560589560693328 0 0.15380106264132079 -0.41685621623849028 0 0.1633732919637412 -0.41579643898733082 0 0.16978730014287149 -0.40366338609520619 0 0.1633732919637412 -0.41579643898733082 0 0.1787736624264761 -0.41403622400548262 0 0.19435662819004801 -0.41644378155016032 0 0.1787736624264761 -0.41403622400548262 0 0.18434312596501501 -0.43081896161683719 0 0.1693690887084813 -0.428903979822435 0 0.1787736624264761 -0.41403622400548262 0 0.18434312596501501 -0.43081896161683719 0 0.18888054333841461 -0.45589884660534818 0 0.19577082451321759 -0.44363045396441692 0 0.17639569044603581 -0.44716410109437321 0 0.19577082451321759 -0.44363045396441692 0 0.18434312596501501 -0.43081896161683719 0 0.17639569044603581 -0.44716410109437321 0 0.18434312596501501 -0.43081896161683719 0 0.17639569044603581 -0.44716410109437321 0 0.1561486446594875 -0.43864083582342611 0 0.19515454341809371 -0.46799444469872858 0 0.17201894848109001 -0.46480409671910961 0 0.18888054333841461 -0.45589884660534818 0 0.17639569044603581 -0.44716410109437321 0 0.17201894848109001 -0.46480409671910961 0 0.18888054333841461 -0.45589884660534818 0 0.19515454341809371 -0.46799444469872858 0 0.17201894848109001 -0.46480409671910961 0 0.17201894848109001 -0.46480409671910961 0 0.1586929004552195 -0.45127950416205548 0 0.14888335354408611 -0.46161374873949418 0 0.17201894848109001 -0.46480409671910961 0 0.14888335354408611 -0.46161374873949418 0 0.17201894848109001 -0.46480409671910961 0 0.14888335354408611 -0.46161374873949418 0 0.16045080522720831 -0.47822576093624919 0 0.17639569044603581 -0.44716410109437321 0 0.17201894848109001 -0.46480409671910961 0 0.1586929004552195 -0.45127950416205548 0 0.17639569044603581 -0.44716410109437321 0 0.1586929004552195 -0.45127950416205548 0 0.1561486446594875 -0.43864083582342611 0 0.1586929004552195 -0.45127950416205548 0 0.154352672845084 -0.44431971412804688 0 0.1586929004552195 -0.45127950416205548 0 0.1561486446594875 -0.43864083582342611 0 0.154352672845084 -0.44431971412804688 0 0.1561486446594875 -0.43864083582342611 0 0.154352672845084 -0.44431971412804688 0 0.15159845436526051 -0.43990317563070552 0 0.1586929004552195 -0.45127950416205548 0 0.154352672845084 -0.44431971412804688 0 0.14888335354408611 -0.46161374873949418 0 0.154352672845084 -0.44431971412804688 0 0.141213024959744 -0.44743069573137989 0 0.14888335354408611 -0.46161374873949418 0 0.154352672845084 -0.44431971412804688 0 0.15159845436526051 -0.43990317563070552 0 0.141213024959744 -0.44743069573137989 0 0.1561486446594875 -0.43864083582342611 0 0.15159845436526051 -0.43990317563070552 0 0.154352672845084 -0.44431971412804688 0 0.14888335354408611 -0.46161374873949418 0 0.1561486446594875 -0.43864083582342611 0 0.154352672845084 -0.44431971412804688 0 0.154352672845084 -0.44431971412804688 0 0.15159845436526051 -0.43990317563070552 0 0.15159845436526051 -0.43990317563070552 0 0.141213024959744 -0.44743069573137989 0 0.1410672452508131 -0.4397181682102681 0 0.141213024959744 -0.44743069573137989 0 0.13036329189404491 -0.44073681571632051 0 0.12042402666212471 -0.45768926975952878 0 0.141213024959744 -0.44743069573137989 0 0.1410672452508131 -0.4397181682102681 0 0.13036329189404491 -0.44073681571632051 0 0.141213024959744 -0.44743069573137989 0 0.14888335354408611 -0.46161374873949418 0 0.12042402666212471 -0.45768926975952878 0 0.14888335354408611 -0.46161374873949418 0 0.14281343782953679 -0.48080687436974689 0 0.12042402666212471 -0.45768926975952878 0 0.14888335354408611 -0.46161374873949418 0 0.12042402666212471 -0.45768926975952878 0 0.14888335354408611 -0.46161374873949418 0 0.14281343782953679 -0.48080687436974689 0 0.14888335354408611 -0.46161374873949418 0 0.14281343782953679 -0.48080687436974689 0 0.16045080522720831 -0.47822576093624919 0 0.14281343782953679 -0.48080687436974689 0 0.1209058754389104 -0.47962347902707592 0 0.12042402666212471 -0.45768926975952878 0 0.14281343782953679 -0.48080687436974689 0 0.13674352211498719 -0.49999999999999939 0 0.1209058754389104 -0.47962347902707592 0 0.14281343782953679 -0.48080687436974689 0 0.13674352211498719 -0.49999999999999939 0 0.14281343782953679 -0.48080687436974689 0 0.16215123646022869 -0.5 0 0.16045080522720831 -0.47822576093624919 0 0.14281343782953679 -0.48080687436974689 0 0.13674352211498719 -0.49999999999999939 0 0.16215123646022869 -0.5 0 0.16215123646022869 -0.5 0 0.16045080522720831 -0.47822576093624919 0 0.17766476478857321 -0.48328352522061668 0 0.17201894848109001 -0.46480409671910961 0 0.16045080522720831 -0.47822576093624919 0 0.17766476478857321 -0.48328352522061668 0 0.19515454341809371 -0.46799444469872858 0 0.17201894848109001 -0.46480409671910961 0 0.17766476478857321 -0.48328352522061668 0 0.1970463093927983 -0.48598808991338788 0 0.18755895080547 -0.5 0 0.17766476478857321 -0.48328352522061668 0 0.18755895080547 -0.5 0 0.16215123646022869 -0.5 0 0.17766476478857321 -0.48328352522061668 0 0.072789962238361858 -0.48266869740731527 0 0.088803038019873118 -0.49999999999999872 0 0.060016232289615827 -0.5 0 0.063185972889366671 -0.48368328753081091 0 0.072789962238361858 -0.48266869740731527 0 0.060016232289615827 -0.5 0 0.072789962238361858 -0.48266869740731527 0 0.056776886456849952 -0.4653373948146326 0 0.072789962238361858 -0.48266869740731527 0 0.067675636021524932 -0.46735128107574481 0 0.056776886456849952 -0.4653373948146326 0 0.063185972889366671 -0.48368328753081091 0 0.072789962238361858 -0.48266869740731527 0 0.056776886456849952 -0.4653373948146326 0 0.077129321792050787 -0.47259043411762208 0 0.072789962238361858 -0.48266869740731527 0 0.067675636021524932 -0.46735128107574481 0 0.077129321792050787 -0.47259043411762208 0 0.094912783153783778 -0.47653271355510041 0 0.078474270569203725 -0.46287064381374271 0 0.077129321792050787 -0.47259043411762208 0 0.072789962238361858 -0.48266869740731527 0 0.094912783153783778 -0.47653271355510041 0 0.072789962238361858 -0.48266869740731527 0 0.088803038019873118 -0.49999999999999872 0 0.094912783153783778 -0.47653271355510041 0 0.072789962238361858 -0.48266869740731527 0 0.088803038019873118 -0.49999999999999872 0 0.088803038019873118 -0.49999999999999872 0 0.11277328006743011 -0.5 0 0.094912783153783778 -0.47653271355510041 0 0.13674352211498719 -0.49999999999999939 0 0.11277328006743011 -0.5 0 0.1209058754389104 -0.47962347902707592 0 0.11277328006743011 -0.5 0 0.1209058754389104 -0.47962347902707592 0 0.094912783153783778 -0.47653271355510041 0 0.1209058754389104 -0.47962347902707592 0 0.094912783153783778 -0.47653271355510041 0 0.12042402666212471 -0.45768926975952878 0 0.094912783153783778 -0.47653271355510041 0 0.12042402666212471 -0.45768926975952878 0 0.09196469978016264 -0.45376479077956688 0 0.12042402666212471 -0.45768926975952878 0 0.09196469978016264 -0.45376479077956688 0 0.13036329189404491 -0.44073681571632051 0 0.12042402666212471 -0.45768926975952878 0 0.1111492157829856 -0.43877679035379469 0 0.1111492157829856 -0.43877679035379469 0 0.09196469978016264 -0.45376479077956688 0 0.089327342063754936 -0.4340617707019544 0 0.12042402666212471 -0.45768926975952878 0 0.1111492157829856 -0.43877679035379469 0 0.09196469978016264 -0.45376479077956688 0 0.078458343150504747 -0.44889060633614319 0 0.09196469978016264 -0.45376479077956688 0 0.089327342063754936 -0.4340617707019544 0 0.094912783153783778 -0.47653271355510041 0 0.09196469978016264 -0.45376479077956688 0 0.078474270569203725 -0.46287064381374271 0 0.078458343150504747 -0.44889060633614319 0 0.09196469978016264 -0.45376479077956688 0 0.078474270569203725 -0.46287064381374271 0 0.078458343150504747 -0.44889060633614319 0 0.078474270569203725 -0.46287064381374271 0 0.06702684164798331 -0.45530170564966749 0 0.077129321792050787 -0.47259043411762208 0 0.078474270569203725 -0.46287064381374271 0 0.067675636021524932 -0.46735128107574481 0 0.078474270569203725 -0.46287064381374271 0 0.067675636021524932 -0.46735128107574481 0 0.06702684164798331 -0.45530170564966749 0 0.067675636021524932 -0.46735128107574481 0 0.06702684164798331 -0.45530170564966749 0 0.056776886456849952 -0.4653373948146326 0 0.06702684164798331 -0.45530170564966749 0 0.066415934266543644 -0.43731607980827492 0 0.05602101658097916 -0.44977325469705098 0 0.078458343150504747 -0.44889060633614319 0 0.066415934266543644 -0.43731607980827492 0 0.089327342063754936 -0.4340617707019544 0 0.078458343150504747 -0.44889060633614319 0 0.06702684164798331 -0.45530170564966749 0 0.066415934266543644 -0.43731607980827492 0 0.066415934266543644 -0.43731607980827492 0 0.064102687270071609 -0.41620415719204379 0 0.079239877487680049 -0.41780022989094462 0 0.064102687270071609 -0.41620415719204379 0 0.079239877487680049 -0.41780022989094462 0 0.072154298795500588 -0.39347695622031131 0 0.079239877487680049 -0.41780022989094462 0 0.089327342063754936 -0.4340617707019544 0 0.094267082393465304 -0.41099912899393598 0 0.079239877487680049 -0.41780022989094462 0 0.094267082393465304 -0.41099912899393598 0 0.072154298795500588 -0.39347695622031131 0 0.066415934266543644 -0.43731607980827492 0 0.079239877487680049 -0.41780022989094462 0 0.089327342063754936 -0.4340617707019544 0 0.089327342063754936 -0.4340617707019544 0 0.10862654139365099 -0.4210789225910484 0 0.094267082393465304 -0.41099912899393598 0 0.1111492157829856 -0.43877679035379469 0 0.089327342063754936 -0.4340617707019544 0 0.10862654139365099 -0.4210789225910484 0 0.12640916916308151 -0.42486480513064501 0 0.13036329189404491 -0.44073681571632051 0 0.1111492157829856 -0.43877679035379469 0 0.12640916916308151 -0.42486480513064501 0 0.1111492157829856 -0.43877679035379469 0 0.10862654139365099 -0.4210789225910484 0 0.1200152787403255 -0.4130679590661156 0 0.10862654139365099 -0.4210789225910484 0 0.10856642976534921 -0.40349649005162441 0 0.12640916916308151 -0.42486480513064501 0 0.1200152787403255 -0.4130679590661156 0 0.10862654139365099 -0.4210789225910484 0 0.10862654139365099 -0.4210789225910484 0 0.094267082393465304 -0.41099912899393598 0 0.10856642976534921 -0.40349649005162441 0 0.094267082393465304 -0.41099912899393598 0 0.096366335752402471 -0.39199710620531869 0 0.10856642976534921 -0.40349649005162441 0 0.096366335752402471 -0.39199710620531869 0 0.10856642976534921 -0.40349649005162441 0 0.1083814473312792 -0.38860215267794662 0 0.1200152787403255 -0.4130679590661156 0 0.10856642976534921 -0.40349649005162441 0 0.1237418929809718 -0.39523367077538119 0 0.10856642976534921 -0.40349649005162441 0 0.1237418929809718 -0.39523367077538119 0 0.1083814473312792 -0.38860215267794662 0 0.1237418929809718 -0.39523367077538119 0 0.1098136122888283 -0.37289891834771871 0 0.1259045056034053 -0.37129264638725462 0 0.1237418929809718 -0.39523367077538119 0 0.1098136122888283 -0.37289891834771871 0 0.1237418929809718 -0.39523367077538119 0 0.1083814473312792 -0.38860215267794662 0 0.1098136122888283 -0.37289891834771871 0 0.1083814473312792 -0.38860215267794662 0 0.098656767851937957 -0.38026287175695478 0 0.1098136122888283 -0.37289891834771871 0 0.096366335752402471 -0.39199710620531869 0 0.1083814473312792 -0.38860215267794662 0 0.098656767851937957 -0.38026287175695478 0 0.096366335752402471 -0.39199710620531869 0 0.098656767851937957 -0.38026287175695478 0 0.087700803785138948 -0.37970068830954989 0 0.096366335752402471 -0.39199710620531869 0 0.087700803785138948 -0.37970068830954989 0 0.072154298795500588 -0.39347695622031131 0 0.087700803785138948 -0.37970068830954989 0 0.072154298795500588 -0.39347695622031131 0 0.075602558716538051 -0.37591242432379601 0 0.098656767851937957 -0.38026287175695478 0 0.087700803785138948 -0.37970068830954989 0 0.091021640102040849 -0.36811549324423981 0 0.094267082393465304 -0.41099912899393598 0 0.096366335752402471 -0.39199710620531869 0 0.072154298795500588 -0.39347695622031131 0 0.064102687270071609 -0.41620415719204379 0 0.072154298795500588 -0.39347695622031131 0 0.052447256190080803 -0.40614555611839698 0 0.072154298795500588 -0.39347695622031131 0 0.075602558716538051 -0.37591242432379601 0 0.06211448606783166 -0.37742951142136799 0 0.06211448606783166 -0.37742951142136799 0 0.048616630968929937 -0.38866198041590427 0 0.044227166254277139 -0.37166464435621449 0 0.072154298795500588 -0.39347695622031131 0 0.06211448606783166 -0.37742951142136799 0 0.048616630968929937 -0.38866198041590427 0 0.072154298795500588 -0.39347695622031131 0 0.052447256190080803 -0.40614555611839698 0 0.072154298795500588 -0.39347695622031131 0 0.048616630968929937 -0.38866198041590427 0 0.052447256190080803 -0.40614555611839698 0 0.048616630968929937 -0.38866198041590427 0 0.052447256190080803 -0.40614555611839698 0 0.033739367573348979 -0.40215390746236651 0 0.048616630968929937 -0.38866198041590427 0 0.033739367573348979 -0.40215390746236651 0 0.03014315670401254 -0.38578189341499769 0 0.048616630968929937 -0.38866198041590427 0 0.03014315670401254 -0.38578189341499769 0 0.044227166254277139 -0.37166464435621449 0 0.03014315670401254 -0.38578189341499769 0 0.044227166254277139 -0.37166464435621449 0 0.030525048031848669 -0.37006766897294502 0 0.03014315670401254 -0.38578189341499769 0 0.012491983896820489 -0.38653780688265182 0 0.01768458717897909 -0.3721860405676844 0 0.03014315670401254 -0.38578189341499769 0 0.01768458717897909 -0.3721860405676844 0 0.030525048031848669 -0.37006766897294502 0 0.012491983896820489 -0.38653780688265182 0 0.01768458717897909 -0.3721860405676844 0 0.0072425025860136799 -0.37218345809511222 0 -0.0030581811643707242 -0.38556136841543798 0 0.012491983896820489 -0.38653780688265182 0 0.0068965194962131732 -0.39975189355206808 0 -0.0030581811643707242 -0.38556136841543798 0 0.012491983896820489 -0.38653780688265182 0 0.0072425025860136799 -0.37218345809511222 0 0.012491983896820489 -0.38653780688265182 0 0.0068965194962131732 -0.39975189355206808 0 0.018486824040193289 -0.40097102959121261 0 0.0068965194962131732 -0.39975189355206808 0 0.018486824040193289 -0.40097102959121261 0 0.011145429274193101 -0.41245479534463569 0 0.03014315670401254 -0.38578189341499769 0 0.012491983896820489 -0.38653780688265182 0 0.018486824040193289 -0.40097102959121261 0 0.033739367573348979 -0.40215390746236651 0 0.03014315670401254 -0.38578189341499769 0 0.018486824040193289 -0.40097102959121261 0 0.033739367573348979 -0.40215390746236651 0 0.018486824040193289 -0.40097102959121261 0 0.022230812693951909 -0.41255603665500162 0 0.033739367573348979 -0.40215390746236651 0 0.022230812693951909 -0.41255603665500162 0 0.032740213584661088 -0.41881415601648259 0 0.022230812693951909 -0.41255603665500162 0 0.01303317097924183 -0.43148275591456903 0 0.032740213584661088 -0.41881415601648259 0 0.018486824040193289 -0.40097102959121261 0 0.022230812693951909 -0.41255603665500162 0 0.011145429274193101 -0.41245479534463569 0 -0.004035125738377515 -0.41371756377156321 0 0.011145429274193101 -0.41245479534463569 0 0.01303317097924183 -0.43148275591456903 0 0.022230812693951909 -0.41255603665500162 0 0.011145429274193101 -0.41245479534463569 0 0.01303317097924183 -0.43148275591456903 0 -0.004035125738377515 -0.41371756377156321 0 0.0068965194962131732 -0.39975189355206808 0 0.011145429274193101 -0.41245479534463569 0 -0.004754487519860259 -0.43445005094644579 0 0.01303317097924183 -0.43148275591456903 0 0.00083590723546803081 -0.43932372207652282 0 -0.004035125738377515 -0.41371756377156321 0 0.01303317097924183 -0.43148275591456903 0 -0.004035125738377515 -0.41371756377156321 0 -0.004754487519860259 -0.43445005094644579 0 0.01303317097924183 -0.43148275591456903 0 0.01303317097924183 -0.43148275591456903 0 0.00083590723546803081 -0.43932372207652282 0 0.01303317097924183 -0.43148275591456903 0 0.0247507348938262 -0.43067478962926731 0 0.029142867857186231 -0.44825020876221239 0 0.01303317097924183 -0.43148275591456903 0 0.0247507348938262 -0.43067478962926731 0 0.032740213584661088 -0.41881415601648259 0 0.01303317097924183 -0.43148275591456903 0 0.032740213584661088 -0.41881415601648259 0 0.039582900473979367 -0.43295106517522719 0 0.032740213584661088 -0.41881415601648259 0 0.050256069610552942 -0.42628196392229162 0 0.0247507348938262 -0.43067478962926731 0 0.039582900473979367 -0.43295106517522719 0 0.040763810675338068 -0.44800609222194993 0 0.039582900473979367 -0.43295106517522719 0 0.050256069610552942 -0.42628196392229162 0 0.050263868402632889 -0.43946930057101202 0 0.0247507348938262 -0.43067478962926731 0 0.039582900473979367 -0.43295106517522719 0 0.032740213584661088 -0.41881415601648259 0 0.052447256190080803 -0.40614555611839698 0 0.032740213584661088 -0.41881415601648259 0 0.050256069610552942 -0.42628196392229162 0 0.052447256190080803 -0.40614555611839698 0 0.033739367573348979 -0.40215390746236651 0 0.032740213584661088 -0.41881415601648259 0 0.052447256190080803 -0.40614555611839698 0 0.032740213584661088 -0.41881415601648259 0 0.064102687270071609 -0.41620415719204379 0 0.052447256190080803 -0.40614555611839698 0 0.050256069610552942 -0.42628196392229162 0 0.066415934266543644 -0.43731607980827492 0 0.050256069610552942 -0.42628196392229162 0 0.050263868402632889 -0.43946930057101202 0 0.066415934266543644 -0.43731607980827492 0 0.064102687270071609 -0.41620415719204379 0 0.050256069610552942 -0.42628196392229162 0 0.066415934266543644 -0.43731607980827492 0 0.050263868402632889 -0.43946930057101202 0 0.05602101658097916 -0.44977325469705098 0 0.050263868402632889 -0.43946930057101202 0 0.05602101658097916 -0.44977325469705098 0 0.040763810675338068 -0.44800609222194993 0 0.06702684164798331 -0.45530170564966749 0 0.05602101658097916 -0.44977325469705098 0 0.056776886456849952 -0.4653373948146326 0 0.05602101658097916 -0.44977325469705098 0 0.056776886456849952 -0.4653373948146326 0 0.040763810675338068 -0.44800609222194993 0 0.056776886456849952 -0.4653373948146326 0 0.049236763662587377 -0.4641737193420778 0 0.040763810675338068 -0.44800609222194993 0 0.056776886456849952 -0.4653373948146326 0 0.040763810675338068 -0.44800609222194993 0 0.049236763662587377 -0.4641737193420778 0 0.045252564735131409 -0.46501766160985508 0 0.049236763662587377 -0.4641737193420778 0 0.045252564735131409 -0.46501766160985508 0 0.040763810675338068 -0.44800609222194993 0 0.045252564735131409 -0.46501766160985508 0 0.029142867857186231 -0.44825020876221239 0 0.0195296768261526 -0.47046634345303268 0 0.045252564735131409 -0.46501766160985508 0 0.029142867857186231 -0.44825020876221239 0 0.045252564735131409 -0.46501766160985508 0 0.040763810675338068 -0.44800609222194993 0 0.029142867857186231 -0.44825020876221239 0 0.045252564735131409 -0.46501766160985508 0 0.0195296768261526 -0.47046634345303268 0 0.0247507348938262 -0.43067478962926731 0 0.040763810675338068 -0.44800609222194993 0 0.0247507348938262 -0.43067478962926731 0 0.040763810675338068 -0.44800609222194993 0 0.029142867857186231 -0.44825020876221239 0 0.039582900473979367 -0.43295106517522719 0 0.050263868402632889 -0.43946930057101202 0 0.040763810675338068 -0.44800609222194993 0 0.01303317097924183 -0.43148275591456903 0 0.029142867857186231 -0.44825020876221239 0 0.029142867857186231 -0.44825020876221239 0 0.01341982088000934 -0.44321406932975638 0 0.0106673374481414 -0.4537995905657215 0 0.01303317097924183 -0.43148275591456903 0 0.029142867857186231 -0.44825020876221239 0 0.01341982088000934 -0.44321406932975638 0 0.01303317097924183 -0.43148275591456903 0 0.01341982088000934 -0.44321406932975638 0 0.00083590723546803081 -0.43932372207652282 0 -0.005473849301343179 -0.45518253812132858 0 0.00083590723546803081 -0.43932372207652282 0 0.0106673374481414 -0.4537995905657215 0 0.01341982088000934 -0.44321406932975638 0 0.00083590723546803081 -0.43932372207652282 0 0.0106673374481414 -0.4537995905657215 0 -0.0061932110828259532 -0.47591502529621121 0 0.0106673374481414 -0.4537995905657215 0 0.0195296768261526 -0.47046634345303268 0 0.029142867857186231 -0.44825020876221239 0 0.0106673374481414 -0.4537995905657215 0 0.0195296768261526 -0.47046634345303268 0 -0.0061932110828259532 -0.47591502529621121 0 0.0195296768261526 -0.47046634345303268 0 0.0092662984364932626 -0.48518669974128548 0 -0.0061932110828259532 -0.47591502529621121 0 0.0195296768261526 -0.47046634345303268 0 -0.0066667916830795409 -0.48956393461245012 0 0.0092662984364932626 -0.48518669974128548 0 0.002442620829101056 -0.50000000000000178 0 0.0092662984364932626 -0.48518669974128548 0 0.002442620829101056 -0.50000000000000178 0 0.03122942655935845 -0.5 0 0.0195296768261526 -0.47046634345303268 0 0.0092662984364932626 -0.48518669974128548 0 0.03122942655935845 -0.5 0 0.0195296768261526 -0.47046634345303268 0 0.03122942655935845 -0.5 0 0.042842073228040178 -0.48267388185652821 0 0.03122942655935845 -0.5 0 0.049318426241595277 -0.49158929234683468 0 0.060016232289615827 -0.5 0 0.03122942655935845 -0.5 0 0.042842073228040178 -0.48267388185652821 0 0.049318426241595277 -0.49158929234683468 0 0.045252564735131409 -0.46501766160985508 0 0.0195296768261526 -0.47046634345303268 0 0.042842073228040178 -0.48267388185652821 0 0.063185972889366671 -0.48368328753081091 0 0.045252564735131409 -0.46501766160985508 0 0.063185972889366671 -0.48368328753081091 0 0.049236763662587377 -0.4641737193420778 0 0.045252564735131409 -0.46501766160985508 0 0.063185972889366671 -0.48368328753081091 0 0.056776886456849952 -0.4653373948146326 0 0.049236763662587377 -0.4641737193420778 0 0.063185972889366671 -0.48368328753081091 0 0.045252564735131409 -0.46501766160985508 0 0.042842073228040178 -0.48267388185652821 0 0.063185972889366671 -0.48368328753081091 0 0.049318426241595277 -0.49158929234683468 0 0.060016232289615827 -0.5 0 0.063185972889366671 -0.48368328753081091 0 0.042842073228040178 -0.48267388185652821 0 0.049318426241595277 -0.49158929234683468 0 0.083955672167439294 -0.29056075611514248 0 0.08375079235337729 -0.30264579198131553 0 0.072938773726351325 -0.29722271715831211 0 0.083955672167439294 -0.29056075611514248 0 0.07105573199593021 -0.28071579673008168 0 0.084100100674045344 -0.2765984542903604 0 0.083955672167439294 -0.29056075611514248 0 0.089397528739460316 -0.28459459049171532 0 0.084100100674045344 -0.2765984542903604 0 0.083955672167439294 -0.29056075611514248 0 0.089397528739460316 -0.28459459049171532 0 0.092726249116031861 -0.29077088546388602 0 0.089397528739460316 -0.28459459049171532 0 0.091847436295191195 -0.27853476882102879 0 0.095680432295423209 -0.28624619635648407 0 0.089397528739460316 -0.28459459049171532 0 0.092726249116031861 -0.29077088546388602 0 0.095680432295423209 -0.28624619635648407 0 0.083955672167439294 -0.29056075611514248 0 0.096855612338948585 -0.30040571550020301 0 0.083955672167439294 -0.29056075611514248 0 0.092726249116031861 -0.29077088546388602 0 0.096855612338948585 -0.30040571550020301 0 0.083955672167439294 -0.29056075611514248 0 0.08375079235337729 -0.30264579198131553 0 0.096855612338948585 -0.30040571550020301 0 0.08375079235337729 -0.30264579198131553 0 0.071392858796112957 -0.30958950707397243 0 0.093405941565543715 -0.31376225521366868 0 0.08375079235337729 -0.30264579198131553 0 0.096855612338948585 -0.30040571550020301 0 0.093405941565543715 -0.31376225521366868 0 0.08375079235337729 -0.30264579198131553 0 0.072938773726351325 -0.29722271715831211 0 0.071392858796112957 -0.30958950707397243 0 0.072938773726351325 -0.29722271715831211 0 0.071392858796112957 -0.30958950707397243 0 0.060785736810040847 -0.30147212534213619 0 0.072938773726351325 -0.29722271715831211 0 0.063569604108796682 -0.28993064852289813 0 0.07105573199593021 -0.28071579673008168 0 0.083955672167439294 -0.29056075611514248 0 0.072938773726351325 -0.29722271715831211 0 0.07105573199593021 -0.28071579673008168 0 0.072938773726351325 -0.29722271715831211 0 0.063569604108796682 -0.28993064852289813 0 0.060785736810040847 -0.30147212534213619 0 0.083955672167439294 -0.29056075611514248 0 0.07105573199593021 -0.28071579673008168 0 0.07105573199593021 -0.28071579673008168 0 0.076267614009582055 -0.25650745640901951 0 0.084100100674045344 -0.2765984542903604 0 0.07105573199593021 -0.28071579673008168 0 0.076267614009582055 -0.25650745640901951 0 0.058961650623864083 -0.26854832288116892 0 0.076267614009582055 -0.25650745640901951 0 0.051408134709254857 -0.2528888322209385 0 0.076267614009582055 -0.25650745640901951 0 0.10112709330990929 -0.26012608059710057 0 0.076267614009582055 -0.25650745640901951 0 0.10112709330990929 -0.26012608059710057 0 0.090523044507361691 -0.24772656680406999 0 0.076267614009582055 -0.25650745640901951 0 0.091370331725892179 -0.26850844902941218 0 0.10112709330990929 -0.26012608059710057 0 0.076267614009582055 -0.25650745640901951 0 0.084100100674045344 -0.2765984542903604 0 0.091370331725892179 -0.26850844902941218 0 0.084100100674045344 -0.2765984542903604 0 0.091370331725892179 -0.26850844902941218 0 0.091847436295191195 -0.27853476882102879 0 0.089397528739460316 -0.28459459049171532 0 0.084100100674045344 -0.2765984542903604 0 0.091847436295191195 -0.27853476882102879 0 0.109594608273822 -0.26777210354413861 0 0.1082942437636398 -0.28795756413146523 0 0.099434546674398869 -0.27608662472649259 0 0.10112709330990929 -0.26012608059710057 0 0.091847436295191195 -0.27853476882102879 0 0.099434546674398869 -0.27608662472649259 0 0.095680432295423209 -0.28624619635648407 0 0.091370331725892179 -0.26850844902941218 0 0.091847436295191195 -0.27853476882102879 0 0.099434546674398869 -0.27608662472649259 0 0.091370331725892179 -0.26850844902941218 0 0.099434546674398869 -0.27608662472649259 0 0.10112709330990929 -0.26012608059710057 0 0.099434546674398869 -0.27608662472649259 0 0.109594608273822 -0.26777210354413861 0 0.1082942437636398 -0.28795756413146523 0 0.099434546674398869 -0.27608662472649259 0 0.10112709330990929 -0.26012608059710057 0 0.109594608273822 -0.26777210354413861 0 0.10112709330990929 -0.26012608059710057 0 0.1165364884907263 -0.25910399926468969 0 0.1033737048225592 -0.23894076053741009 0 0.12999280966638771 -0.26432786528260938 0 0.10112709330990929 -0.26012608059710057 0 0.1195420446226967 -0.26902419949671469 0 0.12999280966638771 -0.26432786528260938 0 0.10112709330990929 -0.26012608059710057 0 0.1165364884907263 -0.25910399926468969 0 0.12999280966638771 -0.26432786528260938 0 0.10112709330990929 -0.26012608059710057 0 0.12999280966638771 -0.26432786528260938 0 0.1165364884907263 -0.25910399926468969 0 0.11962756801174911 -0.25778822566704868 0 0.1165364884907263 -0.25910399926468969 0 0.11962756801174911 -0.25778822566704868 0 0.1200765022515741 -0.24927850493146661 0 0.1265736553547038 -0.25375209061515241 0 0.11962756801174911 -0.25778822566704868 0 0.1200765022515741 -0.24927850493146661 0 0.1154865955164425 -0.27851012734960939 0 0.109594608273822 -0.26777210354413861 0 0.1082942437636398 -0.28795756413146523 0 0.10112709330990929 -0.26012608059710057 0 0.109594608273822 -0.26777210354413861 0 0.1195420446226967 -0.26902419949671469 0 0.1154865955164425 -0.27851012734960939 0 0.109594608273822 -0.26777210354413861 0 0.1195420446226967 -0.26902419949671469 0 0.1297815624042809 -0.2736575891249427 0 0.1195420446226967 -0.26902419949671469 0 0.12219308676426741 -0.27967318271272779 0 0.1154865955164425 -0.27851012734960939 0 0.1195420446226967 -0.26902419949671469 0 0.12219308676426741 -0.27967318271272779 0 0.1281685823970308 -0.28617180311328722 0 0.12219308676426741 -0.27967318271272779 0 0.1178089941577868 -0.28812358686300082 0 0.1154865955164425 -0.27851012734960939 0 0.12219308676426741 -0.27967318271272779 0 0.1178089941577868 -0.28812358686300082 0 0.1281685823970308 -0.28617180311328722 0 0.1178089941577868 -0.28812358686300082 0 0.1209347629788675 -0.29854924464306509 0 0.1178089941577868 -0.28812358686300082 0 0.1135903679773323 -0.29636038926047642 0 0.1209347629788675 -0.29854924464306509 0 0.1178089941577868 -0.28812358686300082 0 0.1135903679773323 -0.29636038926047642 0 0.1082942437636398 -0.28795756413146523 0 0.1154865955164425 -0.27851012734960939 0 0.1178089941577868 -0.28812358686300082 0 0.1082942437636398 -0.28795756413146523 0 0.099434546674398869 -0.27608662472649259 0 0.1082942437636398 -0.28795756413146523 0 0.097742000038886639 -0.29204716885588461 0 0.099434546674398869 -0.27608662472649259 0 0.097742000038886639 -0.29204716885588461 0 0.099434546674398869 -0.27608662472649259 0 0.097742000038886639 -0.29204716885588461 0 0.095680432295423209 -0.28624619635648407 0 0.1082942437636398 -0.28795756413146523 0 0.097742000038886639 -0.29204716885588461 0 0.1021478521340385 -0.30444464011116767 0 0.097742000038886639 -0.29204716885588461 0 0.096855612338948585 -0.30040571550020301 0 0.092726249116031861 -0.29077088546388602 0 0.097742000038886639 -0.29204716885588461 0 0.096855612338948585 -0.30040571550020301 0 0.097742000038886639 -0.29204716885588461 0 0.095680432295423209 -0.28624619635648407 0 0.092726249116031861 -0.29077088546388602 0 0.097742000038886639 -0.29204716885588461 0 0.095680432295423209 -0.28624619635648407 0 0.1082942437636398 -0.28795756413146523 0 0.1021478521340385 -0.30444464011116767 0 0.106993879253458 -0.30814302471879179 0 0.1082942437636398 -0.28795756413146523 0 0.106993879253458 -0.30814302471879179 0 0.1009819186052022 -0.31059004995965389 0 0.096855612338948585 -0.30040571550020301 0 0.1021478521340385 -0.30444464011116767 0 0.1009819186052022 -0.31059004995965389 0 0.096855612338948585 -0.30040571550020301 0 0.098627206178253518 -0.3130306026075409 0 0.096855612338948585 -0.30040571550020301 0 0.095257644144706652 -0.31547439446387793 0 0.093405941565543715 -0.31376225521366868 0 0.096855612338948585 -0.30040571550020301 0 0.095257644144706652 -0.31547439446387793 0 0.098627206178253518 -0.3130306026075409 0 0.096855612338948585 -0.30040571550020301 0 0.095257644144706652 -0.31547439446387793 0 0.097742000038886639 -0.29204716885588461 0 0.096855612338948585 -0.30040571550020301 0 0.1021478521340385 -0.30444464011116767 0 0.097742000038886639 -0.29204716885588461 0 0.1021478521340385 -0.30444464011116767 0 0.096855612338948585 -0.30040571550020301 0 0.1021478521340385 -0.30444464011116767 0 0.1009819186052022 -0.31059004995965389 0 0.1021478521340385 -0.30444464011116767 0 0.1064519261713488 -0.31655572169216201 0 0.106993879253458 -0.30814302471879179 0 0.1064519261713488 -0.31655572169216201 0 0.1021478521340385 -0.30444464011116767 0 0.1064519261713488 -0.31655572169216201 0 0.1021478521340385 -0.30444464011116767 0 0.106993879253458 -0.30814302471879179 0 0.1064519261713488 -0.31655572169216201 0 0.1021478521340385 -0.30444464011116767 0 0.106993879253458 -0.30814302471879179 0 0.106993879253458 -0.30814302471879179 0 0.1149057535173198 -0.30233728280025618 0 0.1185969007518263 -0.30795085100579012 0 0.1135903679773323 -0.29636038926047642 0 0.1082942437636398 -0.28795756413146523 0 0.106993879253458 -0.30814302471879179 0 0.106993879253458 -0.30814302471879179 0 0.1185969007518263 -0.30795085100579012 0 0.12230367674569891 -0.3198271358464933 0 0.1135903679773323 -0.29636038926047642 0 0.106993879253458 -0.30814302471879179 0 0.1149057535173198 -0.30233728280025618 0 0.1135903679773323 -0.29636038926047642 0 0.1149057535173198 -0.30233728280025618 0 0.1209347629788675 -0.29854924464306509 0 0.12951202051656341 -0.3067737877337271 0 0.1209347629788675 -0.29854924464306509 0 0.1185969007518263 -0.30795085100579012 0 0.1149057535173198 -0.30233728280025618 0 0.1209347629788675 -0.29854924464306509 0 0.1185969007518263 -0.30795085100579012 0 0.12951202051656341 -0.3067737877337271 0 0.1185969007518263 -0.30795085100579012 0 0.12230367674569891 -0.3198271358464933 0 0.106993879253458 -0.30814302471879179 0 0.12230367674569891 -0.3198271358464933 0 0.1064519261713488 -0.31655572169216201 0 0.12230367674569891 -0.3198271358464933 0 0.124250147290694 -0.33314899700300282 0 0.1064519261713488 -0.31655572169216201 0 0.106993879253458 -0.30814302471879179 0 0.12230367674569891 -0.3198271358464933 0 0.124250147290694 -0.33314899700300282 0 0.1064519261713488 -0.31655572169216201 0 0.1161782158873771 -0.3439241840397082 0 0.1064519261713488 -0.31655572169216201 0 0.1161782158873771 -0.3439241840397082 0 0.13116002769932089 -0.34144081493774853 0 0.124250147290694 -0.33314899700300282 0 0.1161782158873771 -0.3439241840397082 0 0.1052001105244094 -0.33598756192313761 0 0.1064519261713488 -0.31655572169216201 0 0.1161782158873771 -0.3439241840397082 0 0.1052001105244094 -0.33598756192313761 0 0.094135096875717472 -0.34152365537862239 0 0.093659675950464052 -0.33054307342755262 0 0.1052001105244094 -0.33598756192313761 0 0.10012121619404531 -0.32360922352028032 0 0.093659675950464052 -0.33054307342755262 0 0.1052001105244094 -0.33598756192313761 0 0.1064519261713488 -0.31655572169216201 0 0.095257644144706652 -0.31547439446387793 0 0.093405941565543715 -0.31376225521366868 0 0.093659675950464052 -0.33054307342755262 0 0.095257644144706652 -0.31547439446387793 0 0.093659675950464052 -0.33054307342755262 0 0.10012121619404531 -0.32360922352028032 0 0.095257644144706652 -0.31547439446387793 0 0.093659675950464052 -0.33054307342755262 0 0.1052001105244094 -0.33598756192313761 0 0.10012121619404531 -0.32360922352028032 0 0.1064519261713488 -0.31655572169216201 0 0.10012121619404531 -0.32360922352028032 0 0.095257644144706652 -0.31547439446387793 0 0.1007288279603254 -0.31731901155064418 0 0.095257644144706652 -0.31547439446387793 0 0.098627206178253518 -0.3130306026075409 0 0.1007288279603254 -0.31731901155064418 0 0.1009819186052022 -0.31059004995965389 0 0.098627206178253518 -0.3130306026075409 0 0.1007288279603254 -0.31731901155064418 0 0.10012121619404531 -0.32360922352028032 0 0.1007288279603254 -0.31731901155064418 0 0.1064519261713488 -0.31655572169216201 0 0.1009819186052022 -0.31059004995965389 0 0.1007288279603254 -0.31731901155064418 0 0.1064519261713488 -0.31655572169216201 0 0.1259045056034053 -0.37129264638725462 0 0.1098136122888283 -0.37289891834771871 0 0.10394829487747009 -0.35541940215411322 0 0.13168687140786969 -0.35437751514881188 0 0.1259045056034053 -0.37129264638725462 0 0.1161782158873771 -0.3439241840397082 0 0.1259045056034053 -0.37129264638725462 0 0.1161782158873771 -0.3439241840397082 0 0.1259045056034053 -0.37129264638725462 0 0.1161782158873771 -0.3439241840397082 0 0.10394829487747009 -0.35541940215411322 0 0.094135096875717472 -0.34152365537862239 0 0.10394829487747009 -0.35541940215411322 0 0.08574952893103624 -0.35050078971847098 0 0.1052001105244094 -0.33598756192313761 0 0.094135096875717472 -0.34152365537862239 0 0.10394829487747009 -0.35541940215411322 0 0.1052001105244094 -0.33598756192313761 0 0.10394829487747009 -0.35541940215411322 0 0.1052001105244094 -0.33598756192313761 0 0.1161782158873771 -0.3439241840397082 0 0.10394829487747009 -0.35541940215411322 0 0.1098136122888283 -0.37289891834771871 0 0.10394829487747009 -0.35541940215411322 0 0.091021640102040849 -0.36811549324423981 0 0.098656767851937957 -0.38026287175695478 0 0.1098136122888283 -0.37289891834771871 0 0.091021640102040849 -0.36811549324423981 0 0.075602558716538051 -0.37591242432379601 0 0.091021640102040849 -0.36811549324423981 0 0.073720868533799749 -0.36145003804904752 0 0.091021640102040849 -0.36811549324423981 0 0.08574952893103624 -0.35050078971847098 0 0.073720868533799749 -0.36145003804904752 0 0.087700803785138948 -0.37970068830954989 0 0.075602558716538051 -0.37591242432379601 0 0.091021640102040849 -0.36811549324423981 0 0.10394829487747009 -0.35541940215411322 0 0.091021640102040849 -0.36811549324423981 0 0.08574952893103624 -0.35050078971847098 0 0.072726566806858267 -0.34473435023829618 0 0.073720868533799749 -0.36145003804904752 0 0.056410132465261567 -0.35177053496025951 0 0.08574952893103624 -0.35050078971847098 0 0.072726566806858267 -0.34473435023829618 0 0.073720868533799749 -0.36145003804904752 0 0.075602558716538051 -0.37591242432379601 0 0.06211448606783166 -0.37742951142136799 0 0.073720868533799749 -0.36145003804904752 0 0.06211448606783166 -0.37742951142136799 0 0.073720868533799749 -0.36145003804904752 0 0.056410132465261567 -0.35177053496025951 0 0.093405941565543715 -0.31376225521366868 0 0.0794281766008023 -0.33493907655519339 0 0.068324127503391452 -0.32501131190850963 0 0.093405941565543715 -0.31376225521366868 0 0.068324127503391452 -0.32501131190850963 0 0.093405941565543715 -0.31376225521366868 0 0.093659675950464052 -0.33054307342755262 0 0.0794281766008023 -0.33493907655519339 0 0.094135096875717472 -0.34152365537862239 0 0.093659675950464052 -0.33054307342755262 0 0.0794281766008023 -0.33493907655519339 0 0.094135096875717472 -0.34152365537862239 0 0.08574952893103624 -0.35050078971847098 0 0.0794281766008023 -0.33493907655519339 0 0.08574952893103624 -0.35050078971847098 0 0.072726566806858267 -0.34473435023829618 0 0.0794281766008023 -0.33493907655519339 0 0.072726566806858267 -0.34473435023829618 0 0.0794281766008023 -0.33493907655519339 0 0.068324127503391452 -0.32501131190850963 0 0.072726566806858267 -0.34473435023829618 0 0.068324127503391452 -0.32501131190850963 0 0.056410132465261567 -0.35177053496025951 0 0.071392858796112957 -0.30958950707397243 0 0.093405941565543715 -0.31376225521366868 0 0.068324127503391452 -0.32501131190850963 0 0.071392858796112957 -0.30958950707397243 0 0.068324127503391452 -0.32501131190850963 0 0.049151780817973119 -0.31742284083989258 0 0.068324127503391452 -0.32501131190850963 0 0.049151780817973119 -0.31742284083989258 0 0.043242313441239202 -0.33626036860335051 0 0.068324127503391452 -0.32501131190850963 0 0.043242313441239202 -0.33626036860335051 0 0.056410132465261567 -0.35177053496025951 0 0.068324127503391452 -0.32501131190850963 0 0.043242313441239202 -0.33626036860335051 0 0.043242313441239202 -0.33626036860335051 0 0.034585580050558312 -0.32475420499231977 0 0.025222172958960429 -0.33837896292273228 0 0.049151780817973119 -0.31742284083989258 0 0.043242313441239202 -0.33626036860335051 0 0.034585580050558312 -0.32475420499231977 0 0.034585580050558312 -0.32475420499231977 0 0.027578098193789528 -0.31766740087040263 0 0.036927304877821747 -0.31108109171018911 0 0.049151780817973119 -0.31742284083989258 0 0.034585580050558312 -0.32475420499231977 0 0.036927304877821747 -0.31108109171018911 0 0.06211448606783166 -0.37742951142136799 0 0.056410132465261567 -0.35177053496025951 0 0.044227166254277139 -0.37166464435621449 0 0.043242313441239202 -0.33626036860335051 0 0.056410132465261567 -0.35177053496025951 0 0.036182621443583057 -0.35473557478049123 0 0.043242313441239202 -0.33626036860335051 0 0.036182621443583057 -0.35473557478049123 0 0.018160499379086922 -0.3475094252981914 0 0.036182621443583057 -0.35473557478049123 0 0.044227166254277139 -0.37166464435621449 0 0.030525048031848669 -0.37006766897294502 0 0.056410132465261567 -0.35177053496025951 0 0.036182621443583057 -0.35473557478049123 0 0.044227166254277139 -0.37166464435621449 0 0.01768458717897909 -0.3721860405676844 0 0.030525048031848669 -0.37006766897294502 0 0.02275947665138079 -0.3607798557708255 0 0.036182621443583057 -0.35473557478049123 0 0.030525048031848669 -0.37006766897294502 0 0.02275947665138079 -0.3607798557708255 0 0.01768458717897909 -0.3721860405676844 0 0.02275947665138079 -0.3607798557708255 0 0.011175359609003651 -0.35922690155047388 0 0.036182621443583057 -0.35473557478049123 0 0.02275947665138079 -0.3607798557708255 0 0.018160499379086922 -0.3475094252981914 0 0.02275947665138079 -0.3607798557708255 0 0.018160499379086922 -0.3475094252981914 0 0.011175359609003651 -0.35922690155047388 0 0.018160499379086922 -0.3475094252981914 0 0.011175359609003651 -0.35922690155047388 0 0.0057298339090436244 -0.34250629885231942 0 -0.002081236590364105 -0.35740517305931258 0 0.011175359609003651 -0.35922690155047388 0 0.0057298339090436244 -0.34250629885231942 0 -0.002081236590364105 -0.35740517305931258 0 -0.0030581811643707242 -0.38556136841543798 0 0.0072425025860136799 -0.37218345809511222 0 -0.002081236590364105 -0.35740517305931258 0 0.011175359609003651 -0.35922690155047388 0 0.0072425025860136799 -0.37218345809511222 0 0.01768458717897909 -0.3721860405676844 0 0.011175359609003651 -0.35922690155047388 0 0.0072425025860136799 -0.37218345809511222 0 0.023192066199831149 -0.32730487837588618 0 0.01220024792902942 -0.3297413949684454 0 0.013796753721002629 -0.31366267035982298 0 0.023192066199831149 -0.32730487837588618 0 0.027578098193789528 -0.31766740087040263 0 0.013796753721002629 -0.31366267035982298 0 0.034585580050558312 -0.32475420499231977 0 0.023192066199831149 -0.32730487837588618 0 0.027578098193789528 -0.31766740087040263 0 0.043242313441239202 -0.33626036860335051 0 0.018160499379086922 -0.3475094252981914 0 0.025222172958960429 -0.33837896292273228 0 0.043242313441239202 -0.33626036860335051 0 0.018160499379086922 -0.3475094252981914 0 0.034585580050558312 -0.32475420499231977 0 0.023192066199831149 -0.32730487837588618 0 0.025222172958960429 -0.33837896292273228 0 0.018160499379086922 -0.3475094252981914 0 0.025222172958960429 -0.33837896292273228 0 0.014041439691459349 -0.33900746333089382 0 0.023192066199831149 -0.32730487837588618 0 0.025222172958960429 -0.33837896292273228 0 0.01220024792902942 -0.3297413949684454 0 0.025222172958960429 -0.33837896292273228 0 0.01220024792902942 -0.3297413949684454 0 0.025222172958960429 -0.33837896292273228 0 0.01220024792902942 -0.3297413949684454 0 0.014041439691459349 -0.33900746333089382 0 0.01220024792902942 -0.3297413949684454 0 0.014041439691459349 -0.33900746333089382 0 0.0065804940377831092 -0.33325059712437288 0 -0.001104292016358239 -0.32924897770318751 0 -0.002081236590364105 -0.35740517305931258 0 0.0057298339090436244 -0.34250629885231942 0 0.014041439691459349 -0.33900746333089382 0 0.0057298339090436244 -0.34250629885231942 0 0.0065804940377831092 -0.33325059712437288 0 0.018160499379086922 -0.3475094252981914 0 0.014041439691459349 -0.33900746333089382 0 0.0057298339090436244 -0.34250629885231942 0 -0.001104292016358239 -0.32924897770318751 0 0.0057298339090436244 -0.34250629885231942 0 0.0065804940377831092 -0.33325059712437288 0 0.01220024792902942 -0.3297413949684454 0 0.0065804940377831092 -0.33325059712437288 0 0.0020352406757413941 -0.32574885076701821 0 -0.001104292016358239 -0.32924897770318751 0 0.0065804940377831092 -0.33325059712437288 0 0.0020352406757413941 -0.32574885076701821 0 -0.00082167710090171292 -0.32110382701415863 0 0.01220024792902942 -0.3297413949684454 0 -0.001104292016358239 -0.32924897770318751 0 0.0020352406757413941 -0.32574885076701821 0 -0.00082167710090171292 -0.32110382701415863 0 0.01220024792902942 -0.3297413949684454 0 0.013796753721002629 -0.31366267035982298 0 -0.00082167710090171292 -0.32110382701415863 0 -0.001104292016358239 -0.32924897770318751 0 0.0020352406757413941 -0.32574885076701821 0 -0.00082167710090171292 -0.32110382701415863 0 0.01220024792902942 -0.3297413949684454 0 0.0020352406757413941 -0.32574885076701821 0 -7.3965096506438529e-05 -0.29955426747308123 0 -0.00082167710090171292 -0.32110382701415863 0 0.013796753721002629 -0.31366267035982298 0 -7.3965096506438529e-05 -0.29955426747308123 0 0.013796753721002629 -0.31366267035982298 0 0.013812361570700619 -0.3015870240049352 0 -7.3965096506438529e-05 -0.29955426747308123 0 0.01867348081584954 -0.28938878694344661 0 0.00067374690788935866 -0.27800470793200388 0 -7.3965096506438529e-05 -0.29955426747308123 0 0.013812361570700619 -0.3015870240049352 0 0.01867348081584954 -0.28938878694344661 0 -7.3965096506438529e-05 -0.29955426747308123 0 0.00067374690788935866 -0.27800470793200388 0 0.01867348081584954 -0.28938878694344661 0 0.037154930235948111 -0.2975824698251448 0 0.036563611682883697 -0.28375992937971029 0 0.01867348081584954 -0.28938878694344661 0 0.036563611682883697 -0.28375992937971029 0 0.029349100888234159 -0.27210295621200409 0 0.013812361570700619 -0.3015870240049352 0 0.01867348081584954 -0.28938878694344661 0 0.024819005095152061 -0.30508952639585291 0 0.01867348081584954 -0.28938878694344661 0 0.024819005095152061 -0.30508952639585291 0 0.037154930235948111 -0.2975824698251448 0 0.013796753721002629 -0.31366267035982298 0 0.013812361570700619 -0.3015870240049352 0 0.024819005095152061 -0.30508952639585291 0 0.027578098193789528 -0.31766740087040263 0 0.013796753721002629 -0.31366267035982298 0 0.024819005095152061 -0.30508952639585291 0 0.027578098193789528 -0.31766740087040263 0 0.024819005095152061 -0.30508952639585291 0 0.036927304877821747 -0.31108109171018911 0 0.049151780817973119 -0.31742284083989258 0 0.036927304877821747 -0.31108109171018911 0 0.048274434873509443 -0.30397010733752189 0 0.036927304877821747 -0.31108109171018911 0 0.037154930235948111 -0.2975824698251448 0 0.048274434873509443 -0.30397010733752189 0 0.024819005095152061 -0.30508952639585291 0 0.036927304877821747 -0.31108109171018911 0 0.037154930235948111 -0.2975824698251448 0 0.037154930235948111 -0.2975824698251448 0 0.051187700392116349 -0.28380422347253531 0 0.048274434873509443 -0.30397010733752189 0 0.037154930235948111 -0.2975824698251448 0 0.036563611682883697 -0.28375992937971029 0 0.051187700392116349 -0.28380422347253531 0 0.063569604108796682 -0.28993064852289813 0 0.07105573199593021 -0.28071579673008168 0 0.051187700392116349 -0.28380422347253531 0 0.063569604108796682 -0.28993064852289813 0 0.051187700392116349 -0.28380422347253531 0 0.060785736810040847 -0.30147212534213619 0 0.051187700392116349 -0.28380422347253531 0 0.060785736810040847 -0.30147212534213619 0 0.048274434873509443 -0.30397010733752189 0 0.071392858796112957 -0.30958950707397243 0 0.049151780817973119 -0.31742284083989258 0 0.060785736810040847 -0.30147212534213619 0 0.049151780817973119 -0.31742284083989258 0 0.060785736810040847 -0.30147212534213619 0 0.048274434873509443 -0.30397010733752189 0 0.076267614009582055 -0.25650745640901951 0 0.051408134709254857 -0.2528888322209385 0 0.058961650623864083 -0.26854832288116892 0 0.051408134709254857 -0.2528888322209385 0 0.058961650623864083 -0.26854832288116892 0 0.043901646589439271 -0.26969666425854483 0 0.07105573199593021 -0.28071579673008168 0 0.051187700392116349 -0.28380422347253531 0 0.058961650623864083 -0.26854832288116892 0 0.051187700392116349 -0.28380422347253531 0 0.058961650623864083 -0.26854832288116892 0 0.043901646589439271 -0.26969666425854483 0 0.043901646589439271 -0.26969666425854483 0 0.035647112491104672 -0.2563618972809128 0 0.029349100888234159 -0.27210295621200409 0 0.036563611682883697 -0.28375992937971029 0 0.051187700392116349 -0.28380422347253531 0 0.043901646589439271 -0.26969666425854483 0 0.036563611682883697 -0.28375992937971029 0 0.043901646589439271 -0.26969666425854483 0 0.029349100888234159 -0.27210295621200409 0 0.051408134709254857 -0.2528888322209385 0 0.035647112491104672 -0.2563618972809128 0 0.041141758931998278 -0.24489612137890199 0 0.051408134709254857 -0.2528888322209385 0 0.043901646589439271 -0.26969666425854483 0 0.035647112491104672 -0.2563618972809128 0 0.035647112491104672 -0.2563618972809128 0 0.019822987972428211 -0.25760832087123697 0 0.028266272425383761 -0.24360239832365849 0 0.035647112491104672 -0.2563618972809128 0 0.019822987972428211 -0.25760832087123697 0 0.029349100888234159 -0.27210295621200409 0 0.01867348081584954 -0.28938878694344661 0 0.029349100888234159 -0.27210295621200409 0 0.013988155099337291 -0.27071198406992358 0 0.019822987972428211 -0.25760832087123697 0 0.029349100888234159 -0.27210295621200409 0 0.013988155099337291 -0.27071198406992358 0 0.00067374690788935866 -0.27800470793200388 0 0.013988155099337291 -0.27071198406992358 0 0.001421458912285158 -0.25645514839092642 0 0.00067374690788935866 -0.27800470793200388 0 0.001421458912285158 -0.25645514839092642 0 0.01867348081584954 -0.28938878694344661 0 0.00067374690788935866 -0.27800470793200388 0 0.013988155099337291 -0.27071198406992358 0 0.019822987972428211 -0.25760832087123697 0 0.001421458912285158 -0.25645514839092642 0 0.014691060032374709 -0.24049727339227461 0 0.019822987972428211 -0.25760832087123697 0 0.013988155099337291 -0.27071198406992358 0 0.001421458912285158 -0.25645514839092642 0 -0.0016974911632189271 -0.23635849450019281 0 0.001421458912285158 -0.25645514839092642 0 0.014691060032374709 -0.24049727339227461 0 -0.0016974911632189271 -0.23635849450019281 0 0.0032521757064200118 -0.21884623482471441 0 0.015658345505317379 -0.2188496788870721 0 -0.0016974911632189271 -0.23635849450019281 0 0.014691060032374709 -0.24049727339227461 0 0.015658345505317379 -0.2188496788870721 0 -0.0016974911632189271 -0.23635849450019281 0 0.015658345505317379 -0.2188496788870721 0 0.015658345505317379 -0.2188496788870721 0 0.024674786542052692 -0.23010959938056089 0 0.034183955685121677 -0.21985692115495331 0 0.014691060032374709 -0.24049727339227461 0 0.015658345505317379 -0.2188496788870721 0 0.024674786542052692 -0.23010959938056089 0 0.019822987972428211 -0.25760832087123697 0 0.014691060032374709 -0.24049727339227461 0 0.028266272425383761 -0.24360239832365849 0 0.024674786542052692 -0.23010959938056089 0 0.028266272425383761 -0.24360239832365849 0 0.035853331590389503 -0.2347594796886357 0 0.014691060032374709 -0.24049727339227461 0 0.024674786542052692 -0.23010959938056089 0 0.028266272425383761 -0.24360239832365849 0 0.013398572039885001 -0.19078292132039129 0 0.0042959151593344102 -0.1943300646874771 0 0.013704519296589911 -0.18494367612039439 0 0.013398572039885001 -0.19078292132039129 0 0.0042959151593344102 -0.1943300646874771 0 0.0094969709877951065 -0.19628977560943811 0 0.0042959151593344102 -0.1943300646874771 0 0.0094969709877951065 -0.19628977560943811 0 0.0053685797461922877 -0.20397824590648941 0 0.01390167344065775 -0.1993756754933371 0 0.0094969709877951065 -0.19628977560943811 0 0.0053685797461922877 -0.20397824590648941 0 0.013398572039885001 -0.19078292132039129 0 0.01390167344065775 -0.1993756754933371 0 0.0094969709877951065 -0.19628977560943811 0 -0.0056027664488914157 -0.21326156707992691 0 0.0042959151593344102 -0.1943300646874771 0 0.0053685797461922877 -0.20397824590648941 0 0.01390167344065775 -0.1993756754933371 0 0.0084707559723215722 -0.20880757491091531 0 0.0053685797461922877 -0.20397824590648941 0 0.01390167344065775 -0.1993756754933371 0 0.0084707559723215722 -0.20880757491091531 0 0.016374842138868549 -0.20779363441702911 0 -0.0056027664488914157 -0.21326156707992691 0 0.0053685797461922877 -0.20397824590648941 0 0.0024807796439714042 -0.2115250003284391 0 0.0084707559723215722 -0.20880757491091531 0 0.0053685797461922877 -0.20397824590648941 0 0.0024807796439714042 -0.2115250003284391 0 -0.0056027664488914157 -0.21326156707992691 0 0.0032521757064200118 -0.21884623482471441 0 0.0024807796439714042 -0.2115250003284391 0 0.0032521757064200118 -0.21884623482471441 0 0.0084707559723215722 -0.20880757491091531 0 0.0024807796439714042 -0.2115250003284391 0 0.015658345505317379 -0.2188496788870721 0 0.0084707559723215722 -0.20880757491091531 0 0.016374842138868549 -0.20779363441702911 0 0.0032521757064200118 -0.21884623482471441 0 0.015658345505317379 -0.2188496788870721 0 0.0084707559723215722 -0.20880757491091531 0 0.015658345505317379 -0.2188496788870721 0 0.024863130784433338 -0.20956376019076531 0 0.034183955685121677 -0.21985692115495331 0 0.024863130784433338 -0.20956376019076531 0 0.033014182173853657 -0.2013408632739514 0 0.034183955685121677 -0.21985692115495331 0 0.015658345505317379 -0.2188496788870721 0 0.024863130784433338 -0.20956376019076531 0 0.016374842138868549 -0.20779363441702911 0 0.015658345505317379 -0.2188496788870721 0 0.024863130784433338 -0.20956376019076531 0 0.024863130784433338 -0.20956376019076531 0 0.033014182173853657 -0.2013408632739514 0 0.024863130784433338 -0.20956376019076531 0 0.016374842138868549 -0.20779363441702911 0 0.02178405009491698 -0.19757491592497359 0 0.024863130784433338 -0.20956376019076531 0 0.033014182173853657 -0.2013408632739514 0 0.033600583495020493 -0.18068366114529169 0 0.024863130784433338 -0.20956376019076531 0 0.033600583495020493 -0.18068366114529169 0 0.024863130784433338 -0.20956376019076531 0 0.02178405009491698 -0.19757491592497359 0 0.033600583495020493 -0.18068366114529169 0 0.02178405009491698 -0.19757491592497359 0 0.020444554934608339 -0.1907200713942841 0 0.033600583495020493 -0.18068366114529169 0 0.01390167344065775 -0.1993756754933371 0 0.02178405009491698 -0.19757491592497359 0 0.020444554934608339 -0.1907200713942841 0 0.01390167344065775 -0.1993756754933371 0 0.016374842138868549 -0.20779363441702911 0 0.02178405009491698 -0.19757491592497359 0 0.013398572039885001 -0.19078292132039129 0 0.01390167344065775 -0.1993756754933371 0 0.020444554934608339 -0.1907200713942841 0 0.013398572039885001 -0.19078292132039129 0 0.020444554934608339 -0.1907200713942841 0 0.017505857148762231 -0.18485078053331519 0 0.039987412744011207 -0.19232660043789221 0 0.033014182173853657 -0.2013408632739514 0 0.033600583495020493 -0.18068366114529169 0 0.039987412744011207 -0.19232660043789221 0 0.048022400029909762 -0.2074993231829978 0 0.04531248527726095 -0.17978255414932781 0 0.048022400029909762 -0.2074993231829978 0 0.04531248527726095 -0.17978255414932781 0 0.039987412744011207 -0.19232660043789221 0 0.033014182173853657 -0.2013408632739514 0 0.048022400029909762 -0.2074993231829978 0 0.033014182173853657 -0.2013408632739514 0 0.048022400029909762 -0.2074993231829978 0 0.034183955685121677 -0.21985692115495331 0 0.048022400029909762 -0.2074993231829978 0 0.065978705156449519 -0.22247596887642379 0 0.062544536729381386 -0.2055110003820225 0 0.048022400029909762 -0.2074993231829978 0 0.055240750800105341 -0.19280271202448479 0 0.04531248527726095 -0.17978255414932781 0 0.048022400029909762 -0.2074993231829978 0 0.055240750800105341 -0.19280271202448479 0 0.062544536729381386 -0.2055110003820225 0 0.041141758931998278 -0.24489612137890199 0 0.035853331590389503 -0.2347594796886357 0 0.050732314782558567 -0.23521609221666781 0 0.035647112491104672 -0.2563618972809128 0 0.028266272425383761 -0.24360239832365849 0 0.041141758931998278 -0.24489612137890199 0 0.028266272425383761 -0.24360239832365849 0 0.041141758931998278 -0.24489612137890199 0 0.035853331590389503 -0.2347594796886357 0 0.024674786542052692 -0.23010959938056089 0 0.035853331590389503 -0.2347594796886357 0 0.034183955685121677 -0.21985692115495331 0 0.035853331590389503 -0.2347594796886357 0 0.034183955685121677 -0.21985692115495331 0 0.050732314782558567 -0.23521609221666781 0 0.048022400029909762 -0.2074993231829978 0 0.034183955685121677 -0.21985692115495331 0 0.050732314782558567 -0.23521609221666781 0 0.048022400029909762 -0.2074993231829978 0 0.050732314782558567 -0.23521609221666781 0 0.065978705156449519 -0.22247596887642379 0 0.048022400029909762 -0.2074993231829978 0 0.050732314782558567 -0.23521609221666781 0 0.050732314782558567 -0.23521609221666781 0 0.065142106909048245 -0.24048406387915991 0 0.065978705156449519 -0.22247596887642379 0 0.051408134709254857 -0.2528888322209385 0 0.050732314782558567 -0.23521609221666781 0 0.065142106909048245 -0.24048406387915991 0 0.051408134709254857 -0.2528888322209385 0 0.041141758931998278 -0.24489612137890199 0 0.050732314782558567 -0.23521609221666781 0 0.076267614009582055 -0.25650745640901951 0 0.065142106909048245 -0.24048406387915991 0 0.081323765887396232 -0.23533196967274991 0 0.076267614009582055 -0.25650745640901951 0 0.051408134709254857 -0.2528888322209385 0 0.065142106909048245 -0.24048406387915991 0 0.081323765887396232 -0.23533196967274991 0 0.090523044507361691 -0.24772656680406999 0 0.1033737048225592 -0.23894076053741009 0 0.076267614009582055 -0.25650745640901951 0 0.081323765887396232 -0.23533196967274991 0 0.090523044507361691 -0.24772656680406999 0 0.081323765887396232 -0.23533196967274991 0 0.087363524526485992 -0.21441577437075979 0 0.1033737048225592 -0.23894076053741009 0 0.081323765887396232 -0.23533196967274991 0 0.065978705156449519 -0.22247596887642379 0 0.087363524526485992 -0.21441577437075979 0 0.065142106909048245 -0.24048406387915991 0 0.081323765887396232 -0.23533196967274991 0 0.065978705156449519 -0.22247596887642379 0 0.062544536729381386 -0.2055110003820225 0 0.071353344230414339 -0.1898907882041084 0 0.087363524526485992 -0.21441577437075979 0 0.065978705156449519 -0.22247596887642379 0 0.062544536729381386 -0.2055110003820225 0 0.087363524526485992 -0.21441577437075979 0 0.055240750800105341 -0.19280271202448479 0 0.062544536729381386 -0.2055110003820225 0 0.071353344230414339 -0.1898907882041084 0 0.071353344230414339 -0.1898907882041084 0 0.087363524526485992 -0.21441577437075979 0 0.071353344230414339 -0.1898907882041084 0 0.093115194246763164 -0.1945577438460824 0 0.087363524526485992 -0.21441577437075979 0 0.093115194246763164 -0.1945577438460824 0 0.087363524526485992 -0.21441577437075979 0 0.1064005082637024 -0.21039830925144251 0 0.093115194246763164 -0.1945577438460824 0 0.1064005082637024 -0.21039830925144251 0 0.1094273117048431 -0.18185585796547471 0 0.1064005082637024 -0.21039830925144251 0 0.1094273117048431 -0.18185585796547471 0 0.1202415047230322 -0.19864641349927531 0 0.1094273117048431 -0.18185585796547471 0 0.12854169772468221 -0.18559679576178029 0 0.1064005082637024 -0.21039830925144251 0 0.1202415047230322 -0.19864641349927531 0 0.1094273117048431 -0.18185585796547471 0 0.1064005082637024 -0.21039830925144251 0 0.1216627942646137 -0.21180403025485639 0 0.1169006878943475 -0.22407166803153331 0 0.1064005082637024 -0.21039830925144251 0 0.1202415047230322 -0.19864641349927531 0 0.1216627942646137 -0.21180403025485639 0 0.1169006878943475 -0.22407166803153331 0 0.1234703733361959 -0.23688855388474839 0 0.1033737048225592 -0.23894076053741009 0 0.1216627942646137 -0.21180403025485639 0 0.1169006878943475 -0.22407166803153331 0 0.13055503197143631 -0.22303554907824319 0 0.1169006878943475 -0.22407166803153331 0 0.1234703733361959 -0.23688855388474839 0 0.13055503197143631 -0.22303554907824319 0 0.1165364884907263 -0.25910399926468969 0 0.1200765022515741 -0.24927850493146661 0 0.1033737048225592 -0.23894076053741009 0 0.1234703733361959 -0.23688855388474839 0 0.1200765022515741 -0.24927850493146661 0 0.1033737048225592 -0.23894076053741009 0 0.1165364884907263 -0.25910399926468969 0 0.1033737048225592 -0.23894076053741009 0 0.10112709330990929 -0.26012608059710057 0 0.1033737048225592 -0.23894076053741009 0 0.10112709330990929 -0.26012608059710057 0 0.090523044507361691 -0.24772656680406999 0 0.1033737048225592 -0.23894076053741009 0 0.087363524526485992 -0.21441577437075979 0 0.1064005082637024 -0.21039830925144251 0 0.1033737048225592 -0.23894076053741009 0 0.1064005082637024 -0.21039830925144251 0 0.1169006878943475 -0.22407166803153331 0 0.1033737048225592 -0.23894076053741009 0 0.087363524526485992 -0.21441577437075979 0 0.1033737048225592 -0.23894076053741009 0 0.1064005082637024 -0.21039830925144251 0 0.1033737048225592 -0.23894076053741009 0 0.1049864714414145 -0.1439623981848567 0 0.1156196884936954 -0.1397722741553305 0 0.1071591406911746 -0.1573902638740998 0 0.1049864714414145 -0.1439623981848567 0 0.100485365834851 -0.15217110382633309 0 0.1071591406911746 -0.1573902638740998 0 0.100485365834851 -0.15217110382633309 0 0.096129690074275437 -0.14125321225000681 0 0.09238185962031277 -0.15399991757184181 0 0.1049864714414145 -0.1439623981848567 0 0.100485365834851 -0.15217110382633309 0 0.096129690074275437 -0.14125321225000681 0 0.096129690074275437 -0.14125321225000681 0 0.1052925185484115 -0.13052679838984321 0 0.091728661350998178 -0.12914073537390891 0 0.1049864714414145 -0.1439623981848567 0 0.1052925185484115 -0.13052679838984321 0 0.1156196884936954 -0.1397722741553305 0 0.1049864714414145 -0.1439623981848567 0 0.096129690074275437 -0.14125321225000681 0 0.1052925185484115 -0.13052679838984321 0 0.1156196884936954 -0.1397722741553305 0 0.1240802362962158 -0.122154284436561 0 0.1052925185484115 -0.13052679838984321 0 0.1156196884936954 -0.1397722741553305 0 0.1240802362962158 -0.122154284436561 0 0.1156196884936954 -0.1397722741553305 0 0.1240802362962158 -0.122154284436561 0 0.13285447839261669 -0.1399034453698956 0 0.1156196884936954 -0.1397722741553305 0 0.12331224512123561 -0.14842864230604069 0 0.13285447839261669 -0.1399034453698956 0 0.1156196884936954 -0.1397722741553305 0 0.1124541151459838 -0.15331340667950669 0 0.1071591406911746 -0.1573902638740998 0 0.1156196884936954 -0.1397722741553305 0 0.1071591406911746 -0.1573902638740998 0 0.1156196884936954 -0.1397722741553305 0 0.12331224512123561 -0.14842864230604069 0 0.1124541151459838 -0.15331340667950669 0 0.12331224512123561 -0.14842864230604069 0 0.1124541151459838 -0.15331340667950669 0 0.12243584606543451 -0.16017637748331559 0 0.1124541151459838 -0.15331340667950669 0 0.1094273117048431 -0.18185585796547471 0 0.1124541151459838 -0.15331340667950669 0 0.1094273117048431 -0.18185585796547471 0 0.1071591406911746 -0.1573902638740998 0 0.12243584606543451 -0.16017637748331559 0 0.1094273117048431 -0.18185585796547471 0 0.1257830231888912 -0.17094509368520841 0 0.1124541151459838 -0.15331340667950669 0 0.12243584606543451 -0.16017637748331559 0 0.1094273117048431 -0.18185585796547471 0 0.1094273117048431 -0.18185585796547471 0 0.12854169772468221 -0.18559679576178029 0 0.1257830231888912 -0.17094509368520841 0 0.093115194246763164 -0.1945577438460824 0 0.1094273117048431 -0.18185585796547471 0 0.088391349768274674 -0.17679679892356109 0 0.1094273117048431 -0.18185585796547471 0 0.097203311764934866 -0.1639974274527202 0 0.088391349768274674 -0.17679679892356109 0 0.1094273117048431 -0.18185585796547471 0 0.1071591406911746 -0.1573902638740998 0 0.097203311764934866 -0.1639974274527202 0 0.100485365834851 -0.15217110382633309 0 0.1071591406911746 -0.1573902638740998 0 0.097203311764934866 -0.1639974274527202 0 0.100485365834851 -0.15217110382633309 0 0.097203311764934866 -0.1639974274527202 0 0.09238185962031277 -0.15399991757184181 0 0.097203311764934866 -0.1639974274527202 0 0.085889245717226725 -0.16248611139092681 0 0.09238185962031277 -0.15399991757184181 0 0.097203311764934866 -0.1639974274527202 0 0.085889245717226725 -0.16248611139092681 0 0.088391349768274674 -0.17679679892356109 0 0.085889245717226725 -0.16248611139092681 0 0.088391349768274674 -0.17679679892356109 0 0.074198383631886911 -0.1669349374387126 0 0.085889245717226725 -0.16248611139092681 0 0.074198383631886911 -0.1669349374387126 0 0.079347458556830841 -0.15219032016580911 0 0.071353344230414339 -0.1898907882041084 0 0.093115194246763164 -0.1945577438460824 0 0.088391349768274674 -0.17679679892356109 0 0.071353344230414339 -0.1898907882041084 0 0.055343163934342687 -0.1653658020374569 0 0.071353344230414339 -0.1898907882041084 0 0.074198383631886911 -0.1669349374387126 0 0.055343163934342687 -0.1653658020374569 0 0.071353344230414339 -0.1898907882041084 0 0.088391349768274674 -0.17679679892356109 0 0.074198383631886911 -0.1669349374387126 0 0.074198383631886911 -0.1669349374387126 0 0.064816611582030087 -0.154530618342515 0 0.055343163934342687 -0.1653658020374569 0 0.074198383631886911 -0.1669349374387126 0 0.064816611582030087 -0.154530618342515 0 0.079347458556830841 -0.15219032016580911 0 0.064816611582030087 -0.154530618342515 0 0.067062187221465591 -0.1422182787133148 0 0.056463693063978568 -0.14496865849518789 0 0.067062187221465591 -0.1422182787133148 0 0.079347458556830841 -0.15219032016580911 0 0.08076957437744528 -0.1375437473226449 0 0.064816611582030087 -0.154530618342515 0 0.067062187221465591 -0.1422182787133148 0 0.079347458556830841 -0.15219032016580911 0 0.085889245717226725 -0.16248611139092681 0 0.079347458556830841 -0.15219032016580911 0 0.09238185962031277 -0.15399991757184181 0 0.079347458556830841 -0.15219032016580911 0 0.087157145657216079 -0.1462467993275757 0 0.08076957437744528 -0.1375437473226449 0 0.096129690074275437 -0.14125321225000681 0 0.087157145657216079 -0.1462467993275757 0 0.09238185962031277 -0.15399991757184181 0 0.096129690074275437 -0.14125321225000681 0 0.087157145657216079 -0.1462467993275757 0 0.08076957437744528 -0.1375437473226449 0 0.079347458556830841 -0.15219032016580911 0 0.087157145657216079 -0.1462467993275757 0 0.09238185962031277 -0.15399991757184181 0 0.091728661350998178 -0.12914073537390891 0 0.08076957437744528 -0.1375437473226449 0 0.079507979779523452 -0.12189141920685879 0 0.096129690074275437 -0.14125321225000681 0 0.091728661350998178 -0.12914073537390891 0 0.08076957437744528 -0.1375437473226449 0 0.067062187221465591 -0.1422182787133148 0 0.08076957437744528 -0.1375437473226449 0 0.063984275453865092 -0.1290624161379581 0 0.08076957437744528 -0.1375437473226449 0 0.063984275453865092 -0.1290624161379581 0 0.079507979779523452 -0.12189141920685879 0 0.067062187221465591 -0.1422182787133148 0 0.063984275453865092 -0.1290624161379581 0 0.059311864009124589 -0.13640834731470361 0 0.063984275453865092 -0.1290624161379581 0 0.049737300297189133 -0.12938403591235359 0 0.04730414716033024 -0.1221802487069209 0 0.063984275453865092 -0.1290624161379581 0 0.049737300297189133 -0.12938403591235359 0 0.059311864009124589 -0.13640834731470361 0 0.049737300297189133 -0.12938403591235359 0 0.059311864009124589 -0.13640834731470361 0 0.056463693063978568 -0.14496865849518789 0 0.049737300297189133 -0.12938403591235359 0 0.056463693063978568 -0.14496865849518789 0 0.042602570524611659 -0.1520657851156578 0 0.067062187221465591 -0.1422182787133148 0 0.059311864009124589 -0.13640834731470361 0 0.056463693063978568 -0.14496865849518789 0 0.064816611582030087 -0.154530618342515 0 0.056463693063978568 -0.14496865849518789 0 0.054806509776240749 -0.15423271599770441 0 0.056463693063978568 -0.14496865849518789 0 0.054806509776240749 -0.15423271599770441 0 0.042602570524611659 -0.1520657851156578 0 0.042602570524611659 -0.1520657851156578 0 0.03570497827061847 -0.16057164265440571 0 0.02578481354808845 -0.15323195209440779 0 0.049737300297189133 -0.12938403591235359 0 0.042602570524611659 -0.1520657851156578 0 0.042602570524611659 -0.1520657851156578 0 0.035178542867898642 -0.13526618492151199 0 0.02578481354808845 -0.15323195209440779 0 0.042602570524611659 -0.1520657851156578 0 0.035178542867898642 -0.13526618492151199 0 0.040183445647249752 -0.1273231892742496 0 0.042602570524611659 -0.1520657851156578 0 0.040183445647249752 -0.1273231892742496 0 0.049737300297189133 -0.12938403591235359 0 0.042602570524611659 -0.1520657851156578 0 0.040183445647249752 -0.1273231892742496 0 0.035178542867898642 -0.13526618492151199 0 0.040183445647249752 -0.1273231892742496 0 0.02593891353605636 -0.12820507300401149 0 0.049737300297189133 -0.12938403591235359 0 0.040183445647249752 -0.1273231892742496 0 0.04730414716033024 -0.1221802487069209 0 0.055240750800105341 -0.19280271202448479 0 0.071353344230414339 -0.1898907882041084 0 0.055343163934342687 -0.1653658020374569 0 0.055240750800105341 -0.19280271202448479 0 0.055343163934342687 -0.1653658020374569 0 0.04531248527726095 -0.17978255414932781 0 0.042602570524611659 -0.1520657851156578 0 0.055343163934342687 -0.1653658020374569 0 0.04531248527726095 -0.17978255414932781 0 0.064816611582030087 -0.154530618342515 0 0.054806509776240749 -0.15423271599770441 0 0.055343163934342687 -0.1653658020374569 0 0.054806509776240749 -0.15423271599770441 0 0.042602570524611659 -0.1520657851156578 0 0.055343163934342687 -0.1653658020374569 0 0.03570497827061847 -0.16057164265440571 0 0.033600583495020493 -0.18068366114529169 0 0.028811701258035619 -0.17380094283206221 0 0.042602570524611659 -0.1520657851156578 0 0.04531248527726095 -0.17978255414932781 0 0.042602570524611659 -0.1520657851156578 0 0.033600583495020493 -0.18068366114529169 0 0.04531248527726095 -0.17978255414932781 0 0.042602570524611659 -0.1520657851156578 0 0.033600583495020493 -0.18068366114529169 0 0.042602570524611659 -0.1520657851156578 0 0.03570497827061847 -0.16057164265440571 0 0.033600583495020493 -0.18068366114529169 0 0.039987412744011207 -0.19232660043789221 0 0.033600583495020493 -0.18068366114529169 0 0.04531248527726095 -0.17978255414932781 0 0.020444554934608339 -0.1907200713942841 0 0.017505857148762231 -0.18485078053331519 0 0.023088639645494562 -0.18283263928582011 0 0.019127655367407639 -0.17935605176576111 0 0.014194596767560271 -0.17539856229502729 0 0.013704519296589911 -0.18494367612039439 0 0.017505857148762231 -0.18485078053331519 0 0.019127655367407639 -0.17935605176576111 0 0.013704519296589911 -0.18494367612039439 0 0.017505857148762231 -0.18485078053331519 0 0.023088639645494562 -0.18283263928582011 0 0.019127655367407639 -0.17935605176576111 0 0.023088639645494562 -0.18283263928582011 0 0.024764547281674081 -0.17855263159044821 0 0.019127655367407639 -0.17935605176576111 0 0.033600583495020493 -0.18068366114529169 0 0.023088639645494562 -0.18283263928582011 0 0.024764547281674081 -0.17855263159044821 0 0.020444554934608339 -0.1907200713942841 0 0.033600583495020493 -0.18068366114529169 0 0.023088639645494562 -0.18283263928582011 0 0.033600583495020493 -0.18068366114529169 0 0.024764547281674081 -0.17855263159044821 0 0.028811701258035619 -0.17380094283206221 0 0.024764547281674081 -0.17855263159044821 0 0.028811701258035619 -0.17380094283206221 0 0.021751136719399839 -0.17269674277834399 0 0.024764547281674081 -0.17855263159044821 0 0.021751136719399839 -0.17269674277834399 0 0.019127655367407639 -0.17935605176576111 0 0.021751136719399839 -0.17269674277834399 0 0.019127655367407639 -0.17935605176576111 0 0.014194596767560271 -0.17539856229502729 0 0.024093278375786231 -0.15646705990257739 0 0.014194596767560271 -0.17539856229502729 0 0.024093278375786231 -0.15646705990257739 0 0.011025338960290719 -0.1746001472771827 0 0.021751136719399839 -0.17269674277834399 0 0.026590048765936111 -0.168126660654285 0 0.024093278375786231 -0.15646705990257739 0 0.024093278375786231 -0.15646705990257739 0 0.011025338960290719 -0.1746001472771827 0 0.014194596767560271 -0.17539856229502729 0 0.021751136719399839 -0.17269674277834399 0 0.024093278375786231 -0.15646705990257739 0 0.014194596767560271 -0.17539856229502729 0 0.028811701258035619 -0.17380094283206221 0 0.021751136719399839 -0.17269674277834399 0 0.026590048765936111 -0.168126660654285 0 0.03570497827061847 -0.16057164265440571 0 0.028811701258035619 -0.17380094283206221 0 0.026590048765936111 -0.168126660654285 0 0.03570497827061847 -0.16057164265440571 0 0.02578481354808845 -0.15323195209440779 0 0.03570497827061847 -0.16057164265440571 0 0.026590048765936111 -0.168126660654285 0 0.028297568083292309 -0.16108278080551611 0 0.03570497827061847 -0.16057164265440571 0 0.028297568083292309 -0.16108278080551611 0 0.02578481354808845 -0.15323195209440779 0 0.028297568083292309 -0.16108278080551611 0 0.024093278375786231 -0.15646705990257739 0 0.02578481354808845 -0.15323195209440779 0 0.026590048765936111 -0.168126660654285 0 0.028297568083292309 -0.16108278080551611 0 0.024093278375786231 -0.15646705990257739 0 0.024093278375786231 -0.15646705990257739 0 0.011025338960290719 -0.1746001472771827 0 0.003736562744908955 -0.15557199018408921 0 -0.004632225236523106 -0.17490638196502761 0 0.011025338960290719 -0.1746001472771827 0 0.003736562744908955 -0.15557199018408921 0 0.0042959151593344102 -0.1943300646874771 0 0.014194596767560271 -0.17539856229502729 0 0.013704519296589911 -0.18494367612039439 0 -0.002042600455204898 -0.19273323465178799 0 0.0042959151593344102 -0.1943300646874771 0 0.011025338960290719 -0.1746001472771827 0 -0.004632225236523106 -0.17490638196502761 0 -0.002042600455204898 -0.19273323465178799 0 0.011025338960290719 -0.1746001472771827 0 0.0042959151593344102 -0.1943300646874771 0 0.014194596767560271 -0.17539856229502729 0 -0.002042600455204898 -0.19273323465178799 0 0.011025338960290719 -0.1746001472771827 0 0.0042959151593344102 -0.1943300646874771 0 0.011025338960290719 -0.1746001472771827 0 0.014194596767560271 -0.17539856229502729 0 0.013398572039885001 -0.19078292132039129 0 0.017505857148762231 -0.18485078053331519 0 0.013704519296589911 -0.18494367612039439 0 0.035178542867898642 -0.13526618492151199 0 0.02593891353605636 -0.12820507300401149 0 0.02578481354808845 -0.15323195209440779 0 0.02593891353605636 -0.12820507300401149 0 0.02578481354808845 -0.15323195209440779 0 0.0015642383778857951 -0.1353117328332607 0 0.024093278375786231 -0.15646705990257739 0 0.02578481354808845 -0.15323195209440779 0 0.003736562744908955 -0.15557199018408921 0 0.035178542867898642 -0.13526618492151199 0 0.02578481354808845 -0.15323195209440779 0 0.024093278375786231 -0.15646705990257739 0 0.02578481354808845 -0.15323195209440779 0 0.02578481354808845 -0.15323195209440779 0 0.003736562744908955 -0.15557199018408921 0 0.0015642383778857951 -0.1353117328332607 0 0.02578481354808845 -0.15323195209440779 0 0.0015642383778857951 -0.1353117328332607 0 0.02593891353605636 -0.12820507300401149 0 0.0015642383778857951 -0.1353117328332607 0 0.01165182907945336 -0.11850655866745829 0 -0.0046185716921284883 -0.1120858073703396 0 0.01165182907945336 -0.11850655866745829 0 0.008870302288897949 -0.1067994391357744 0 -0.0046185716921284883 -0.1120858073703396 0 0.0015642383778857951 -0.1353117328332607 0 0.01165182907945336 -0.11850655866745829 0 0.01165182907945336 -0.11850655866745829 0 0.026504262886555181 -0.1101307409939052 0 0.008870302288897949 -0.1067994391357744 0 0.02593891353605636 -0.12820507300401149 0 0.01165182907945336 -0.11850655866745829 0 0.026504262886555181 -0.1101307409939052 0 0.02593891353605636 -0.12820507300401149 0 0.026504262886555181 -0.1101307409939052 0 0.037070991478284229 -0.1186829758523535 0 0.026504262886555181 -0.1101307409939052 0 0.01900054839900215 -0.098905697326613834 0 0.008870302288897949 -0.1067994391357744 0 0.026504262886555181 -0.1101307409939052 0 0.01900054839900215 -0.098905697326613834 0 0.030404663559853759 -0.092999835543689596 0 -0.0070169398095897041 -0.095220898790261216 0 0.0097483565415166645 -0.09655907795791871 0 0.0025495365457082479 -0.090291170229082507 0 -0.0070169398095897041 -0.095220898790261216 0 0.0097483565415166645 -0.09655907795791871 0 0.008870302288897949 -0.1067994391357744 0 0.01900054839900215 -0.098905697326613834 0 0.0097483565415166645 -0.09655907795791871 0 0.008870302288897949 -0.1067994391357744 0 0.01900054839900215 -0.098905697326613834 0 0.0097483565415166645 -0.09655907795791871 0 0.012962105565839439 -0.087571225386924884 0 -0.0044804524281749506 -0.082142615230160518 0 0.0025495365457082479 -0.090291170229082507 0 0.012962105565839439 -0.087571225386924884 0 -0.0044804524281749506 -0.082142615230160518 0 0.0074702539882087297 -0.080624467425557317 0 0.012962105565839439 -0.087571225386924884 0 -0.0044804524281749506 -0.082142615230160518 0 0.012962105565839439 -0.087571225386924884 0 -0.0044804524281749506 -0.082142615230160518 0 0.0074702539882087297 -0.080624467425557317 0 0.0049416297114607656 -0.074762398328480348 0 0.0074702539882087297 -0.080624467425557317 0 0.012962105565839439 -0.087571225386924884 0 0.016457733103709671 -0.078021630756663546 0 0.0097483565415166645 -0.09655907795791871 0 0.0025495365457082479 -0.090291170229082507 0 0.012962105565839439 -0.087571225386924884 0 -0.0044804524281749506 -0.082142615230160518 0 0.002510802647565528 -0.063043425969637495 0 0.0049416297114607656 -0.074762398328480348 0 0.002510802647565528 -0.063043425969637495 0 0.0049416297114607656 -0.074762398328480348 0 0.016457733103709671 -0.078021630756663546 0 0.002510802647565528 -0.063043425969637495 0 0.016457733103709671 -0.078021630756663546 0 0.0074702539882087297 -0.080624467425557317 0 0.0049416297114607656 -0.074762398328480348 0 0.016457733103709671 -0.078021630756663546 0 0.002510802647565528 -0.063043425969637495 0 0.01562813457038667 -0.064258975396289594 0 0.016457733103709671 -0.078021630756663546 0 0.01562813457038667 -0.064258975396289594 0 0.025874105981884971 -0.070720461563621495 0 0.02880079104120789 -0.05439184783322721 0 0.025874105981884971 -0.070720461563621495 0 0.037814865278548472 -0.07271906452585214 0 0.02880079104120789 -0.05439184783322721 0 0.01562813457038667 -0.064258975396289594 0 0.016457733103709671 -0.078021630756663546 0 0.025874105981884971 -0.070720461563621495 0 0.012962105565839439 -0.087571225386924884 0 0.030404663559853759 -0.092999835543689596 0 0.016457733103709671 -0.078021630756663546 0 0.025874105981884971 -0.070720461563621495 0 0.030404663559853759 -0.092999835543689596 0 0.012962105565839439 -0.087571225386924884 0 0.016457733103709671 -0.078021630756663546 0 0.030404663559853759 -0.092999835543689596 0 0.01900054839900215 -0.098905697326613834 0 0.012962105565839439 -0.087571225386924884 0 0.030404663559853759 -0.092999835543689596 0 0.016457733103709671 -0.078021630756663546 0 0.030404663559853759 -0.092999835543689596 0 0.025874105981884971 -0.070720461563621495 0 0.030404663559853759 -0.092999835543689596 0 0.037814865278548472 -0.07271906452585214 0 0.030404663559853759 -0.092999835543689596 0 0.046287769011721401 -0.085376335216477278 0 0.037814865278548472 -0.07271906452585214 0 0.030404663559853759 -0.092999835543689596 0 0.046287769011721401 -0.085376335216477278 0 0.053823556743944428 -0.1002884477669066 0 0.046287769011721401 -0.085376335216477278 0 0.037814865278548472 -0.07271906452585214 0 0.050203071895514102 -0.072451094495251486 0 0.037814865278548472 -0.07271906452585214 0 0.050203071895514102 -0.072451094495251486 0 0.045040181910775468 -0.060237505050920459 0 0.050203071895514102 -0.072451094495251486 0 0.045040181910775468 -0.060237505050920459 0 0.062430462548939129 -0.061171297773093013 0 0.059882693305022487 -0.084325865747047479 0 0.062430462548939129 -0.061171297773093013 0 0.050203071895514102 -0.072451094495251486 0 0.059882693305022487 -0.084325865747047479 0 0.062430462548939129 -0.061171297773093013 0 0.046287769011721401 -0.085376335216477278 0 0.059882693305022487 -0.084325865747047479 0 0.053823556743944428 -0.1002884477669066 0 0.059882693305022487 -0.084325865747047479 0 0.053823556743944428 -0.1002884477669066 0 0.07105008192184338 -0.093000526118056093 0 0.046287769011721401 -0.085376335216477278 0 0.050203071895514102 -0.072451094495251486 0 0.059882693305022487 -0.084325865747047479 0 0.053823556743944428 -0.1002884477669066 0 0.047194469506859453 -0.11103112584082379 0 0.062661574454670965 -0.11315888420317639 0 0.063984275453865092 -0.1290624161379581 0 0.047194469506859453 -0.11103112584082379 0 0.062661574454670965 -0.11315888420317639 0 0.063984275453865092 -0.1290624161379581 0 0.04730414716033024 -0.1221802487069209 0 0.047194469506859453 -0.11103112584082379 0 0.063984275453865092 -0.1290624161379581 0 0.047194469506859453 -0.11103112584082379 0 0.026504262886555181 -0.1101307409939052 0 0.047194469506859453 -0.11103112584082379 0 0.037070991478284229 -0.1186829758523535 0 0.040183445647249752 -0.1273231892742496 0 0.04730414716033024 -0.1221802487069209 0 0.037070991478284229 -0.1186829758523535 0 0.04730414716033024 -0.1221802487069209 0 0.047194469506859453 -0.11103112584082379 0 0.037070991478284229 -0.1186829758523535 0 0.040183445647249752 -0.1273231892742496 0 0.02593891353605636 -0.12820507300401149 0 0.037070991478284229 -0.1186829758523535 0 0.030404663559853759 -0.092999835543689596 0 0.053823556743944428 -0.1002884477669066 0 0.030404663559853759 -0.092999835543689596 0 0.047194469506859453 -0.11103112584082379 0 0.026504262886555181 -0.1101307409939052 0 0.030404663559853759 -0.092999835543689596 0 0.047194469506859453 -0.11103112584082379 0 0.030404663559853759 -0.092999835543689596 0 0.053823556743944428 -0.1002884477669066 0 0.047194469506859453 -0.11103112584082379 0 0.023270233621912401 -0.01525580757240152 0 0.022337884673477991 -0.0034190548653388361 0 0.039674852202711733 -0.011398947486758491 0 0.023270233621912401 -0.01525580757240152 0 0.022337884673477991 -0.0034190548653388361 0 0.0087060221153974129 -0.014152348650278 0 0.023270233621912401 -0.01525580757240152 0 0.0087060221153974129 -0.014152348650278 0 0.01187708760995689 0.002197858344390409 0 0.0087060221153974129 -0.014152348650278 0 0.01187708760995689 0.002197858344390409 0 0.022337884673477991 -0.0034190548653388361 0 0.0087060221153974129 -0.014152348650278 0 -0.0032302248502834052 -0.0014363109070051629 0 0.01187708760995689 0.002197858344390409 0 0.0087060221153974129 -0.014152348650278 0 0.0087060221153974129 -0.014152348650278 0 0.016928799739308911 -0.027507765933368181 0 0.0043105306008735071 -0.036815770843572251 0 0.0087060221153974129 -0.014152348650278 0 0.0043105306008735071 -0.036815770843572251 0 -0.011683072045496311 -0.02808942124238523 0 0.0087060221153974129 -0.014152348650278 0 0.0043105306008735071 -0.036815770843572251 0 0.023270233621912401 -0.01525580757240152 0 0.03080349407949988 -0.031576115764460143 0 0.039674852202711733 -0.011398947486758491 0 0.023270233621912401 -0.01525580757240152 0 0.016928799739308911 -0.027507765933368181 0 0.03080349407949988 -0.031576115764460143 0 0.023270233621912401 -0.01525580757240152 0 0.0087060221153974129 -0.014152348650278 0 0.016928799739308911 -0.027507765933368181 0 0.03080349407949988 -0.031576115764460143 0 0.01755371827886134 -0.039738786836128991 0 0.02880079104120789 -0.05439184783322721 0 0.016928799739308911 -0.027507765933368181 0 0.03080349407949988 -0.031576115764460143 0 0.01755371827886134 -0.039738786836128991 0 0.016928799739308911 -0.027507765933368181 0 0.01755371827886134 -0.039738786836128991 0 0.0043105306008735071 -0.036815770843572251 0 0.01755371827886134 -0.039738786836128991 0 0.0043105306008735071 -0.036815770843572251 0 0.012618166563968971 -0.052424853505686438 0 -8.4960913650737775e-05 -0.059479193036866357 0 0.0043105306008735071 -0.036815770843572251 0 -8.4960913650737775e-05 -0.059479193036866357 0 0.0043105306008735071 -0.036815770843572251 0 0.012618166563968971 -0.052424853505686438 0 -8.4960913650737775e-05 -0.059479193036866357 0 0.012618166563968971 -0.052424853505686438 0 0.0086688840220560184 -0.059465655254958692 0 -8.4960913650737775e-05 -0.059479193036866357 0 0.002510802647565528 -0.063043425969637495 0 0.0086688840220560184 -0.059465655254958692 0 0.01562813457038667 -0.064258975396289594 0 0.012618166563968971 -0.052424853505686438 0 0.0086688840220560184 -0.059465655254958692 0 0.002510802647565528 -0.063043425969637495 0 0.01562813457038667 -0.064258975396289594 0 0.0086688840220560184 -0.059465655254958692 0 0.01562813457038667 -0.064258975396289594 0 0.012618166563968971 -0.052424853505686438 0 0.02880079104120789 -0.05439184783322721 0 0.01755371827886134 -0.039738786836128991 0 0.012618166563968971 -0.052424853505686438 0 0.02880079104120789 -0.05439184783322721 0 0.02880079104120789 -0.05439184783322721 0 0.045040181910775468 -0.060237505050920459 0 0.046832943944540732 -0.043603412301444357 0 0.037814865278548472 -0.07271906452585214 0 0.02880079104120789 -0.05439184783322721 0 0.045040181910775468 -0.060237505050920459 0 0.062430462548939129 -0.061171297773093013 0 0.046832943944540732 -0.043603412301444357 0 0.064978231792855765 -0.038016729799138588 0 0.045040181910775468 -0.060237505050920459 0 0.062430462548939129 -0.061171297773093013 0 0.046832943944540732 -0.043603412301444357 0 0.046832943944540732 -0.043603412301444357 0 0.046560390126095669 -0.028671763044746099 0 0.064978231792855765 -0.038016729799138588 0 0.03080349407949988 -0.031576115764460143 0 0.046832943944540732 -0.043603412301444357 0 0.046560390126095669 -0.028671763044746099 0 0.03080349407949988 -0.031576115764460143 0 0.02880079104120789 -0.05439184783322721 0 0.046832943944540732 -0.043603412301444357 0 0.03080349407949988 -0.031576115764460143 0 0.046560390126095669 -0.028671763044746099 0 0.039674852202711733 -0.011398947486758491 0 0.046560390126095669 -0.028671763044746099 0 0.055073515324774842 -0.019340019884769549 0 0.039674852202711733 -0.011398947486758491 0 0.046560390126095669 -0.028671763044746099 0 0.055073515324774842 -0.019340019884769549 0 0.064978231792855765 -0.038016729799138588 0 0.046350047836673319 0.0075890251872863749 0 0.056628101465438611 -0.003750497268020465 0 0.039674852202711733 -0.011398947486758491 0 0.055073515324774842 -0.019340019884769549 0 0.056628101465438611 -0.003750497268020465 0 0.039674852202711733 -0.011398947486758491 0 0.055073515324774842 -0.019340019884769549 0 0.056628101465438611 -0.003750497268020465 0 0.067526001036772407 -0.014862161825184111 0 0.046350047836673319 0.0075890251872863749 0 0.035054331944918173 0.003010712153852394 0 0.039674852202711733 -0.011398947486758491 0 0.035054331944918173 0.003010712153852394 0 0.022337884673477991 -0.0034190548653388361 0 0.039674852202711733 -0.011398947486758491 0 0.078567159103423628 -0.001285830071337615 0 0.085795977506817653 -0.02392502563173143 0 0.090019408901481579 -0.0081151798674118977 0 0.078567159103423628 -0.001285830071337615 0 0.085795977506817653 -0.02392502563173143 0 0.087949856068919682 0.0036313828399168898 0 0.090019408901481579 -0.0081151798674118977 0 0.098223868840708883 -0.001829340687899171 0 0.087949856068919682 0.0036313828399168898 0 0.090019408901481579 -0.0081151798674118977 0 0.078567159103423628 -0.001285830071337615 0 0.070073770280689063 0.0082924061487704773 0 0.056628101465438611 -0.003750497268020465 0 0.067526001036772407 -0.014862161825184111 0 0.070073770280689063 0.0082924061487704773 0 0.067526001036772407 -0.014862161825184111 0 0.070073770280689063 0.0082924061487704773 0 0.078567159103423628 -0.001285830071337615 0 0.067526001036772407 -0.014862161825184111 0 0.078567159103423628 -0.001285830071337615 0 0.067526001036772407 -0.014862161825184111 0 0.085795977506817653 -0.02392502563173143 0 0.067526001036772407 -0.014862161825184111 0 0.064978231792855765 -0.038016729799138588 0 0.067526001036772407 -0.014862161825184111 0 0.085795977506817653 -0.02392502563173143 0 0.064978231792855765 -0.038016729799138588 0 0.055073515324774842 -0.019340019884769549 0 0.067526001036772407 -0.014862161825184111 0 0.064978231792855765 -0.038016729799138588 0 0.090019408901481579 -0.0081151798674118977 0 0.085795977506817653 -0.02392502563173143 0 0.099560182987537993 -0.01716708578600817 0 0.085795977506817653 -0.02392502563173143 0 0.093024795910211677 -0.046564221192125228 0 0.099658049341888669 -0.032009493541244938 0 0.085795977506817653 -0.02392502563173143 0 0.093024795910211677 -0.046564221192125228 0 0.085795977506817653 -0.02392502563173143 0 0.093024795910211677 -0.046564221192125228 0 0.080278415079974338 -0.040044384168740683 0 0.093024795910211677 -0.046564221192125228 0 0.080278415079974338 -0.040044384168740683 0 0.077645544894681756 -0.053695834902659507 0 0.080278415079974338 -0.040044384168740683 0 0.064978231792855765 -0.038016729799138588 0 0.077645544894681756 -0.053695834902659507 0 0.085795977506817653 -0.02392502563173143 0 0.080278415079974338 -0.040044384168740683 0 0.064978231792855765 -0.038016729799138588 0 0.062430462548939129 -0.061171297773093013 0 0.064978231792855765 -0.038016729799138588 0 0.077645544894681756 -0.053695834902659507 0 0.062430462548939129 -0.061171297773093013 0 0.077645544894681756 -0.053695834902659507 0 0.086207759871431019 -0.069336734047688336 0 0.062430462548939129 -0.061171297773093013 0 0.064978231792855765 -0.038016729799138588 0 0.077645544894681756 -0.053695834902659507 0 0.091259472629766025 -0.058151644958222962 0 0.086207759871431019 -0.069336734047688336 0 0.093024795910211677 -0.046564221192125228 0 0.077645544894681756 -0.053695834902659507 0 0.091259472629766025 -0.058151644958222962 0 0.091259472629766025 -0.058151644958222962 0 0.1010938032121468 -0.053145812825750142 0 0.10223949259936541 -0.063727092746103442 0 0.093024795910211677 -0.046564221192125228 0 0.091259472629766025 -0.058151644958222962 0 0.1010938032121468 -0.053145812825750142 0 0.093024795910211677 -0.046564221192125228 0 0.1010938032121468 -0.053145812825750142 0 0.1053544438774712 -0.043960970490876279 0 0.1010938032121468 -0.053145812825750142 0 0.11439878319405471 -0.054880948210173322 0 0.1053544438774712 -0.043960970490876279 0 0.1010938032121468 -0.053145812825750142 0 0.11439878319405471 -0.054880948210173322 0 0.10223949259936541 -0.063727092746103442 0 0.11439878319405471 -0.054880948210173322 0 0.10223949259936541 -0.063727092746103442 0 0.1150170534466281 -0.068764158732670277 0 0.11439878319405471 -0.054880948210173322 0 0.12344480737894931 -0.044530858704992203 0 0.13201595759441939 -0.054633316920081033 0 0.11439878319405471 -0.054880948210173322 0 0.12833199002071949 -0.066517348465051404 0 0.13201595759441939 -0.054633316920081033 0 0.11439878319405471 -0.054880948210173322 0 0.12344480737894931 -0.044530858704992203 0 0.1053544438774712 -0.043960970490876279 0 0.12344480737894931 -0.044530858704992203 0 0.1053544438774712 -0.043960970490876279 0 0.1137204083690052 -0.028123344465275368 0 0.12344480737894931 -0.044530858704992203 0 0.1053544438774712 -0.043960970490876279 0 0.12344480737894931 -0.044530858704992203 0 0.1137204083690052 -0.028123344465275368 0 0.13296251786647731 -0.029815989863341389 0 0.1053544438774712 -0.043960970490876279 0 0.099658049341888669 -0.032009493541244938 0 0.1137204083690052 -0.028123344465275368 0 0.093024795910211677 -0.046564221192125228 0 0.1053544438774712 -0.043960970490876279 0 0.099658049341888669 -0.032009493541244938 0 0.099560182987537993 -0.01716708578600817 0 0.1137204083690052 -0.028123344465275368 0 0.1123734687691573 -0.01002431031047942 0 0.085795977506817653 -0.02392502563173143 0 0.099658049341888669 -0.032009493541244938 0 0.099560182987537993 -0.01716708578600817 0 0.099658049341888669 -0.032009493541244938 0 0.099560182987537993 -0.01716708578600817 0 0.1137204083690052 -0.028123344465275368 0 0.12463913433434939 -0.0169360929336827 0 0.1137204083690052 -0.028123344465275368 0 0.1123734687691573 -0.01002431031047942 0 0.12463913433434939 -0.0169360929336827 0 0.1137204083690052 -0.028123344465275368 0 0.13296251786647731 -0.029815989863341389 0 0.1248322407467045 7.7178395747419371e-05 0 0.12463913433434939 -0.0169360929336827 0 0.1123734687691573 -0.01002431031047942 0 0.1248322407467045 7.7178395747419371e-05 0 0.10819727561622181 0.0051540275748058516 0 0.1123734687691573 -0.01002431031047942 0 0.10819727561622181 0.0051540275748058516 0 0.1123734687691573 -0.01002431031047942 0 0.098223868840708883 -0.001829340687899171 0 0.099560182987537993 -0.01716708578600817 0 0.1123734687691573 -0.01002431031047942 0 0.098223868840708883 -0.001829340687899171 0 0.090019408901481579 -0.0081151798674118977 0 0.099560182987537993 -0.01716708578600817 0 0.098223868840708883 -0.001829340687899171 0 0.077242449928035195 -0.1075770599901236 0 0.07105008192184338 -0.093000526118056093 0 0.08916299804800551 -0.091700043742821633 0 0.077242449928035195 -0.1075770599901236 0 0.08916299804800551 -0.091700043742821633 0 0.100661343112126 -0.1148656722133406 0 0.079507979779523452 -0.12189141920685879 0 0.077242449928035195 -0.1075770599901236 0 0.100661343112126 -0.1148656722133406 0 0.091728661350998178 -0.12914073537390891 0 0.079507979779523452 -0.12189141920685879 0 0.100661343112126 -0.1148656722133406 0 0.077242449928035195 -0.1075770599901236 0 0.100661343112126 -0.1148656722133406 0 0.079507979779523452 -0.12189141920685879 0 0.062661574454670965 -0.11315888420317639 0 0.077242449928035195 -0.1075770599901236 0 0.063984275453865092 -0.1290624161379581 0 0.079507979779523452 -0.12189141920685879 0 0.062661574454670965 -0.11315888420317639 0 0.053823556743944428 -0.1002884477669066 0 0.077242449928035195 -0.1075770599901236 0 0.07105008192184338 -0.093000526118056093 0 0.053823556743944428 -0.1002884477669066 0 0.062661574454670965 -0.11315888420317639 0 0.077242449928035195 -0.1075770599901236 0 0.053823556743944428 -0.1002884477669066 0 0.077242449928035195 -0.1075770599901236 0 0.059882693305022487 -0.084325865747047479 0 0.075138711584209247 -0.081111213343381103 0 0.07105008192184338 -0.093000526118056093 0 0.059882693305022487 -0.084325865747047479 0 0.062430462548939129 -0.061171297773093013 0 0.075138711584209247 -0.081111213343381103 0 0.062430462548939129 -0.061171297773093013 0 0.075138711584209247 -0.081111213343381103 0 0.086207759871431019 -0.069336734047688336 0 0.091259472629766025 -0.058151644958222962 0 0.086207759871431019 -0.069336734047688336 0 0.10223949259936541 -0.063727092746103442 0 0.075138711584209247 -0.081111213343381103 0 0.086207759871431019 -0.069336734047688336 0 0.08916299804800551 -0.091700043742821633 0 0.075138711584209247 -0.081111213343381103 0 0.07105008192184338 -0.093000526118056093 0 0.08916299804800551 -0.091700043742821633 0 0.086207759871431019 -0.069336734047688336 0 0.08916299804800551 -0.091700043742821633 0 0.106397384753892 -0.079400377236343578 0 0.08916299804800551 -0.091700043742821633 0 0.106397384753892 -0.079400377236343578 0 0.11346719218665841 -0.098740336795096251 0 0.086207759871431019 -0.069336734047688336 0 0.106397384753892 -0.079400377236343578 0 0.10223949259936541 -0.063727092746103442 0 0.106397384753892 -0.079400377236343578 0 0.10223949259936541 -0.063727092746103442 0 0.1150170534466281 -0.068764158732670277 0 0.106397384753892 -0.079400377236343578 0 0.1150170534466281 -0.068764158732670277 0 0.12343703335910811 -0.082749379406430248 0 0.1150170534466281 -0.068764158732670277 0 0.12343703335910811 -0.082749379406430248 0 0.12833199002071949 -0.066517348465051404 0 0.11439878319405471 -0.054880948210173322 0 0.1150170534466281 -0.068764158732670277 0 0.12833199002071949 -0.066517348465051404 0 0.106397384753892 -0.079400377236343578 0 0.12343703335910811 -0.082749379406430248 0 0.11346719218665841 -0.098740336795096251 0 0.12343703335910811 -0.082749379406430248 0 0.11346719218665841 -0.098740336795096251 0 0.1338188796861112 -0.1018748269921142 0 0.11346719218665841 -0.098740336795096251 0 0.1240802362962158 -0.122154284436561 0 0.1338188796861112 -0.1018748269921142 0 0.08916299804800551 -0.091700043742821633 0 0.11346719218665841 -0.098740336795096251 0 0.100661343112126 -0.1148656722133406 0 0.1052925185484115 -0.13052679838984321 0 0.091728661350998178 -0.12914073537390891 0 0.100661343112126 -0.1148656722133406 0 0.11346719218665841 -0.098740336795096251 0 0.100661343112126 -0.1148656722133406 0 0.1240802362962158 -0.122154284436561 0 0.100661343112126 -0.1148656722133406 0 0.1240802362962158 -0.122154284436561 0 0.1052925185484115 -0.13052679838984321 0 0.100661343112126 -0.1148656722133406 0 0.1240802362962158 -0.122154284436561 0 0.1240802362962158 -0.122154284436561 0 0.1338188796861112 -0.1018748269921142 0 0.1240802362962158 -0.122154284436561 0 0.14965574975511309 -0.1115157109280847 0 0.1338188796861112 -0.1018748269921142 0 0.1240802362962158 -0.122154284436561 0 0.14965574975511309 -0.1115157109280847 0 0.1520777286302416 -0.13086788431683821 0 0.14965574975511309 -0.1115157109280847 0 0.16671984534777209 -0.1182552871280458 0 0.1520777286302416 -0.13086788431683821 0 0.14965574975511309 -0.1115157109280847 0 0.15136764197890579 -0.095560090767167399 0 0.1338188796861112 -0.1018748269921142 0 0.12343703335910811 -0.082749379406430248 0 0.1338188796861112 -0.1018748269921142 0 0.1435575230760063 -0.081595369547667121 0 0.1338188796861112 -0.1018748269921142 0 0.1435575230760063 -0.081595369547667121 0 0.12833199002071949 -0.066517348465051404 0 0.14029536620352451 -0.062997939320849475 0 0.1435575230760063 -0.081595369547667121 0 0.12343703335910811 -0.082749379406430248 0 0.12833199002071949 -0.066517348465051404 0 0.1435575230760063 -0.081595369547667121 0 0.14029536620352451 -0.062997939320849475 0 0.1435575230760063 -0.081595369547667121 0 0.1532961664659013 -0.061315912103220092 0 0.1435575230760063 -0.081595369547667121 0 0.1532961664659013 -0.061315912103220092 0 0.1435575230760063 -0.081595369547667121 0 0.1610371244904639 -0.081859939862354972 0 0.1532961664659013 -0.061315912103220092 0 0.15136764197890579 -0.095560090767167399 0 0.1338188796861112 -0.1018748269921142 0 0.1435575230760063 -0.081595369547667121 0 0.15136764197890579 -0.095560090767167399 0 0.1435575230760063 -0.081595369547667121 0 0.1610371244904639 -0.081859939862354972 0 0.1610371244904639 -0.081859939862354972 0 0.1769480192330565 -0.084929270719416472 0 0.16876893288683451 -0.100954606505616 0 0.1610371244904639 -0.081859939862354972 0 0.1729117889969064 -0.069571111095462726 0 0.1769480192330565 -0.084929270719416472 0 0.15136764197890579 -0.095560090767167399 0 0.1610371244904639 -0.081859939862354972 0 0.16876893288683451 -0.100954606505616 0 0.1610371244904639 -0.081859939862354972 0 0.1729117889969064 -0.069571111095462726 0 0.1532961664659013 -0.061315912103220092 0 0.1729117889969064 -0.069571111095462726 0 0.1817230223156516 -0.0752825134324938 0 0.1769480192330565 -0.084929270719416472 0 0.1729117889969064 -0.069571111095462726 0 0.1817230223156516 -0.0752825134324938 0 0.18716364978545161 -0.066503191535255843 0 0.1817230223156516 -0.0752825134324938 0 0.18716364978545161 -0.066503191535255843 0 0.19155893970252569 -0.078810340509973376 0 0.1729117889969064 -0.069571111095462726 0 0.18716364978545161 -0.066503191535255843 0 0.1798045452685077 -0.061408409160507937 0 0.1769480192330565 -0.084929270719416472 0 0.18540993518539009 -0.09697170121051249 0 0.19155893970252569 -0.078810340509973376 0 0.1817230223156516 -0.0752825134324938 0 0.1769480192330565 -0.084929270719416472 0 0.19155893970252569 -0.078810340509973376 0 0.1769480192330565 -0.084929270719416472 0 0.18540993518539009 -0.09697170121051249 0 0.16876893288683451 -0.100954606505616 0 0.18540993518539009 -0.09697170121051249 0 0.18441023249529279 -0.1147427170078994 0 0.16876893288683451 -0.100954606505616 0 0.18441023249529279 -0.1147427170078994 0 0.16671984534777209 -0.1182552871280458 0 0.16876893288683451 -0.100954606505616 0 0.18441023249529279 -0.1147427170078994 0 0.16671984534777209 -0.1182552871280458 0 0.18007522096426631 -0.1395814841971188 0 0.14965574975511309 -0.1115157109280847 0 0.16671984534777209 -0.1182552871280458 0 0.16876893288683451 -0.100954606505616 0 0.14965574975511309 -0.1115157109280847 0 0.15136764197890579 -0.095560090767167399 0 0.16876893288683451 -0.100954606505616 0 0.15559529236610761 0.001427401391511712 0 0.15281520742973259 -0.001176925556799116 0 0.1485652316232671 -0.021836672763797801 0 0.15559529236610761 0.001427401391511712 0 0.1485652316232671 -0.021836672763797801 0 0.16006373516655109 -0.011488445029004179 0 0.15559529236610761 0.001427401391511712 0 0.1485652316232671 -0.021836672763797801 0 0.15281520742973259 -0.001176925556799116 0 0.13726699067649581 -0.0087454682840986033 0 0.1485652316232671 -0.021836672763797801 0 0.14448673624297589 0.00060265853330222796 0 0.15281520742973259 -0.001176925556799116 0 0.13726699067649581 -0.0087454682840986033 0 0.1248322407467045 7.7178395747419371e-05 0 0.1406598526441169 0.0082108983930308174 0 0.13726699067649581 -0.0087454682840986033 0 0.1248322407467045 7.7178395747419371e-05 0 0.12463913433434939 -0.0169360929336827 0 0.13726699067649581 -0.0087454682840986033 0 0.13726699067649581 -0.0087454682840986033 0 0.13296251786647731 -0.029815989863341389 0 0.1485652316232671 -0.021836672763797801 0 0.12463913433434939 -0.0169360929336827 0 0.13726699067649581 -0.0087454682840986033 0 0.13296251786647731 -0.029815989863341389 0 0.1485652316232671 -0.021836672763797801 0 0.15406838280649249 -0.035055937947021318 0 0.1646737488032893 -0.029209742754888478 0 0.15406838280649249 -0.035055937947021318 0 0.14153517088042761 -0.045100746919107607 0 0.16193279819327261 -0.045743319269883127 0 0.13296251786647731 -0.029815989863341389 0 0.1485652316232671 -0.021836672763797801 0 0.14153517088042761 -0.045100746919107607 0 0.1485652316232671 -0.021836672763797801 0 0.14153517088042761 -0.045100746919107607 0 0.14153517088042761 -0.045100746919107607 0 0.16193279819327261 -0.045743319269883127 0 0.1485652316232671 -0.021836672763797801 0 0.15406838280649249 -0.035055937947021318 0 0.14153517088042761 -0.045100746919107607 0 0.14153517088042761 -0.045100746919107607 0 0.14109489671182629 -0.046557714544513983 0 0.12344480737894931 -0.044530858704992203 0 0.13296251786647731 -0.029815989863341389 0 0.14153517088042761 -0.045100746919107607 0 0.12344480737894931 -0.044530858704992203 0 0.14153517088042761 -0.045100746919107607 0 0.14109489671182629 -0.046557714544513983 0 0.12344480737894931 -0.044530858704992203 0 0.14153517088042761 -0.045100746919107607 0 0.14109489671182629 -0.046557714544513983 0 0.13201595759441939 -0.054633316920081033 0 0.14484834723324269 -0.052814754102727887 0 0.12344480737894931 -0.044530858704992203 0 0.14109489671182629 -0.046557714544513983 0 0.13201595759441939 -0.054633316920081033 0 0.12833199002071949 -0.066517348465051404 0 0.14029536620352451 -0.062997939320849475 0 0.13201595759441939 -0.054633316920081033 0 0.14029536620352451 -0.062997939320849475 0 0.13201595759441939 -0.054633316920081033 0 0.14484834723324269 -0.052814754102727887 0 0.14029536620352451 -0.062997939320849475 0 0.14484834723324269 -0.052814754102727887 0 0.1532961664659013 -0.061315912103220092 0 0.14153517088042761 -0.045100746919107607 0 0.15040312069321099 -0.051243683098734692 0 0.16193279819327261 -0.045743319269883127 0 0.14153517088042761 -0.045100746919107607 0 0.14484834723324269 -0.052814754102727887 0 0.15040312069321099 -0.051243683098734692 0 0.14153517088042761 -0.045100746919107607 0 0.14109489671182629 -0.046557714544513983 0 0.14484834723324269 -0.052814754102727887 0 0.15040312069321099 -0.051243683098734692 0 0.1532961664659013 -0.061315912103220092 0 0.16193279819327261 -0.045743319269883127 0 0.14484834723324269 -0.052814754102727887 0 0.15040312069321099 -0.051243683098734692 0 0.1532961664659013 -0.061315912103220092 0 0.1729117889969064 -0.069571111095462726 0 0.1532961664659013 -0.061315912103220092 0 0.17295267128833861 -0.056088280968877101 0 0.1532961664659013 -0.061315912103220092 0 0.17295267128833861 -0.056088280968877101 0 0.16193279819327261 -0.045743319269883127 0 0.17295267128833861 -0.056088280968877101 0 0.18233042550611761 -0.046385891620658141 0 0.16193279819327261 -0.045743319269883127 0 0.1729117889969064 -0.069571111095462726 0 0.17295267128833861 -0.056088280968877101 0 0.1798045452685077 -0.061408409160507937 0 0.17295267128833861 -0.056088280968877101 0 0.1798045452685077 -0.061408409160507937 0 0.18619007100333401 -0.053471053042436031 0 0.18716364978545161 -0.066503191535255843 0 0.1798045452685077 -0.061408409160507937 0 0.18619007100333401 -0.053471053042436031 0 0.17295267128833861 -0.056088280968877101 0 0.18619007100333401 -0.053471053042436031 0 0.18233042550611761 -0.046385891620658141 0 0.18233042550611761 -0.046385891620658141 0 0.18369598016160571 -0.035771640215541453 0 0.19552069316455101 -0.056456086713422712 0 0.17251884651317539 -0.039484990341311803 0 0.18233042550611761 -0.046385891620658141 0 0.18369598016160571 -0.035771640215541453 0 0.17251884651317539 -0.039484990341311803 0 0.18233042550611761 -0.046385891620658141 0 0.16193279819327261 -0.045743319269883127 0 0.17251884651317539 -0.039484990341311803 0 0.18369598016160571 -0.035771640215541453 0 0.1646737488032893 -0.029209742754888478 0 0.18233042550611761 -0.046385891620658141 0 0.16193279819327261 -0.045743319269883127 0 0.15406838280649249 -0.035055937947021318 0 0.16193279819327261 -0.045743319269883127 0 0.1646737488032893 -0.029209742754888478 0 0.17251884651317539 -0.039484990341311803 0 0.16193279819327261 -0.045743319269883127 0 0.1646737488032893 -0.029209742754888478 0 0.1646737488032893 -0.029209742754888478 0 0.16006373516655109 -0.011488445029004179 0 0.17187126715866119 -0.01508719371765972 0 0.1485652316232671 -0.021836672763797801 0 0.1646737488032893 -0.029209742754888478 0 0.16006373516655109 -0.011488445029004179 0 0.18369598016160571 -0.035771640215541453 0 0.17187126715866119 -0.01508719371765972 0 0.19824665487211329 -0.014282278054386831 0 0.18369598016160571 -0.035771640215541453 0 0.17187126715866119 -0.01508719371765972 0 0.18369598016160571 -0.035771640215541453 0 0.1646737488032893 -0.029209742754888478 0 0.17187126715866119 -0.01508719371765972 0 0.1891986054429885 0.0017627818108119321 0 0.17187126715866119 -0.01508719371765972 0 0.19824665487211329 -0.014282278054386831 0 0.1891986054429885 0.0017627818108119321 0 0.16004655415571661 0.005597252780221898 0 0.17187126715866119 -0.01508719371765972 0 0.16004655415571661 0.005597252780221898 0 0.17187126715866119 -0.01508719371765972 0 0.16004655415571661 0.005597252780221898 0 0.15559529236610761 0.001427401391511712 0 0.16006373516655109 -0.011488445029004179 0 0.16004655415571661 0.005597252780221898 0 0.16006373516655109 -0.011488445029004179 0 0.17187126715866119 -0.01508719371765972 0 0.2162535966536431 -0.0050009674220732794 0 0.19824665487211329 -0.014282278054386831 0 0.21545658737076059 -0.019498677359419909 0 0.20453665905069501 0.0038708987609379088 0 0.2162535966536431 -0.0050009674220732794 0 0.19824665487211329 -0.014282278054386831 0 0.20453665905069501 0.0038708987609379088 0 0.1891986054429885 0.0017627818108119321 0 0.19824665487211329 -0.014282278054386831 0 0.18369598016160571 -0.035771640215541453 0 0.19824665487211329 -0.014282278054386831 0 0.20778010361419449 -0.031673629172283398 0 0.21545658737076059 -0.019498677359419909 0 0.20778010361419449 -0.031673629172283398 0 0.22448579734643981 -0.032135882672551318 0 0.19824665487211329 -0.014282278054386831 0 0.21545658737076059 -0.019498677359419909 0 0.20778010361419449 -0.031673629172283398 0 0.20778010361419449 -0.031673629172283398 0 0.21153549992680359 -0.048868736781694858 0 0.22448579734643981 -0.032135882672551318 0 0.18369598016160571 -0.035771640215541453 0 0.19552069316455101 -0.056456086713422712 0 0.18369598016160571 -0.035771640215541453 0 0.20778010361419449 -0.031673629172283398 0 0.21153549992680359 -0.048868736781694858 0 0.18369598016160571 -0.035771640215541453 0 0.19552069316455101 -0.056456086713422712 0 0.21153549992680359 -0.048868736781694858 0 0.18619007100333401 -0.053471053042436031 0 0.18233042550611761 -0.046385891620658141 0 0.19552069316455101 -0.056456086713422712 0 0.18716364978545161 -0.066503191535255843 0 0.18619007100333401 -0.053471053042436031 0 0.19552069316455101 -0.056456086713422712 0 0.18619007100333401 -0.053471053042436031 0 0.19552069316455101 -0.056456086713422712 0 0.19552069316455101 -0.056456086713422712 0 0.20120244524607159 -0.0663949238687261 0 0.19552069316455101 -0.056456086713422712 0 0.22093750358204139 -0.064587381025243099 0 0.19552069316455101 -0.056456086713422712 0 0.21153549992680359 -0.048868736781694858 0 0.22093750358204139 -0.064587381025243099 0 0.19552069316455101 -0.056456086713422712 0 0.20120244524607159 -0.0663949238687261 0 0.22093750358204139 -0.064587381025243099 0 0.21153549992680359 -0.048868736781694858 0 0.23731566356596939 -0.048485121428219598 0 0.22093750358204139 -0.064587381025243099 0 0.23731566356596939 -0.048485121428219598 0 0.24372055895925629 -0.059330660909075739 0 0.22093750358204139 -0.064587381025243099 0 0.25481996922065991 -0.046995106790129949 0 0.23731566356596939 -0.048485121428219598 0 0.24372055895925629 -0.059330660909075739 0 0.23731566356596939 -0.048485121428219598 0 0.22448579734643981 -0.032135882672551318 0 0.24371914536904471 -0.02777119600878741 0 0.25481996922065991 -0.046995106790129949 0 0.23731566356596939 -0.048485121428219598 0 0.24371914536904471 -0.02777119600878741 0 0.21153549992680359 -0.048868736781694858 0 0.23731566356596939 -0.048485121428219598 0 0.22448579734643981 -0.032135882672551318 0 0.22448579734643981 -0.032135882672551318 0 0.23176010422981119 -0.015807880984331831 0 0.24371914536904471 -0.02777119600878741 0 0.21545658737076059 -0.019498677359419909 0 0.22448579734643981 -0.032135882672551318 0 0.23176010422981119 -0.015807880984331831 0 0.25012120287673428 -0.0087041627990332212 0 0.23176010422981119 -0.015807880984331831 0 0.24371914536904471 -0.02777119600878741 0 0.23594229229735961 0.001204899671140396 0 0.25012120287673428 -0.0087041627990332212 0 0.23176010422981119 -0.015807880984331831 0 0.23594229229735961 0.001204899671140396 0 0.24802825784114241 0.0021228002410254841 0 0.25012120287673428 -0.0087041627990332212 0 0.2162535966536431 -0.0050009674220732794 0 0.21545658737076059 -0.019498677359419909 0 0.23176010422981119 -0.015807880984331831 0 0.23594229229735961 0.001204899671140396 0 0.2162535966536431 -0.0050009674220732794 0 0.23176010422981119 -0.015807880984331831 0 0.20639602834578841 -0.10487645499254319 0 0.21243033797562441 -0.083465426528867875 0 0.22877166399839799 -0.095601184499206932 0 0.20639602834578841 -0.10487645499254319 0 0.22123311698905121 -0.1309425694751131 0 0.19909143224170539 -0.12781676801356021 0 0.20639602834578841 -0.10487645499254319 0 0.22123311698905121 -0.1309425694751131 0 0.18441023249529279 -0.1147427170078994 0 0.20639602834578841 -0.10487645499254319 0 0.19909143224170539 -0.12781676801356021 0 0.18540993518539009 -0.09697170121051249 0 0.18441023249529279 -0.1147427170078994 0 0.20639602834578841 -0.10487645499254319 0 0.20639602834578841 -0.10487645499254319 0 0.19155893970252569 -0.078810340509973376 0 0.18540993518539009 -0.09697170121051249 0 0.20639602834578841 -0.10487645499254319 0 0.19155893970252569 -0.078810340509973376 0 0.19155893970252569 -0.078810340509973376 0 0.20120244524607159 -0.0663949238687261 0 0.21243033797562441 -0.083465426528867875 0 0.18716364978545161 -0.066503191535255843 0 0.19552069316455101 -0.056456086713422712 0 0.20120244524607159 -0.0663949238687261 0 0.18716364978545161 -0.066503191535255843 0 0.19155893970252569 -0.078810340509973376 0 0.20120244524607159 -0.0663949238687261 0 0.20120244524607159 -0.0663949238687261 0 0.21243033797562441 -0.083465426528867875 0 0.22093750358204139 -0.064587381025243099 0 0.20639602834578841 -0.10487645499254319 0 0.19155893970252569 -0.078810340509973376 0 0.21243033797562441 -0.083465426528867875 0 0.21243033797562441 -0.083465426528867875 0 0.23550131275930161 -0.080211600907257152 0 0.22877166399839799 -0.095601184499206932 0 0.22093750358204139 -0.064587381025243099 0 0.24635431399953089 -0.072718675337066219 0 0.23550131275930161 -0.080211600907257152 0 0.22093750358204139 -0.064587381025243099 0 0.24635431399953089 -0.072718675337066219 0 0.21243033797562441 -0.083465426528867875 0 0.22093750358204139 -0.064587381025243099 0 0.23550131275930161 -0.080211600907257152 0 0.24372055895925629 -0.059330660909075739 0 0.22093750358204139 -0.064587381025243099 0 0.24635431399953089 -0.072718675337066219 0 0.24635431399953089 -0.072718675337066219 0 0.23550131275930161 -0.080211600907257152 0 0.25917534442807849 -0.063867019964717581 0 0.24372055895925629 -0.059330660909075739 0 0.24635431399953089 -0.072718675337066219 0 0.24635431399953089 -0.072718675337066219 0 0.24617179466915581 -0.088675955199177675 0 0.23550131275930161 -0.080211600907257152 0 0.24617179466915581 -0.088675955199177675 0 0.23550131275930161 -0.080211600907257152 0 0.22877166399839799 -0.095601184499206932 0 0.24617179466915581 -0.088675955199177675 0 0.2423569005593546 -0.1024062502757746 0 0.22877166399839799 -0.095601184499206932 0 0.20639602834578841 -0.10487645499254319 0 0.22877166399839799 -0.095601184499206932 0 0.22977360968116309 -0.1139714190916212 0 0.2423569005593546 -0.1024062502757746 0 0.22877166399839799 -0.095601184499206932 0 0.22977360968116309 -0.1139714190916212 0 0.22977360968116309 -0.1139714190916212 0 0.2347803596211471 -0.12616493755794941 0 0.22123311698905121 -0.1309425694751131 0 0.20639602834578841 -0.10487645499254319 0 0.22977360968116309 -0.1139714190916212 0 0.22123311698905121 -0.1309425694751131 0 0.2423569005593546 -0.1024062502757746 0 0.22977360968116309 -0.1139714190916212 0 0.24741130516608731 -0.1228342526988727 0 0.25482505302443081 -0.110426741359908 0 0.2423569005593546 -0.1024062502757746 0 0.24741130516608731 -0.1228342526988727 0 0.22977360968116309 -0.1139714190916212 0 0.24741130516608731 -0.1228342526988727 0 0.2347803596211471 -0.12616493755794941 0 0.25061313159862209 -0.13768002728381479 0 0.24741130516608731 -0.1228342526988727 0 0.24070340664828699 -0.13691150896619089 0 0.25061313159862209 -0.13768002728381479 0 0.24070340664828699 -0.13691150896619089 0 0.2472723070945613 -0.1467743816972317 0 0.24741130516608731 -0.1228342526988727 0 0.24070340664828699 -0.13691150896619089 0 0.2347803596211471 -0.12616493755794941 0 0.25300193151261952 -0.15703509430280579 0 0.24533083507265371 -0.15424722776977839 0 0.2472723070945613 -0.1467743816972317 0 0.24533083507265371 -0.15424722776977839 0 0.24012070240369299 -0.15346697759017899 0 0.2426462377322616 -0.1579338387791113 0 0.24533083507265371 -0.15424722776977839 0 0.24318240160529481 -0.15016582002308099 0 0.24012070240369299 -0.15346697759017899 0 0.24533083507265371 -0.15424722776977839 0 0.24318240160529481 -0.15016582002308099 0 0.2472723070945613 -0.1467743816972317 0 0.24318240160529481 -0.15016582002308099 0 0.2472723070945613 -0.1467743816972317 0 0.2381591419107994 -0.14582524825937199 0 0.24070340664828699 -0.13691150896619089 0 0.2472723070945613 -0.1467743816972317 0 0.2381591419107994 -0.14582524825937199 0 0.2381591419107994 -0.14582524825937199 0 0.24012070240369299 -0.15346697759017899 0 0.2360702056323154 -0.15700868395768219 0 0.24318240160529481 -0.15016582002308099 0 0.2381591419107994 -0.14582524825937199 0 0.24012070240369299 -0.15346697759017899 0 0.24012070240369299 -0.15346697759017899 0 0.23886526983836581 -0.15639762996387691 0 0.2360702056323154 -0.15700868395768219 0 0.24012070240369299 -0.15346697759017899 0 0.23886526983836581 -0.15639762996387691 0 0.2426462377322616 -0.1579338387791113 0 0.2381591419107994 -0.14582524825937199 0 0.22123311698905121 -0.1309425694751131 0 0.2360702056323154 -0.15700868395768219 0 0.20807271329829119 -0.14829508407739939 0 0.2360702056323154 -0.15700868395768219 0 0.22123311698905121 -0.1309425694751131 0 0.20807271329829119 -0.14829508407739939 0 0.2360702056323154 -0.15700868395768219 0 0.22123311698905121 -0.1309425694751131 0 0.2360702056323154 -0.15700868395768219 0 0.24070340664828699 -0.13691150896619089 0 0.2347803596211471 -0.12616493755794941 0 0.22123311698905121 -0.1309425694751131 0 0.24070340664828699 -0.13691150896619089 0 0.2381591419107994 -0.14582524825937199 0 0.22123311698905121 -0.1309425694751131 0 0.22123311698905121 -0.1309425694751131 0 0.20807271329829119 -0.14829508407739939 0 0.19909143224170539 -0.12781676801356021 0 0.20807271329829119 -0.14829508407739939 0 0.18007522096426631 -0.1395814841971188 0 0.18704253451541261 -0.15875560889803911 0 0.20807271329829119 -0.14829508407739939 0 0.18007522096426631 -0.1395814841971188 0 0.18441023249529279 -0.1147427170078994 0 0.19909143224170539 -0.12781676801356021 0 0.18007522096426631 -0.1395814841971188 0 0.20807271329829119 -0.14829508407739939 0 0.19909143224170539 -0.12781676801356021 0 0.18007522096426631 -0.1395814841971188 0 0.1881219743552843 -0.17509962496299711 0 0.21157886704812731 -0.18220005590715049 0 0.1881219743552843 -0.17509962496299711 0 0.2026053790680932 -0.16550273804063939 0 0.21157886704812731 -0.18220005590715049 0 0.1881219743552843 -0.17509962496299711 0 0.21157886704812731 -0.18220005590715049 0 0.20075463351375161 -0.1960824776573426 0 0.20807271329829119 -0.14829508407739939 0 0.2026053790680932 -0.16550273804063939 0 0.18704253451541261 -0.15875560889803911 0 0.1881219743552843 -0.17509962496299711 0 0.2026053790680932 -0.16550273804063939 0 0.18704253451541261 -0.15875560889803911 0 0.20807271329829119 -0.14829508407739939 0 0.2026053790680932 -0.16550273804063939 0 0.2176473323879235 -0.16513891596749211 0 0.2026053790680932 -0.16550273804063939 0 0.2176473323879235 -0.16513891596749211 0 0.21157886704812731 -0.18220005590715049 0 0.2176473323879235 -0.16513891596749211 0 0.21157886704812731 -0.18220005590715049 0 0.22991844152354979 -0.1731447082325126 0 0.21157886704812731 -0.18220005590715049 0 0.23503575974097049 -0.18930048685130399 0 0.21157886704812731 -0.18220005590715049 0 0.22991844152354979 -0.1731447082325126 0 0.23503575974097049 -0.18930048685130399 0 0.2176473323879235 -0.16513891596749211 0 0.22991844152354979 -0.1731447082325126 0 0.2360702056323154 -0.15700868395768219 0 0.20807271329829119 -0.14829508407739939 0 0.2176473323879235 -0.16513891596749211 0 0.2360702056323154 -0.15700868395768219 0 0.2360702056323154 -0.15700868395768219 0 0.24728142903306341 -0.1767048008765707 0 0.2360702056323154 -0.15700868395768219 0 0.24785622809759569 -0.16620527398175361 0 0.24728142903306341 -0.1767048008765707 0 0.22991844152354979 -0.1731447082325126 0 0.2360702056323154 -0.15700868395768219 0 0.24728142903306341 -0.1767048008765707 0 0.23886526983836581 -0.15639762996387691 0 0.2360702056323154 -0.15700868395768219 0 0.2426462377322616 -0.1579338387791113 0 0.25300193151261952 -0.15703509430280579 0 0.24785622809759569 -0.16620527398175361 0 0.2472088081037826 -0.15885535870836229 0 0.2360702056323154 -0.15700868395768219 0 0.24785622809759569 -0.16620527398175361 0 0.2426462377322616 -0.1579338387791113 0 0.24785622809759569 -0.16620527398175361 0 0.2472088081037826 -0.15885535870836229 0 0.2426462377322616 -0.1579338387791113 0 0.25300193151261952 -0.15703509430280579 0 0.24533083507265371 -0.15424722776977839 0 0.2472088081037826 -0.15885535870836229 0 0.24533083507265371 -0.15424722776977839 0 0.2472088081037826 -0.15885535870836229 0 0.2426462377322616 -0.1579338387791113 0 0.22991844152354979 -0.1731447082325126 0 0.24728142903306341 -0.1767048008765707 0 0.23503575974097049 -0.18930048685130399 0 0.25849265243381342 -0.1964009177954581 0 0.24728142903306341 -0.1767048008765707 0 0.23503575974097049 -0.18930048685130399 0 0.25849265243381342 -0.1964009177954581 0 0.23503575974097049 -0.18930048685130399 0 0.25849265243381342 -0.1964009177954581 0 0.23503575974097049 -0.18930048685130399 0 0.24493123288357929 -0.19776397957759309 0 0.23503575974097049 -0.18930048685130399 0 0.2373426123652447 -0.20249130722088721 0 0.24493123288357929 -0.19776397957759309 0 0.2373426123652447 -0.20249130722088721 0 0.24493123288357929 -0.19776397957759309 0 0.24452406327135509 -0.2031790732152372 0 0.25371561506649393 -0.19940226856579121 0 0.24493123288357929 -0.19776397957759309 0 0.2491142232596113 -0.20170981235651661 0 0.24493123288357929 -0.19776397957759309 0 0.2491142232596113 -0.20170981235651661 0 0.24452406327135509 -0.2031790732152372 0 0.24875812785136009 -0.20715300703924919 0 0.2424741199969806 -0.2067772598819401 0 0.24275442071038331 -0.2154689414586588 0 0.2491142232596113 -0.20170981235651661 0 0.24875812785136009 -0.20715300703924919 0 0.24452406327135509 -0.2031790732152372 0 0.24875812785136009 -0.20715300703924919 0 0.24452406327135509 -0.2031790732152372 0 0.2424741199969806 -0.2067772598819401 0 0.25202470740374783 -0.21361279141663569 0 0.24875812785136009 -0.20715300703924919 0 0.24275442071038331 -0.2154689414586588 0 0.25202470740374783 -0.21361279141663569 0 0.24275442071038331 -0.2154689414586588 0 0.24788466871589601 -0.22136535314091699 0 0.24275442071038331 -0.2154689414586588 0 0.2378056698009888 -0.21042842438765741 0 0.233105144958589 -0.21713185796882481 0 0.24275442071038331 -0.2154689414586588 0 0.233105144958589 -0.21713185796882481 0 0.23753083753840221 -0.22107367383945789 0 0.2373426123652447 -0.20249130722088721 0 0.2378056698009888 -0.21042842438765741 0 0.23169356581292769 -0.20879998947496881 0 0.2424741199969806 -0.2067772598819401 0 0.24275442071038331 -0.2154689414586588 0 0.2378056698009888 -0.21042842438765741 0 0.2373426123652447 -0.20249130722088721 0 0.2424741199969806 -0.2067772598819401 0 0.2378056698009888 -0.21042842438765741 0 0.2373426123652447 -0.20249130722088721 0 0.24452406327135509 -0.2031790732152372 0 0.2424741199969806 -0.2067772598819401 0 0.2373426123652447 -0.20249130722088721 0 0.23169356581292769 -0.20879998947496881 0 0.22351039584568699 -0.20237271557344591 0 0.2378056698009888 -0.21042842438765741 0 0.23169356581292769 -0.20879998947496881 0 0.233105144958589 -0.21713185796882481 0 0.233105144958589 -0.21713185796882481 0 0.22433404271039689 -0.21277068895426449 0 0.22265469519372899 -0.2213903220594155 0 0.23169356581292769 -0.20879998947496881 0 0.233105144958589 -0.21713185796882481 0 0.22433404271039689 -0.21277068895426449 0 0.22433404271039689 -0.21277068895426449 0 0.22265469519372899 -0.2213903220594155 0 0.2107064117410519 -0.21415855969466741 0 0.23169356581292769 -0.20879998947496881 0 0.22433404271039689 -0.21277068895426449 0 0.22351039584568699 -0.20237271557344591 0 0.22433404271039689 -0.21277068895426449 0 0.22351039584568699 -0.20237271557344591 0 0.2107064117410519 -0.21415855969466741 0 0.21157886704812731 -0.18220005590715049 0 0.23503575974097049 -0.18930048685130399 0 0.22351039584568699 -0.20237271557344591 0 0.23503575974097049 -0.18930048685130399 0 0.2373426123652447 -0.20249130722088721 0 0.22351039584568699 -0.20237271557344591 0 0.22878628974857651 -0.25596572368042558 0 0.2350048755684131 -0.2471221443027069 0 0.24587095960275271 -0.246839391770072 0 0.24587095960275271 -0.246839391770072 0 0.24168369874367171 -0.23528459229772269 0 0.24855557647589949 -0.2306875748904797 0 0.2350048755684131 -0.2471221443027069 0 0.24587095960275271 -0.246839391770072 0 0.23640843000420109 -0.24046491033358741 0 0.24587095960275271 -0.246839391770072 0 0.24168369874367171 -0.23528459229772269 0 0.23640843000420109 -0.24046491033358741 0 0.24168369874367171 -0.23528459229772269 0 0.23640843000420109 -0.24046491033358741 0 0.23573586092125101 -0.2330107991702291 0 0.24168369874367171 -0.23528459229772269 0 0.23573586092125101 -0.2330107991702291 0 0.24215054099148481 -0.22514664331867651 0 0.23573586092125101 -0.2330107991702291 0 0.24215054099148481 -0.22514664331867651 0 0.23211324349315199 -0.2265472526116715 0 0.24168369874367171 -0.23528459229772269 0 0.24855557647589949 -0.2306875748904797 0 0.24215054099148481 -0.22514664331867651 0 0.24275442071038331 -0.2154689414586588 0 0.24788466871589601 -0.22136535314091699 0 0.24215054099148481 -0.22514664331867651 0 0.24855557647589949 -0.2306875748904797 0 0.24788466871589601 -0.22136535314091699 0 0.24215054099148481 -0.22514664331867651 0 0.24275442071038331 -0.2154689414586588 0 0.24215054099148481 -0.22514664331867651 0 0.23753083753840221 -0.22107367383945789 0 0.24215054099148481 -0.22514664331867651 0 0.23753083753840221 -0.22107367383945789 0 0.23211324349315199 -0.2265472526116715 0 0.233105144958589 -0.21713185796882481 0 0.23211324349315199 -0.2265472526116715 0 0.22265469519372899 -0.2213903220594155 0 0.233105144958589 -0.21713185796882481 0 0.23753083753840221 -0.22107367383945789 0 0.23211324349315199 -0.2265472526116715 0 0.23211324349315199 -0.2265472526116715 0 0.22265469519372899 -0.2213903220594155 0 0.22323634147199539 -0.22982947211772631 0 0.22265469519372899 -0.2213903220594155 0 0.22323634147199539 -0.22982947211772631 0 0.21308423802745879 -0.2276704637428435 0 0.23573586092125101 -0.2330107991702291 0 0.23211324349315199 -0.2265472526116715 0 0.22931816243227829 -0.23664436263463851 0 0.23211324349315199 -0.2265472526116715 0 0.22323634147199539 -0.22982947211772631 0 0.22931816243227829 -0.23664436263463851 0 0.22931816243227829 -0.23664436263463851 0 0.2246732752609068 -0.24535212967814679 0 0.23083702275684009 -0.2438881718261553 0 0.23640843000420109 -0.24046491033358741 0 0.23573586092125101 -0.2330107991702291 0 0.22931816243227829 -0.23664436263463851 0 0.23640843000420109 -0.24046491033358741 0 0.22931816243227829 -0.23664436263463851 0 0.23083702275684009 -0.2438881718261553 0 0.22323634147199539 -0.22982947211772631 0 0.22931816243227829 -0.23664436263463851 0 0.2190113682133587 -0.23689495954006259 0 0.2190113682133587 -0.23689495954006259 0 0.2246732752609068 -0.24535212967814679 0 0.21508273866613609 -0.24392491104684269 0 0.22931816243227829 -0.23664436263463851 0 0.2190113682133587 -0.23689495954006259 0 0.2246732752609068 -0.24535212967814679 0 0.21967370958763061 -0.25194781690082851 0 0.2246732752609068 -0.24535212967814679 0 0.21508273866613609 -0.24392491104684269 0 0.2249570203721919 -0.25095081026743721 0 0.2246732752609068 -0.24535212967814679 0 0.22908324479563191 -0.24958367017612801 0 0.2249570203721919 -0.25095081026743721 0 0.21967370958763061 -0.25194781690082851 0 0.2246732752609068 -0.24535212967814679 0 0.2246732752609068 -0.24535212967814679 0 0.22908324479563191 -0.24958367017612801 0 0.23083702275684009 -0.2438881718261553 0 0.2350048755684131 -0.2471221443027069 0 0.23640843000420109 -0.24046491033358741 0 0.23083702275684009 -0.2438881718261553 0 0.2350048755684131 -0.2471221443027069 0 0.22908324479563191 -0.24958367017612801 0 0.23083702275684009 -0.2438881718261553 0 0.20891887688369851 -0.24909046752316061 0 0.20787706381451021 -0.23834951526501921 0 0.19671120542098669 -0.244967996220675 0 0.20891887688369851 -0.24909046752316061 0 0.21508273866613609 -0.24392491104684269 0 0.20787706381451021 -0.23834951526501921 0 0.21967370958763061 -0.25194781690082851 0 0.20891887688369851 -0.24909046752316061 0 0.21508273866613609 -0.24392491104684269 0 0.2190113682133587 -0.23689495954006259 0 0.21508273866613609 -0.24392491104684269 0 0.20787706381451021 -0.23834951526501921 0 0.20787706381451021 -0.23834951526501921 0 0.21308423802745879 -0.2276704637428435 0 0.19707184759197269 -0.2277935799726416 0 0.21308423802745879 -0.2276704637428435 0 0.19707184759197269 -0.2277935799726416 0 0.2107064117410519 -0.21415855969466741 0 0.2190113682133587 -0.23689495954006259 0 0.20787706381451021 -0.23834951526501921 0 0.21308423802745879 -0.2276704637428435 0 0.22323634147199539 -0.22982947211772631 0 0.2190113682133587 -0.23689495954006259 0 0.21308423802745879 -0.2276704637428435 0 0.22265469519372899 -0.2213903220594155 0 0.21308423802745879 -0.2276704637428435 0 0.2107064117410519 -0.21415855969466741 0 0.19707184759197269 -0.2277935799726416 0 0.19671120542098669 -0.244967996220675 0 0.1819569641919582 -0.24054432707074991 0 0.20787706381451021 -0.23834951526501921 0 0.19707184759197269 -0.2277935799726416 0 0.19671120542098669 -0.244967996220675 0 0.18864195926146179 -0.25778901709164648 0 0.19671120542098669 -0.244967996220675 0 0.1819569641919582 -0.24054432707074991 0 0.20129317996490911 -0.25453285704701167 0 0.20891887688369851 -0.24909046752316061 0 0.19671120542098669 -0.244967996220675 0 0.21157886704812731 -0.18220005590715049 0 0.22351039584568699 -0.20237271557344591 0 0.20075463351375161 -0.1960824776573426 0 0.22351039584568699 -0.20237271557344591 0 0.2107064117410519 -0.21415855969466741 0 0.20075463351375161 -0.1960824776573426 0 0.19707184759197269 -0.2277935799726416 0 0.2107064117410519 -0.21415855969466741 0 0.19236171587327289 -0.2093991074459656 0 0.19707184759197269 -0.2277935799726416 0 0.19236171587327289 -0.2093991074459656 0 0.1780528592168697 -0.21792817602558251 0 0.2107064117410519 -0.21415855969466741 0 0.19236171587327289 -0.2093991074459656 0 0.20075463351375161 -0.1960824776573426 0 0.1881219743552843 -0.17509962496299711 0 0.20075463351375161 -0.1960824776573426 0 0.17824843621908651 -0.1932648023598294 0 0.19236171587327289 -0.2093991074459656 0 0.20075463351375161 -0.1960824776573426 0 0.17824843621908651 -0.1932648023598294 0 0.19236171587327289 -0.2093991074459656 0 0.17824843621908651 -0.1932648023598294 0 0.1780528592168697 -0.21792817602558251 0 0.17824843621908651 -0.1932648023598294 0 0.1780528592168697 -0.21792817602558251 0 0.16310651701549381 -0.2063679518665601 0 0.1780528592168697 -0.21792817602558251 0 0.16310651701549381 -0.2063679518665601 0 0.1663127611930145 -0.23068574396959701 0 0.16310651701549381 -0.2063679518665601 0 0.1663127611930145 -0.23068574396959701 0 0.17824843621908651 -0.1932648023598294 0 0.16310651701549381 -0.2063679518665601 0 0.15990027283797309 -0.18205015976352329 0 0.16310651701549381 -0.2063679518665601 0 0.15990027283797309 -0.18205015976352329 0 0.1695190053705353 -0.25500353607263387 0 0.1819569641919582 -0.24054432707074991 0 0.1663127611930145 -0.23068574396959701 0 0.19707184759197269 -0.2277935799726416 0 0.1780528592168697 -0.21792817602558251 0 0.1819569641919582 -0.24054432707074991 0 0.1780528592168697 -0.21792817602558251 0 0.1819569641919582 -0.24054432707074991 0 0.1663127611930145 -0.23068574396959701 0 0.16310651701549381 -0.2063679518665601 0 0.1663127611930145 -0.23068574396959701 0 0.14840861736555669 -0.2240035409725035 0 0.1695190053705353 -0.25500353607263387 0 0.1663127611930145 -0.23068574396959701 0 0.1695190053705353 -0.25500353607263387 0 0.1663127611930145 -0.23068574396959701 0 0.15396261507686049 -0.24368433993276239 0 0.15396261507686049 -0.24368433993276239 0 0.14840861736555669 -0.2240035409725035 0 0.13890527976407699 -0.23805082385523799 0 0.1432846278928647 -0.25281864509487117 0 0.15396261507686049 -0.24368433993276239 0 0.13890527976407699 -0.23805082385523799 0 0.1663127611930145 -0.23068574396959701 0 0.15396261507686049 -0.24368433993276239 0 0.14840861736555669 -0.2240035409725035 0 0.14840861736555669 -0.2240035409725035 0 0.13055503197143631 -0.22303554907824319 0 0.13890527976407699 -0.23805082385523799 0 0.1234703733361959 -0.23688855388474839 0 0.13055503197143631 -0.22303554907824319 0 0.13890527976407699 -0.23805082385523799 0 0.1234703733361959 -0.23688855388474839 0 0.13890527976407699 -0.23805082385523799 0 0.13164938523525449 -0.24843784611654959 0 0.1234703733361959 -0.23688855388474839 0 0.1200765022515741 -0.24927850493146661 0 0.13164938523525449 -0.24843784611654959 0 0.1432846278928647 -0.25281864509487117 0 0.13890527976407699 -0.23805082385523799 0 0.13164938523525449 -0.24843784611654959 0 0.16310651701549381 -0.2063679518665601 0 0.1446452858541514 -0.18817185248630261 0 0.15990027283797309 -0.18205015976352329 0 0.16310651701549381 -0.2063679518665601 0 0.1446452858541514 -0.18817185248630261 0 0.1361341848440894 -0.20428593711185691 0 0.16310651701549381 -0.2063679518665601 0 0.14840861736555669 -0.2240035409725035 0 0.1361341848440894 -0.20428593711185691 0 0.1216627942646137 -0.21180403025485639 0 0.13055503197143631 -0.22303554907824319 0 0.1361341848440894 -0.20428593711185691 0 0.14840861736555669 -0.2240035409725035 0 0.13055503197143631 -0.22303554907824319 0 0.1361341848440894 -0.20428593711185691 0 0.1202415047230322 -0.19864641349927531 0 0.1216627942646137 -0.21180403025485639 0 0.1361341848440894 -0.20428593711185691 0 0.1446452858541514 -0.18817185248630261 0 0.1361341848440894 -0.20428593711185691 0 0.12854169772468221 -0.18559679576178029 0 0.1202415047230322 -0.19864641349927531 0 0.1361341848440894 -0.20428593711185691 0 0.12854169772468221 -0.18559679576178029 0 0.1446452858541514 -0.18817185248630261 0 0.12854169772468221 -0.18559679576178029 0 0.13785132845243159 -0.17116296535134509 0 0.12854169772468221 -0.18559679576178029 0 0.13785132845243159 -0.17116296535134509 0 0.1257830231888912 -0.17094509368520841 0 0.1446452858541514 -0.18817185248630261 0 0.14861228422903461 -0.17177063611295429 0 0.15990027283797309 -0.18205015976352329 0 0.1446452858541514 -0.18817185248630261 0 0.14861228422903461 -0.17177063611295429 0 0.13785132845243159 -0.17116296535134509 0 0.14861228422903461 -0.17177063611295429 0 0.15990027283797309 -0.18205015976352329 0 0.1566940286604524 -0.15773236766048659 0 0.14861228422903461 -0.17177063611295429 0 0.14397050534016451 -0.159735835303114 0 0.1566940286604524 -0.15773236766048659 0 0.14861228422903461 -0.17177063611295429 0 0.14397050534016451 -0.159735835303114 0 0.13785132845243159 -0.17116296535134509 0 0.14397050534016451 -0.159735835303114 0 0.13318815046690399 -0.1624032785595261 0 0.13386698640407699 -0.15165744079025839 0 0.14397050534016451 -0.159735835303114 0 0.13318815046690399 -0.1624032785595261 0 0.13785132845243159 -0.17116296535134509 0 0.13318815046690399 -0.1624032785595261 0 0.13785132845243159 -0.17116296535134509 0 0.1257830231888912 -0.17094509368520841 0 0.12243584606543451 -0.16017637748331559 0 0.13318815046690399 -0.1624032785595261 0 0.1257830231888912 -0.17094509368520841 0 0.12243584606543451 -0.16017637748331559 0 0.13318815046690399 -0.1624032785595261 0 0.13386698640407699 -0.15165744079025839 0 0.12331224512123561 -0.14842864230604069 0 0.12243584606543451 -0.16017637748331559 0 0.13386698640407699 -0.15165744079025839 0 0.12331224512123561 -0.14842864230604069 0 0.13386698640407699 -0.15165744079025839 0 0.13285447839261669 -0.1399034453698956 0 0.13386698640407699 -0.15165744079025839 0 0.13285447839261669 -0.1399034453698956 0 0.14688086954552501 -0.14748036008452051 0 0.1240802362962158 -0.122154284436561 0 0.13285447839261669 -0.1399034453698956 0 0.1520777286302416 -0.13086788431683821 0 0.1240802362962158 -0.122154284436561 0 0.1520777286302416 -0.13086788431683821 0 0.13285447839261669 -0.1399034453698956 0 0.1520777286302416 -0.13086788431683821 0 0.14688086954552501 -0.14748036008452051 0 0.1520777286302416 -0.13086788431683821 0 0.14688086954552501 -0.14748036008452051 0 0.16161944652379739 -0.14589040394359071 0 0.14397050534016451 -0.159735835303114 0 0.13386698640407699 -0.15165744079025839 0 0.14688086954552501 -0.14748036008452051 0 0.14688086954552501 -0.14748036008452051 0 0.16161944652379739 -0.14589040394359071 0 0.1566940286604524 -0.15773236766048659 0 0.14397050534016451 -0.159735835303114 0 0.14688086954552501 -0.14748036008452051 0 0.1566940286604524 -0.15773236766048659 0 0.16161944652379739 -0.14589040394359071 0 0.17236938481850211 -0.15378992345898931 0 0.1566940286604524 -0.15773236766048659 0 0.16161944652379739 -0.14589040394359071 0 0.18007522096426631 -0.1395814841971188 0 0.17236938481850211 -0.15378992345898931 0 0.1520777286302416 -0.13086788431683821 0 0.18007522096426631 -0.1395814841971188 0 0.1520777286302416 -0.13086788431683821 0 0.16161944652379739 -0.14589040394359071 0 0.18007522096426631 -0.1395814841971188 0 0.16671984534777209 -0.1182552871280458 0 0.1520777286302416 -0.13086788431683821 0 0.18007522096426631 -0.1395814841971188 0 0.18007522096426631 -0.1395814841971188 0 0.17236938481850211 -0.15378992345898931 0 0.18704253451541261 -0.15875560889803911 0 0.1881219743552843 -0.17509962496299711 0 0.16466508166244129 -0.16799919401884361 0 0.1881219743552843 -0.17509962496299711 0 0.18704253451541261 -0.15875560889803911 0 0.16466508166244129 -0.16799919401884361 0 0.17236938481850211 -0.15378992345898931 0 0.18704253451541261 -0.15875560889803911 0 0.16466508166244129 -0.16799919401884361 0 0.1881219743552843 -0.17509962496299711 0 0.17824843621908651 -0.1932648023598294 0 0.17273394126869629 -0.17960344527629829 0 0.1881219743552843 -0.17509962496299711 0 0.17273394126869629 -0.17960344527629829 0 0.16466508166244129 -0.16799919401884361 0 0.17824843621908651 -0.1932648023598294 0 0.17273394126869629 -0.17960344527629829 0 0.15990027283797309 -0.18205015976352329 0 0.17273394126869629 -0.17960344527629829 0 0.15990027283797309 -0.18205015976352329 0 0.16466508166244129 -0.16799919401884361 0 0.17236938481850211 -0.15378992345898931 0 0.1566940286604524 -0.15773236766048659 0 0.16466508166244129 -0.16799919401884361 0 0.15990027283797309 -0.18205015976352329 0 0.1566940286604524 -0.15773236766048659 0 0.16466508166244129 -0.16799919401884361 0 0.15990027283797309 -0.18205015976352329 0 0.1566940286604524 -0.15773236766048659 0 
</DataArray>
</Points>
<Cells>
<DataArray type="UInt32" Name="connectivity" format="ascii">
0 1 2 3 4 5 6 7 8 9 10 11 12 13 14 15 16 17 18 19 20 21 22 23 24 25 26 27 28 29 30 31 32 33 34 35 36 37 38 39 40 41 42 43 44 45 46 47 48 49 50 51 52 53 54 55 56 57 58 59 60 61 62 63 64 65 66 67 68 69 70 71 72 73 74 75 76 77 78 79 80 81 82 83 84 85 86 87 88 89 90 91 92 93 94 95 96 97 98 99 100 101 102 103 104 105 106 107 108 109 110 111 112 113 114 115 116 117 118 119 120 121 122 123 124 125 126 127 128 129 130 131 132 133 134 135 136 137 138 139 140 141 142 143 144 145 146 147 148 149 150 151 152 153 154 155 156 157 158 159 160 161 162 163 164 165 166 167 168 169 170 171 172 173 174 175 176 177 178 179 180 181 182 183 184 185 186 187 188 189 190 191 192 193 194 195 196 197 198 199 200 201 202 203 204 205 206 207 208 209 210 211 212 213 214 215 216 217 218 219 220 221 222 223 224 225 226 227 228 229 230 231 232 233 234 235 236 237 238 239 240 241 242 243 244 245 246 247 248 249 250 251 252 253 254 255 256 257 258 259 260 261 262 263 264 265 266 267 268 269 270 271 272 273 274 275 276 277 278 279 280 281 282 283 284 285 286 287 288 289 290 291 292 293 294 295 296 297 298 299 300 301 302 303 304 305 306 307 308 309 310 311 312 313 314 315 316 317 318 319 320 321 322 323 324 325 326 327 328 329 330 331 332 333 334 335 336 337 338 339 340 341 342 343 344 345 346 347 348 349 350 351 352 353 354 355 356 357 358 359 360 361 362 363 364 365 366 367 368 369 370 371 372 373 374 375 376 377 378 379 380 381 382 383 384 385 386 387 388 389 390 391 392 393 394 395 396 397 398 399 400 401 402 403 404 405 406 407 408 409 410 411 412 413 414 415 416 417 418 419 420 421 422 423 424 425 426 427 428 429 430 431 432 433 434 435 436 437 438 439 440 441 442 443 444 445 446 447 448 449 450 451 452 453 454 455 456 457 458 459 460 461 462 463 464 465 466 467 468 469 470 471 472 473 474 475 476 477 478 479 480 481 482 483 484 485 486 487 488 489 490 491 492 493 494 495 496 497 498 499 500 501 502 503 504 505 506 507 508 509 510 511 512 513 514 515 516 517 518 519 520 521 522 523 524 525 526 527 528 529 530 531 532 533 534 535 536 537 538 539 540 541 542 543 544 545 546 547 548 549 550 551 552 553 554 555 556 557 558 559 560 561 562 563 564 565 566 567 568 569 570 571 572 573 574 575 576 577 578 579 580 581 582 583 584 585 586 587 588 589 590 591 592 593 594 595 596 597 598 599 600 601 602 603 604 605 606 607 608 609 610 611 612 613 614 615 616 617 618 619 620 621 622 623 624 625 626 627 628 629 630 631 632 633 634 635 636 637 638 639 640 641 642 643 644 645 646 647 648 649 650 651 652 653 654 655 656 657 658 659 660 661 662 663 664 665 666 667 668 669 670 671 672 673 674 675 676 677 678 679 680 681 682 683 684 685 686 687 688 689 690 691 692 693 694 695 696 697 698 699 700 701 702 703 704 705 706 707 708 709 710 711 712 713 714 715 716 717 718 719 720 721 722 723 724 725 726 727 728 729 730 731 732 733 734 735 736 737 738 739 740 741 742 743 744 745 746 747 748 749 750 751 752 753 754 755 756 757 758 759 760 761 762 763 764 765 766 767 768 769 770 771 772 773 774 775 776 777 778 779 780 781 782 783 784 785 786 787 788 789 790 791 792 793 794 795 796 797 798 799 800 801 802 803 804 805 806 807 808 809 810 811 812 813 814 815 816 817 818 819 820 821 822 823 824 825 826 827 828 829 830 831 832 833 834 835 836 837 838 839 840 841 842 843 844 845 846 847 848 849 850 851 852 853 854 855 856 857 858 859 860 861 862 863 864 865 866 867 868 869 870 871 872 873 874 875 876 877 878 879 880 881 882 883 884 885 886 887 888 889 890 891 892 893 894 895 896 897 898 899 900 901 902 903 904 905 906 907 908 909 910 911 912 913 914 915 916 917 918 919 920 921 922 923 924 925 926 927 928 929 930 931 932 933 934 935 936 937 938 939 940 941 942 943 944 945 946 947 948 949 950 951 952 953 954 955 956 957 958 959 960 961 962 963 964 965 966 967 968 969 970 971 972 973 974 975 976 977 978 979 980 981 982 983 984 985 986 987 988 989 990 991 992 993 994 995 996 997 998 999 1000 1001 1002 1003 1004 1005 1006 1007 1008 1009 1010 1011 1012 1013 1014 1015 1016 1017 1018 1019 1020 1021 1022 1023 1024 1025 1026 1027 1028 1029 1030 1031 1032 1033 1034 1035 1036 1037 1038 1039 1040 1041 1042 1043 1044 1045 1046 1047 1048 1049 1050 1051 1052 1053 1054 1055 1056 1057 1058 1059 1060 1061 1062 1063 1064 1065 1066 1067 1068 1069 1070 1071 1072 1073 1074 1075 1076 1077 1078 1079 1080 1081 1082 1083 1084 1085 1086 1087 1088 1089 1090 1091 1092 1093 1094 1095 1096 1097 1098 1099 1100 1101 1102 1103 1104 1105 1106 1107 1108 1109 1110 1111 1112 1113 1114 1115 1116 1117 1118 1119 1120 1121 1122 1123 1124 1125 1126 1127 1128 1129 1130 1131 1132 1133 1134 1135 1136 1137 1138 1139 1140 1141 1142 1143 1144 1145 1146 1147 1148 1149 1150 1151 1152 1153 1154 1155 1156 1157 1158 1159 1160 1161 1162 1163 1164 1165 1166 1167 1168 1169 1170 1171 1172 1173 1174 1175 1176 1177 1178 1179 1180 1181 1182 1183 1184 1185 1186 1187 1188 1189 1190 1191 1192 1193 1194 1195 1196 1197 1198 1199 1200 1201 1202 1203 1204 1205 1206 1207 1208 1209 1210 1211 1212 1213 1214 1215 1216 1217 1218 1219 1220 1221 1222 1223 1224 1225 1226 1227 1228 1229 1230 1231 1232 1233 1234 1235 1236 1237 1238 1239 1240 1241 1242 1243 1244 1245 1246 1247 1248 1249 1250 1251 1252 1253 1254 1255 1256 1257 1258 1259 1260 1261 1262 1263 1264 1265 1266 1267 1268 1269 1270 1271 1272 1273 1274 1275 1276 1277 1278 1279 1280 1281 1282 1283 1284 1285 1286 1287 1288 1289 1290 1291 1292 1293 1294 1295 1296 1297 1298 1299 1300 1301 1302 1303 1304 1305 1306 1307 1308 1309 1310 1311 1312 1313 1314 1315 1316 1317 1318 1319 1320 1321 1322 1323 1324 1325 1326 1327 1328 1329 1330 1331 1332 1333 1334 1335 1336 1337 1338 1339 1340 1341 1342 1343 1344 1345 1346 1347 1348 1349 1350 1351 1352 1353 1354 1355 1356 1357 1358 1359 1360 1361 1362 1363 1364 1365 1366 1367 1368 1369 1370 1371 1372 1373 1374 1375 1376 1377 1378 1379 1380 1381 1382 1383 1384 1385 1386 1387 1388 1389 1390 1391 1392 1393 1394 1395 1396 1397 1398 1399 1400 1401 1402 1403 1404 1405 1406 1407 1408 1409 1410 1411 1412 1413 1414 1415 1416 1417 1418 1419 1420 1421 1422 1423 1424 1425 1426 1427 1428 1429 1430 1431 1432 1433 1434 1435 1436 1437 1438 1439 1440 1441 1442 1443 1444 1445 1446 1447 1448 1449 1450 1451 1452 1453 1454 1455 1456 1457 1458 1459 1460 1461 1462 1463 1464 1465 1466 1467 1468 1469 1470 1471 1472 1473 1474 1475 1476 1477 1478 1479 1480 1481 1482 1483 1484 1485 1486 1487 1488 1489 1490 1491 1492 1493 1494 1495 1496 1497 1498 1499 1500 1501 1502 1503 1504 1505 1506 1507 1508 1509 1510 1511 1512 1513 1514 1515 1516 1517 1518 1519 1520 1521 1522 1523 1524 1525 1526 1527 1528 1529 1530 1531 1532 1533 1534 1535 1536 1537 1538 1539 1540 1541 1542 1543 1544 1545 1546 1547 1548 1549 1550 1551 1552 1553 1554 1555 1556 1557 1558 1559 1560 1561 1562 1563 1564 1565 1566 1567 1568 1569 1570 1571 1572 1573 1574 1575 1576 1577 1578 1579 1580 1581 1582 1583 1584 1585 1586 1587 1588 1589 1590 1591 1592 1593 1594 1595 1596 1597 1598 1599 1600 1601 1602 1603 1604 1605 1606 1607 1608 1609 1610 1611 1612 1613 1614 1615 1616 1617 1618 1619 1620 1621 1622 1623 1624 1625 1626 1627 1628 1629 1630 1631 1632 1633 1634 1635 1636 1637 1638 1639 1640 1641 1642 1643 1644 1645 1646 1647 1648 1649 1650 1651 1652 1653 1654 1655 1656 1657 1658 1659 1660 1661 1662 1663 1664 1665 1666 1667 1668 1669 1670 1671 1672 1673 1674 1675 1676 1677 1678 1679 1680 1681 1682 1683 1684 1685 1686 1687 1688 1689 1690 1691 1692 1693 1694 1695 1696 1697 1698 1699 1700 1701 1702 1703 1704 1705 1706 1707 1708 1709 1710 1711 1712 1713 1714 1715 1716 1717 1718 1719 1720 1721 1722 1723 1724 1725 1726 1727 1728 1729 1730 1731 1732 1733 1734 1735 1736 1737 1738 1739 1740 1741 1742 1743 1744 1745 1746 1747 1748 1749 1750 1751 1752 1753 1754 1755 1756 1757 1758 1759 1760 1761 1762 1763 1764 1765 1766 1767 1768 1769 1770 1771 1772 1773 1774 1775 1776 1777 1778 1779 1780 1781 1782 1783 1784 1785 1786 1787 1788 1789 1790 1791 1792 1793 1794 1795 1796 1797 1798 1799 1800 1801 1802 1803 1804 1805 1806 1807 1808 1809 1810 1811 1812 1813 1814 1815 1816 1817 1818 1819 1820 1821 1822 1823 1824 1825 1826 1827 1828 1829 1830 1831 1832 1833 1834 1835 1836 1837 1838 1839 1840 1841 1842 1843 1844 1845 1846 1847 1848 1849 1850 1851 1852 1853 1854 1855 1856 1857 1858 1859 1860 1861 1862 1863 1864 1865 1866 1867 1868 1869 1870 1871 1872 1873 1874 1875 1876 1877 1878 1879 1880 1881 1882 1883 1884 1885 1886 1887 1888 1889 1890 1891 1892 1893 1894 1895 1896 1897 1898 1899 1900 1901 1902 1903 1904 1905 1906 1907 1908 1909 1910 1911 1912 1913 1914 1915 1916 1917 1918 1919 1920 1921 1922 1923 1924 1925 1926 1927 1928 1929 1930 1931 1932 1933 1934 1935 1936 1937 1938 1939 1940 1941 1942 1943 1944 1945 1946 1947 1948 1949 1950 1951 1952 1953 1954 1955 1956 1957 1958 1959 1960 1961 1962 1963 1964 1965 1966 1967 1968 1969 1970 1971 1972 1973 1974 1975 1976 1977 1978 1979 1980 1981 1982 1983 1984 1985 1986 1987 1988 1989 1990 1991 1992 1993 1994 1995 1996 1997 1998 1999 2000 2001 2002 2003 2004 2005 2006 2007 2008 2009 2010 2011 2012 2013 2014 2015 2016 2017 2018 2019 2020 2021 2022 2023 2024 2025 2026 2027 2028 2029 2030 2031 2032 2033 2034 2035 2036 2037 2038 2039 2040 2041 2042 2043 2044 2045 2046 2047 2048 2049 2050 2051 2052 2053 2054 2055 2056 2057 2058 2059 2060 2061 2062 2063 2064 2065 2066 2067 2068 2069 2070 2071 2072 2073 2074 2075 2076 2077 2078 2079 2080 2081 2082 2083 2084 2085 2086 2087 2088 2089 2090 2091 2092 2093 2094 2095 2096 2097 2098 2099 2100 2101 2102 2103 2104 2105 2106 2107 2108 2109 2110 2111 2112 2113 2114 2115 2116 2117 2118 2119 2120 2121 2122 2123 2124 2125 2126 2127 2128 2129 2130 2131 2132 2133 2134 2135 2136 2137 2138 2139 2140 2141 2142 2143 2144 2145 2146 2147 2148 2149 2150 2151 2152 2153 2154 2155 2156 2157 2158 2159 2160 2161 2162 2163 2164 2165 2166 2167 2168 2169 2170 2171 2172 2173 2174 2175 2176 2177 2178 2179 2180 2181 2182 2183 2184 2185 2186 2187 2188 2189 2190 2191 2192 2193 2194 2195 2196 2197 2198 2199 2200 2201 2202 2203 2204 2205 2206 2207 2208 2209 2210 2211 2212 2213 2214 2215 2216 2217 2218 2219 2220 2221 2222 2223 2224 2225 2226 2227 2228 2229 2230 2231 2232 2233 2234 2235 2236 2237 2238 2239 2240 2241 2242 2243 2244 2245 2246 2247 2248 2249 2250 2251 2252 2253 2254 2255 2256 2257 2258 2259 2260 2261 2262 2263 2264 2265 2266 2267 2268 2269 2270 2271 2272 2273 2274 2275 2276 2277 2278 2279 2280 2281 2282 2283 2284 2285 2286 2287 2288 2289 2290 2291 2292 2293 2294 2295 2296 2297 2298 2299 2300 2301 2302 2303 2304 2305 2306 2307 2308 2309 2310 2311 2312 2313 2314 2315 2316 2317 2318 2319 2320 2321 2322 2323 2324 2325 2326 2327 2328 2329 2330 2331 2332 2333 2334 2335 2336 2337 2338 2339 2340 2341 2342 2343 2344 2345 2346 2347 2348 2349 2350 2351 2352 2353 2354 2355 2356 2357 2358 2359 2360 2361 2362 2363 2364 2365 2366 2367 2368 2369 2370 2371 2372 2373 2374 2375 2376 2377 2378 2379 2380 2381 2382 2383 2384 2385 2386 2387 2388 2389 2390 2391 2392 2393 2394 2395 2396 2397 2398 2399 2400 2401 2402 2403 2404 2405 2406 2407 2408 2409 2410 2411 2412 2413 2414 2415 2416 2417 2418 2419 2420 2421 2422 2423 2424 2425 2426 2427 2428 2429 2430 2431 2432 2433 2434 2435 2436 2437 2438 2439 2440 2441 2442 2443 2444 2445 2446 2447 2448 2449 2450 2451 2452 2453 2454 2455 2456 2457 2458 2459 2460 2461 2462 2463 2464 2465 2466 2467 2468 2469 2470 2471 2472 2473 2474 2475 2476 2477 2478 2479 2480 2481 2482 2483 2484 2485 2486 2487 2488 2489 2490 2491 2492 2493 2494 2495 2496 2497 2498 2499 2500 2501 2502 2503 2504 2505 2506 2507 2508 2509 2510 2511 2512 2513 2514 2515 2516 2517 2518 2519 2520 2521 2522 2523 2524 2525 2526 2527 2528 2529 2530 2531 2532 2533 2534 2535 2536 2537 2538 2539 2540 2541 2542 2543 2544 2545 2546 2547 2548 2549 2550 2551 2552 2553 2554 2555 2556 2557 2558 2559 2560 2561 2562 2563 2564 2565 2566 2567 2568 2569 2570 2571 2572 2573 2574 2575 2576 2577 2578 2579 2580 2581 2582 2583 2584 2585 2586 2587 2588 2589 2590 2591 2592 2593 2594 2595 2596 2597 2598 2599 2600 2601 2602 2603 2604 2605 2606 2607 2608 2609 2610 2611 2612 2613 2614 2615 2616 2617 2618 2619 2620 2621 2622 2623 2624 2625 2626 2627 2628 2629 2630 2631 2632 2633 2634 2635 2636 2637 2638 2639 2640 2641 2642 2643 2644 2645 2646 2647 2648 2649 2650 2651 2652 2653 2654 2655 2656 2657 2658 2659 2660 2661 2662 2663 2664 2665 2666 2667 2668 2669 2670 2671 2672 2673 2674 2675 2676 2677 2678 2679 2680 2681 2682 2683 2684 2685 2686 2687 2688 2689 2690 2691 2692 2693 2694 2695 2696 2697 2698 2699 2700 2701 2702 2703 2704 2705 2706 2707 2708 2709 2710 2711 2712 2713 2714 2715 2716 2717 2718 2719 2720 2721 2722 2723 2724 2725 2726 2727 2728 2729 2730 2731 2732 2733 2734 2735 2736 2737 2738 2739 2740 2741 2742 2743 2744 2745 2746 2747 2748 2749 2750 2751 2752 2753 2754 2755 2756 2757 2758 2759 2760 2761 2762 2763 2764 2765 2766 2767 2768 2769 2770 2771 2772 2773 2774 2775 2776 2777 2778 2779 2780 2781 2782 2783 2784 2785 2786 2787 2788 2789 2790 2791 2792 2793 2794 2795 2796 2797 2798 2799 2800 2801 2802 2803 2804 2805 2806 2807 2808 2809 2810 2811 2812 2813 2814 2815 2816 2817 2818 2819 2820 2821 2822 2823 2824 2825 2826 2827 2828 2829 2830 2831 2832 2833 2834 2835 2836 2837 2838 2839 2840 2841 2842 2843 2844 2845 2846 2847 2848 2849 2850 2851 2852 2853 2854 2855 2856 2857 2858 2859 2860 2861 2862 2863 2864 2865 2866 2867 2868 2869 2870 2871 2872 2873 2874 2875 2876 2877 2878 2879 2880 2881 2882 2883 2884 2885 2886 2887 2888 2889 2890 2891 2892 2893 2894 2895 2896 2897 2898 2899 2900 2901 2902 2903 2904 2905 2906 2907 2908 2909 2910 2911 2912 2913 2914 2915 2916 2917 2918 2919 2920 2921 2922 2923 2924 2925 2926 2927 2928 2929 2930 2931 2932 2933 2934 2935 2936 2937 2938 2939 2940 2941 2942 2943 2944 2945 2946 2947 2948 2949 2950 2951 2952 2953 2954 2955 2956 2957 2958 2959 2960 2961 2962 2963 2964 2965 2966 2967 2968 2969 2970 2971 2972 2973 2974 2975 2976 2977 2978 2979 2980 2981 2982 2983 2984 2985 2986 2987 2988 2989 2990 2991 2992 2993 2994 2995 2996 2997 2998 2999 3000 3001 3002 3003 3004 3005 3006 3007 3008 3009 3010 3011 3012 3013 3014 3015 3016 3017 3018 3019 3020 3021 3022 3023 3024 3025 3026 3027 3028 3029 3030 3031 3032 3033 3034 3035 3036 3037 3038 3039 3040 3041 3042 3043 3044 3045 3046 3047 3048 3049 3050 3051 3052 3053 3054 3055 3056 3057 3058 3059 3060 3061 3062 3063 3064 3065 3066 3067 3068 3069 3070 3071 3072 3073 3074 3075 3076 3077 3078 3079 3080 3081 3082 3083 3084 3085 3086 3087 3088 3089 3090 3091 3092 3093 3094 3095 3096 3097 3098 3099 3100 3101 3102 3103 3104 3105 3106 3107 3108 3109 3110 3111 3112 3113 3114 3115 3116 3117 3118 3119 3120 3121 3122 3123 3124 3125 3126 3127 3128 3129 3130 3131 3132 3133 3134 3135 3136 3137 3138 3139 3140 3141 3142 3143 3144 3145 3146 3147 3148 3149 3150 3151 3152 3153 3154 3155 3156 3157 3158 3159 3160 3161 3162 3163 3164 3165 3166 3167 3168 3169 3170 3171 3172 3173 3174 3175 3176 3177 3178 3179 3180 3181 3182 3183 3184 3185 3186 3187 3188 3189 3190 3191 3192 3193 3194 3195 3196 3197 3198 3199 3200 3201 3202 3203 3204 3205 3206 3207 3208 3209 3210 3211 3212 3213 3214 3215 3216 3217 3218 3219 3220 3221 3222 3223 3224 3225 3226 3227 3228 3229 3230 3231 3232 3233 3234 3235 3236 3237 3238 3239 3240 3241 3242 3243 3244 3245 3246 3247 3248 3249 3250 3251 3252 3253 3254 3255 3256 3257 3258 3259 3260 3261 3262 3263 3264 3265 3266 3267 3268 3269 3270 3271 3272 3273 3274 3275 3276 3277 3278 3279 3280 3281 3282 3283 3284 3285 3286 3287 3288 3289 3290 3291 3292 3293 3294 3295 3296 3297 3298 3299 3300 3301 3302 3303 3304 3305 3306 3307 3308 3309 3310 3311 3312 3313 3314 3315 3316 3317 3318 3319 3320 3321 3322 3323 3324 3325 3326 3327 3328 3329 3330 3331 3332 3333 3334 3335 3336 3337 3338 3339 3340 3341 3342 3343 3344 3345 3346 3347 3348 3349 3350 3351 3352 3353 3354 3355 3356 3357 3358 3359 3360 3361 3362 3363 3364 3365 3366 3367 3368 3369 3370 3371 3372 3373 3374 3375 3376 3377 3378 3379 3380 3381 3382 3383 3384 3385 3386 3387 3388 3389 3390 3391 3392 3393 3394 3395 3396 3397 3398 3399 3400 3401 3402 3403 3404 3405 3406 3407 3408 3409 3410 3411 3412 3413 3414 3415 3416 3417 3418 3419 3420 3421 3422 3423 3424 3425 3426 3427 3428 3429 3430 3431 3432 3433 3434 3435 3436 3437 3438 3439 3440 3441 3442 3443 3444 3445 3446 3447 3448 3449 3450 3451 3452 3453 3454 3455 3456 3457 3458 3459 3460 3461 3462 3463 3464 3465 3466 3467 3468 3469 3470 3471 3472 3473 3474 3475 3476 3477 3478 3479 3480 3481 3482 3483 3484 3485 3486 3487 3488 3489 3490 3491 3492 3493 3494 3495 3496 3497 3498 3499 3500 3501 3502 3503 3504 3505 3506 3507 3508 3509 3510 3511 3512 3513 3514 3515 3516 3517 3518 3519 3520 3521 3522 3523 3524 3525 3526 3527 3528 3529 3530 3531 3532 3533 3534 3535 3536 3537 3538 3539 3540 3541 3542 3543 3544 3545 3546 3547 3548 3549 3550 3551 3552 3553 3554 3555 3556 3557 3558 3559 3560 3561 3562 3563 3564 3565 3566 3567 3568 3569 3570 3571 3572 3573 3574 3575 3576 3577 3578 3579 3580 3581 3582 3583 3584 3585 3586 3587 3588 3589 3590 3591 3592 3593 3594 3595 3596 3597 3598 3599 3600 3601 3602 3603 3604 3605 3606 3607 3608 3609 3610 3611 3612 3613 3614 3615 3616 3617 3618 3619 3620 3621 3622 3623 3624 3625 3626 3627 3628 3629 3630 3631 3632 3633 3634 3635 3636 3637 3638 3639 3640 3641 3642 3643 3644 3645 3646 3647 3648 3649 3650 3651 3652 3653 3654 3655 3656 3657 3658 3659 3660 3661 3662 3663 3664 3665 3666 3667 3668 3669 3670 3671 3672 3673 3674 3675 3676 3677 3678 3679 3680 3681 3682 3683 3684 3685 3686 3687 3688 3689 3690 3691 3692 3693 3694 3695 3696 3697 3698 3699 3700 3701 3702 3703 3704 3705 3706 3707 3708 3709 3710 3711 3712 3713 3714 3715 3716 3717 3718 3719 3720 3721 3722 3723 3724 3725 3726 3727 3728 3729 3730 3731 3732 3733 3734 3735 3736 3737 3738 3739 3740 3741 3742 3743 3744 3745 3746 3747 3748 3749 3750 3751 3752 3753 3754 3755 3756 3757 3758 3759 3760 3761 3762 3763 3764 3765 3766 3767 3768 3769 3770 3771 3772 3773 3774 3775 3776 3777 3778 3779 3780 3781 3782 3783 3784 3785 3786 3787 3788 3789 3790 3791 3792 3793 3794 3795 3796 3797 3798 3799 3800 3801 3802 3803 3804 3805 3806 3807 3808 3809 3810 3811 3812 3813 3814 3815 3816 3817 3818 3819 3820 3821 3822 3823 3824 3825 3826 3827 3828 3829 3830 3831 3832 3833 3834 3835 3836 3837 3838 3839 3840 3841 3842 3843 3844 3845 3846 3847 3848 3849 3850 3851 3852 3853 3854 3855 3856 3857 3858 3859 3860 3861 3862 3863 3864 3865 3866 3867 3868 3869 3870 3871 3872 3873 3874 3875 3876 3877 3878 3879 3880 3881 3882 3883 3884 3885 3886 3887 3888 3889 3890 3891 3892 3893 3894 3895 3896 3897 3898 3899 3900 3901 3902 3903 3904 3905 3906 3907 3908 3909 3910 3911 3912 3913 3914 3915 3916 3917 3918 3919 3920 3921 3922 3923 3924 3925 3926 3927 3928 3929 3930 3931 3932 3933 3934 3935 3936 3937 3938 3939 3940 3941 3942 3943 3944 3945 3946 3947 3948 3949 3950 3951 3952 3953 3954 3955 3956 3957 3958 3959 3960 3961 3962 3963 3964 3965 3966 3967 3968 3969 3970 3971 3972 3973 3974 3975 3976 3977 3978 3979 3980 3981 3982 3983 3984 3985 3986 3987 3988 3989 3990 3991 3992 3993 3994 3995 3996 3997 3998 3999 4000 4001 4002 4003 4004 4005 4006 4007 4008 4009 4010 4011 4012 4013 4014 4015 4016 4017 4018 4019 4020 4021 4022 4023 4024 4025 4026 4027 4028 4029 4030 4031 4032 4033 4034 4035 4036 4037 4038 4039 4040 4041 4042 4043 4044 4045 4046 4047 4048 4049 4050 4051 4052 4053 4054 4055 4056 4057 4058 4059 4060 4061 4062 4063 4064 4065 4066 4067 4068 4069 4070 4071 4072 4073 4074 4075 4076 4077 4078 4079 4080 4081 4082 4083 4084 4085 4086 4087 4088 4089 4090 4091 4092 4093 4094 4095 4096 4097 4098 4099 4100 4101 4102 4103 4104 4105 4106 4107 4108 4109 4110 4111 4112 4113 4114 4115 4116 4117 4118 4119 4120 4121 4122 4123 4124 4125 4126 4127 4128 4129 4130 4131 4132 4133 4134 4135 4136 4137 4138 4139 4140 4141 4142 4143 4144 4145 4146 4147 4148 4149 4150 4151 4152 4153 4154 4155 4156 4157 4158 4159 4160 4161 4162 4163 4164 4165 4166 4167 4168 4169 4170 4171 4172 4173 4174 4175 4176 4177 4178 4179 4180 4181 4182 4183 4184 4185 4186 4187 4188 4189 4190 4191 4192 4193 4194 4195 4196 4197 4198 4199 4200 4201 4202 4203 4204 4205 4206 4207 4208 4209 4210 4211 4212 4213 4214 4215 4216 4217 4218 4219 4220 4221 4222 4223 4224 4225 4226 4227 4228 4229 4230 4231 4232 4233 4234 4235 4236 4237 4238 4239 4240 4241 4242 4243 4244 4245 4246 4247 4248 4249 4250 4251 4252 4253 4254 4255 4256 4257 4258 4259 4260 4261 4262 4263 4264 4265 4266 4267 4268 4269 4270 4271 4272 4273 4274 4275 4276 4277 4278 4279 4280 4281 4282 4283 4284 4285 4286 4287 4288 4289 4290 4291 4292 4293 4294 4295 4296 4297 4298 4299 4300 4301 4302 4303 4304 4305 4306 4307 4308 4309 4310 4311 4312 4313 4314 4315 4316 4317 4318 4319 4320 4321 4322 4323 4324 4325 4326 4327 4328 4329 4330 4331 4332 4333 4334 4335 4336 4337 4338 4339 4340 4341 4342 4343 4344 4345 4346 4347 4348 4349 4350 4351 4352 4353 4354 4355 4356 4357 4358 4359 4360 4361 4362 4363 4364 4365 4366 4367 4368 4369 4370 4371 4372 4373 4374 4375 4376 4377 4378 4379 4380 4381 4382 4383 4384 4385 4386 4387 4388 4389 4390 4391 4392 4393 4394 4395 4396 4397 4398 4399 4400 4401 4402 4403 4404 4405 4406 4407 4408 4409 4410 4411 4412 4413 4414 4415 4416 4417 4418 4419 4420 4421 4422 4423 4424 4425 4426 4427 4428 4429 4430 4431 4432 4433 4434 4435 4436 4437 4438 4439 4440 4441 4442 4443 4444 4445 4446 4447 4448 4449 4450 4451 4452 4453 4454 4455 4456 4457 4458 4459 4460 4461 4462 4463 4464 4465 4466 4467 4468 4469 4470 4471 4472 4473 4474 4475 4476 4477 4478 4479 4480 4481 4482 4483 4484 4485 4486 4487 4488 4489 4490 4491 4492 4493 4494 4495 4496 4497 4498 4499 4500 4501 4502 4503 4504 4505 4506 4507 4508 4509 4510 4511 4512 4513 4514 4515 4516 4517 4518 4519 4520 4521 4522 4523 4524 4525 4526 4527 4528 4529 4530 4531 4532 4533 4534 4535 4536 4537 4538 4539 4540 4541 4542 4543 4544 4545 4546 4547 4548 4549 4550 4551 4552 4553 4554 4555 4556 4557 4558 4559 4560 4561 4562 4563 4564 4565 4566 4567 4568 4569 4570 4571 4572 4573 4574 4575 4576 4577 4578 4579 4580 4581 4582 4583 4584 4585 4586 4587 4588 4589 4590 4591 4592 4593 4594 4595 4596 4597 4598 4599 4600 4601 4602 4603 4604 4605 4606 4607 4608 4609 4610 4611 4612 4613 4614 4615 4616 4617 4618 4619 4620 4621 4622 4623 4624 4625 4626 4627 4628 4629 4630 4631 4632 4633 4634 4635 4636 4637 4638 4639 4640 4641 4642 4643 4644 4645 4646 4647 4648 4649 4650 4651 4652 4653 4654 4655 4656 4657 4658 4659 4660 4661 4662 4663 4664 4665 4666 4667 4668 4669 4670 4671 4672 4673 4674 4675 4676 4677 4678 4679 4680 4681 4682 4683 4684 4685 4686 4687 4688 4689 4690 4691 4692 4693 4694 4695 4696 4697 4698 4699 4700 4701 4702 4703 4704 4705 4706 4707 4708 4709 4710 4711 4712 4713 4714 4715 4716 4717 4718 4719 4720 4721 4722 4723 4724 4725 4726 4727 4728 4729 4730 4731 4732 4733 4734 4735 4736 4737 4738 4739 4740 4741 4742 4743 4744 4745 4746 4747 4748 4749 4750 4751 4752 4753 4754 4755 4756 4757 4758 4759 4760 4761 4762 4763 4764 4765 4766 4767 4768 4769 4770 4771 4772 4773 4774 4775 4776 4777 4778 4779 4780 4781 4782 4783 4784 4785 4786 4787 4788 4789 4790 4791 4792 4793 4794 4795 4796 4797 4798 4799 4800 4801 4802 4803 4804 4805 4806 4807 4808 4809 4810 4811 4812 4813 4814 4815 4816 4817 4818 4819 4820 4821 4822 4823 4824 4825 4826 4827 4828 4829 4830 4831 4832 4833 4834 4835 4836 4837 4838 4839 4840 4841 4842 4843 4844 4845 4846 4847 4848 4849 4850 4851 4852 4853 4854 4855 4856 4857 4858 4859 4860 4861 4862 4863 4864 4865 4866 4867 4868 4869 4870 4871 4872 4873 4874 4875 4876 4877 4878 4879 4880 4881 4882 4883 4884 4885 4886 4887 4888 4889 4890 4891 4892 4893 4894 4895 4896 4897 4898 4899 4900 4901 4902 4903 4904 4905 4906 4907 4908 4909 4910 4911 4912 4913 4914 4915 4916 4917 4918 4919 4920 4921 4922 4923 4924 4925 4926 4927 4928 4929 4930 4931 4932 4933 4934 4935 4936 4937 4938 4939 4940 4941 4942 4943 4944 4945 4946 4947 4948 4949 4950 4951 4952 4953 4954 4955 4956 4957 4958 4959 4960 4961 4962 4963 4964 4965 4966 4967 4968 4969 4970 4971 4972 4973 4974 4975 4976 4977 4978 4979 4980 4981 4982 4983 4984 4985 4986 4987 4988 4989 4990 4991 4992 4993 4994 4995 4996 4997 4998 4999 5000 5001 5002 5003 5004 5005 5006 5007 5008 5009 5010 5011 5012 5013 5014 5015 5016 5017 5018 5019 5020 5021 5022 5023 5024 5025 5026 5027 5028 5029 5030 5031 5032 5033 5034 5035 5036 5037 5038 5039 5040 5041 5042 5043 5044 5045 5046 5047 5048 5049 5050 5051 5052 5053 5054 5055 5056 5057 5058 5059 5060 5061 5062 5063 5064 5065 5066 5067 5068 5069 5070 5071 5072 5073 5074 5075 5076 5077 5078 5079 5080 5081 5082 5083 5084 5085 5086 5087 5088 5089 5090 5091 5092 5093 5094 5095 5096 5097 5098 5099 5100 5101 5102 5103 5104 5105 5106 5107 5108 5109 5110 5111 5112 5113 5114 5115 5116 5117 5118 5119 5120 5121 5122 5123 5124 5125 5126 5127 5128 5129 5130 5131 5132 5133 5134 5135 5136 5137 5138 5139 5140 5141 5142 5143 5144 5145 5146 5147 5148 5149 5150 5151 5152 5153 5154 5155 5156 5157 5158 5159 5160 5161 5162 5163 5164 5165 5166 5167 5168 5169 5170 5171 5172 5173 5174 5175 5176 5177 5178 5179 5180 5181 5182 5183 5184 5185 5186 5187 5188 5189 5190 5191 5192 5193 5194 5195 5196 5197 5198 5199 5200 5201 5202 5203 5204 5205 5206 5207 5208 5209 5210 5211 5212 5213 5214 5215 5216 5217 5218 5219 5220 5221 5222 5223 5224 5225 5226 5227 5228 5229 5230 5231 5232 5233 5234 5235 5236 5237 5238 5239 5240 5241 5242 5243 5244 5245 5246 5247 5248 5249 5250 5251 5252 5253 5254 5255 5256 5257 5258 5259 5260 5261 5262 5263 5264 5265 5266 5267 5268 5269 5270 5271 5272 5273 5274 5275 5276 5277 5278 5279 5280 5281 5282 5283 5284 5285 5286 5287 5288 5289 5290 5291 5292 5293 5294 5295 5296 5297 5298 5299 5300 5301 5302 5303 5304 5305 5306 5307 5308 5309 5310 5311 5312 5313 5314 5315 5316 5317 5318 5319 5320 5321 5322 5323 5324 5325 5326 5327 5328 5329 5330 5331 5332 5333 5334 5335 5336 5337 5338 5339 5340 5341 5342 5343 5344 5345 5346 5347 5348 5349 5350 5351 5352 5353 5354 5355 5356 5357 5358 5359 5360 5361 5362 5363 5364 5365 5366 5367 5368 5369 5370 5371 5372 5373 5374 5375 5376 5377 5378 5379 5380 5381 5382 5383 5384 5385 5386 5387 5388 5389 5390 5391 5392 5393 5394 5395 5396 5397 5398 5399 5400 5401 5402 5403 5404 5405 5406 5407 5408 5409 5410 5411 5412 5413 5414 5415 5416 5417 5418 5419 5420 5421 5422 5423 5424 5425 5426 5427 5428 5429 5430 5431 5432 5433 5434 5435 5436 5437 5438 5439 5440 5441 5442 5443 5444 5445 5446 5447 5448 5449 5450 5451 5452 5453 5454 5455 5456 5457 5458 5459 5460 5461 5462 5463 5464 5465 5466 5467 5468 5469 5470 5471 5472 5473 5474 5475 5476 5477 5478 5479 5480 5481 5482 5483 5484 5485 5486 5487 5488 5489 5490 5491 5492 5493 5494 5495 5496 5497 5498 5499 5500 5501 5502 5503 5504 5505 5506 5507 5508 5509 5510 5511 5512 5513 5514 5515 5516 5517 5518 5519 5520 5521 5522 5523 5524 5525 5526 5527 5528 5529 5530 5531 5532 5533 5534 5535 5536 5537 5538 5539 5540 5541 5542 5543 5544 5545 5546 5547 5548 5549 5550 5551 5552 5553 5554 5555 5556 5557 5558 5559 5560 5561 5562 5563 5564 5565 5566 5567 5568 5569 5570 5571 5572 5573 5574 5575 5576 5577 5578 5579 5580 5581 5582 5583 5584 5585 5586 5587 5588 5589 5590 5591 5592 5593 5594 5595 5596 5597 5598 5599 5600 5601 5602 5603 5604 5605 5606 5607 5608 5609 5610 5611 5612 5613 5614 5615 5616 5617 5618 5619 5620 5621 5622 5623 5624 5625 5626 5627 5628 5629 5630 5631 5632 5633 5634 5635 5636 5637 5638 5639 5640 5641 5642 5643 5644 5645 5646 5647 5648 5649 5650 5651 5652 5653 5654 5655 5656 5657 5658 5659 5660 5661 5662 5663 5664 5665 5666 5667 5668 5669 5670 5671 5672 5673 5674 5675 5676 5677 5678 5679 5680 5681 5682 5683 5684 5685 5686 5687 5688 5689 5690 5691 5692 5693 5694 5695 5696 5697 5698 5699 5700 5701 5702 5703 5704 5705 5706 5707 5708 5709 5710 5711 5712 5713 5714 5715 5716 5717 5718 5719 5720 5721 5722 5723 5724 5725 5726 5727 5728 5729 5730 5731 5732 5733 5734 5735 5736 5737 5738 5739 5740 5741 5742 5743 5744 5745 5746 5747 5748 5749 5750 5751 5752 5753 5754 5755 5756 5757 5758 5759 5760 5761 5762 5763 5764 5765 5766 5767 5768 5769 5770 5771 5772 5773 5774 5775 5776 5777 5778 5779 5780 5781 5782 5783 5784 5785 5786 5787 5788 5789 5790 5791 5792 5793 5794 5795 5796 5797 5798 5799 5800 5801 5802 5803 5804 5805 5806 5807 5808 5809 5810 5811 5812 5813 5814 5815 5816 5817 5818 5819 5820 5821 5822 5823 5824 5825 5826 5827 5828 5829 5830 5831 5832 5833 5834 5835 5836 5837 5838 5839 5840 5841 5842 5843 5844 5845 5846 5847 5848 5849 5850 5851 5852 5853 5854 5855 5856 5857 5858 5859 5860 5861 5862 5863 5864 5865 5866 5867 5868 5869 5870 5871 5872 5873 5874 5875 5876 5877 5878 5879 5880 5881 5882 5883 5884 5885 5886 5887 5888 5889 5890 5891 5892 5893 5894 5895 5896 5897 5898 5899 5900 5901 5902 5903 5904 5905 5906 5907 5908 5909 5910 5911 5912 5913 5914 5915 5916 5917 5918 5919 5920 5921 5922 5923 5924 5925 5926 5927 5928 5929 5930 5931 5932 5933 5934 5935 5936 5937 5938 5939 5940 5941 5942 5943 5944 5945 5946 5947 5948 5949 5950 5951 5952 5953 5954 5955 5956 5957 5958 5959 5960 5961 5962 5963 5964 5965 5966 5967 5968 5969 5970 5971 5972 5973 5974 5975 5976 5977 5978 5979 5980 5981 5982 5983 5984 5985 5986 5987 5988 5989 5990 5991 5992 5993 5994 5995 5996 5997 5998 5999 6000 6001 6002 6003 6004 6005 6006 6007 6008 6009 6010 6011 6012 6013 6014 6015 6016 6017 6018 6019 6020 6021 6022 6023 6024 6025 6026 6027 6028 6029 6030 6031 6032 6033 6034 6035 6036 6037 6038 6039 6040 6041 6042 6043 6044 6045 6046 6047 6048 6049 6050 6051 6052 6053 6054 6055 6056 6057 6058 6059 6060 6061 6062 6063 6064 6065 6066 6067 6068 6069 6070 6071 6072 6073 6074 6075 6076 6077 6078 6079 6080 6081 6082 6083 6084 6085 6086 6087 6088 6089 6090 6091 6092 6093 6094 6095 6096 6097 6098 6099 6100 6101 6102 6103 6104 6105 6106 6107 6108 6109 6110 6111 6112 6113 6114 6115 6116 6117 6118 6119 6120 6121 6122 6123 6124 6125 6126 6127 6128 6129 6130 6131 6132 6133 6134 6135 6136 6137 6138 6139 6140 6141 6142 6143 6144 6145 6146 6147 6148 6149 6150 6151 6152 6153 6154 6155 6156 6157 6158 6159 6160 6161 6162 6163 6164 6165 6166 6167 6168 6169 6170 6171 6172 6173 6174 6175 6176 6177 6178 6179 6180 6181 6182 6183 6184 6185 6186 6187 6188 6189 6190 6191 6192 6193 6194 6195 6196 6197 6198 6199 6200 6201 6202 6203 6204 6205 6206 6207 6208 6209 6210 6211 6212 6213 6214 6215 6216 6217 6218 6219 6220 6221 6222 6223 6224 6225 6226 6227 6228 6229 6230 6231 6232 6233 6234 6235 6236 6237 6238 6239 6240 6241 6242 6243 6244 6245 6246 6247 6248 6249 6250 6251 6252 6253 6254 6255 6256 6257 6258 6259 6260 6261 6262 6263 6264 6265 6266 6267 6268 6269 6270 6271 6272 6273 6274 6275 6276 6277 6278 6279 6280 6281 6282 6283 6284 6285 6286 6287 6288 6289 6290 6291 6292 6293 6294 6295 6296 6297 6298 6299 6300 6301 6302 6303 6304 6305 6306 6307 6308 6309 6310 6311 6312 6313 6314 6315 6316 6317 6318 6319 6320 6321 6322 6323 6324 6325 6326 6327 6328 6329 6330 6331 6332 6333 6334 6335 6336 6337 6338 6339 6340 6341 6342 6343 6344 6345 6346 6347 6348 6349 6350 6351 6352 6353 6354 6355 6356 6357 6358 6359 6360 6361 6362 6363 6364 6365 6366 6367 6368 6369 6370 6371 6372 6373 6374 6375 6376 6377 6378 6379 6380 6381 6382 6383 6384 6385 6386 6387 6388 6389 6390 6391 6392 6393 6394 6395 6396 6397 6398 6399 6400 6401 6402 6403 6404 6405 6406 6407 6408 6409 6410 6411 6412 6413 6414 6415 6416 6417 6418 6419 6420 6421 6422 6423 6424 6425 6426 6427 6428 6429 6430 6431 6432 6433 6434 6435 6436 6437 6438 6439 6440 6441 6442 6443 6444 6445 6446 6447 6448 6449 6450 6451 6452 6453 6454 6455 6456 6457 6458 6459 6460 6461 6462 6463 6464 6465 6466 6467 6468 6469 6470 6471 6472 6473 6474 6475 6476 6477 6478 6479 6480 6481 6482 6483 6484 6485 6486 6487 6488 6489 6490 6491 6492 6493 6494 6495 6496 6497 6498 6499 6500 6501 6502 6503 6504 6505 6506 6507 6508 6509 6510 6511 6512 6513 6514 6515 6516 6517 6518 6519 6520 6521 6522 6523 6524 6525 6526 6527 6528 6529 6530 6531 6532 6533 6534 6535 6536 6537 6538 6539 6540 6541 6542 6543 6544 6545 6546 6547 6548 6549 6550 6551 6552 6553 6554 6555 6556 6557 6558 6559 6560 6561 6562 6563 6564 6565 6566 6567 6568 6569 6570 6571 6572 6573 6574 6575 6576 6577 6578 6579 6580 6581 6582 6583 6584 6585 6586 6587 6588 6589 6590 6591 6592 6593 6594 6595 6596 6597 6598 6599 6600 6601 6602 6603 6604 6605 6606 6607 6608 6609 6610 6611 6612 6613 6614 6615 6616 6617 6618 6619 6620 6621 6622 6623 6624 6625 6626 6627 6628 6629 6630 6631 6632 6633 6634 6635 6636 6637 6638 6639 6640 6641 6642 6643 6644 6645 6646 6647 6648 6649 6650 6651 6652 6653 6654 6655 6656 6657 6658 6659 6660 6661 6662 6663 6664 6665 6666 6667 6668 6669 6670 6671 6672 6673 6674 6675 6676 6677 6678 6679 6680 6681 6682 6683 6684 6685 6686 6687 6688 6689 6690 6691 6692 6693 6694 6695 6696 6697 6698 6699 6700 6701 6702 6703 6704 6705 6706 6707 6708 6709 6710 6711 6712 6713 6714 6715 6716 6717 6718 6719 6720 6721 6722 6723 6724 6725 6726 6727 6728 6729 6730 6731 6732 6733 6734 6735 6736 6737 6738 6739 6740 6741 6742 6743 6744 6745 6746 6747 6748 6749 6750 6751 6752 6753 6754 6755 6756 6757 6758 6759 6760 6761 6762 6763 6764 6765 6766 6767 6768 6769 6770 6771 6772 6773 6774 6775 6776 6777 6778 6779 6780 6781 6782 6783 6784 6785 6786 6787 6788 6789 6790 6791 6792 6793 6794 6795 6796 6797 6798 6799 6800 6801 6802 6803 6804 6805 6806 6807 6808 6809 6810 6811 6812 6813 6814 6815 6816 6817 6818 6819 6820 6821 6822 6823 6824 6825 6826 6827 6828 6829 6830 6831 6832 6833 6834 6835 6836 6837 6838 6839 6840 6841 6842 6843 6844 6845 6846 6847 6848 6849 6850 6851 6852 6853 6854 6855 6856 6857 6858 6859 6860 6861 6862 6863 6864 6865 6866 6867 6868 6869 6870 6871 6872 6873 6874 6875 6876 6877 6878 6879 6880 6881 6882 6883 6884 6885 6886 6887 6888 6889 6890 6891 6892 6893 6894 6895 6896 6897 6898 6899 6900 6901 6902 6903 6904 6905 6906 6907 6908 6909 6910 6911 6912 6913 6914 6915 6916 6917 6918 6919 6920 6921 6922 6923 6924 6925 6926 6927 6928 6929 6930 6931 6932 6933 6934 6935 6936 6937 6938 6939 6940 6941 6942 6943 6944 6945 6946 6947 6948 6949 6950 6951 6952 6953 6954 6955 6956 6957 6958 6959 6960 6961 6962 6963 6964 6965 6966 6967 6968 6969 6970 6971 6972 6973 6974 6975 6976 6977 6978 6979 6980 6981 6982 6983 6984 6985 6986 6987 6988 6989 6990 6991 6992 6993 6994 6995 6996 6997 6998 6999 7000 7001 7002 7003 7004 7005 7006 7007 7008 7009 7010 7011 7012 7013 7014 7015 7016 7017 7018 7019 7020 7021 7022 7023 7024 7025 7026 7027 7028 7029 7030 7031 7032 7033 7034 7035 7036 7037 7038 7039 7040 7041 7042 7043 7044 7045 7046 7047 7048 7049 7050 7051 7052 7053 7054 7055 7056 7057 7058 7059 7060 7061 7062 7063 7064 7065 7066 7067 7068 7069 7070 7071 7072 7073 7074 7075 7076 7077 7078 7079 7080 7081 7082 7083 7084 7085 7086 7087 7088 7089 7090 7091 7092 7093 7094 7095 7096 7097 7098 7099 7100 7101 7102 7103 7104 7105 7106 7107 7108 7109 7110 7111 7112 7113 7114 7115 7116 7117 7118 7119 7120 7121 7122 7123 7124 7125 7126 7127 7128 7129 7130 7131 7132 7133 7134 7135 7136 7137 7138 7139 7140 7141 7142 7143 7144 7145 7146 7147 7148 7149 7150 7151 7152 7153 7154 7155 7156 7157 7158 7159 7160 7161 7162 7163 7164 7165 7166 7167 7168 7169 7170 7171 7172 7173 7174 7175 7176 7177 7178 7179 7180 7181 7182 7183 7184 7185 7186 7187 7188 7189 7190 7191 7192 7193 7194 7195 7196 7197 7198 7199 7200 7201 7202 7203 7204 7205 7206 7207 7208 7209 7210 7211 7212 7213 7214 7215 7216 7217 7218 7219 7220 7221 7222 7223 7224 7225 7226 7227 7228 7229 7230 7231 7232 7233 7234 7235 7236 7237 7238 7239 7240 7241 7242 7243 7244 7245 7246 7247 7248 7249 7250 7251 7252 7253 7254 7255 7256 7257 7258 7259 7260 7261 7262 7263 7264 7265 7266 7267 7268 7269 7270 7271 7272 7273 7274 7275 7276 7277 7278 7279 7280 7281 7282 7283 7284 7285 7286 7287 7288 7289 7290 7291 7292 7293 7294 7295 7296 7297 7298 7299 7300 7301 7302 7303 7304 7305 7306 7307 7308 7309 7310 7311 7312 7313 7314 7315 7316 7317 7318 7319 7320 7321 7322 7323 7324 7325 7326 7327 7328 7329 7330 7331 7332 7333 7334 7335 7336 7337 7338 7339 7340 7341 7342 7343 7344 7345 7346 7347 7348 7349 7350 7351 7352 7353 7354 7355 7356 7357 7358 7359 7360 7361 7362 7363 7364 7365 7366 7367 7368 7369 7370 7371 7372 7373 7374 7375 7376 7377 7378 7379 7380 7381 7382 7383 7384 7385 7386 7387 7388 7389 7390 7391 7392 7393 7394 7395 7396 7397 7398 7399 7400 7401 7402 7403 7404 7405 7406 7407 7408 7409 7410 7411 7412 7413 7414 7415 7416 7417 7418 7419 7420 7421 7422 7423 7424 7425 7426 7427 7428 7429 7430 7431 7432 7433 7434 7435 7436 7437 7438 7439 7440 7441 7442 7443 7444 7445 7446 7447 7448 7449 7450 7451 7452 7453 7454 7455 7456 7457 7458 7459 7460 7461 7462 7463 7464 7465 7466 7467 7468 7469 7470 7471 7472 7473 7474 7475 7476 7477 7478 7479 7480 7481 7482 7483 7484 7485 7486 7487 7488 7489 7490 7491 7492 7493 7494 7495 7496 7497 7498 7499 7500 7501 7502 7503 7504 7505 7506 7507 7508 7509 7510 7511 7512 7513 7514 7515 7516 7517 7518 7519 7520 7521 7522 7523 7524 7525 7526 7527 7528 7529 7530 7531 7532 7533 7534 7535 7536 7537 7538 7539 7540 7541 7542 7543 7544 7545 7546 7547 7548 7549 7550 7551 7552 7553 7554 7555 7556 7557 7558 7559 7560 7561 7562 7563 7564 7565 7566 7567 7568 7569 7570 7571 7572 7573 7574 7575 7576 7577 7578 7579 7580 7581 7582 7583 7584 7585 7586 7587 7588 7589 7590 7591 7592 7593 7594 7595 7596 7597 7598 7599 7600 7601 7602 7603 7604 7605 7606 7607 7608 7609 7610 7611 7612 7613 7614 7615 7616 7617 7618 7619 7620 7621 7622 7623 7624 7625 7626 7627 7628 7629 7630 7631 7632 7633 7634 7635 7636 7637 7638 7639 7640 7641 7642 7643 7644 7645 7646 7647 7648 7649 7650 7651 7652 7653 7654 7655 7656 7657 7658 7659 7660 7661 7662 7663 7664 7665 7666 7667 7668 7669 7670 7671 7672 7673 7674 7675 7676 7677 7678 7679 7680 7681 7682 7683 7684 7685 7686 7687 7688 7689 7690 7691 7692 7693 7694 7695 7696 7697 7698 7699 7700 7701 7702 7703 7704 7705 7706 7707 7708 7709 7710 7711 7712 7713 7714 7715 7716 7717 7718 7719 7720 7721 7722 7723 7724 7725 7726 7727 7728 7729 7730 7731 7732 7733 7734 7735 7736 7737 7738 7739 7740 7741 7742 7743 7744 7745 7746 7747 7748 7749 7750 7751 7752 7753 7754 7755 7756 7757 7758 7759 7760 7761 7762 7763 7764 7765 7766 7767 7768 7769 7770 7771 7772 7773 7774 7775 7776 7777 7778 7779 7780 7781 7782 7783 7784 7785 7786 7787 7788 7789 7790 7791 7792 7793 7794 7795 7796 7797 7798 7799 7800 7801 7802 7803 7804 7805 7806 7807 7808 7809 7810 7811 7812 7813 7814 7815 7816 7817 7818 7819 7820 7821 7822 7823 7824 7825 7826 7827 7828 7829 7830 7831 7832 7833 7834 7835 7836 7837 7838 7839 7840 7841 7842 7843 7844 7845 7846 7847 7848 7849 7850 7851 7852 7853 7854 7855 7856 7857 7858 7859 7860 7861 7862 7863 7864 7865 7866 7867 7868 7869 7870 7871 7872 7873 7874 7875 7876 7877 7878 7879 7880 7881 7882 7883 7884 7885 7886 7887 7888 7889 7890 7891 7892 7893 7894 7895 7896 7897 7898 7899 7900 7901 7902 7903 7904 7905 7906 7907 7908 7909 7910 7911 7912 7913 7914 7915 7916 7917 7918 7919 7920 7921 7922 7923 7924 7925 7926 7927 7928 7929 7930 7931 7932 7933 7934 7935 7936 7937 7938 7939 7940 7941 7942 7943 7944 7945 7946 7947 7948 7949 7950 7951 7952 7953 7954 7955 7956 7957 7958 7959 7960 7961 7962 7963 7964 7965 7966 7967 7968 7969 7970 7971 7972 7973 7974 7975 7976 7977 7978 7979 7980 7981 7982 7983 7984 7985 7986 7987 7988 7989 7990 7991 7992 7993 7994 7995 7996 7997 7998 7999 8000 8001 8002 8003 8004 8005 8006 8007 8008 8009 8010 8011 8012 8013 8014 8015 8016 8017 8018 8019 8020 8021 8022 8023 8024 8025 8026 8027 8028 8029 8030 8031 8032 8033 8034 8035 8036 8037 8038 8039 8040 8041 8042 8043 8044 8045 8046 8047 8048 8049 8050 8051 8052 8053 8054 8055 8056 8057 8058 8059 8060 8061 8062 8063 8064 8065 8066 8067 8068 8069 8070 8071 8072 8073 8074 8075 8076 8077 8078 8079 8080 8081 8082 8083 8084 8085 8086 8087 8088 8089 8090 8091 8092 8093 8094 8095 8096 8097 8098 8099 8100 8101 8102 8103 8104 8105 8106 8107 8108 8109 8110 8111 8112 8113 8114 8115 8116 8117 8118 8119 8120 8121 8122 8123 8124 8125 8126 8127 8128 8129 8130 8131 8132 8133 8134 8135 8136 8137 8138 8139 8140 8141 8142 8143 8144 8145 8146 8147 8148 8149 8150 8151 8152 8153 8154 8155 8156 8157 8158 8159 8160 8161 8162 8163 8164 8165 8166 8167 8168 8169 8170 8171 8172 8173 8174 8175 8176 8177 8178 8179 8180 8181 8182 8183 8184 8185 8186 8187 8188 8189 8190 8191 8192 8193 8194 8195 8196 8197 8198 8199 8200 8201 8202 8203 8204 8205 8206 8207 8208 8209 8210 8211 8212 8213 8214 8215 8216 8217 8218 8219 8220 8221 8222 8223 8224 8225 8226 8227 8228 8229 8230 8231 8232 8233 8234 8235 8236 8237 8238 8239 8240 8241 8242 8243 8244 8245 8246 8247 8248 8249 8250 8251 8252 8253 8254 8255 8256 8257 8258 8259 8260 8261 8262 8263 8264 8265 8266 8267 8268 8269 8270 8271 8272 8273 8274 8275 8276 8277 8278 8279 8280 8281 8282 8283 8284 8285 8286 8287 8288 8289 8290 8291 8292 8293 8294 8295 8296 8297 8298 8299 8300 8301 8302 8303 8304 8305 8306 8307 8308 8309 8310 8311 8312 8313 8314 8315 8316 8317 8318 8319 8320 8321 8322 8323 8324 8325 8326 8327 8328 8329 8330 8331 8332 8333 8334 8335 8336 8337 8338 8339 8340 8341 8342 8343 8344 8345 8346 8347 8348 8349 8350 8351 8352 8353 8354 8355 8356 8357 8358 8359 8360 8361 8362 8363 8364 8365 8366 8367 8368 8369 8370 8371 8372 8373 8374 8375 8376 8377 8378 8379 8380 8381 8382 8383 8384 8385 8386 8387 8388 8389 8390 8391 8392 8393 8394 8395 8396 8397 8398 8399 8400 8401 8402 8403 8404 8405 8406 8407 8408 8409 8410 8411 8412 8413 8414 8415 8416 8417 8418 8419 8420 8421 8422 8423 8424 8425 8426 8427 8428 8429 8430 8431 8432 8433 8434 8435 8436 8437 8438 8439 8440 8441 8442 8443 8444 8445 8446 8447 8448 8449 8450 8451 8452 8453 8454 8455 8456 8457 8458 8459 8460 8461 8462 8463 8464 8465 8466 8467 8468 8469 8470 8471 8472 8473 8474 8475 8476 8477 8478 8479 8480 8481 8482 8483 8484 8485 8486 8487 8488 8489 8490 8491 8492 8493 8494 8495 8496 8497 8498 8499 8500 8501 8502 8503 8504 8505 8506 8507 8508 8509 8510 8511 8512 8513 8514 8515 8516 8517 8518 8519 8520 8521 8522 8523 8524 8525 8526 8527 8528 8529 8530 8531 8532 8533 8534 8535 8536 8537 8538 8539 8540 8541 8542 8543 8544 8545 8546 8547 8548 8549 8550 8551 8552 8553 8554 8555 8556 8557 8558 8559 8560 8561 8562 8563 8564 8565 8566 8567 8568 8569 8570 8571 8572 8573 8574 8575 8576 8577 8578 8579 8580 8581 8582 8583 8584 8585 8586 8587 8588 8589 8590 8591 8592 8593 8594 8595 8596 8597 8598 8599 8600 8601 8602 8603 8604 8605 8606 8607 8608 8609 8610 8611 8612 8613 8614 8615 8616 8617 8618 8619 8620 8621 8622 8623 8624 8625 8626 8627 8628 8629 8630 8631 8632 8633 8634 8635 8636 8637 8638 8639 8640 8641 8642 8643 8644 8645 8646 8647 8648 8649 8650 8651 8652 8653 8654 8655 8656 8657 8658 8659 8660 8661 8662 8663 8664 8665 8666 8667 8668 8669 8670 8671 8672 8673 8674 8675 8676 8677 8678 8679 8680 8681 8682 8683 8684 8685 8686 8687 8688 8689 8690 8691 8692 8693 8694 8695 8696 8697 8698 8699 8700 8701 8702 8703 8704 8705 8706 8707 8708 8709 8710 8711 8712 8713 8714 8715 8716 8717 8718 8719 8720 8721 8722 8723 8724 8725 8726 8727 8728 8729 8730 8731 8732 8733 8734 8735 8736 8737 8738 8739 8740 8741 8742 8743 8744 8745 8746 8747 8748 8749 8750 8751 8752 8753 8754 8755 8756 8757 8758 8759 8760 8761 8762 8763 8764 8765 8766 8767 8768 8769 8770 8771 8772 8773 8774 8775 8776 8777 8778 8779 8780 8781 8782 8783 8784 8785 8786 8787 8788 8789 8790 8791 8792 8793 8794 8795 8796 8797 8798 8799 8800 8801 8802 8803 8804 8805 8806 8807 8808 8809 8810 8811 8812 8813 8814 8815 8816 8817 8818 8819 8820 8821 8822 8823 8824 8825 8826 8827 8828 8829 8830 8831 8832 8833 8834 8835 8836 8837 8838 8839 8840 8841 8842 8843 8844 8845 8846 8847 8848 8849 8850 8851 8852 8853 8854 8855 8856 8857 8858 8859 8860 8861 8862 8863 8864 8865 8866 8867 8868 8869 8870 8871 8872 8873 8874 8875 8876 8877 8878 8879 8880 8881 8882 8883 8884 8885 8886 8887 8888 8889 8890 8891 8892 8893 8894 8895 8896 8897 8898 8899 8900 8901 8902 8903 8904 8905 8906 8907 8908 8909 8910 8911 8912 8913 8914 8915 8916 8917 8918 8919 8920 8921 8922 8923 8924 8925 8926 8927 8928 8929 8930 8931 8932 8933 8934 8935 8936 8937 8938 8939 8940 8941 8942 8943 8944 8945 8946 8947 8948 8949 8950 8951 8952 8953 8954 8955 8956 8957 8958 8959 8960 8961 8962 8963 8964 8965 8966 8967 8968 8969 8970 8971 8972 8973 8974 8975 8976 8977 8978 8979 8980 8981 8982 8983 8984 8985 8986 8987 8988 8989 8990 8991 8992 8993 8994 8995 8996 8997 8998 8999 9000 9001 9002 9003 9004 9005 9006 9007 9008 9009 9010 9011 9012 9013 9014 9015 9016 9017 9018 9019 9020 9021 9022 9023 9024 9025 9026 9027 9028 9029 9030 9031 9032 9033 9034 9035 9036 9037 9038 9039 9040 9041 9042 9043 9044 9045 9046 9047 9048 9049 9050 9051 9052 9053 9054 9055 9056 9057 9058 9059 9060 9061 9062 9063 9064 9065 9066 9067 9068 9069 9070 9071 9072 9073 9074 9075 9076 9077 9078 9079 9080 9081 9082 9083 9084 9085 9086 9087 9088 9089 9090 9091 9092 9093 9094 9095 9096 9097 9098 9099 9100 9101 9102 9103 9104 9105 9106 9107 9108 9109 9110 9111 9112 9113 9114 9115 9116 9117 9118 9119 9120 9121 9122 9123 9124 9125 9126 9127 9128 9129 9130 9131 9132 9133 9134 9135 9136 9137 9138 9139 9140 9141 9142 9143 9144 9145 9146 9147 9148 9149 9150 9151 9152 9153 9154 9155 9156 9157 9158 9159 9160 9161 9162 9163 9164 9165 9166 9167 9168 9169 9170 9171 9172 9173 9174 9175 9176 9177 9178 9179 9180 9181 9182 9183 9184 9185 9186 9187 9188 9189 9190 9191 9192 9193 9194 9195 9196 9197 9198 9199 9200 9201 9202 9203 9204 9205 9206 9207 9208 9209 9210 9211 9212 9213 9214 9215 9216 9217 9218 9219 9220 9221 9222 9223 9224 9225 9226 9227 9228 9229 9230 9231 9232 9233 9234 9235 9236 9237 9238 9239 9240 9241 9242 9243 9244 9245 9246 9247 9248 9249 9250 9251 9252 9253 9254 9255 9256 9257 9258 9259 9260 9261 9262 9263 9264 9265 9266 9267 9268 9269 9270 9271 9272 9273 9274 9275 9276 9277 9278 9279 9280 9281 9282 9283 9284 9285 9286 9287 9288 9289 9290 9291 9292 9293 9294 9295 9296 9297 9298 9299 9300 9301 9302 9303 9304 9305 9306 9307 9308 9309 9310 9311 9312 9313 9314 9315 9316 9317 9318 9319 9320 9321 9322 9323 9324 9325 9326 9327 9328 9329 9330 9331 9332 9333 9334 9335 9336 9337 9338 9339 9340 9341 9342 9343 9344 9345 9346 9347 9348 9349 9350 9351 9352 9353 9354 9355 9356 9357 9358 9359 9360 9361 9362 9363 9364 9365 9366 9367 9368 9369 9370 9371 9372 9373 9374 9375 9376 9377 9378 9379 9380 9381 9382 9383 9384 9385 9386 9387 9388 9389 9390 9391 9392 9393 9394 9395 9396 9397 9398 9399 9400 9401 9402 9403 9404 9405 9406 9407 9408 9409 9410 9411 9412 9413 9414 9415 9416 9417 9418 9419 9420 9421 9422 9423 9424 9425 9426 9427 9428 9429 9430 9431 9432 9433 9434 9435 9436 9437 9438 9439 9440 9441 9442 9443 9444 9445 9446 9447 9448 9449 9450 9451 9452 9453 9454 9455 9456 9457 9458 9459 9460 9461 9462 9463 9464 9465 9466 9467 9468 9469 9470 9471 9472 9473 9474 9475 9476 9477 9478 9479 9480 9481 9482 9483 9484 9485 9486 9487 9488 9489 9490 9491 9492 9493 9494 9495 9496 9497 9498 9499 9500 9501 9502 9503 9504 9505 9506 9507 9508 9509 9510 9511 9512 9513 9514 9515 9516 9517 9518 9519 9520 9521 9522 9523 9524 9525 9526 9527 9528 9529 9530 9531 9532 9533 9534 9535 9536 9537 9538 9539 9540 9541 9542 9543 9544 9545 9546 9547 9548 9549 9550 9551 9552 9553 9554 9555 9556 9557 9558 9559 9560 9561 9562 9563 9564 9565 9566 9567 9568 9569 9570 9571 9572 9573 9574 9575 9576 9577 9578 9579 9580 9581 9582 9583 9584 9585 9586 9587 9588 9589 9590 9591 9592 9593 9594 9595 9596 9597 9598 9599 9600 9601 9602 9603 9604 9605 9606 9607 9608 9609 9610 9611 9612 9613 9614 9615 9616 9617 9618 9619 9620 9621 9622 9623 9624 9625 9626 9627 9628 9629 9630 9631 9632 9633 9634 9635 9636 9637 9638 9639 9640 9641 9642 9643 9644 9645 9646 9647 9648 9649 9650 9651 9652 9653 9654 9655 9656 9657 9658 9659 9660 9661 9662 9663 9664 9665 9666 9667 9668 9669 9670 9671 9672 9673 9674 9675 9676 9677 9678 9679 9680 9681 9682 9683 9684 9685 9686 9687 9688 9689 9690 9691 9692 9693 9694 9695 9696 9697 9698 9699 9700 9701 9702 9703 9704 9705 9706 9707 9708 9709 9710 9711 9712 9713 9714 9715 9716 9717 9718 9719 9720 9721 9722 9723 9724 9725 9726 9727 9728 9729 9730 9731 9732 9733 9734 9735 9736 9737 9738 9739 9740 9741 9742 9743 9744 9745 9746 9747 9748 9749 9750 9751 9752 9753 9754 9755 9756 9757 9758 9759 9760 9761 9762 9763 9764 9765 9766 9767 9768 9769 9770 9771 9772 9773 9774 9775 9776 9777 9778 9779 9780 9781 9782 9783 9784 9785 9786 9787 9788 9789 9790 9791 9792 9793 9794 9795 9796 9797 9798 9799 9800 9801 9802 9803 9804 9805 9806 9807 9808 9809 9810 9811 9812 9813 9814 9815 9816 9817 9818 9819 9820 9821 9822 9823 9824 9825 9826 9827 9828 9829 9830 9831 9832 9833 9834 9835 9836 9837 9838 9839 9840 9841 9842 9843 9844 9845 9846 9847 9848 9849 9850 9851 9852 9853 9854 9855 9856 9857 9858 9859 9860 9861 9862 9863 9864 9865 9866 9867 9868 9869 9870 9871 9872 9873 9874 9875 9876 9877 9878 9879 9880 9881 9882 9883 9884 9885 9886 9887 9888 9889 9890 9891 9892 9893 9894 9895 9896 9897 9898 9899 9900 9901 9902 9903 9904 9905 9906 9907 9908 9909 9910 9911 9912 9913 9914 9915 9916 9917 9918 9919 9920 9921 9922 9923 9924 9925 9926 9927 9928 9929 9930 9931 9932 9933 9934 9935 9936 9937 9938 9939 9940 9941 9942 9943 9944 9945 9946 9947 9948 9949 9950 9951 9952 9953 9954 9955 9956 9957 9958 9959 9960 9961 9962 9963 9964 9965 9966 9967 9968 9969 9970 9971 9972 9973 9974 9975 9976 9977 9978 9979 9980 9981 9982 9983 9984 9985 9986 9987 9988 9989 9990 9991 9992 9993 9994 9995 9996 9997 9998 9999 10000 10001 10002 10003 10004 10005 10006 10007 10008 10009 10010 10011 10012 10013 10014 10015 10016 10017 10018 10019 10020 10021 10022 10023 10024 10025 10026 10027 10028 10029 10030 10031 10032 10033 10034 10035 10036 10037 10038 10039 10040 10041 10042 10043 10044 10045 10046 10047 10048 10049 10050 10051 10052 10053 10054 10055 10056 10057 10058 10059 10060 10061 10062 10063 10064 10065 10066 10067 10068 10069 10070 10071 10072 10073 10074 10075 10076 10077 10078 10079 10080 10081 10082 10083 10084 10085 10086 10087 10088 10089 10090 10091 10092 10093 10094 10095 10096 10097 10098 10099 10100 10101 10102 10103 10104 10105 10106 10107 10108 10109 10110 10111 10112 10113 10114 10115 10116 10117 10118 10119 10120 10121 10122 10123 10124 10125 10126 10127 10128 10129 10130 10131 10132 10133 10134 10135 10136 10137 10138 10139 10140 10141 10142 10143 10144 10145 10146 10147 10148 10149 10150 10151 10152 10153 10154 10155 10156 10157 10158 10159 10160 10161 10162 10163 10164 10165 10166 10167 10168 10169 10170 10171 10172 10173 10174 10175 10176 10177 10178 10179 10180 10181 10182 10183 10184 10185 10186 10187 10188 10189 10190 10191 10192 10193 10194 10195 10196 10197 10198 10199 10200 10201 10202 10203 10204 10205 10206 10207 10208 10209 10210 10211 10212 10213 10214 10215 10216 10217 10218 10219 10220 10221 10222 10223 10224 10225 10226 10227 10228 10229 10230 10231 10232 10233 10234 10235 10236 10237 10238 10239 10240 10241 10242 10243 10244 10245 10246 10247 10248 10249 10250 10251 10252 10253 10254 10255 10256 10257 10258 10259 10260 10261 10262 10263 10264 10265 10266 10267 10268 10269 10270 10271 10272 10273 10274 10275 10276 10277 10278 10279 10280 10281 10282 10283 10284 10285 10286 10287 10288 10289 10290 10291 10292 10293 10294 10295 10296 10297 10298 10299 10300 10301 10302 10303 10304 10305 10306 10307 10308 10309 10310 10311 10312 10313 10314 10315 10316 10317 10318 10319 10320 10321 10322 10323 10324 10325 10326 10327 10328 10329 10330 10331 10332 10333 10334 10335 10336 10337 10338 10339 10340 10341 10342 10343 10344 10345 10346 10347 10348 10349 10350 10351 10352 10353 10354 10355 10356 10357 10358 10359 10360 10361 10362 10363 10364 10365 10366 10367 10368 10369 10370 10371 10372 10373 10374 10375 10376 10377 10378 10379 10380 10381 10382 10383 10384 10385 10386 10387 10388 10389 10390 10391 10392 10393 10394 10395 10396 10397 10398 10399 10400 10401 10402 10403 10404 10405 10406 10407 10408 10409 10410 10411 10412 10413 10414 10415 10416 10417 10418 10419 10420 10421 10422 10423 10424 10425 10426 10427 10428 10429 10430 10431 10432 10433 10434 10435 10436 10437 10438 10439 10440 10441 10442 10443 10444 10445 10446 10447 10448 10449 10450 10451 10452 10453 10454 10455 10456 10457 10458 10459 10460 10461 10462 10463 10464 10465 10466 10467 10468 10469 10470 10471 10472 10473 10474 10475 10476 10477 10478 10479 10480 10481 10482 10483 10484 10485 10486 10487 10488 10489 10490 10491 10492 10493 10494 10495 10496 10497 10498 10499 10500 10501 10502 10503 10504 10505 10506 10507 10508 10509 10510 10511 10512 10513 10514 10515 10516 10517 10518 10519 10520 10521 10522 10523 10524 10525 10526 10527 10528 10529 10530 10531 10532 10533 10534 10535 10536 10537 10538 10539 10540 10541 10542 10543 10544 10545 10546 10547 10548 10549 10550 10551 10552 10553 10554 10555 10556 10557 10558 10559 10560 10561 10562 10563 10564 10565 10566 10567 10568 10569 10570 10571 10572 10573 10574 10575 10576 10577 10578 10579 10580 10581 10582 10583 10584 10585 10586 10587 10588 10589 10590 10591 10592 10593 10594 10595 10596 10597 10598 10599 10600 10601 10602 10603 10604 10605 10606 10607 10608 10609 10610 10611 10612 10613 10614 10615 10616 10617 10618 10619 10620 10621 10622 10623 10624 10625 10626 10627 10628 10629 10630 10631 10632 10633 10634 10635 10636 10637 10638 10639 10640 10641 10642 10643 10644 10645 10646 10647 10648 10649 10650 10651 10652 10653 10654 10655 10656 10657 10658 10659 10660 10661 10662 10663 10664 10665 10666 10667 10668 10669 10670 10671 10672 10673 10674 10675 10676 10677 10678 10679 10680 10681 10682 10683 10684 10685 10686 10687 10688 10689 10690 10691 10692 10693 10694 10695 10696 10697 10698 10699 10700 10701 10702 10703 10704 10705 10706 10707 10708 10709 10710 10711 10712 10713 10714 10715 10716 10717 10718 10719 10720 10721 10722 10723 10724 10725 10726 10727 10728 10729 10730 10731 10732 10733 10734 10735 10736 10737 10738 10739 10740 10741 10742 10743 10744 10745 10746 10747 10748 10749 10750 10751 10752 10753 10754 10755 10756 10757 10758 10759 10760 10761 10762 10763 10764 10765 10766 10767 10768 10769 10770 10771 10772 10773 10774 10775 10776 10777 10778 10779 10780 10781 10782 10783 10784 10785 10786 10787 10788 10789 10790 10791 10792 10793 10794 10795 10796 10797 10798 10799 10800 10801 10802 10803 10804 10805 10806 10807 10808 10809 10810 10811 10812 10813 10814 10815 10816 10817 10818 10819 10820 10821 10822 10823 10824 10825 10826 10827 10828 10829 10830 10831 10832 10833 10834 10835 10836 10837 10838 10839 10840 10841 10842 10843 10844 10845 10846 10847 10848 10849 10850 10851 10852 10853 10854 10855 10856 10857 10858 10859 10860 10861 10862 10863 10864 10865 10866 10867 10868 10869 10870 10871 10872 10873 10874 10875 10876 10877 10878 10879 10880 10881 10882 10883 10884 10885 10886 10887 10888 10889 10890 10891 10892 10893 10894 10895 10896 10897 10898 10899 10900 10901 10902 10903 10904 10905 10906 10907 10908 10909 10910 10911 10912 10913 10914 10915 10916 10917 10918 10919 10920 10921 10922 10923 10924 10925 10926 10927 10928 10929 10930 10931 10932 10933 10934 10935 10936 10937 10938 10939 10940 10941 10942 10943 10944 10945 10946 10947 10948 10949 10950 10951 10952 10953 10954 10955 10956 10957 10958 10959 10960 10961 10962 10963 10964 10965 10966 10967 10968 10969 10970 10971 10972 10973 10974 10975 10976 10977 10978 10979 10980 10981 10982 10983 10984 10985 10986 10987 10988 10989 10990 10991 10992 10993 10994 10995 10996 10997 10998 10999 11000 11001 11002 11003 11004 11005 11006 11007 11008 11009 11010 11011 11012 11013 11014 11015 11016 11017 11018 11019 11020 11021 11022 11023 11024 11025 11026 11027 11028 11029 11030 11031 11032 11033 11034 11035 11036 11037 11038 11039 11040 11041 11042 11043 11044 11045 11046 11047 11048 11049 11050 11051 11052 11053 11054 11055 11056 11057 11058 11059 11060 11061 11062 11063 11064 11065 11066 11067 11068 11069 11070 11071 11072 11073 11074 11075 11076 11077 11078 11079 11080 11081 11082 11083 11084 11085 11086 11087 11088 11089 11090 11091 11092 11093 11094 11095 11096 11097 11098 11099 11100 11101 11102 11103 11104 11105 11106 11107 11108 11109 11110 11111 11112 11113 11114 11115 11116 11117 11118 11119 11120 11121 11122 11123 11124 11125 11126 11127 11128 11129 11130 11131 11132 11133 11134 11135 11136 11137 11138 11139 11140 11141 11142 11143 11144 11145 11146 11147 11148 11149 11150 11151 11152 11153 11154 11155 11156 11157 11158 11159 11160 11161 11162 11163 11164 11165 11166 11167 11168 11169 11170 11171 11172 11173 11174 11175 11176 11177 11178 11179 11180 11181 11182 11183 11184 11185 11186 11187 11188 11189 11190 11191 11192 11193 11194 11195 11196 11197 11198 11199 11200 11201 11202 11203 11204 11205 11206 11207 11208 11209 11210 11211 11212 11213 11214 11215 11216 11217 11218 11219 11220 11221 11222 11223 11224 11225 11226 11227 11228 11229 11230 11231 11232 11233 11234 11235 11236 11237 11238 11239 11240 11241 11242 11243 11244 11245 11246 11247 11248 11249 11250 11251 11252 11253 11254 11255 11256 11257 11258 11259 11260 11261 11262 11263 11264 11265 11266 11267 11268 11269 11270 11271 11272 11273 11274 11275 11276 11277 11278 11279 11280 11281 11282 11283 11284 11285 11286 11287 11288 11289 11290 11291 11292 11293 11294 11295 11296 11297 11298 11299 11300 11301 11302 11303 11304 11305 11306 11307 11308 11309 11310 11311 11312 11313 11314 11315 11316 11317 11318 11319 11320 11321 11322 11323 11324 11325 11326 11327 11328 11329 11330 11331 11332 11333 11334 11335 11336 11337 11338 11339 11340 11341 11342 11343 11344 11345 11346 11347 11348 11349 11350 11351 11352 11353 11354 11355 11356 11357 11358 11359 11360 11361 11362 11363 11364 11365 11366 11367 11368 11369 11370 11371 11372 11373 11374 11375 11376 11377 11378 11379 11380 11381 11382 11383 11384 11385 11386 11387 11388 11389 11390 11391 11392 11393 11394 11395 11396 11397 11398 11399 11400 11401 11402 11403 11404 11405 11406 11407 11408 11409 11410 11411 11412 11413 11414 11415 11416 11417 11418 11419 11420 11421 11422 11423 11424 11425 11426 11427 11428 11429 11430 11431 11432 11433 11434 11435 11436 11437 11438 11439 11440 11441 11442 11443 11444 11445 11446 11447 11448 11449 11450 11451 11452 11453 11454 11455 11456 11457 11458 11459 11460 11461 11462 11463 11464 11465 11466 11467 11468 11469 11470 11471 11472 11473 11474 11475 11476 11477 11478 11479 11480 11481 11482 11483 11484 11485 11486 11487 11488 11489 11490 11491 11492 11493 11494 11495 11496 11497 11498 11499 11500 11501 11502 11503 11504 11505 11506 11507 11508 11509 11510 11511 11512 11513 11514 11515 11516 11517 11518 11519 11520 11521 11522 11523 11524 11525 11526 11527 11528 11529 11530 11531 11532 11533 11534 11535 11536 11537 11538 11539 11540 11541 11542 11543 11544 11545 11546 11547 11548 11549 11550 11551 11552 11553 11554 11555 11556 11557 11558 11559 11560 11561 11562 11563 11564 11565 11566 11567 11568 11569 11570 11571 11572 11573 11574 11575 11576 11577 11578 11579 11580 11581 11582 11583 11584 11585 11586 11587 11588 11589 11590 11591 11592 11593 11594 11595 11596 11597 11598 11599 11600 11601 11602 11603 11604 11605 11606 11607 11608 11609 11610 11611 11612 11613 11614 11615 11616 11617 11618 11619 11620 11621 11622 11623 11624 11625 11626 11627 11628 11629 11630 11631 11632 11633 11634 11635 11636 11637 11638 11639 11640 11641 11642 11643 11644 11645 11646 11647 11648 11649 11650 11651 11652 11653 11654 11655 11656 11657 11658 11659 11660 11661 11662 11663 11664 11665 11666 11667 11668 11669 11670 11671 11672 11673 11674 11675 11676 11677 11678 11679 11680 11681 11682 11683 11684 11685 11686 11687 11688 11689 11690 11691 11692 11693 11694 11695 11696 11697 11698 11699 11700 11701 11702 11703 11704 11705 11706 11707 11708 11709 11710 11711 11712 11713 11714 11715 11716 11717 11718 11719 11720 11721 11722 11723 11724 11725 11726 11727 11728 11729 11730 11731 11732 11733 11734 11735 11736 11737 11738 11739 11740 11741 11742 11743 11744 11745 11746 11747 11748 11749 11750 11751 11752 11753 11754 11755 11756 11757 11758 11759 11760 11761 11762 11763 11764 11765 11766 11767 11768 11769 11770 11771 11772 11773 11774 11775 11776 11777 11778 11779 11780 11781 11782 11783 11784 11785 11786 11787 11788 11789 11790 11791 11792 11793 11794 11795 11796 11797 11798 11799 11800 11801 11802 11803 11804 11805 11806 11807 11808 11809 11810 11811 11812 11813 11814 11815 11816 11817 11818 11819 11820 11821 11822 11823 11824 11825 11826 11827 11828 11829 11830 11831 11832 11833 11834 11835 11836 11837 11838 11839 11840 11841 11842 11843 11844 11845 11846 11847 11848 11849 11850 11851 11852 11853 11854 11855 11856 11857 11858 11859 11860 11861 11862 11863 11864 11865 11866 11867 11868 11869 11870 11871 11872 11873 11874 11875 11876 11877 11878 11879 11880 11881 11882 11883 11884 11885 11886 11887 11888 11889 11890 11891 11892 11893 11894 11895 11896 11897 11898 11899 11900 11901 11902 11903 11904 11905 11906 11907 11908 11909 11910 11911 11912 11913 11914 11915 11916 11917 11918 11919 11920 11921 11922 11923 11924 11925 11926 11927 11928 11929 11930 11931 11932 11933 11934 11935 11936 11937 11938 11939 11940 11941 11942 11943 11944 11945 11946 11947 11948 11949 11950 11951 11952 11953 11954 11955 11956 11957 11958 11959 11960 11961 11962 11963 11964 11965 11966 11967 11968 11969 11970 11971 11972 11973 11974 11975 11976 11977 11978 11979 11980 11981 11982 11983 11984 11985 11986 11987 11988 11989 11990 11991 11992 11993 11994 11995 11996 11997 11998 11999 12000 12001 12002 12003 12004 12005 12006 12007 12008 12009 12010 12011 12012 12013 12014 12015 12016 12017 12018 12019 12020 12021 12022 12023 12024 12025 12026 12027 12028 12029 12030 12031 12032 12033 12034 12035 12036 12037 12038 12039 12040 12041 12042 12043 12044 12045 12046 12047 12048 12049 12050 12051 12052 12053 12054 12055 12056 12057 12058 12059 12060 12061 12062 12063 12064 12065 12066 12067 12068 12069 12070 12071 12072 12073 12074 12075 12076 12077 12078 12079 12080 12081 12082 12083 12084 12085 12086 12087 12088 12089 12090 12091 12092 12093 12094 12095 12096 12097 12098 12099 12100 12101 12102 12103 12104 12105 12106 12107 12108 12109 12110 12111 12112 12113 12114 12115 12116 12117 12118 12119 12120 12121 12122 12123 12124 12125 12126 12127 12128 12129 12130 12131 12132 12133 12134 12135 12136 12137 12138 12139 12140 12141 12142 12143 12144 12145 12146 12147 12148 12149 12150 12151 12152 12153 12154 12155 12156 12157 12158 12159 12160 12161 12162 12163 12164 12165 12166 12167 12168 12169 12170 12171 12172 12173 12174 12175 12176 12177 12178 12179 12180 12181 12182 12183 12184 12185 12186 12187 12188 12189 12190 12191 12192 12193 12194 12195 12196 12197 12198 12199 12200 12201 12202 12203 12204 12205 12206 12207 12208 12209 12210 12211 12212 12213 12214 12215 12216 12217 12218 12219 12220 12221 12222 12223 12224 12225 12226 12227 12228 12229 12230 12231 12232 12233 12234 12235 12236 12237 12238 12239 12240 12241 12242 12243 12244 12245 12246 12247 12248 12249 12250 12251 12252 12253 12254 12255 12256 12257 12258 12259 12260 12261 12262 12263 12264 12265 12266 12267 12268 12269 12270 12271 12272 12273 12274 12275 12276 12277 12278 12279 12280 12281 12282 12283 12284 12285 12286 12287 12288 12289 12290 12291 12292 12293 12294 12295 12296 12297 12298 12299 12300 12301 12302 12303 12304 12305 12306 12307 12308 12309 12310 12311 12312 12313 12314 12315 12316 12317 12318 12319 12320 12321 12322 12323 12324 12325 12326 12327 12328 12329 12330 12331 12332 12333 12334 12335 12336 12337 12338 12339 12340 12341 12342 12343 12344 12345 12346 12347 12348 12349 12350 12351 12352 12353 12354 12355 12356 12357 12358 12359 12360 12361 12362 12363 12364 12365 12366 12367 12368 12369 12370 12371 12372 12373 12374 12375 12376 12377 12378 12379 12380 12381 12382 12383 12384 12385 12386 12387 12388 12389 12390 12391 12392 12393 12394 12395 12396 12397 12398 12399 12400 12401 12402 12403 12404 12405 12406 12407 12408 12409 12410 12411 12412 12413 12414 12415 12416 12417 12418 12419 12420 12421 12422 12423 12424 12425 12426 12427 12428 12429 12430 12431 12432 12433 12434 12435 12436 12437 12438 12439 12440 12441 12442 12443 12444 12445 12446 12447 12448 12449 12450 12451 12452 12453 12454 12455 12456 12457 12458 12459 12460 12461 12462 12463 12464 12465 12466 12467 12468 12469 12470 12471 12472 12473 12474 12475 12476 12477 12478 12479 12480 12481 12482 12483 12484 12485 12486 12487 12488 12489 12490 12491 12492 12493 12494 12495 12496 12497 12498 12499 12500 12501 12502 12503 12504 12505 12506 12507 12508 12509 12510 12511 12512 12513 12514 12515 12516 12517 12518 12519 12520 12521 12522 12523 12524 12525 12526 12527 12528 12529 12530 12531 12532 12533 12534 12535 12536 12537 12538 12539 12540 12541 12542 12543 12544 12545 12546 12547 12548 12549 12550 12551 12552 12553 12554 12555 12556 12557 12558 12559 12560 12561 12562 12563 12564 12565 12566 12567 12568 12569 12570 12571 12572 12573 12574 12575 12576 12577 12578 12579 12580 12581 12582 12583 12584 12585 12586 12587 12588 12589 12590 12591 12592 12593 12594 12595 12596 12597 12598 12599 12600 12601 12602 12603 12604 12605 12606 12607 12608 12609 12610 12611 12612 12613 12614 12615 12616 12617 12618 12619 12620 12621 12622 12623 12624 12625 12626 12627 12628 12629 12630 12631 12632 12633 12634 12635 12636 12637 12638 12639 12640 12641 12642 12643 12644 12645 12646 12647 12648 12649 12650 12651 12652 12653 12654 12655 12656 12657 12658 12659 12660 12661 12662 12663 12664 12665 12666 12667 12668 12669 12670 12671 12672 12673 12674 12675 12676 12677 12678 12679 12680 12681 12682 12683 12684 12685 12686 12687 12688 12689 12690 12691 12692 12693 12694 12695 12696 12697 12698 12699 12700 12701 12702 12703 12704 12705 12706 12707 12708 12709 12710 12711 12712 12713 12714 12715 12716 12717 12718 12719 12720 12721 12722 12723 12724 12725 12726 12727 12728 12729 12730 12731 12732 12733 12734 12735 12736 12737 12738 12739 12740 12741 12742 12743 12744 12745 12746 12747 12748 12749 12750 12751 12752 12753 12754 12755 12756 12757 12758 12759 12760 12761 12762 12763 12764 12765 12766 12767 12768 12769 12770 12771 12772 12773 12774 12775 12776 12777 12778 12779 12780 12781 12782 12783 12784 12785 12786 12787 12788 12789 12790 12791 12792 12793 12794 12795 12796 12797 12798 12799 12800 12801 12802 12803 12804 12805 12806 12807 12808 12809 12810 12811 12812 12813 12814 12815 12816 12817 12818 12819 12820 12821 12822 12823 12824 12825 12826 12827 12828 12829 12830 12831 12832 12833 12834 12835 12836 12837 12838 12839 12840 12841 12842 12843 12844 12845 12846 12847 12848 12849 12850 12851 12852 12853 12854 12855 12856 12857 12858 12859 12860 12861 12862 12863 12864 12865 12866 12867 12868 12869 12870 12871 12872 12873 12874 12875 12876 12877 12878 12879 12880 12881 12882 12883 12884 12885 12886 12887 12888 12889 12890 12891 12892 12893 12894 12895 12896 12897 12898 12899 12900 12901 12902 12903 12904 12905 12906 12907 12908 12909 12910 12911 12912 12913 12914 12915 12916 12917 12918 12919 12920 12921 12922 12923 12924 12925 12926 12927 12928 12929 12930 12931 12932 12933 12934 12935 12936 12937 12938 12939 12940 12941 12942 12943 12944 12945 12946 12947 12948 12949 12950 12951 12952 12953 12954 12955 12956 12957 12958 12959 12960 12961 12962 12963 12964 12965 12966 12967 12968 12969 12970 12971 12972 12973 12974 12975 12976 12977 12978 12979 12980 12981 12982 12983 12984 12985 12986 12987 12988 12989 12990 12991 12992 12993 12994 12995 12996 12997 12998 12999 13000 13001 13002 13003 13004 13005 13006 13007 13008 13009 13010 13011 13012 13013 13014 13015 13016 13017 13018 13019 13020 13021 13022 13023 13024 13025 13026 13027 13028 13029 13030 13031 13032 13033 13034 13035 13036 13037 13038 13039 13040 13041 13042 13043 13044 13045 13046 13047 13048 13049 13050 13051 13052 13053 13054 13055 13056 13057 13058 13059 13060 13061 13062 13063 13064 13065 13066 13067 13068 13069 13070 13071 13072 13073 13074 13075 13076 13077 13078 13079 13080 13081 13082 13083 13084 13085 13086 13087 13088 13089 13090 13091 13092 13093 13094 13095 13096 13097 13098 13099 13100 13101 13102 13103 13104 13105 13106 13107 13108 13109 13110 13111 13112 13113 13114 13115 13116 13117 13118 13119 13120 13121 13122 13123 13124 13125 13126 13127 13128 13129 13130 13131 13132 13133 13134 13135 13136 13137 13138 13139 13140 13141 13142 13143 13144 13145 13146 13147 13148 13149 13150 13151 13152 13153 13154 13155 13156 13157 13158 13159 13160 13161 13162 13163 13164 13165 13166 13167 13168 13169 13170 13171 13172 13173 13174 13175 13176 13177 13178 13179 13180 13181 13182 13183 13184 13185 13186 13187 13188 13189 13190 13191 13192 13193 13194 13195 13196 13197 13198 13199 13200 13201 13202 13203 13204 13205 13206 13207 13208 13209 13210 13211 13212 13213 13214 13215 13216 13217 13218 13219 13220 13221 13222 13223 13224 13225 13226 13227 13228 13229 13230 13231 13232 13233 13234 13235 13236 13237 13238 13239 13240 13241 13242 13243 13244 13245 13246 13247 13248 13249 13250 13251 13252 13253 13254 13255 13256 13257 13258 13259 13260 13261 13262 13263 13264 13265 13266 13267 13268 13269 13270 13271 13272 13273 13274 13275 13276 13277 13278 13279 13280 13281 13282 13283 13284 13285 13286 13287 13288 13289 13290 13291 13292 13293 13294 13295 13296 13297 13298 13299 13300 13301 13302 13303 13304 13305 13306 13307 13308 13309 13310 13311 13312 13313 13314 13315 13316 13317 13318 13319 13320 13321 13322 13323 13324 13325 13326 13327 13328 13329 13330 13331 13332 13333 13334 13335 13336 13337 13338 13339 13340 13341 13342 13343 13344 13345 13346 13347 13348 13349 13350 13351 13352 13353 13354 13355 13356 13357 13358 13359 13360 13361 13362 13363 13364 13365 13366 13367 13368 13369 13370 13371 13372 13373 13374 13375 13376 13377 13378 13379 13380 13381 13382 13383 13384 13385 13386 13387 13388 13389 13390 13391 13392 13393 13394 13395 13396 13397 13398 13399 13400 13401 13402 13403 13404 13405 13406 13407 13408 13409 13410 13411 13412 13413 13414 13415 13416 13417 13418 13419 13420 13421 13422 13423 13424 13425 13426 13427 13428 13429 13430 13431 13432 13433 13434 13435 13436 13437 13438 13439 13440 13441 13442 13443 13444 13445 13446 13447 13448 13449 13450 13451 13452 13453 13454 13455 13456 13457 13458 13459 13460 13461 13462 13463 13464 13465 13466 13467 13468 13469 13470 13471 13472 13473 13474 13475 13476 13477 13478 13479 13480 13481 13482 13483 13484 13485 13486 13487 13488 13489 13490 13491 13492 13493 13494 13495 13496 13497 13498 13499 13500 13501 13502 13503 13504 13505 13506 13507 13508 13509 13510 13511 13512 13513 13514 13515 13516 13517 13518 13519 13520 13521 13522 13523 13524 13525 13526 13527 13528 13529 13530 13531 13532 13533 13534 13535 13536 13537 13538 13539 13540 13541 13542 13543 13544 13545 13546 13547 13548 13549 13550 13551 13552 13553 13554 13555 13556 13557 13558 13559 13560 13561 13562 13563 13564 13565 13566 13567 13568 13569 13570 13571 13572 13573 13574 13575 13576 13577 13578 13579 13580 13581 13582 13583 13584 13585 13586 13587 13588 13589 13590 13591 13592 13593 13594 13595 13596 13597 13598 13599 13600 13601 13602 13603 13604 13605 13606 13607 13608 13609 13610 13611 13612 13613 13614 13615 13616 13617 13618 13619 13620 13621 13622 13623 13624 13625 13626 13627 13628 13629 13630 13631 13632 13633 13634 13635 13636 13637 13638 13639 13640 13641 13642 13643 13644 13645 13646 13647 13648 13649 13650 13651 13652 13653 13654 13655 13656 13657 13658 13659 13660 13661 13662 13663 13664 13665 13666 13667 13668 13669 13670 13671 13672 13673 13674 13675 13676 13677 13678 13679 13680 13681 13682 13683 13684 13685 13686 13687 13688 13689 13690 13691 13692 13693 13694 13695 13696 13697 13698 13699 13700 13701 13702 13703 13704 13705 13706 13707 13708 13709 13710 13711 13712 13713 13714 13715 13716 13717 13718 13719 13720 13721 13722 13723 13724 13725 13726 13727 13728 13729 13730 13731 13732 13733 13734 13735 13736 13737 13738 13739 13740 13741 13742 13743 13744 13745 13746 13747 13748 13749 13750 13751 13752 13753 13754 13755 13756 13757 13758 13759 13760 13761 13762 13763 13764 13765 13766 13767 13768 13769 13770 13771 13772 13773 13774 13775 13776 13777 13778 13779 13780 13781 13782 13783 13784 13785 13786 13787 13788 13789 13790 13791 13792 13793 13794 13795 13796 13797 13798 13799 13800 13801 13802 13803 13804 13805 13806 13807 13808 13809 13810 13811 13812 13813 13814 13815 13816 13817 13818 13819 13820 13821 13822 13823 13824 13825 13826 13827 13828 13829 13830 13831 13832 13833 13834 13835 13836 13837 13838 13839 13840 13841 13842 13843 13844 13845 13846 13847 13848 13849 13850 13851 13852 13853 13854 13855 13856 13857 13858 13859 13860 13861 13862 13863 13864 13865 13866 13867 13868 13869 13870 13871 13872 13873 13874 13875 13876 13877 13878 13879 13880 13881 13882 13883 13884 13885 13886 13887 13888 13889 13890 13891 13892 13893 13894 13895 13896 13897 13898 13899 13900 13901 13902 13903 13904 13905 13906 13907 13908 13909 13910 13911 13912 13913 13914 13915 13916 13917 13918 13919 13920 13921 13922 13923 13924 13925 13926 13927 13928 13929 13930 13931 13932 13933 13934 13935 13936 13937 13938 13939 13940 13941 13942 13943 13944 13945 13946 13947 13948 13949 13950 13951 13952 13953 13954 13955 13956 13957 13958 13959 13960 13961 13962 13963 13964 13965 13966 13967 13968 13969 13970 13971 13972 13973 13974 13975 13976 13977 13978 13979 13980 13981 13982 13983 13984 13985 13986 13987 13988 13989 13990 13991 13992 13993 13994 13995 13996 13997 13998 13999 14000 14001 14002 14003 14004 14005 14006 14007 14008 14009 14010 14011 14012 14013 14014 14015 14016 14017 14018 14019 14020 14021 14022 14023 14024 14025 14026 14027 14028 14029 14030 14031 14032 14033 14034 14035 14036 14037 14038 14039 14040 14041 14042 14043 14044 14045 14046 14047 14048 14049 14050 14051 14052 14053 14054 14055 14056 14057 14058 14059 14060 14061 14062 14063 14064 14065 14066 14067 14068 14069 14070 14071 14072 14073 14074 14075 14076 14077 14078 14079 14080 14081 14082 14083 14084 14085 14086 14087 14088 14089 14090 14091 14092 14093 14094 14095 14096 14097 14098 14099 14100 14101 14102 14103 14104 14105 14106 14107 14108 14109 14110 14111 14112 14113 14114 14115 14116 14117 14118 14119 14120 14121 14122 14123 14124 14125 14126 14127 14128 14129 14130 14131 14132 14133 14134 14135 14136 14137 14138 14139 14140 14141 14142 14143 14144 14145 14146 14147 14148 14149 14150 14151 14152 14153 14154 14155 14156 14157 14158 14159 14160 14161 14162 14163 14164 14165 14166 14167 14168 14169 14170 14171 14172 14173 14174 14175 14176 14177 14178 14179 14180 14181 14182 14183 14184 14185 14186 14187 14188 14189 14190 14191 14192 14193 14194 14195 14196 14197 14198 14199 14200 14201 14202 14203 14204 14205 14206 14207 14208 14209 14210 14211 14212 14213 14214 14215 14216 14217 14218 14219 14220 14221 14222 14223 14224 14225 14226 14227 14228 14229 14230 14231 14232 14233 14234 14235 14236 14237 14238 14239 14240 14241 14242 14243 14244 14245 14246 14247 14248 14249 14250 14251 14252 14253 14254 14255 14256 14257 14258 14259 14260 14261 14262 14263 14264 14265 14266 14267 14268 14269 14270 14271 14272 14273 14274 14275 14276 14277 14278 14279 14280 14281 14282 14283 14284 14285 14286 14287 14288 14289 14290 14291 14292 14293 14294 14295 14296 14297 14298 14299 14300 14301 14302 14303 14304 14305 14306 14307 14308 14309 14310 14311 14312 14313 14314 14315 14316 14317 14318 14319 14320 14321 14322 14323 14324 14325 14326 14327 14328 14329 14330 14331 14332 14333 14334 14335 14336 14337 14338 14339 14340 14341 14342 14343 14344 14345 14346 14347 14348 14349 14350 14351 14352 14353 14354 14355 14356 14357 14358 14359 14360 14361 14362 14363 14364 14365 14366 14367 14368 14369 14370 14371 14372 14373 14374 14375 14376 14377 14378 14379 14380 14381 14382 14383 14384 14385 14386 14387 14388 14389 14390 14391 14392 14393 14394 14395 14396 14397 14398 14399 14400 14401 14402 14403 14404 14405 14406 14407 14408 14409 14410 14411 14412 14413 14414 14415 14416 14417 14418 14419 14420 14421 14422 14423 14424 14425 14426 14427 14428 14429 14430 14431 14432 14433 14434 14435 14436 14437 14438 14439 14440 14441 14442 14443 14444 14445 14446 14447 14448 14449 14450 14451 14452 14453 14454 14455 14456 14457 14458 14459 14460 14461 14462 14463 14464 14465 14466 14467 14468 14469 14470 14471 14472 14473 14474 14475 14476 14477 14478 14479 14480 14481 14482 14483 14484 14485 14486 14487 14488 14489 14490 14491 14492 14493 14494 14495 14496 14497 14498 14499 14500 14501 14502 14503 14504 14505 14506 14507 14508 14509 14510 14511 14512 14513 14514 14515 14516 14517 14518 14519 14520 14521 14522 14523 14524 14525 14526 14527 14528 14529 14530 14531 14532 14533 14534 14535 14536 14537 14538 14539 14540 14541 14542 14543 14544 14545 14546 14547 14548 14549 14550 14551 14552 14553 14554 14555 14556 14557 14558 14559 14560 14561 14562 14563 14564 14565 14566 14567 14568 14569 14570 14571 14572 14573 14574 14575 14576 14577 14578 14579 14580 14581 14582 14583 14584 14585 14586 14587 14588 14589 14590 14591 14592 14593 14594 14595 14596 14597 14598 14599 14600 14601 14602 14603 14604 14605 14606 14607 14608 14609 14610 14611 14612 14613 14614 14615 14616 14617 14618 14619 14620 14621 14622 14623 14624 14625 14626 14627 14628 14629 14630 14631 14632 14633 14634 14635 14636 14637 14638 14639 14640 14641 14642 14643 14644 14645 14646 14647 14648 14649 14650 14651 14652 14653 14654 14655 14656 14657 14658 14659 14660 14661 14662 14663 14664 14665 14666 14667 14668 14669 14670 14671 14672 14673 14674 14675 14676 14677 14678 14679 14680 14681 14682 14683 14684 14685 14686 14687 14688 14689 14690 14691 14692 14693 14694 14695 14696 14697 14698 14699 14700 14701 14702 14703 14704 14705 14706 14707 14708 14709 14710 14711 14712 14713 14714 14715 14716 14717 14718 14719 14720 14721 14722 14723 14724 14725 14726 14727 14728 14729 14730 14731 14732 14733 14734 14735 14736 14737 14738 14739 14740 14741 14742 14743 14744 14745 14746 14747 14748 14749 14750 14751 14752 14753 14754 14755 14756 14757 14758 14759 14760 14761 14762 14763 14764 14765 14766 14767 14768 14769 14770 14771 14772 14773 14774 14775 14776 14777 14778 14779 14780 14781 14782 14783 14784 14785 14786 14787 14788 14789 14790 14791 14792 14793 14794 14795 14796 14797 14798 14799 14800 14801 14802 14803 14804 14805 14806 14807 14808 14809 14810 14811 14812 14813 14814 14815 14816 14817 14818 14819 14820 14821 14822 14823 14824 14825 14826 14827 14828 14829 14830 14831 14832 14833 14834 14835 14836 14837 14838 14839 14840 14841 14842 14843 14844 14845 14846 14847 14848 14849 14850 14851 14852 14853 14854 14855 14856 14857 14858 14859 14860 14861 14862 14863 14864 14865 14866 14867 14868 14869 14870 14871 14872 14873 14874 14875 14876 14877 14878 14879 14880 14881 14882 14883 14884 14885 14886 14887 14888 14889 14890 14891 14892 14893 14894 14895 14896 14897 14898 14899 14900 14901 14902 14903 14904 14905 14906 14907 14908 14909 14910 14911 14912 14913 14914 14915 14916 14917 14918 14919 14920 14921 14922 14923 14924 14925 14926 14927 14928 14929 14930 14931 14932 14933 14934 14935 14936 14937 14938 14939 14940 14941 14942 14943 14944 14945 14946 14947 14948 14949 14950 14951 14952 14953 14954 14955 14956 14957 14958 14959 14960 14961 14962 14963 14964 14965 14966 14967 14968 14969 14970 14971 14972 14973 14974 14975 14976 14977 14978 14979 14980 14981 14982 14983 14984 14985 14986 14987 14988 14989 14990 14991 14992 14993 14994 14995 14996 14997 14998 14999 15000 15001 15002 15003 15004 15005 15006 15007 15008 15009 15010 15011 15012 15013 15014 15015 15016 15017 15018 15019 15020 15021 15022 15023 15024 15025 15026 15027 15028 15029 15030 15031 15032 15033 15034 15035 15036 15037 15038 15039 15040 15041 15042 15043 15044 15045 15046 15047 15048 15049 15050 15051 15052 15053 15054 15055 15056 15057 15058 15059 15060 15061 15062 15063 15064 15065 15066 15067 15068 15069 15070 15071 15072 15073 15074 15075 15076 15077 15078 15079 15080 15081 15082 15083 15084 15085 15086 15087 15088 15089 15090 15091 15092 15093 15094 15095 15096 15097 15098 15099 15100 15101 15102 15103 15104 15105 15106 15107 15108 15109 15110 15111 15112 15113 15114 15115 15116 15117 15118 15119 15120 15121 15122 15123 15124 15125 15126 15127 15128 15129 15130 15131 15132 15133 15134 15135 15136 15137 15138 15139 15140 15141 15142 15143 15144 15145 15146 15147 15148 15149 15150 15151 15152 15153 15154 15155 15156 15157 15158 15159 15160 15161 15162 15163 15164 15165 15166 15167 15168 15169 15170 15171 15172 15173 15174 15175 15176 15177 15178 15179 15180 15181 15182 15183 15184 15185 15186 15187 15188 15189 15190 15191 15192 15193 15194 15195 15196 15197 15198 15199 15200 15201 15202 15203 15204 15205 15206 15207 15208 15209 15210 15211 15212 15213 15214 15215 15216 15217 15218 15219 15220 15221 15222 15223 15224 15225 15226 15227 15228 15229 15230 15231 15232 15233 15234 15235 15236 15237 15238 15239 15240 15241 15242 15243 15244 15245 15246 15247 15248 15249 15250 15251 15252 15253 15254 15255 15256 15257 15258 15259 15260 15261 15262 15263 15264 15265 15266 15267 15268 15269 15270 15271 15272 15273 15274 15275 15276 15277 15278 15279 15280 15281 15282 15283 15284 15285 15286 15287 15288 15289 15290 15291 15292 15293 15294 15295 15296 15297 15298 15299 15300 15301 15302 15303 15304 15305 15306 15307 15308 15309 15310 15311 15312 15313 15314 15315 15316 15317 15318 15319 15320 15321 15322 15323 15324 15325 15326 15327 15328 15329 15330 15331 15332 15333 15334 15335 15336 15337 15338 15339 15340 15341 15342 15343 15344 15345 15346 15347 15348 15349 15350 15351 15352 15353 15354 15355 15356 15357 15358 15359 15360 15361 15362 15363 15364 15365 15366 15367 15368 15369 15370 15371 15372 15373 15374 15375 15376 15377 15378 15379 15380 15381 15382 15383 15384 15385 15386 15387 15388 15389 15390 15391 15392 15393 15394 15395 15396 15397 15398 15399 15400 15401 15402 15403 15404 15405 15406 15407 15408 15409 15410 15411 15412 15413 15414 15415 15416 15417 15418 15419 15420 15421 15422 15423 15424 15425 15426 15427 15428 15429 15430 15431 15432 15433 15434 15435 15436 15437 15438 15439 15440 15441 15442 15443 15444 15445 15446 15447 15448 15449 15450 15451 15452 15453 15454 15455 15456 15457 15458 15459 15460 15461 15462 15463 15464 15465 15466 15467 15468 15469 15470 15471 15472 15473 15474 15475 15476 15477 15478 15479 15480 15481 15482 15483 15484 15485 15486 15487 15488 15489 15490 15491 15492 15493 15494 15495 15496 15497 15498 15499 15500 15501 15502 15503 15504 15505 15506 15507 15508 15509 15510 15511 15512 15513 15514 15515 15516 15517 15518 15519 15520 15521 15522 15523 15524 15525 15526 15527 15528 15529 15530 15531 15532 15533 15534 15535 15536 15537 15538 15539 15540 15541 15542 15543 15544 15545 15546 15547 15548 15549 15550 15551 15552 15553 15554 15555 15556 15557 15558 15559 15560 15561 15562 15563 15564 15565 15566 15567 15568 15569 15570 15571 15572 15573 15574 15575 15576 15577 15578 15579 15580 15581 15582 15583 15584 15585 15586 15587 15588 15589 15590 15591 15592 15593 15594 15595 15596 15597 15598 15599 15600 15601 15602 15603 15604 15605 15606 15607 15608 15609 15610 15611 15612 15613 15614 15615 15616 15617 15618 15619 15620 15621 15622 15623 15624 15625 15626 15627 15628 15629 15630 15631 15632 15633 15634 15635 15636 15637 15638 15639 15640 15641 15642 15643 15644 15645 15646 15647 15648 15649 15650 15651 15652 15653 15654 15655 15656 15657 15658 15659 15660 15661 15662 15663 15664 15665 15666 15667 15668 15669 15670 15671 15672 15673 15674 15675 15676 15677 15678 15679 15680 15681 15682 15683 15684 15685 15686 15687 15688 15689 15690 15691 15692 15693 15694 15695 15696 15697 15698 15699 15700 15701 15702 15703 15704 15705 15706 15707 15708 15709 15710 15711 15712 15713 15714 15715 15716 15717 15718 15719 15720 15721 15722 15723 15724 15725 15726 15727 15728 15729 15730 15731 15732 15733 15734 15735 15736 15737 15738 15739 15740 15741 15742 15743 15744 15745 15746 15747 15748 15749 15750 15751 15752 15753 15754 15755 15756 15757 15758 15759 15760 15761 15762 15763 15764 15765 15766 15767 15768 15769 15770 15771 15772 15773 15774 15775 15776 15777 15778 15779 15780 15781 15782 15783 15784 15785 15786 15787 15788 15789 15790 15791 15792 15793 15794 15795 15796 15797 15798 15799 15800 15801 15802 15803 15804 15805 15806 15807 15808 15809 15810 15811 15812 15813 15814 15815 15816 15817 15818 15819 15820 15821 15822 15823 15824 15825 15826 15827 15828 15829 15830 15831 15832 15833 15834 15835 15836 15837 15838 15839 15840 15841 15842 15843 15844 15845 15846 15847 15848 15849 15850 15851 15852 15853 15854 15855 15856 15857 15858 15859 15860 15861 15862 15863 15864 15865 15866 15867 15868 15869 15870 15871 15872 15873 15874 15875 15876 15877 15878 15879 15880 15881 15882 15883 15884 15885 15886 15887 15888 15889 15890 15891 15892 15893 15894 15895 15896 15897 15898 15899 15900 15901 15902 15903 15904 15905 15906 15907 15908 15909 15910 15911 15912 15913 15914 15915 15916 15917 15918 15919 15920 15921 15922 15923 15924 15925 15926 15927 15928 15929 15930 15931 15932 15933 15934 15935 15936 15937 15938 15939 15940 15941 15942 15943 15944 15945 15946 15947 15948 15949 15950 15951 15952 15953 15954 15955 15956 15957 15958 15959 15960 15961 15962 15963 15964 15965 15966 15967 15968 15969 15970 15971 15972 15973 15974 15975 15976 15977 15978 15979 15980 15981 15982 15983 15984 15985 15986 15987 15988 15989 15990 15991 15992 15993 15994 15995 15996 15997 15998 15999 16000 16001 16002 16003 16004 16005 16006 16007 16008 16009 16010 16011 16012 16013 16014 16015 16016 16017 16018 16019 16020 16021 16022 16023 16024 16025 16026 16027 16028 16029 16030 16031 16032 16033 16034 16035 16036 16037 16038 16039 16040 16041 16042 16043 16044 16045 16046 16047 16048 16049 16050 16051 16052 16053 16054 16055 16056 16057 16058 16059 16060 16061 16062 16063 16064 16065 16066 16067 16068 16069 16070 16071 16072 16073 16074 16075 16076 16077 16078 16079 16080 16081 16082 16083 16084 16085 16086 16087 16088 16089 16090 16091 16092 16093 16094 16095 16096 16097 16098 16099 16100 16101 16102 16103 16104 16105 16106 16107 16108 16109 16110 16111 16112 16113 16114 16115 16116 16117 16118 16119 16120 16121 16122 16123 16124 16125 16126 16127 16128 16129 16130 16131 16132 16133 16134 16135 16136 16137 16138 16139 16140 16141 16142 16143 16144 16145 16146 16147 16148 16149 16150 16151 16152 16153 16154 16155 16156 16157 16158 16159 16160 16161 16162 16163 16164 16165 16166 16167 16168 16169 16170 16171 16172 16173 16174 16175 16176 16177 16178 16179 16180 16181 16182 16183 16184 16185 16186 16187 16188 16189 16190 16191 16192 16193 16194 16195 16196 16197 16198 16199 16200 16201 16202 16203 16204 16205 16206 16207 16208 16209 16210 16211 16212 16213 16214 16215 16216 16217 16218 16219 16220 16221 16222 16223 16224 16225 16226 16227 16228 16229 16230 16231 16232 16233 16234 16235 16236 16237 16238 16239 16240 16241 16242 16243 16244 16245 16246 16247 16248 16249 16250 16251 16252 16253 16254 16255 16256 16257 16258 16259 16260 16261 16262 16263 16264 16265 16266 16267 16268 16269 16270 16271 16272 16273 16274 16275 16276 16277 16278 16279 16280 16281 16282 16283 16284 16285 16286 16287 16288 16289 16290 16291 16292 16293 16294 16295 16296 16297 16298 16299 16300 16301 16302 16303 16304 16305 16306 16307 16308 16309 16310 16311 16312 16313 16314 16315 16316 16317 16318 16319 16320 16321 16322 16323 16324 16325 16326 16327 16328 16329 16330 16331 16332 16333 16334 16335 16336 16337 16338 16339 16340 16341 16342 16343 16344 16345 16346 16347 16348 16349 16350 16351 16352 16353 16354 16355 16356 16357 16358 16359 16360 16361 16362 16363 16364 16365 16366 16367 16368 16369 16370 16371 16372 16373 16374 16375 16376 16377 16378 16379 16380 16381 16382 16383 16384 16385 16386 16387 16388 16389 16390 16391 16392 16393 16394 16395 16396 16397 16398 16399 16400 16401 16402 16403 16404 16405 16406 16407 16408 16409 16410 16411 16412 16413 16414 16415 16416 16417 16418 16419 16420 16421 16422 16423 16424 16425 16426 16427 16428 16429 16430 16431 16432 16433 16434 16435 16436 16437 16438 16439 16440 16441 16442 16443 16444 16445 16446 16447 16448 16449 16450 16451 16452 16453 16454 16455 16456 16457 16458 16459 16460 16461 16462 16463 16464 16465 16466 16467 16468 16469 16470 16471 16472 16473 16474 16475 16476 16477 16478 16479 16480 16481 16482 16483 16484 16485 16486 16487 16488 16489 16490 16491 16492 16493 16494 16495 16496 16497 16498 16499 16500 16501 16502 16503 16504 16505 16506 16507 16508 16509 16510 16511 16512 16513 16514 16515 16516 16517 16518 16519 16520 16521 16522 16523 16524 16525 16526 16527 16528 16529 16530 16531 16532 16533 16534 16535 16536 16537 16538 16539 16540 16541 16542 16543 16544 16545 16546 16547 16548 16549 16550 16551 16552 16553 16554 16555 16556 16557 16558 16559 16560 16561 16562 16563 16564 16565 16566 16567 16568 16569 16570 16571 16572 16573 16574 16575 16576 16577 16578 16579 16580 16581 16582 16583 16584 16585 16586 16587 16588 16589 16590 16591 16592 16593 16594 16595 16596 16597 16598 16599 16600 16601 16602 16603 16604 16605 16606 16607 16608 16609 16610 16611 16612 16613 16614 16615 16616 16617 16618 16619 16620 16621 16622 16623 16624 16625 16626 16627 16628 16629 16630 16631 16632 16633 16634 16635 16636 16637 16638 16639 16640 16641 16642 16643 16644 16645 16646 16647 16648 16649 16650 16651 16652 16653 16654 16655 16656 16657 16658 16659 16660 16661 16662 16663 16664 16665 16666 16667 16668 16669 16670 16671 16672 16673 16674 16675 16676 16677 16678 16679 16680 16681 16682 16683 16684 16685 16686 16687 16688 16689 16690 16691 16692 16693 16694 16695 16696 16697 16698 16699 16700 16701 16702 16703 16704 16705 16706 16707 16708 16709 16710 16711 16712 16713 16714 16715 16716 16717 16718 16719 16720 16721 16722 16723 16724 16725 16726 16727 16728 16729 16730 16731 16732 16733 16734 16735 16736 16737 16738 16739 16740 16741 16742 16743 16744 16745 16746 16747 16748 16749 16750 16751 16752 16753 16754 16755 16756 16757 16758 16759 16760 16761 16762 16763 16764 16765 16766 16767 16768 16769 16770 16771 16772 16773 16774 16775 16776 16777 16778 16779 16780 16781 16782 16783 16784 16785 16786 16787 16788 16789 16790 16791 16792 16793 16794 16795 16796 16797 16798 16799 16800 16801 16802 16803 16804 16805 16806 16807 16808 16809 16810 16811 16812 16813 16814 16815 16816 16817 16818 16819 16820 16821 16822 16823 16824 16825 16826 16827 16828 16829 16830 16831 16832 16833 16834 16835 16836 16837 16838 16839 16840 16841 16842 16843 16844 16845 16846 16847 16848 16849 16850 16851 16852 16853 16854 16855 16856 16857 16858 16859 16860 16861 16862 16863 16864 16865 16866 16867 16868 16869 16870 16871 16872 16873 16874 16875 16876 16877 16878 16879 16880 16881 16882 16883 16884 16885 16886 16887 16888 16889 16890 16891 16892 16893 16894 16895 16896 16897 16898 16899 16900 16901 16902 16903 16904 16905 16906 16907 16908 16909 16910 16911 16912 16913 16914 16915 16916 16917 16918 16919 16920 16921 16922 16923 16924 16925 16926 16927 16928 16929 16930 16931 16932 16933 16934 16935 16936 16937 16938 16939 16940 16941 16942 16943 16944 16945 16946 16947 16948 16949 16950 16951 16952 16953 16954 16955 16956 16957 16958 16959 16960 16961 16962 16963 16964 16965 16966 16967 16968 16969 16970 16971 16972 16973 16974 16975 16976 16977 16978 16979 16980 16981 16982 16983 16984 16985 16986 16987 16988 16989 16990 16991 16992 16993 16994 16995 16996 16997 16998 16999 17000 17001 17002 17003 17004 17005 17006 17007 17008 17009 17010 17011 17012 17013 17014 17015 17016 17017 17018 17019 17020 17021 17022 17023 17024 17025 17026 17027 17028 17029 17030 17031 17032 17033 17034 17035 17036 17037 17038 17039 17040 17041 17042 17043 17044 17045 17046 17047 17048 17049 17050 17051 17052 17053 17054 17055 17056 17057 17058 17059 17060 17061 17062 17063 17064 17065 17066 17067 17068 17069 17070 17071 17072 17073 17074 17075 17076 17077 17078 17079 17080 17081 17082 17083 17084 17085 17086 17087 17088 17089 17090 17091 17092 17093 17094 17095 17096 17097 17098 17099 17100 17101 17102 17103 17104 17105 17106 17107 17108 17109 17110 17111 17112 17113 17114 17115 17116 17117 17118 17119 17120 17121 17122 17123 17124 17125 17126 17127 17128 17129 17130 17131 17132 17133 17134 17135 17136 17137 17138 17139 17140 17141 17142 17143 17144 17145 17146 17147 17148 17149 17150 17151 17152 17153 17154 17155 17156 17157 17158 17159 17160 17161 17162 17163 17164 17165 17166 17167 17168 17169 17170 17171 17172 17173 17174 17175 17176 17177 17178 17179 17180 17181 17182 17183 17184 17185 17186 17187 17188 17189 17190 17191 17192 17193 17194 17195 17196 17197 17198 17199 17200 17201 17202 17203 17204 17205 17206 17207 17208 17209 17210 17211 17212 17213 17214 17215 17216 17217 17218 17219 17220 17221 17222 17223 17224 17225 17226 17227 17228 17229 17230 17231 17232 17233 17234 17235 17236 17237 17238 17239 17240 17241 17242 17243 17244 17245 17246 17247 17248 17249 17250 17251 17252 17253 17254 17255 17256 17257 17258 17259 17260 17261 17262 17263 17264 17265 17266 17267 17268 17269 17270 17271 17272 17273 17274 17275 17276 17277 17278 17279 17280 17281 17282 17283 17284 17285 17286 17287 17288 17289 17290 17291 17292 17293 17294 17295 17296 17297 17298 17299 17300 17301 17302 17303 17304 17305 17306 17307 17308 17309 17310 17311 17312 17313 17314 17315 17316 17317 17318 17319 17320 17321 17322 17323 17324 17325 17326 17327 17328 17329 17330 17331 17332 17333 17334 17335 17336 17337 17338 17339 17340 17341 17342 17343 17344 17345 17346 17347 17348 17349 17350 17351 17352 17353 17354 17355 17356 17357 17358 17359 17360 17361 17362 17363 17364 17365 17366 17367 17368 17369 17370 17371 17372 17373 17374 17375 17376 17377 17378 17379 17380 17381 17382 17383 17384 17385 17386 17387 17388 17389 17390 17391 17392 17393 17394 17395 17396 17397 17398 17399 17400 17401 17402 17403 17404 17405 17406 17407 17408 17409 17410 17411 17412 17413 17414 17415 17416 17417 17418 17419 17420 17421 17422 17423 17424 17425 17426 17427 17428 17429 17430 17431 17432 17433 17434 17435 17436 17437 17438 17439 17440 17441 17442 17443 17444 17445 17446 17447 17448 17449 17450 17451 17452 17453 17454 17455 17456 17457 17458 17459 17460 17461 17462 17463 17464 17465 17466 17467 17468 17469 17470 17471 17472 17473 17474 17475 17476 17477 17478 17479 17480 17481 17482 17483 17484 17485 17486 17487 17488 17489 17490 17491 17492 17493 17494 17495 17496 17497 17498 17499 17500 17501 17502 17503 17504 17505 17506 17507 17508 17509 17510 17511 17512 17513 17514 17515 17516 17517 17518 17519 17520 17521 17522 17523 17524 17525 17526 17527 17528 17529 17530 17531 17532 17533 17534 17535 17536 17537 17538 17539 17540 17541 17542 17543 17544 17545 17546 17547 17548 17549 17550 17551 17552 17553 17554 17555 17556 17557 17558 17559 17560 17561 17562 17563 17564 17565 17566 17567 17568 17569 17570 17571 17572 17573 17574 17575 17576 17577 17578 17579 17580 17581 17582 17583 17584 17585 17586 17587 17588 17589 17590 17591 17592 17593 17594 17595 17596 17597 17598 17599 17600 17601 17602 17603 17604 17605 17606 17607 17608 17609 17610 17611 17612 17613 17614 17615 17616 17617 17618 17619 17620 17621 17622 17623 17624 17625 17626 17627 17628 17629 17630 17631 17632 17633 17634 17635 17636 17637 17638 17639 17640 17641 17642 17643 17644 17645 17646 17647 17648 17649 17650 17651 17652 17653 17654 17655 17656 17657 17658 17659 17660 17661 17662 17663 17664 17665 17666 17667 17668 17669 17670 17671 17672 17673 17674 17675 17676 17677 17678 17679 17680 17681 17682 17683 17684 17685 17686 17687 17688 17689 17690 17691 17692 17693 17694 17695 17696 17697 17698 17699 17700 17701 17702 17703 17704 17705 17706 17707 17708 17709 17710 17711 17712 17713 17714 17715 17716 17717 17718 17719 17720 17721 17722 17723 17724 17725 17726 17727 17728 17729 17730 17731 17732 17733 17734 17735 17736 17737 17738 17739 17740 17741 17742 17743 17744 17745 17746 17747 17748 17749 17750 17751 17752 17753 17754 17755 17756 17757 17758 17759 17760 17761 17762 17763 17764 17765 17766 17767 17768 17769 17770 17771 17772 17773 17774 17775 17776 17777 17778 17779 17780 17781 17782 17783 17784 17785 17786 17787 17788 17789 17790 17791 17792 17793 17794 17795 17796 17797 17798 17799 17800 17801 17802 17803 17804 17805 17806 17807 17808 17809 17810 17811 17812 17813 17814 17815 17816 17817 17818 17819 17820 17821 17822 17823 17824 17825 17826 17827 17828 17829 17830 17831 17832 17833 17834 17835 17836 17837 17838 17839 17840 17841 17842 17843 17844 17845 17846 17847 17848 17849 17850 17851 17852 17853 17854 17855 17856 17857 17858 17859 17860 17861 17862 17863 17864 17865 17866 17867 17868 17869 17870 17871 17872 17873 17874 17875 17876 17877 17878 17879 17880 17881 17882 17883 17884 17885 17886 17887 17888 17889 17890 17891 17892 17893 17894 17895 17896 17897 17898 17899 17900 17901 17902 17903 17904 17905 17906 17907 17908 17909 17910 17911 17912 17913 17914 17915 17916 17917 17918 17919 17920 17921 17922 17923 17924 17925 17926 17927 17928 17929 17930 17931 17932 17933 17934 17935 17936 17937 17938 17939 17940 17941 17942 17943 17944 17945 17946 17947 17948 17949 17950 17951 17952 17953 17954 17955 17956 17957 17958 17959 17960 17961 17962 17963 17964 17965 17966 17967 17968 17969 17970 17971 17972 17973 17974 17975 17976 17977 17978 17979 17980 17981 17982 17983 17984 17985 17986 17987 17988 17989 17990 17991 17992 17993 17994 17995 17996 17997 17998 17999 18000 18001 18002 18003 18004 18005 18006 18007 18008 18009 18010 18011 18012 18013 18014 18015 18016 18017 18018 18019 18020 18021 18022 18023 18024 18025 18026 18027 18028 18029 18030 18031 18032 18033 18034 18035 18036 18037 18038 18039 18040 18041 18042 18043 18044 18045 18046 18047 18048 18049 18050 18051 18052 18053 18054 18055 18056 18057 18058 18059 18060 18061 18062 18063 18064 18065 18066 18067 18068 18069 18070 18071 18072 18073 18074 18075 18076 18077 18078 18079 18080 18081 18082 18083 18084 18085 18086 18087 18088 18089 18090 18091 18092 18093 18094 18095 18096 18097 18098 18099 18100 18101 18102 18103 18104 18105 18106 18107 18108 18109 18110 18111 18112 18113 18114 18115 18116 18117 18118 18119 18120 18121 18122 18123 18124 18125 18126 18127 18128 18129 18130 18131 18132 18133 18134 18135 18136 18137 18138 18139 18140 18141 18142 18143 18144 18145 18146 18147 18148 18149 18150 18151 18152 18153 18154 18155 18156 18157 18158 18159 18160 18161 18162 18163 18164 18165 18166 18167 18168 18169 18170 18171 18172 18173 18174 18175 18176 18177 18178 18179 18180 18181 18182 18183 18184 18185 18186 18187 18188 18189 18190 18191 18192 18193 18194 18195 18196 18197 18198 18199 18200 18201 18202 18203 18204 18205 18206 18207 18208 18209 18210 18211 18212 18213 18214 18215 18216 18217 18218 18219 18220 18221 18222 18223 18224 18225 18226 18227 18228 18229 18230 18231 18232 18233 18234 18235 18236 18237 18238 18239 18240 18241 18242 18243 18244 18245 18246 18247 18248 18249 18250 18251 18252 18253 18254 18255 18256 18257 18258 18259 18260 18261 18262 18263 18264 18265 18266 18267 18268 18269 18270 18271 18272 18273 18274 18275 18276 18277 18278 18279 18280 18281 18282 18283 18284 18285 18286 18287 18288 18289 18290 18291 18292 18293 18294 18295 18296 18297 18298 18299 18300 18301 18302 18303 18304 18305 18306 18307 18308 18309 18310 18311 18312 18313 18314 18315 18316 18317 18318 18319 18320 18321 18322 18323 18324 18325 18326 18327 18328 18329 18330 18331 18332 18333 18334 18335 18336 18337 18338 18339 18340 18341 18342 18343 18344 18345 18346 18347 18348 18349 18350 18351 18352 18353 18354 18355 18356 18357 18358 18359 18360 18361 18362 18363 18364 18365 18366 18367 18368 18369 18370 18371 18372 18373 18374 18375 18376 18377 18378 18379 18380 18381 18382 18383 18384 18385 18386 18387 18388 18389 18390 18391 18392 18393 18394 18395 18396 18397 18398 18399 18400 18401 18402 18403 18404 18405 18406 18407 18408 18409 18410 18411 18412 18413 18414 18415 18416 18417 18418 18419 18420 18421 18422 18423 18424 18425 18426 18427 18428 18429 18430 18431 18432 18433 18434 18435 18436 18437 18438 18439 18440 18441 18442 18443 18444 18445 18446 18447 18448 18449 18450 18451 18452 18453 18454 18455 18456 18457 18458 18459 18460 18461 18462 18463 18464 18465 18466 18467 18468 18469 18470 18471 18472 18473 18474 18475 18476 18477 18478 18479 18480 18481 18482 18483 18484 18485 18486 18487 18488 18489 18490 18491 18492 18493 18494 18495 18496 18497 18498 18499 18500 18501 18502 18503 18504 18505 18506 18507 18508 18509 18510 18511 18512 18513 18514 18515 18516 18517 18518 18519 18520 18521 18522 18523 18524 18525 18526 18527 18528 18529 18530 18531 18532 18533 18534 18535 18536 18537 18538 18539 18540 18541 18542 18543 18544 18545 18546 18547 18548 18549 18550 18551 18552 18553 18554 18555 18556 18557 18558 18559 18560 18561 18562 18563 18564 18565 18566 18567 18568 18569 18570 18571 18572 18573 18574 18575 18576 18577 18578 18579 18580 18581 18582 18583 18584 18585 18586 18587 18588 18589 18590 18591 18592 18593 18594 18595 18596 18597 18598 18599 18600 18601 18602 18603 18604 18605 18606 18607 18608 18609 18610 18611 18612 18613 18614 18615 18616 18617 18618 18619 18620 18621 18622 18623 18624 18625 18626 18627 18628 18629 18630 18631 18632 18633 18634 18635 18636 18637 18638 18639 18640 18641 18642 18643 18644 18645 18646 18647 18648 18649 18650 18651 18652 18653 18654 18655 18656 18657 18658 18659 18660 18661 18662 18663 18664 18665 18666 18667 18668 18669 18670 18671 18672 18673 18674 18675 18676 18677 18678 18679 18680 18681 18682 18683 18684 18685 18686 18687 18688 18689 18690 18691 18692 18693 18694 18695 18696 18697 18698 18699 18700 18701 18702 18703 18704 18705 18706 18707 18708 18709 18710 18711 18712 18713 18714 18715 18716 18717 18718 18719 18720 18721 18722 18723 18724 18725 18726 18727 18728 18729 18730 18731 18732 18733 18734 18735 18736 18737 18738 18739 18740 18741 18742 18743 18744 18745 18746 18747 18748 18749 18750 18751 18752 18753 18754 18755 18756 18757 18758 18759 18760 18761 18762 18763 18764 18765 18766 18767 18768 18769 18770 18771 18772 18773 18774 18775 18776 18777 18778 18779 18780 18781 18782 18783 18784 18785 18786 18787 18788 18789 18790 18791 18792 18793 18794 18795 18796 18797 18798 18799 18800 18801 18802 18803 18804 18805 18806 18807 18808 18809 18810 18811 18812 18813 18814 18815 18816 18817 18818 18819 18820 18821 18822 18823 18824 18825 18826 18827 18828 18829 18830 18831 18832 18833 18834 18835 18836 18837 18838 18839 18840 18841 18842 18843 18844 18845 18846 18847 18848 18849 18850 18851 18852 18853 18854 18855 18856 18857 18858 18859 18860 18861 18862 18863 18864 18865 18866 18867 18868 18869 18870 18871 18872 18873 18874 18875 18876 18877 18878 18879 18880 18881 18882 18883 18884 18885 18886 18887 18888 18889 18890 18891 18892 18893 18894 18895 18896 18897 18898 18899 18900 18901 18902 18903 18904 18905 18906 18907 18908 18909 18910 18911 18912 18913 18914 18915 18916 18917 18918 18919 18920 18921 18922 18923 18924 18925 18926 18927 18928 18929 18930 18931 18932 18933 18934 18935 18936 18937 18938 18939 18940 18941 18942 18943 18944 18945 18946 18947 18948 18949 18950 18951 18952 18953 18954 18955 18956 18957 18958 18959 18960 18961 18962 18963 18964 18965 18966 18967 18968 18969 18970 18971 18972 18973 18974 18975 18976 18977 18978 18979 18980 18981 18982 18983 18984 18985 18986 18987 18988 18989 18990 18991 18992 18993 18994 18995 18996 18997 18998 18999 19000 19001 19002 19003 19004 19005 19006 19007 19008 19009 19010 19011 19012 19013 19014 19015 19016 19017 19018 19019 19020 19021 19022 19023 19024 19025 19026 19027 19028 19029 19030 19031 19032 19033 19034 19035 19036 19037 19038 19039 19040 19041 19042 19043 19044 19045 19046 19047 19048 19049 19050 19051 19052 19053 19054 19055 19056 19057 19058 19059 19060 19061 19062 19063 19064 19065 19066 19067 19068 19069 19070 19071 19072 19073 19074 19075 19076 19077 19078 19079 19080 19081 19082 19083 19084 19085 19086 19087 19088 19089 19090 19091 19092 19093 19094 19095 19096 19097 19098 19099 19100 19101 19102 19103 19104 19105 19106 19107 19108 19109 19110 19111 19112 19113 19114 19115 19116 19117 19118 19119 19120 19121 19122 19123 19124 19125 19126 19127 19128 19129 19130 19131 19132 19133 19134 19135 19136 19137 19138 19139 19140 19141 19142 19143 19144 19145 19146 19147 19148 19149 19150 19151 19152 19153 19154 19155 19156 19157 19158 19159 19160 19161 19162 19163 19164 19165 19166 19167 19168 19169 19170 19171 19172 19173 19174 19175 19176 19177 19178 19179 19180 19181 19182 19183 19184 19185 19186 19187 19188 19189 19190 19191 19192 19193 19194 19195 19196 19197 19198 19199 19200 19201 19202 19203 19204 19205 19206 19207 19208 19209 19210 19211 19212 19213 19214 19215 19216 19217 19218 19219 19220 19221 19222 19223 19224 19225 19226 19227 19228 19229 19230 19231 19232 19233 19234 19235 19236 19237 19238 19239 19240 19241 19242 19243 19244 19245 19246 19247 19248 19249 19250 19251 19252 19253 19254 19255 19256 19257 19258 19259 19260 19261 19262 19263 19264 19265 19266 19267 19268 19269 19270 19271 19272 19273 19274 19275 19276 19277 19278 19279 19280 19281 19282 19283 19284 19285 19286 19287 19288 19289 19290 19291 19292 19293 19294 19295 19296 19297 19298 19299 19300 19301 19302 19303 19304 19305 19306 19307 19308 19309 19310 19311 19312 19313 19314 19315 19316 19317 19318 19319 19320 19321 19322 19323 19324 19325 19326 19327 19328 19329 19330 19331 19332 19333 19334 19335 19336 19337 19338 19339 19340 19341 19342 19343 19344 19345 19346 19347 19348 19349 19350 19351 19352 19353 19354 19355 19356 19357 19358 19359 19360 19361 19362 19363 19364 19365 19366 19367 19368 19369 19370 19371 19372 19373 19374 19375 19376 19377 19378 19379 19380 19381 19382 19383 19384 19385 19386 19387 19388 19389 19390 19391 19392 19393 19394 19395 19396 19397 19398 19399 19400 19401 19402 19403 19404 19405 19406 19407 19408 19409 19410 19411 19412 19413 19414 19415 19416 19417 19418 19419 19420 19421 19422 19423 19424 19425 19426 19427 19428 19429 19430 19431 19432 19433 19434 19435 19436 19437 19438 19439 19440 19441 19442 19443 19444 19445 19446 19447 19448 19449 19450 19451 19452 19453 19454 19455 19456 19457 19458 19459 19460 19461 19462 19463 19464 19465 19466 19467 19468 19469 19470 19471 19472 19473 19474 19475 19476 19477 19478 19479 19480 19481 19482 19483 19484 19485 19486 19487 19488 19489 19490 19491 19492 19493 19494 19495 19496 19497 19498 19499 19500 19501 19502 19503 19504 19505 19506 19507 19508 19509 19510 19511 19512 19513 19514 19515 19516 19517 19518 19519 19520 19521 19522 19523 19524 19525 19526 19527 19528 19529 19530 19531 19532 19533 19534 19535 19536 19537 19538 19539 19540 19541 19542 19543 19544 19545 19546 19547 19548 19549 19550 19551 19552 19553 19554 19555 19556 19557 19558 19559 19560 19561 19562 19563 19564 19565 19566 19567 19568 19569 19570 19571 19572 19573 19574 19575 19576 19577 19578 19579 19580 19581 19582 19583 19584 19585 19586 19587 19588 19589 19590 19591 19592 19593 19594 19595 19596 19597 19598 19599 19600 19601 19602 19603 19604 19605 19606 19607 19608 19609 19610 19611 19612 19613 19614 19615 19616 19617 19618 19619 19620 19621 19622 19623 19624 19625 19626 19627 19628 19629 19630 19631 19632 19633 19634 19635 19636 19637 19638 19639 19640 19641 19642 19643 19644 19645 19646 19647 19648 19649 19650 19651 19652 19653 19654 19655 19656 19657 19658 19659 19660 19661 19662 19663 19664 19665 19666 19667 19668 19669 19670 19671 19672 19673 19674 19675 19676 19677 19678 19679 19680 19681 19682 19683 19684 19685 19686 19687 19688 19689 19690 19691 19692 19693 19694 19695 19696 19697 19698 19699 19700 19701 19702 19703 19704 19705 19706 19707 19708 19709 19710 19711 19712 19713 19714 19715 19716 19717 19718 19719 19720 19721 19722 19723 19724 19725 19726 19727 19728 19729 19730 19731 19732 19733 19734 19735 19736 19737 19738 19739 19740 19741 19742 19743 19744 19745 19746 19747 19748 19749 19750 19751 19752 19753 19754 19755 19756 19757 19758 19759 19760 19761 19762 19763 19764 19765 19766 19767 19768 19769 19770 19771 19772 19773 19774 19775 19776 19777 19778 19779 19780 19781 19782 19783 19784 19785 19786 19787 19788 19789 19790 19791 19792 19793 19794 19795 19796 19797 19798 19799 19800 19801 19802 19803 19804 19805 19806 19807 19808 19809 19810 19811 19812 19813 19814 19815 19816 19817 19818 19819 19820 19821 19822 19823 19824 19825 19826 19827 19828 19829 19830 19831 19832 19833 19834 19835 19836 19837 19838 19839 19840 19841 19842 19843 19844 19845 19846 19847 19848 19849 19850 19851 19852 19853 19854 19855 19856 19857 19858 19859 19860 19861 19862 19863 19864 19865 19866 19867 19868 19869 19870 19871 19872 19873 19874 19875 19876 19877 19878 19879 19880 19881 19882 19883 19884 19885 19886 19887 19888 19889 19890 19891 19892 19893 19894 19895 19896 19897 19898 19899 19900 19901 19902 19903 19904 19905 19906 19907 19908 19909 19910 19911 19912 19913 19914 19915 19916 19917 19918 19919 19920 19921 19922 19923 19924 19925 19926 19927 19928 19929 19930 19931 19932 19933 19934 19935 19936 19937 19938 19939 19940 19941 19942 19943 19944 19945 19946 19947 19948 19949 19950 19951 19952 19953 19954 19955 19956 19957 19958 19959 19960 19961 19962 19963 19964 19965 19966 19967 19968 19969 19970 19971 19972 19973 19974 19975 19976 19977 19978 19979 19980 19981 19982 19983 19984 19985 19986 19987 19988 19989 19990 19991 19992 19993 19994 19995 19996 19997 19998 19999 20000 20001 20002 20003 20004 20005 20006 20007 20008 20009 20010 20011 20012 20013 20014 20015 20016 20017 20018 20019 20020 20021 20022 20023 20024 20025 20026 20027 20028 20029 20030 20031 20032 20033 20034 20035 20036 20037 20038 20039 20040 20041 20042 20043 20044 20045 20046 20047 20048 20049 20050 20051 20052 20053 20054 20055 20056 20057 20058 20059 20060 20061 20062 20063 20064 20065 20066 20067 20068 20069 20070 20071 20072 20073 20074 20075 20076 20077 20078 20079 20080 20081 20082 20083 20084 20085 20086 20087 20088 20089 20090 20091 20092 20093 20094 20095 20096 20097 20098 20099 20100 20101 20102 20103 20104 20105 20106 20107 20108 20109 20110 20111 20112 20113 20114 20115 20116 20117 20118 20119 20120 20121 20122 20123 20124 20125 20126 20127 20128 20129 20130 20131 20132 20133 20134 20135 20136 20137 20138 20139 20140 20141 20142 20143 20144 20145 20146 20147 20148 20149 20150 20151 20152 20153 20154 20155 20156 20157 20158 20159 20160 20161 20162 20163 20164 20165 20166 20167 20168 20169 20170 20171 20172 20173 20174 20175 20176 20177 20178 20179 20180 20181 20182 20183 20184 20185 20186 20187 20188 20189 20190 20191 20192 20193 20194 20195 20196 20197 20198 20199 20200 20201 20202 20203 20204 20205 20206 20207 20208 20209 20210 20211 20212 20213 20214 20215 20216 20217 20218 20219 20220 20221 20222 20223 20224 20225 20226 20227 20228 20229 20230 20231 20232 20233 20234 20235 20236 20237 20238 20239 20240 20241 20242 20243 20244 20245 20246 20247 20248 20249 20250 20251 20252 20253 20254 20255 20256 20257 20258 20259 20260 20261 20262 20263 20264 20265 20266 20267 20268 20269 20270 20271 20272 20273 20274 20275 20276 20277 20278 20279 20280 20281 20282 20283 20284 20285 20286 20287 20288 20289 20290 20291 20292 20293 20294 20295 20296 20297 20298 20299 20300 20301 20302 20303 20304 20305 20306 20307 20308 20309 20310 20311 20312 20313 20314 20315 20316 20317 20318 20319 20320 20321 20322 20323 20324 20325 20326 20327 20328 20329 20330 20331 20332 20333 20334 20335 20336 20337 20338 20339 20340 20341 20342 20343 20344 20345 20346 20347 20348 20349 20350 20351 20352 20353 20354 20355 20356 20357 20358 20359 20360 20361 20362 20363 20364 20365 20366 20367 20368 20369 20370 20371 20372 20373 20374 20375 20376 20377 20378 20379 20380 20381 20382 20383 20384 20385 20386 20387 20388 20389 20390 20391 20392 20393 20394 20395 20396 20397 20398 20399 20400 20401 20402 20403 20404 20405 20406 20407 20408 20409 20410 20411 20412 20413 20414 20415 20416 20417 20418 20419 20420 20421 20422 20423 20424 20425 20426 20427 20428 20429 20430 20431 20432 20433 20434 20435 20436 20437 20438 20439 20440 20441 20442 20443 20444 20445 20446 20447 20448 20449 20450 20451 20452 20453 20454 20455 20456 20457 20458 20459 20460 20461 20462 20463 20464 20465 20466 20467 20468 20469 20470 20471 20472 20473 20474 20475 20476 20477 20478 20479 20480 20481 20482 20483 20484 20485 20486 20487 20488 20489 20490 20491 20492 20493 20494 20495 20496 20497 20498 20499 20500 20501 20502 20503 20504 20505 20506 20507 20508 20509 20510 20511 20512 20513 20514 20515 20516 20517 20518 20519 20520 20521 20522 20523 20524 20525 20526 20527 20528 20529 20530 20531 20532 20533 20534 20535 20536 20537 20538 20539 20540 20541 20542 20543 20544 20545 20546 20547 20548 20549 20550 20551 20552 20553 20554 20555 20556 20557 20558 20559 20560 20561 20562 20563 20564 20565 20566 20567 20568 20569 20570 20571 20572 20573 20574 20575 20576 20577 20578 20579 20580 20581 20582 20583 20584 20585 20586 20587 20588 20589 20590 20591 20592 20593 20594 20595 20596 20597 20598 20599 20600 20601 20602 20603 20604 20605 20606 20607 20608 20609 20610 20611 20612 20613 20614 20615 20616 20617 20618 20619 20620 20621 20622 20623 20624 20625 20626 20627 20628 20629 20630 20631 20632 20633 20634 20635 20636 20637 20638 20639 20640 20641 20642 20643 20644 20645 20646 20647 20648 20649 20650 20651 20652 20653 20654 20655 20656 20657 20658 20659 20660 20661 20662 20663 20664 20665 20666 20667 20668 20669 20670 20671 20672 20673 20674 20675 20676 20677 20678 20679 20680 20681 20682 20683 20684 20685 20686 20687 20688 20689 20690 20691 20692 20693 20694 20695 20696 20697 20698 20699 20700 20701 20702 20703 20704 20705 20706 20707 20708 20709 20710 20711 20712 20713 20714 20715 20716 20717 20718 20719 20720 20721 20722 20723 20724 20725 20726 20727 20728 20729 20730 20731 20732 20733 20734 20735 20736 20737 20738 20739 20740 20741 20742 20743 20744 20745 20746 20747 20748 20749 20750 20751 20752 20753 20754 20755 20756 20757 20758 20759 20760 20761 20762 20763 20764 20765 20766 20767 20768 20769 20770 20771 20772 20773 20774 20775 20776 20777 20778 20779 20780 20781 20782 20783 20784 20785 20786 20787 20788 20789 20790 20791 20792 20793 20794 20795 20796 20797 20798 20799 20800 20801 20802 20803 20804 20805 20806 20807 20808 20809 20810 20811 20812 20813 20814 20815 20816 20817 20818 20819 20820 20821 20822 20823 20824 20825 20826 20827 20828 20829 20830 20831 20832 20833 20834 20835 20836 20837 20838 20839 20840 20841 20842 20843 20844 20845 20846 20847 20848 20849 20850 20851 20852 20853 20854 20855 20856 20857 20858 20859 20860 20861 20862 20863 20864 20865 20866 20867 20868 20869 20870 20871 20872 20873 20874 20875 20876 20877 20878 20879 20880 20881 20882 20883 20884 20885 20886 20887 20888 20889 20890 20891 20892 20893 20894 20895 20896 20897 20898 20899 20900 20901 20902 20903 20904 20905 20906 20907 20908 20909 20910 20911 20912 20913 20914 20915 20916 20917 20918 20919 20920 20921 20922 20923 20924 20925 20926 20927 20928 20929 20930 20931 20932 20933 20934 20935 20936 20937 20938 20939 20940 20941 20942 20943 20944 20945 20946 20947 20948 20949 20950 20951 20952 20953 20954 20955 20956 20957 20958 20959 20960 20961 20962 20963 20964 20965 20966 20967 20968 20969 20970 20971 20972 20973 20974 20975 20976 20977 20978 20979 20980 20981 20982 20983 20984 20985 20986 20987 20988 20989 20990 20991 20992 20993 20994 20995 20996 20997 20998 20999 21000 21001 21002 21003 21004 21005 21006 21007 21008 21009 21010 21011 21012 21013 21014 21015 21016 21017 21018 21019 21020 21021 21022 21023 21024 21025 21026 21027 21028 21029 21030 21031 21032 21033 21034 21035 21036 21037 21038 21039 21040 21041 21042 21043 21044 21045 21046 21047 21048 21049 21050 21051 21052 21053 21054 21055 21056 21057 21058 21059 21060 21061 21062 21063 21064 21065 21066 21067 21068 21069 21070 21071 21072 21073 21074 21075 21076 21077 21078 21079 21080 21081 21082 21083 21084 21085 21086 21087 21088 21089 21090 21091 21092 21093 21094 21095 21096 21097 21098 21099 21100 21101 21102 21103 21104 21105 21106 21107 21108 21109 21110 21111 21112 21113 21114 21115 21116 21117 21118 21119 21120 21121 21122 21123 21124 21125 21126 21127 21128 21129 21130 21131 21132 21133 21134 21135 21136 21137 21138 21139 21140 21141 21142 21143 21144 21145 21146 21147 21148 21149 21150 21151 21152 21153 21154 21155 21156 21157 21158 21159 21160 21161 21162 21163 21164 21165 21166 21167 21168 21169 21170 21171 21172 21173 21174 21175 21176 21177 21178 21179 21180 21181 21182 21183 21184 21185 21186 21187 21188 21189 21190 21191 21192 21193 21194 21195 21196 21197 21198 21199 21200 21201 21202 21203 21204 21205 21206 21207 21208 21209 21210 21211 21212 21213 21214 21215 21216 21217 21218 21219 21220 21221 21222 21223 21224 21225 21226 21227 21228 21229 21230 21231 21232 21233 21234 21235 21236 21237 21238 21239 21240 21241 21242 21243 21244 21245 21246 21247 21248 21249 21250 21251 21252 21253 21254 21255 21256 21257 21258 21259 21260 21261 21262 21263 21264 21265 21266 21267 21268 21269 21270 21271 21272 21273 21274 21275 21276 21277 21278 21279 21280 21281 21282 21283 21284 21285 21286 21287 21288 21289 21290 21291 21292 21293 21294 21295 21296 21297 21298 21299 21300 21301 21302 21303 21304 21305 21306 21307 21308 21309 21310 21311 21312 21313 21314 21315 21316 21317 21318 21319 21320 21321 21322 21323 21324 21325 21326 21327 21328 21329 21330 21331 21332 21333 21334 21335 21336 21337 21338 21339 21340 21341 21342 21343 21344 21345 21346 21347 21348 21349 21350 21351 21352 21353 21354 21355 21356 21357 21358 21359 21360 21361 21362 21363 21364 21365 21366 21367 21368 21369 21370 21371 21372 21373 21374 21375 21376 21377 21378 21379 21380 21381 21382 21383 21384 21385 21386 21387 21388 21389 21390 21391 21392 21393 21394 21395 21396 21397 21398 21399 21400 21401 21402 21403 21404 21405 21406 21407 21408 21409 21410 21411 21412 21413 21414 21415 21416 21417 21418 21419 21420 21421 21422 21423 21424 21425 21426 21427 21428 21429 21430 21431 21432 21433 21434 21435 21436 21437 21438 21439 21440 21441 21442 21443 21444 21445 21446 21447 21448 21449 21450 21451 21452 21453 21454 21455 21456 21457 21458 21459 21460 21461 21462 21463 21464 21465 21466 21467 21468 21469 21470 21471 21472 21473 21474 21475 21476 21477 21478 21479 21480 21481 21482 21483 21484 21485 21486 21487 21488 21489 21490 21491 21492 21493 21494 21495 21496 21497 21498 21499 21500 21501 21502 21503 21504 21505 21506 21507 21508 21509 21510 21511 21512 21513 21514 21515 21516 21517 21518 21519 21520 21521 21522 21523 21524 21525 21526 21527 21528 21529 21530 21531 21532 21533 21534 21535 21536 21537 21538 21539 21540 21541 21542 21543 21544 21545 21546 21547 21548 21549 21550 21551 21552 21553 21554 21555 21556 21557 21558 21559 21560 21561 21562 21563 21564 21565 21566 21567 21568 21569 21570 21571 21572 21573 21574 21575 21576 21577 21578 21579 21580 21581 21582 21583 21584 21585 21586 21587 21588 21589 21590 21591 21592 21593 21594 21595 21596 21597 21598 21599 21600 21601 21602 21603 21604 21605 21606 21607 21608 21609 21610 21611 21612 21613 21614 21615 21616 21617 21618 21619 21620 21621 21622 21623 21624 21625 21626 21627 21628 21629 21630 21631 21632 21633 21634 21635 21636 21637 21638 21639 21640 21641 21642 21643 21644 21645 21646 21647 21648 21649 21650 21651 21652 21653 21654 21655 21656 21657 21658 21659 21660 21661 21662 21663 21664 21665 21666 21667 21668 21669 21670 21671 21672 21673 21674 21675 21676 21677 21678 21679 21680 21681 21682 21683 21684 21685 21686 21687 21688 21689 21690 21691 21692 21693 21694 21695 21696 21697 21698 21699 21700 21701 21702 21703 21704 21705 21706 21707 21708 21709 21710 21711 21712 21713 21714 21715 21716 21717 21718 21719 21720 21721 21722 21723 21724 21725 21726 21727 21728 21729 21730 21731 21732 21733 21734 21735 21736 21737 21738 21739 21740 21741 21742 21743 21744 21745 21746 21747 21748 21749 21750 21751 21752 21753 21754 21755 21756 21757 21758 21759 21760 21761 21762 21763 21764 21765 21766 21767 21768 21769 21770 21771 21772 21773 21774 21775 21776 21777 21778 21779 21780 21781 21782 21783 21784 21785 21786 21787 21788 21789 21790 21791 21792 21793 21794 21795 21796 21797 21798 21799 21800 21801 21802 21803 21804 21805 21806 21807 21808 21809 21810 21811 21812 21813 21814 21815 21816 21817 21818 21819 21820 21821 21822 21823 21824 21825 21826 21827 21828 21829 21830 21831 21832 21833 21834 21835 21836 21837 21838 21839 21840 21841 21842 21843 21844 21845 21846 21847 21848 21849 21850 21851 21852 21853 21854 21855 21856 21857 21858 21859 21860 21861 21862 21863 21864 21865 21866 21867 21868 21869 21870 21871 21872 21873 21874 21875 21876 21877 21878 21879 21880 21881 21882 21883 21884 21885 21886 21887 21888 21889 21890 21891 21892 21893 21894 21895 21896 21897 21898 21899 21900 21901 21902 21903 21904 21905 21906 21907 21908 21909 21910 21911 21912 21913 21914 21915 21916 21917 21918 21919 21920 21921 21922 21923 21924 21925 21926 21927 21928 21929 21930 21931 21932 21933 21934 21935 21936 21937 21938 21939 21940 21941 21942 21943 21944 21945 21946 21947 21948 21949 21950 21951 21952 21953 21954 21955 21956 21957 21958 21959 21960 21961 21962 21963 21964 21965 21966 21967 21968 21969 21970 21971 21972 21973 21974 21975 21976 21977 21978 21979 21980 21981 21982 21983 21984 21985 21986 21987 21988 21989 21990 21991 21992 21993 21994 21995 21996 21997 21998 21999 22000 22001 22002 22003 22004 22005 22006 22007 22008 22009 22010 22011 22012 22013 22014 22015 22016 22017 22018 22019 22020 22021 22022 22023 22024 22025 22026 22027 22028 22029 22030 22031 22032 22033 22034 22035 22036 22037 22038 22039 22040 22041 22042 22043 22044 22045 22046 22047 22048 22049 22050 22051 22052 22053 22054 22055 22056 22057 22058 22059 22060 22061 22062 22063 22064 22065 22066 22067 22068 22069 22070 22071 22072 22073 22074 22075 22076 22077 22078 22079 22080 22081 22082 22083 22084 22085 22086 22087 22088 22089 22090 22091 22092 22093 22094 22095 22096 22097 22098 22099 22100 22101 22102 22103 22104 22105 22106 22107 22108 22109 22110 22111 22112 22113 22114 22115 22116 22117 22118 22119 22120 22121 22122 22123 22124 22125 22126 22127 22128 22129 22130 22131 22132 22133 22134 22135 22136 22137 22138 22139 22140 22141 22142 22143 22144 22145 22146 22147 22148 22149 22150 22151 22152 22153 22154 22155 22156 22157 22158 22159 22160 22161 22162 22163 22164 22165 22166 22167 22168 22169 22170 22171 22172 22173 22174 22175 22176 22177 22178 22179 22180 22181 22182 22183 22184 22185 22186 22187 22188 22189 22190 22191 22192 22193 22194 22195 22196 22197 22198 22199 22200 22201 22202 22203 22204 22205 22206 22207 22208 22209 22210 22211 22212 22213 22214 22215 22216 22217 22218 22219 22220 22221 22222 22223 22224 22225 22226 22227 22228 22229 22230 22231 22232 22233 22234 22235 22236 22237 22238 22239 22240 22241 22242 22243 22244 22245 22246 22247 22248 22249 22250 22251 22252 22253 22254 22255 22256 22257 22258 22259 22260 22261 22262 22263 22264 22265 22266 22267 22268 22269 22270 22271 22272 22273 22274 22275 22276 22277 22278 22279 22280 22281 22282 22283 22284 22285 22286 22287 22288 22289 22290 22291 22292 22293 22294 22295 22296 22297 22298 22299 22300 22301 22302 22303 22304 22305 22306 22307 22308 22309 22310 22311 22312 22313 22314 22315 22316 22317 22318 22319 22320 22321 22322 22323 22324 22325 22326 22327 22328 22329 22330 22331 22332 22333 22334 22335 22336 22337 22338 22339 22340 22341 22342 22343 22344 22345 22346 22347 22348 22349 22350 22351 22352 22353 22354 22355 22356 22357 22358 22359 22360 22361 22362 22363 22364 22365 22366 22367 22368 22369 22370 22371 22372 22373 22374 22375 22376 22377 22378 22379 22380 22381 22382 22383 22384 22385 22386 22387 22388 22389 22390 22391 22392 22393 22394 22395 22396 22397 22398 22399 22400 22401 22402 22403 22404 22405 22406 22407 22408 22409 22410 22411 22412 22413 22414 22415 22416 22417 22418 22419 22420 22421 22422 22423 22424 22425 22426 22427 22428 22429 22430 22431 22432 22433 22434 22435 22436 22437 22438 22439 22440 22441 22442 22443 22444 22445 22446 22447 22448 22449 22450 22451 22452 22453 22454 22455 22456 22457 22458 22459 22460 22461 22462 22463 22464 22465 22466 22467 22468 22469 22470 22471 22472 22473 22474 22475 22476 22477 22478 22479 22480 22481 22482 22483 22484 22485 22486 22487 22488 22489 22490 22491 22492 22493 22494 22495 22496 22497 22498 22499 22500 22501 22502 22503 22504 22505 22506 22507 22508 22509 22510 22511 22512 22513 22514 22515 22516 22517 22518 22519 22520 22521 22522 22523 22524 22525 22526 22527 22528 22529 22530 22531 22532 22533 22534 22535 22536 22537 22538 22539 22540 22541 22542 22543 22544 22545 22546 22547 22548 22549 22550 22551 22552 22553 22554 22555 22556 22557 22558 22559 22560 22561 22562 22563 22564 22565 22566 22567 22568 22569 22570 22571 22572 22573 22574 22575 22576 22577 22578 22579 22580 22581 22582 22583 22584 22585 22586 22587 22588 22589 22590 22591 22592 22593 22594 22595 22596 22597 22598 22599 22600 22601 22602 22603 22604 22605 22606 22607 22608 22609 22610 22611 22612 22613 22614 22615 22616 22617 22618 22619 22620 22621 22622 22623 22624 22625 22626 22627 22628 22629 22630 22631 22632 22633 22634 22635 22636 22637 22638 22639 22640 22641 22642 22643 22644 22645 22646 22647 22648 22649 22650 22651 22652 22653 22654 22655 22656 22657 22658 22659 22660 22661 22662 22663 22664 22665 22666 22667 22668 22669 22670 22671 22672 22673 22674 22675 22676 22677 22678 22679 22680 22681 22682 22683 22684 22685 22686 22687 22688 22689 22690 22691 22692 22693 22694 22695 22696 22697 22698 22699 22700 22701 22702 22703 22704 22705 22706 22707 22708 22709 22710 22711 22712 22713 22714 22715 22716 22717 22718 22719 22720 22721 22722 22723 22724 22725 22726 22727 22728 22729 22730 22731 22732 22733 22734 22735 22736 22737 22738 22739 22740 22741 22742 22743 22744 22745 22746 22747 22748 22749 22750 22751 22752 22753 22754 22755 22756 22757 22758 22759 22760 22761 22762 22763 22764 22765 22766 22767 22768 22769 22770 22771 22772 22773 22774 22775 22776 22777 22778 22779 22780 22781 22782 22783 22784 22785 22786 22787 22788 22789 22790 22791 22792 22793 22794 22795 22796 22797 22798 22799 22800 22801 22802 22803 22804 22805 22806 22807 22808 22809 22810 22811 22812 22813 22814 22815 22816 22817 22818 22819 22820 22821 22822 22823 22824 22825 22826 22827 22828 22829 22830 22831 22832 22833 22834 22835 22836 22837 22838 22839 22840 22841 22842 22843 22844 22845 22846 22847 22848 22849 22850 22851 22852 22853 22854 22855 22856 22857 22858 22859 22860 22861 22862 22863 22864 22865 22866 22867 22868 22869 22870 22871 22872 22873 22874 22875 22876 22877 22878 22879 22880 22881 22882 22883 22884 22885 22886 22887 22888 22889 22890 22891 22892 22893 22894 22895 22896 22897 22898 22899 22900 22901 22902 22903 22904 22905 22906 22907 22908 22909 22910 22911 22912 22913 22914 22915 22916 22917 22918 22919 22920 22921 22922 22923 22924 22925 22926 22927 22928 22929 22930 22931 22932 22933 22934 22935 22936 22937 22938 22939 22940 22941 22942 22943 22944 22945 22946 22947 22948 22949 22950 22951 22952 22953 22954 22955 22956 22957 22958 22959 22960 22961 22962 22963 22964 22965 22966 22967 22968 22969 22970 22971 22972 22973 22974 22975 22976 22977 22978 22979 22980 22981 22982 22983 22984 22985 22986 22987 22988 22989 22990 22991 22992 22993 22994 22995 22996 22997 22998 22999 23000 23001 23002 23003 23004 23005 23006 23007 23008 23009 23010 23011 23012 23013 23014 23015 23016 23017 23018 23019 23020 23021 23022 23023 23024 23025 23026 23027 23028 23029 23030 23031 23032 23033 23034 23035 23036 23037 23038 23039 23040 23041 23042 23043 23044 23045 23046 23047 23048 23049 23050 23051 23052 23053 23054 23055 23056 23057 23058 23059 23060 23061 23062 23063 23064 23065 23066 23067 23068 23069 23070 23071 23072 23073 23074 23075 23076 23077 23078 23079 23080 23081 23082 23083 23084 23085 23086 23087 23088 23089 23090 23091 23092 23093 23094 23095 23096 23097 23098 23099 23100 23101 23102 23103 23104 23105 23106 23107 23108 23109 23110 23111 23112 23113 23114 23115 23116 23117 23118 23119 23120 23121 23122 23123 23124 23125 23126 23127 23128 23129 23130 23131 23132 23133 23134 23135 23136 23137 23138 23139 23140 23141 23142 23143 23144 23145 23146 23147 23148 23149 23150 23151 23152 23153 23154 23155 23156 23157 23158 23159 23160 23161 23162 23163 23164 23165 23166 23167 23168 23169 23170 23171 23172 23173 23174 23175 23176 23177 23178 23179 23180 23181 23182 23183 23184 23185 23186 23187 23188 23189 23190 23191 23192 23193 23194 23195 23196 23197 23198 23199 23200 23201 23202 23203 23204 23205 23206 23207 23208 23209 23210 23211 23212 23213 23214 23215 23216 23217 23218 23219 23220 23221 23222 23223 23224 23225 23226 23227 23228 23229 23230 23231 23232 23233 23234 23235 23236 23237 23238 23239 23240 23241 23242 23243 23244 23245 23246 23247 23248 23249 23250 23251 23252 23253 23254 23255 23256 23257 23258 23259 23260 23261 23262 23263 23264 23265 23266 23267 23268 23269 23270 23271 23272 23273 23274 23275 23276 23277 23278 23279 23280 23281 23282 23283 23284 23285 23286 23287 23288 23289 23290 23291 23292 23293 23294 23295 23296 23297 23298 23299 23300 23301 23302 23303 23304 23305 23306 23307 23308 23309 23310 23311 23312 23313 23314 23315 23316 23317 23318 23319 23320 23321 23322 23323 23324 23325 23326 23327 23328 23329 23330 23331 23332 23333 23334 23335 23336 23337 23338 23339 23340 23341 23342 23343 23344 23345 23346 23347 23348 23349 23350 23351 23352 23353 23354 23355 23356 23357 23358 23359 23360 23361 23362 23363 23364 23365 23366 23367 23368 23369 23370 23371 23372 23373 23374 23375 23376 23377 23378 23379 23380 23381 23382 23383 23384 23385 23386 23387 23388 23389 23390 23391 23392 23393 23394 23395 23396 23397 23398 23399 23400 23401 23402 23403 23404 23405 23406 23407 23408 23409 23410 23411 23412 23413 23414 23415 23416 23417 23418 23419 23420 23421 23422 23423 23424 23425 23426 23427 23428 23429 23430 23431 23432 23433 23434 23435 23436 23437 23438 23439 23440 23441 23442 23443 23444 23445 23446 23447 23448 23449 23450 23451 23452 23453 23454 23455 23456 23457 23458 23459 23460 23461 23462 23463 23464 23465 23466 23467 23468 23469 23470 23471 23472 23473 23474 23475 23476 23477 23478 23479 23480 23481 23482 23483 23484 23485 23486 23487 23488 23489 23490 23491 23492 23493 23494 23495 23496 23497 23498 23499 23500 23501 23502 23503 23504 23505 23506 23507 23508 23509 23510 23511 23512 23513 23514 23515 23516 23517 23518 23519 23520 23521 23522 23523 23524 23525 23526 23527 23528 23529 23530 23531 23532 23533 23534 23535 23536 23537 23538 23539 23540 23541 23542 23543 23544 23545 23546 23547 23548 23549 23550 23551 23552 23553 23554 23555 23556 23557 23558 23559 23560 23561 23562 23563 23564 23565 23566 23567 23568 23569 23570 23571 23572 23573 23574 23575 23576 23577 23578 23579 23580 23581 23582 23583 23584 23585 23586 23587 23588 23589 23590 23591 23592 23593 23594 23595 23596 23597 23598 23599 23600 23601 23602 23603 23604 23605 23606 23607 23608 23609 23610 23611 23612 23613 23614 23615 23616 23617 23618 23619 23620 23621 23622 23623 23624 23625 23626 23627 23628 23629 23630 23631 23632 23633 23634 23635 23636 23637 23638 23639 23640 23641 23642 23643 23644 23645 23646 23647 23648 23649 23650 23651 23652 23653 23654 23655 23656 23657 23658 23659 23660 23661 23662 23663 23664 23665 23666 23667 23668 23669 23670 23671 23672 23673 23674 23675 23676 23677 23678 23679 23680 23681 23682 23683 23684 23685 23686 23687 23688 23689 23690 23691 23692 23693 23694 23695 23696 23697 23698 23699 23700 23701 23702 23703 23704 23705 23706 23707 23708 23709 23710 23711 23712 23713 23714 23715 23716 23717 23718 23719 23720 23721 23722 23723 23724 23725 23726 23727 23728 23729 23730 23731 23732 23733 23734 23735 23736 23737 23738 23739 23740 23741 23742 23743 23744 23745 23746 23747 23748 23749 23750 23751 23752 23753 23754 23755 23756 23757 23758 23759 23760 23761 23762 23763 23764 23765 23766 23767 23768 23769 23770 23771 23772 23773 23774 23775 23776 23777 23778 23779 23780 23781 23782 23783 23784 23785 23786 23787 23788 23789 23790 23791 23792 23793 23794 23795 23796 23797 23798 23799 23800 23801 23802 23803 23804 23805 23806 23807 23808 23809 23810 23811 23812 23813 23814 23815 23816 23817 23818 23819 23820 23821 23822 23823 23824 23825 23826 23827 23828 23829 23830 23831 23832 23833 23834 23835 23836 23837 23838 23839 23840 23841 23842 23843 23844 23845 23846 23847 23848 23849 23850 23851 23852 23853 23854 23855 23856 23857 23858 23859 23860 23861 23862 23863 23864 23865 23866 23867 23868 23869 23870 23871 23872 23873 23874 23875 23876 23877 23878 23879 23880 23881 23882 23883 23884 23885 23886 23887 23888 23889 23890 23891 23892 23893 23894 23895 23896 23897 23898 23899 23900 23901 23902 23903 23904 23905 23906 23907 23908 23909 23910 23911 23912 23913 23914 23915 23916 23917 23918 23919 23920 23921 23922 23923 23924 23925 23926 23927 23928 23929 23930 23931 23932 23933 23934 23935 23936 23937 23938 23939 23940 23941 23942 23943 23944 23945 23946 23947 23948 23949 23950 23951 23952 23953 23954 23955 23956 23957 23958 23959 23960 23961 23962 23963 23964 23965 23966 23967 23968 23969 23970 23971 23972 23973 23974 23975 23976 23977 23978 23979 23980 23981 23982 23983 23984 23985 23986 23987 23988 23989 23990 23991 23992 23993 23994 23995 23996 23997 23998 23999 24000 24001 24002 24003 24004 24005 24006 24007 24008 24009 24010 24011 24012 24013 24014 24015 24016 24017 24018 24019 24020 24021 24022 24023 24024 24025 24026 24027 24028 24029 24030 24031 24032 24033 24034 24035 24036 24037 24038 24039 24040 24041 24042 24043 24044 24045 24046 24047 24048 24049 24050 24051 24052 24053 24054 24055 24056 24057 24058 24059 24060 24061 24062 24063 24064 24065 24066 24067 24068 24069 24070 24071 24072 24073 24074 24075 24076 24077 24078 24079 24080 24081 24082 24083 24084 24085 24086 24087 24088 24089 24090 24091 24092 24093 24094 24095 24096 24097 24098 24099 24100 24101 24102 24103 24104 24105 24106 24107 24108 24109 24110 24111 24112 24113 24114 24115 24116 24117 24118 24119 24120 24121 24122 24123 24124 24125 24126 24127 24128 24129 24130 24131 24132 24133 24134 24135 24136 24137 24138 24139 24140 24141 24142 24143 24144 24145 24146 24147 24148 24149 24150 24151 24152 24153 24154 24155 24156 24157 24158 24159 24160 24161 24162 24163 24164 24165 24166 24167 24168 24169 24170 24171 24172 24173 24174 24175 24176 24177 24178 24179 24180 24181 24182 24183 24184 24185 24186 24187 24188 24189 24190 24191 24192 24193 24194 24195 24196 24197 24198 24199 24200 24201 24202 24203 24204 24205 24206 24207 24208 24209 24210 24211 24212 24213 24214 24215 24216 24217 24218 24219 24220 24221 24222 24223 24224 24225 24226 24227 24228 24229 24230 24231 24232 24233 24234 24235 24236 24237 24238 24239 24240 24241 24242 24243 24244 24245 24246 24247 24248 24249 24250 24251 24252 24253 24254 24255 24256 24257 24258 24259 24260 24261 24262 24263 24264 24265 24266 24267 24268 24269 24270 24271 24272 24273 24274 24275 24276 24277 24278 24279 24280 24281 24282 24283 24284 24285 24286 24287 24288 24289 24290 24291 24292 24293 24294 24295 24296 24297 24298 24299 24300 24301 24302 24303 24304 24305 24306 24307 24308 24309 24310 24311 24312 24313 24314 24315 24316 24317 24318 24319 24320 24321 24322 24323 24324 24325 24326 24327 24328 24329 24330 24331 24332 24333 24334 24335 24336 24337 24338 24339 24340 24341 24342 24343 24344 24345 24346 24347 24348 24349 24350 24351 24352 24353 24354 24355 24356 24357 24358 24359 24360 24361 24362 24363 24364 24365 24366 24367 24368 24369 24370 24371 24372 24373 24374 24375 24376 24377 24378 24379 24380 24381 24382 24383 24384 24385 24386 24387 24388 24389 24390 24391 24392 24393 24394 24395 24396 24397 24398 24399 24400 24401 24402 24403 24404 24405 24406 24407 24408 24409 24410 24411 24412 24413 24414 24415 24416 24417 24418 24419 24420 24421 24422 24423 24424 24425 24426 24427 24428 24429 24430 24431 24432 24433 24434 24435 24436 24437 24438 24439 24440 24441 24442 24443 24444 24445 24446 24447 24448 24449 24450 24451 24452 24453 24454 24455 24456 24457 24458 24459 24460 24461 24462 24463 24464 24465 24466 24467 24468 24469 24470 24471 24472 24473 24474 24475 24476 24477 24478 24479 24480 24481 24482 24483 24484 24485 24486 24487 24488 24489 24490 24491 24492 24493 24494 24495 24496 24497 24498 24499 24500 24501 24502 24503 24504 24505 24506 24507 24508 24509 24510 24511 24512 24513 24514 24515 24516 24517 24518 24519 24520 24521 24522 24523 24524 24525 24526 24527 24528 24529 24530 24531 24532 24533 24534 24535 24536 24537 24538 24539 24540 24541 24542 24543 24544 24545 24546 24547 24548 24549 24550 24551 24552 24553 24554 24555 24556 24557 24558 24559 24560 24561 24562 24563 24564 24565 24566 24567 24568 24569 24570 24571 24572 24573 24574 24575 24576 24577 24578 24579 24580 24581 24582 24583 24584 24585 24586 24587 24588 24589 24590 24591 24592 24593 24594 24595 24596 24597 24598 24599 24600 24601 24602 24603 24604 24605 24606 24607 24608 24609 24610 24611 24612 24613 24614 24615 24616 24617 24618 24619 24620 24621 24622 24623 24624 24625 24626 24627 24628 24629 24630 24631 24632 24633 24634 24635 24636 24637 24638 24639 24640 24641 24642 24643 24644 24645 24646 24647 24648 24649 24650 24651 24652 24653 24654 24655 24656 24657 24658 24659 24660 24661 24662 24663 24664 24665 24666 24667 24668 24669 24670 24671 24672 24673 24674 24675 24676 24677 24678 24679 24680 24681 24682 24683 24684 24685 24686 24687 24688 24689 24690 24691 24692 24693 24694 24695 24696 24697 24698 24699 24700 24701 24702 24703 24704 24705 24706 24707 24708 24709 24710 24711 24712 24713 24714 24715 24716 24717 24718 24719 24720 24721 24722 24723 24724 24725 24726 24727 24728 24729 24730 24731 24732 24733 24734 24735 24736 24737 24738 24739 24740 24741 24742 24743 24744 24745 24746 24747 24748 24749 24750 24751 24752 24753 24754 24755 24756 24757 24758 24759 24760 24761 24762 24763 24764 24765 24766 24767 24768 24769 24770 24771 24772 24773 24774 24775 24776 24777 24778 24779 24780 24781 24782 24783 24784 24785 24786 24787 24788 24789 24790 24791 24792 24793 24794 24795 24796 24797 24798 24799 24800 24801 24802 24803 24804 24805 24806 24807 24808 24809 24810 24811 24812 24813 24814 24815 24816 24817 24818 24819 24820 24821 24822 24823 24824 24825 24826 24827 24828 24829 24830 24831 24832 24833 24834 24835 24836 24837 24838 24839 24840 24841 24842 24843 24844 24845 24846 24847 24848 24849 24850 24851 24852 24853 24854 24855 24856 24857 24858 24859 24860 24861 24862 24863 24864 24865 24866 24867 24868 24869 24870 24871 24872 24873 24874 24875 24876 24877 24878 24879 24880 24881 24882 24883 24884 24885 24886 24887 24888 24889 24890 24891 24892 24893 24894 24895 24896 24897 24898 24899 24900 24901 24902 24903 24904 24905 24906 24907 24908 24909 24910 24911 24912 24913 24914 24915 24916 24917 24918 24919 24920 24921 24922 24923 24924 24925 24926 24927 24928 24929 24930 24931 24932 24933 24934 24935 24936 24937 24938 24939 24940 24941 24942 24943 24944 24945 24946 24947 24948 24949 24950 24951 24952 24953 24954 24955 24956 24957 24958 24959 24960 24961 24962 24963 24964 24965 24966 24967 24968 24969 24970 24971 24972 24973 24974 24975 24976 24977 24978 24979 24980 24981 24982 24983 24984 24985 24986 24987 24988 24989 24990 24991 24992 24993 24994 24995 24996 24997 24998 24999 25000 25001 25002 25003 25004 25005 25006 25007 25008 25009 25010 25011 25012 25013 25014 25015 25016 25017 25018 25019 25020 25021 25022 25023 25024 25025 25026 25027 25028 25029 25030 25031 25032 25033 25034 25035 25036 25037 25038 25039 25040 25041 25042 25043 25044 25045 25046 25047 25048 25049 25050 25051 25052 25053 25054 25055 25056 25057 25058 25059 25060 25061 25062 25063 25064 25065 25066 25067 25068 25069 25070 25071 25072 25073 25074 25075 25076 25077 25078 25079 25080 25081 25082 25083 25084 25085 25086 25087 25088 25089 25090 25091 25092 25093 25094 25095 25096 25097 25098 25099 25100 25101 25102 25103 25104 25105 25106 25107 25108 25109 25110 25111 25112 25113 25114 25115 25116 25117 25118 25119 25120 25121 25122 25123 25124 25125 25126 25127 25128 25129 25130 25131 25132 25133 25134 25135 25136 25137 25138 25139 25140 25141 25142 25143 25144 25145 25146 25147 25148 25149 25150 25151 25152 25153 25154 25155 25156 25157 25158 25159 25160 25161 25162 25163 25164 25165 25166 25167 25168 25169 25170 25171 25172 25173 25174 25175 25176 25177 25178 25179 25180 25181 25182 25183 25184 25185 25186 25187 25188 25189 25190 25191 25192 25193 25194 25195 25196 25197 25198 25199 25200 25201 25202 25203 25204 25205 25206 25207 25208 25209 25210 25211 25212 25213 25214 25215 25216 25217 25218 25219 25220 25221 25222 25223 25224 25225 25226 25227 25228 25229 25230 25231 25232 25233 25234 25235 25236 25237 25238 25239 25240 25241 25242 25243 25244 25245 25246 25247 25248 25249 25250 25251 25252 25253 25254 25255 25256 25257 25258 25259 25260 25261 25262 25263 25264 25265 25266 25267 25268 25269 25270 25271 25272 25273 25274 25275 25276 25277 25278 25279 25280 25281 25282 25283 25284 25285 25286 25287 25288 25289 25290 25291 25292 25293 25294 25295 25296 25297 25298 25299 25300 25301 25302 25303 25304 25305 25306 25307 25308 25309 25310 25311 25312 25313 25314 25315 25316 25317 25318 25319 25320 25321 25322 25323 25324 25325 25326 25327 25328 25329 25330 25331 25332 25333 25334 25335 25336 25337 25338 25339 25340 25341 25342 25343 25344 25345 25346 25347 25348 25349 25350 25351 25352 25353 25354 25355 25356 25357 25358 25359 25360 25361 25362 25363 25364 25365 25366 25367 25368 25369 25370 25371 25372 25373 25374 25375 25376 25377 25378 25379 25380 25381 25382 25383 25384 25385 25386 25387 25388 25389 25390 25391 25392 25393 25394 25395 25396 25397 25398 25399 25400 25401 25402 25403 25404 25405 25406 25407 25408 25409 25410 25411 25412 25413 25414 25415 25416 25417 25418 25419 25420 25421 25422 25423 25424 25425 25426 25427 25428 25429 25430 25431 25432 25433 25434 25435 25436 25437 25438 25439 25440 25441 25442 25443 25444 25445 25446 25447 25448 25449 25450 25451 25452 25453 25454 25455 25456 25457 25458 25459 25460 25461 25462 25463 25464 25465 25466 25467 25468 25469 25470 25471 25472 25473 25474 25475 25476 25477 25478 25479 25480 25481 25482 25483 25484 25485 25486 25487 25488 25489 25490 25491 25492 25493 25494 25495 25496 25497 25498 25499 25500 25501 25502 25503 25504 25505 25506 25507 25508 25509 25510 25511 25512 25513 25514 25515 25516 25517 25518 25519 25520 25521 25522 25523 25524 25525 25526 25527 25528 25529 25530 25531 25532 25533 25534 25535 25536 25537 25538 25539 25540 25541 25542 25543 25544 25545 25546 25547 25548 25549 25550 25551 25552 25553 25554 25555 25556 25557 25558 25559 25560 25561 25562 25563 25564 25565 25566 25567 25568 25569 25570 25571 25572 25573 25574 25575 25576 25577 25578 25579 25580 25581 25582 25583 25584 25585 25586 25587 25588 25589 25590 25591 25592 25593 25594 25595 25596 25597 25598 25599 25600 25601 25602 25603 25604 25605 25606 25607 25608 25609 25610 25611 25612 25613 25614 25615 25616 25617 25618 25619 25620 25621 25622 25623 25624 25625 25626 25627 25628 25629 25630 25631 25632 25633 25634 25635 25636 25637 25638 25639 25640 25641 25642 25643 25644 25645 25646 25647 25648 25649 25650 25651 25652 25653 25654 25655 25656 25657 25658 25659 25660 25661 25662 25663 25664 25665 25666 25667 25668 25669 25670 25671 25672 25673 25674 25675 25676 25677 25678 25679 25680 25681 25682 25683 25684 25685 25686 25687 25688 25689 25690 25691 25692 25693 25694 25695 25696 25697 25698 25699 25700 25701 25702 25703 25704 25705 25706 25707 25708 25709 25710 25711 25712 25713 25714 25715 25716 25717 25718 25719 25720 25721 25722 25723 25724 25725 25726 25727 25728 25729 25730 25731 25732 25733 25734 25735 25736 25737 25738 25739 25740 25741 25742 25743 25744 25745 25746 25747 25748 25749 25750 25751 25752 25753 25754 25755 25756 25757 25758 25759 25760 25761 25762 25763 25764 25765 25766 25767 25768 25769 25770 25771 25772 25773 25774 25775 25776 25777 25778 25779 25780 25781 25782 25783 25784 25785 25786 25787 25788 25789 25790 25791 25792 25793 25794 25795 25796 25797 25798 25799 25800 25801 25802 25803 25804 25805 25806 25807 25808 25809 25810 25811 25812 25813 25814 25815 25816 25817 25818 25819 25820 25821 25822 25823 25824 25825 25826 25827 25828 25829 25830 25831 25832 25833 25834 25835 25836 25837 25838 25839 25840 25841 25842 25843 25844 25845 25846 25847 25848 25849 25850 25851 25852 25853 25854 25855 25856 25857 25858 25859 25860 25861 25862 25863 25864 25865 25866 25867 25868 25869 25870 25871 25872 25873 25874 25875 25876 25877 25878 25879 25880 25881 25882 25883 25884 25885 25886 25887 25888 25889 25890 25891 25892 25893 25894 25895 25896 25897 25898 25899 25900 25901 25902 25903 25904 25905 25906 25907 25908 25909 25910 25911 25912 25913 25914 25915 25916 25917 25918 25919 25920 25921 25922 25923 25924 25925 25926 25927 25928 25929 25930 25931 25932 25933 25934 25935 25936 25937 25938 25939 25940 25941 25942 25943 25944 25945 25946 25947 25948 25949 25950 25951 25952 25953 25954 25955 25956 25957 25958 25959 25960 25961 25962 25963 25964 25965 25966 25967 25968 25969 25970 25971 25972 25973 25974 25975 25976 25977 25978 25979 25980 25981 25982 25983 25984 25985 25986 25987 25988 25989 25990 25991 25992 25993 25994 25995 25996 25997 25998 25999 26000 26001 26002 26003 26004 26005 26006 26007 26008 26009 26010 26011 26012 26013 26014 26015 26016 26017 26018 26019 26020 26021 26022 26023 26024 26025 26026 26027 26028 26029 26030 26031 26032 26033 26034 26035 26036 26037 26038 26039 26040 26041 26042 26043 26044 26045 26046 26047 26048 26049 26050 26051 26052 26053 26054 26055 26056 26057 26058 26059 26060 26061 26062 26063 26064 26065 26066 26067 26068 26069 26070 26071 26072 26073 26074 26075 26076 26077 26078 26079 26080 26081 26082 26083 26084 26085 26086 26087 26088 26089 26090 26091 26092 26093 26094 26095 26096 26097 26098 26099 26100 26101 26102 26103 26104 26105 26106 26107 26108 26109 26110 26111 26112 26113 26114 26115 26116 26117 26118 26119 26120 26121 26122 26123 26124 26125 26126 26127 26128 26129 26130 26131 26132 26133 26134 26135 26136 26137 26138 26139 26140 26141 26142 26143 26144 26145 26146 26147 26148 26149 26150 26151 26152 26153 26154 26155 26156 26157 26158 26159 26160 26161 26162 26163 26164 26165 26166 26167 26168 26169 26170 26171 26172 26173 26174 26175 26176 26177 26178 26179 26180 26181 26182 26183 26184 26185 26186 26187 26188 26189 26190 26191 26192 26193 26194 26195 26196 26197 26198 26199 26200 26201 26202 26203 26204 26205 26206 26207 26208 26209 26210 26211 26212 26213 26214 26215 26216 26217 26218 26219 26220 26221 26222 26223 26224 26225 26226 26227 26228 26229 26230 26231 26232 26233 26234 26235 26236 26237 26238 26239 26240 26241 26242 26243 26244 26245 26246 26247 26248 26249 26250 26251 26252 26253 26254 26255 26256 26257 26258 26259 26260 26261 26262 26263 26264 26265 26266 26267 26268 26269 26270 26271 26272 26273 26274 26275 26276 26277 26278 26279 26280 26281 26282 26283 26284 26285 26286 26287 26288 26289 26290 26291 26292 26293 26294 26295 26296 26297 26298 26299 26300 26301 26302 26303 26304 26305 26306 26307 26308 26309 26310 26311 26312 26313 26314 26315 26316 26317 26318 26319 26320 26321 26322 26323 26324 26325 26326 26327 26328 26329 26330 26331 26332 26333 26334 26335 26336 26337 26338 26339 26340 26341 26342 26343 26344 26345 26346 26347 26348 26349 26350 26351 26352 26353 26354 26355 26356 26357 26358 26359 26360 26361 26362 26363 26364 26365 26366 26367 26368 26369 26370 26371 26372 26373 26374 26375 26376 26377 26378 26379 26380 26381 26382 26383 26384 26385 26386 26387 26388 26389 26390 26391 26392 26393 26394 26395 26396 26397 26398 26399 26400 26401 26402 26403 26404 26405 26406 26407 26408 26409 26410 26411 26412 26413 26414 26415 26416 26417 26418 26419 26420 26421 26422 26423 26424 26425 26426 26427 26428 26429 26430 26431 26432 26433 26434 26435 26436 26437 26438 26439 26440 26441 26442 26443 26444 26445 26446 26447 26448 26449 26450 26451 26452 26453 26454 26455 26456 26457 26458 26459 26460 26461 26462 26463 26464 26465 26466 26467 26468 26469 26470 26471 26472 26473 26474 26475 26476 26477 26478 26479 26480 26481 26482 26483 26484 26485 26486 26487 26488 26489 26490 26491 26492 26493 26494 26495 26496 26497 26498 26499 26500 26501 26502 26503 26504 26505 26506 26507 26508 26509 26510 26511 26512 26513 26514 26515 26516 26517 26518 26519 26520 26521 26522 26523 26524 26525 26526 26527 26528 26529 26530 26531 26532 26533 26534 26535 26536 26537 26538 26539 26540 26541 26542 26543 26544 26545 26546 26547 26548 26549 26550 26551 26552 26553 26554 26555 26556 26557 26558 26559 26560 26561 26562 26563 26564 26565 26566 26567 26568 26569 26570 26571 26572 26573 26574 26575 26576 26577 26578 26579 26580 26581 26582 26583 26584 26585 26586 26587 26588 26589 26590 26591 26592 26593 26594 26595 26596 26597 26598 26599 26600 26601 26602 26603 26604 26605 26606 26607 26608 26609 26610 26611 26612 26613 26614 26615 26616 26617 26618 26619 26620 26621 26622 26623 26624 26625 26626 26627 26628 26629 26630 26631 26632 26633 26634 26635 26636 26637 26638 26639 26640 26641 26642 26643 26644 26645 26646 26647 26648 26649 26650 26651 26652 26653 26654 26655 26656 26657 26658 26659 26660 26661 26662 26663 26664 26665 26666 26667 26668 26669 26670 26671 26672 26673 26674 26675 26676 26677 26678 26679 26680 26681 26682 26683 26684 26685 26686 26687 26688 26689 26690 26691 26692 26693 26694 26695 26696 26697 26698 26699 26700 26701 26702 26703 26704 26705 26706 26707 26708 26709 26710 26711 26712 26713 26714 26715 26716 26717 26718 26719 26720 26721 26722 26723 26724 26725 26726 26727 26728 26729 26730 26731 26732 26733 26734 26735 26736 26737 26738 26739 26740 26741 26742 26743 26744 26745 26746 26747 26748 26749 26750 26751 26752 26753 26754 26755 26756 26757 26758 26759 26760 26761 26762 26763 26764 26765 26766 26767 26768 26769 26770 26771 26772 26773 26774 26775 26776 26777 26778 26779 26780 26781 26782 26783 26784 26785 26786 26787 26788 26789 26790 26791 26792 26793 26794 26795 26796 26797 26798 26799 26800 26801 26802 26803 26804 26805 26806 26807 26808 26809 26810 26811 26812 26813 26814 26815 26816 26817 26818 26819 26820 26821 26822 26823 26824 26825 26826 26827 26828 26829 26830 26831 26832 26833 26834 26835 26836 26837 26838 26839 26840 26841 26842 26843 26844 26845 26846 26847 26848 26849 26850 26851 26852 26853 26854 26855 26856 26857 26858 26859 26860 26861 26862 26863 26864 26865 26866 26867 26868 26869 26870 26871 26872 26873 26874 26875 26876 26877 26878 26879 26880 26881 26882 26883 26884 26885 26886 26887 26888 26889 26890 26891 26892 26893 26894 26895 26896 26897 26898 26899 26900 26901 26902 26903 26904 26905 26906 26907 26908 26909 26910 26911 26912 26913 26914 26915 26916 26917 26918 26919 26920 26921 26922 26923 26924 26925 26926 26927 26928 26929 26930 26931 26932 26933 26934 26935 26936 26937 26938 26939 26940 26941 26942 26943 26944 26945 26946 26947 26948 26949 26950 26951 26952 26953 26954 26955 26956 26957 26958 26959 26960 26961 26962 26963 26964 26965 26966 26967 26968 26969 26970 26971 26972 26973 26974 26975 26976 26977 26978 26979 26980 26981 26982 26983 26984 26985 26986 26987 26988 26989 26990 26991 26992 26993 26994 26995 26996 26997 26998 26999 27000 27001 27002 27003 27004 27005 27006 27007 27008 27009 27010 27011 27012 27013 27014 27015 27016 27017 27018 27019 27020 27021 27022 27023 27024 27025 27026 27027 27028 27029 27030 27031 27032 27033 27034 27035 27036 27037 27038 27039 27040 27041 27042 27043 27044 27045 27046 27047 27048 27049 27050 27051 27052 27053 27054 27055 27056 27057 27058 27059 27060 27061 27062 27063 27064 27065 27066 27067 27068 27069 27070 27071 27072 27073 27074 27075 27076 27077 27078 27079 27080 27081 27082 27083 27084 27085 27086 27087 27088 27089 27090 27091 27092 27093 27094 27095 27096 27097 27098 27099 27100 27101 27102 27103 27104 27105 27106 27107 27108 27109 27110 27111 27112 27113 27114 27115 27116 27117 27118 27119 27120 27121 27122 27123 27124 27125 27126 27127 27128 27129 27130 27131 27132 27133 27134 27135 27136 27137 27138 27139 27140 27141 27142 27143 27144 27145 27146 27147 27148 27149 27150 27151 27152 27153 27154 27155 27156 27157 27158 27159 27160 27161 27162 27163 27164 27165 27166 27167 27168 27169 27170 27171 27172 27173 27174 27175 27176 27177 27178 27179 27180 27181 27182 27183 27184 27185 27186 27187 27188 27189 27190 27191 27192 27193 27194 27195 27196 27197 27198 27199 27200 27201 27202 27203 27204 27205 27206 27207 27208 27209 27210 27211 27212 27213 27214 27215 27216 27217 27218 27219 27220 27221 27222 27223 27224 27225 27226 27227 27228 27229 27230 27231 27232 27233 27234 27235 27236 27237 27238 27239 27240 27241 27242 27243 27244 27245 27246 27247 27248 27249 27250 27251 27252 27253 27254 27255 27256 27257 27258 27259 27260 27261 27262 27263 27264 27265 27266 27267 27268 27269 27270 27271 27272 27273 27274 27275 27276 27277 27278 27279 27280 27281 27282 27283 27284 27285 27286 27287 27288 27289 27290 27291 27292 27293 27294 27295 27296 27297 27298 27299 27300 27301 27302 27303 27304 27305 27306 27307 27308 27309 27310 27311 27312 27313 27314 27315 27316 27317 27318 27319 27320 27321 27322 27323 27324 27325 27326 27327 27328 27329 27330 27331 27332 27333 27334 27335 27336 27337 27338 27339 27340 27341 27342 27343 27344 27345 27346 27347 27348 27349 27350 27351 27352 27353 27354 27355 27356 27357 27358 27359 27360 27361 27362 27363 27364 27365 27366 27367 27368 27369 27370 27371 27372 27373 27374 27375 27376 27377 27378 27379 27380 27381 27382 27383 27384 27385 27386 27387 27388 27389 27390 27391 27392 27393 27394 27395 27396 27397 27398 27399 27400 27401 27402 27403 27404 27405 27406 27407 27408 27409 27410 27411 27412 27413 27414 27415 27416 27417 27418 27419 27420 27421 27422 27423 27424 27425 27426 27427 27428 27429 27430 27431 27432 27433 27434 27435 27436 27437 27438 27439 27440 27441 27442 27443 27444 27445 27446 27447 27448 27449 27450 27451 27452 27453 27454 27455 27456 27457 27458 27459 27460 27461 27462 27463 27464 27465 27466 27467 27468 27469 27470 27471 27472 27473 27474 27475 27476 27477 27478 27479 27480 27481 27482 27483 27484 27485 27486 27487 27488 27489 27490 27491 27492 27493 27494 27495 27496 27497 27498 27499 27500 27501 27502 27503 27504 27505 27506 27507 27508 27509 27510 27511 27512 27513 27514 27515 27516 27517 27518 27519 27520 27521 27522 27523 27524 27525 27526 27527 27528 27529 27530 27531 27532 27533 27534 27535 27536 27537 27538 27539 27540 27541 27542 27543 27544 27545 27546 27547 27548 27549 27550 27551 27552 27553 27554 27555 27556 27557 27558 27559 27560 27561 27562 27563 27564 27565 27566 27567 27568 27569 27570 27571 27572 27573 27574 27575 27576 27577 27578 27579 27580 27581 27582 27583 27584 27585 27586 27587 27588 27589 27590 27591 27592 27593 27594 27595 27596 27597 27598 27599 27600 27601 27602 27603 27604 27605 27606 27607 27608 27609 27610 27611 27612 27613 27614 27615 27616 27617 27618 27619 27620 27621 27622 27623 27624 27625 27626 27627 27628 27629 27630 27631 27632 27633 27634 27635 27636 27637 27638 27639 27640 27641 27642 27643 27644 27645 27646 27647 27648 27649 27650 27651 27652 27653 27654 27655 27656 27657 27658 27659 27660 27661 27662 27663 27664 27665 27666 27667 27668 27669 27670 27671 27672 27673 27674 27675 27676 27677 27678 27679 27680 27681 27682 27683 27684 27685 27686 27687 27688 27689 27690 27691 27692 27693 27694 27695 27696 27697 27698 27699 27700 27701 27702 27703 27704 27705 27706 27707 27708 27709 27710 27711 27712 27713 27714 27715 27716 27717 27718 27719 27720 27721 27722 27723 27724 27725 27726 27727 27728 27729 27730 27731 27732 27733 27734 27735 27736 27737 27738 27739 27740 27741 27742 27743 27744 27745 27746 27747 27748 27749 27750 27751 27752 27753 27754 27755 27756 27757 27758 27759 27760 27761 27762 27763 27764 27765 27766 27767 27768 27769 27770 27771 27772 27773 27774 27775 27776 27777 27778 27779 27780 27781 27782 27783 27784 27785 27786 27787 27788 27789 27790 27791 27792 27793 27794 27795 27796 27797 27798 27799 27800 27801 27802 27803 27804 27805 27806 27807 27808 27809 27810 27811 27812 27813 27814 27815 27816 27817 27818 27819 27820 27821 27822 27823 27824 27825 27826 27827 27828 27829 27830 27831 27832 27833 27834 27835 27836 27837 27838 27839 27840 27841 27842 27843 27844 27845 27846 27847 27848 27849 27850 27851 27852 27853 27854 27855 27856 27857 27858 27859 27860 27861 27862 27863 27864 27865 27866 27867 27868 27869 27870 27871 27872 27873 27874 27875 27876 27877 27878 27879 27880 27881 27882 27883 27884 27885 27886 27887 27888 27889 27890 27891 27892 27893 27894 27895 27896 27897 27898 27899 27900 27901 27902 27903 27904 27905 27906 27907 27908 27909 27910 27911 27912 27913 27914 27915 27916 27917 27918 27919 27920 27921 27922 27923 27924 27925 27926 27927 27928 27929 27930 27931 27932 27933 27934 27935 27936 27937 27938 27939 27940 27941 27942 27943 27944 27945 27946 27947 27948 27949 27950 27951 27952 27953 27954 27955 27956 27957 27958 27959 27960 27961 27962 27963 27964 27965 27966 27967 27968 27969 27970 27971 27972 27973 27974 27975 27976 27977 27978 27979 27980 27981 27982 27983 27984 27985 27986 27987 27988 27989 27990 27991 27992 27993 27994 27995 27996 27997 27998 27999 28000 28001 28002 28003 28004 28005 28006 28007 28008 28009 28010 28011 28012 28013 28014 28015 28016 28017 28018 28019 28020 28021 28022 28023 28024 28025 28026 28027 28028 28029 28030 28031 28032 28033 28034 28035 28036 28037 28038 28039 28040 28041 28042 28043 28044 28045 28046 28047 28048 28049 28050 28051 28052 28053 28054 28055 28056 28057 28058 28059 28060 28061 28062 28063 28064 28065 28066 28067 28068 28069 28070 28071 28072 28073 28074 28075 28076 28077 28078 28079 28080 28081 28082 28083 28084 28085 28086 28087 28088 28089 28090 28091 28092 28093 28094 28095 28096 28097 28098 28099 28100 28101 28102 28103 28104 28105 28106 28107 28108 28109 28110 28111 28112 28113 28114 28115 28116 28117 28118 28119 28120 28121 28122 28123 28124 28125 28126 28127 28128 28129 28130 28131 28132 28133 28134 28135 28136 28137 28138 28139 28140 28141 28142 28143 28144 28145 28146 28147 28148 28149 28150 28151 28152 28153 28154 28155 28156 28157 28158 28159 28160 28161 28162 28163 28164 28165 28166 28167 28168 28169 28170 28171 28172 28173 28174 28175 28176 28177 28178 28179 28180 28181 28182 28183 28184 28185 28186 28187 28188 28189 28190 28191 28192 28193 28194 28195 28196 28197 28198 28199 28200 28201 28202 28203 28204 28205 28206 28207 28208 28209 28210 28211 28212 28213 28214 28215 28216 28217 28218 28219 28220 28221 28222 28223 28224 28225 28226 28227 28228 28229 28230 28231 28232 28233 28234 28235 28236 28237 28238 28239 28240 28241 28242 28243 28244 28245 28246 28247 28248 28249 28250 28251 28252 28253 28254 28255 28256 28257 28258 28259 28260 28261 28262 28263 28264 28265 28266 28267 28268 28269 28270 28271 28272 28273 28274 28275 28276 28277 28278 28279 28280 28281 28282 28283 28284 28285 28286 28287 28288 28289 28290 28291 28292 28293 28294 28295 28296 28297 28298 28299 28300 28301 28302 28303 28304 28305 28306 28307 28308 28309 28310 28311 28312 28313 28314 28315 28316 28317 28318 28319 28320 28321 28322 28323 28324 28325 28326 28327 28328 28329 28330 28331 28332 28333 28334 28335 28336 28337 28338 28339 28340 28341 28342 28343 28344 28345 28346 28347 28348 28349 28350 28351 28352 28353 28354 28355 28356 28357 28358 28359 28360 28361 28362 28363 28364 28365 28366 28367 28368 28369 28370 28371 28372 28373 28374 28375 28376 28377 28378 28379 28380 28381 28382 28383 28384 28385 28386 28387 28388 28389 28390 28391 28392 28393 28394 28395 28396 28397 28398 28399 28400 28401 28402 28403 28404 28405 28406 28407 28408 28409 28410 28411 28412 28413 28414 28415 28416 28417 28418 28419 28420 28421 28422 28423 28424 28425 28426 28427 28428 28429 28430 28431 28432 28433 28434 28435 28436 28437 28438 28439 28440 28441 28442 28443 28444 28445 28446 28447 28448 28449 28450 28451 28452 28453 28454 28455 28456 28457 28458 28459 28460 28461 28462 28463 28464 28465 28466 28467 28468 28469 28470 28471 28472 28473 28474 28475 28476 28477 28478 28479 28480 28481 28482 28483 28484 28485 28486 28487 28488 28489 28490 28491 28492 28493 28494 28495 28496 28497 28498 28499 28500 28501 28502 28503 28504 28505 28506 28507 28508 28509 28510 28511 28512 28513 28514 28515 28516 28517 28518 28519 28520 28521 28522 28523 28524 28525 28526 28527 28528 28529 28530 28531 28532 28533 28534 28535 28536 28537 28538 28539 28540 28541 28542 28543 28544 28545 28546 28547 28548 28549 28550 28551 28552 28553 28554 28555 28556 28557 28558 28559 28560 28561 28562 28563 28564 28565 28566 28567 28568 28569 28570 28571 28572 28573 28574 28575 28576 28577 28578 28579 28580 28581 28582 28583 28584 28585 28586 28587 28588 28589 28590 28591 28592 28593 28594 28595 28596 28597 28598 28599 28600 28601 28602 28603 28604 28605 28606 28607 28608 28609 28610 28611 28612 28613 28614 28615 28616 28617 28618 28619 28620 28621 28622 28623 28624 28625 28626 28627 28628 28629 28630 28631 28632 28633 28634 28635 28636 28637 28638 28639 28640 28641 28642 28643 28644 28645 28646 28647 28648 28649 28650 28651 28652 28653 28654 28655 28656 28657 28658 28659 28660 28661 28662 28663 28664 28665 28666 28667 28668 28669 28670 28671 28672 28673 28674 28675 28676 28677 28678 28679 28680 28681 28682 28683 28684 28685 28686 28687 28688 28689 28690 28691 28692 28693 28694 28695 28696 28697 28698 28699 28700 28701 28702 28703 28704 28705 28706 28707 28708 28709 28710 28711 28712 28713 28714 28715 28716 28717 28718 28719 28720 28721 28722 28723 28724 28725 28726 28727 28728 28729 28730 28731 28732 28733 28734 28735 28736 28737 28738 28739 28740 28741 28742 28743 28744 28745 28746 28747 28748 28749 28750 28751 28752 28753 28754 28755 28756 28757 28758 28759 28760 28761 28762 28763 28764 28765 28766 28767 28768 28769 28770 28771 28772 28773 28774 28775 28776 28777 28778 28779 28780 28781 28782 28783 28784 28785 28786 28787 28788 28789 28790 28791 28792 28793 28794 28795 28796 28797 28798 28799 28800 28801 28802 28803 28804 28805 28806 28807 28808 28809 28810 28811 28812 28813 28814 28815 28816 28817 28818 28819 28820 28821 28822 28823 28824 28825 28826 28827 28828 28829 28830 28831 28832 28833 28834 28835 28836 28837 28838 28839 28840 28841 28842 28843 28844 28845 28846 28847 28848 28849 28850 28851 28852 28853 28854 28855 28856 28857 28858 28859 28860 28861 28862 28863 28864 28865 28866 28867 28868 28869 28870 28871 28872 28873 28874 28875 28876 28877 28878 28879 28880 28881 28882 28883 28884 28885 28886 28887 28888 28889 28890 28891 28892 28893 28894 28895 28896 28897 28898 28899 28900 28901 28902 28903 28904 28905 28906 28907 28908 28909 28910 28911 28912 28913 28914 28915 28916 28917 28918 28919 28920 28921 28922 28923 28924 28925 28926 28927 28928 28929 28930 28931 28932 28933 28934 28935 28936 28937 28938 28939 28940 28941 28942 28943 28944 28945 28946 28947 28948 28949 28950 28951 28952 28953 28954 28955 28956 28957 28958 28959 28960 28961 28962 28963 28964 28965 28966 28967 28968 28969 28970 28971 28972 28973 28974 28975 28976 28977 28978 28979 28980 28981 28982 28983 28984 28985 28986 28987 28988 28989 28990 28991 28992 28993 28994 28995 28996 28997 28998 28999 29000 29001 29002 29003 29004 29005 29006 29007 29008 29009 29010 29011 29012 29013 29014 29015 29016 29017 29018 29019 29020 29021 29022 29023 29024 29025 29026 29027 29028 29029 29030 29031 29032 29033 29034 29035 29036 29037 29038 29039 29040 29041 29042 29043 29044 29045 29046 29047 29048 29049 29050 29051 29052 29053 29054 29055 29056 29057 29058 29059 29060 29061 29062 29063 29064 29065 29066 29067 29068 29069 29070 29071 29072 29073 29074 29075 29076 29077 29078 29079 29080 29081 29082 29083 29084 29085 29086 29087 29088 29089 29090 29091 29092 29093 29094 29095 29096 29097 29098 29099 29100 29101 29102 29103 29104 29105 29106 29107 29108 29109 29110 29111 29112 29113 29114 29115 29116 29117 29118 29119 29120 29121 29122 29123 29124 29125 29126 29127 29128 29129 29130 29131 29132 29133 29134 29135 29136 29137 29138 29139 29140 29141 29142 29143 29144 29145 29146 29147 29148 29149 29150 29151 29152 29153 29154 29155 29156 29157 29158 29159 29160 29161 29162 29163 29164 29165 29166 29167 29168 29169 29170 29171 29172 29173 29174 29175 29176 29177 29178 29179 29180 29181 29182 29183 29184 29185 29186 29187 29188 29189 29190 29191 29192 29193 29194 29195 29196 29197 29198 29199 29200 29201 29202 29203 29204 29205 29206 29207 29208 29209 29210 29211 29212 29213 29214 29215 29216 29217 29218 29219 29220 29221 29222 29223 29224 29225 29226 29227 29228 29229 29230 29231 29232 29233 29234 29235 29236 29237 29238 29239 29240 29241 29242 29243 29244 29245 29246 29247 29248 29249 29250 29251 29252 29253 29254 29255 29256 29257 29258 29259 29260 29261 29262 29263 29264 29265 29266 29267 29268 29269 29270 29271 29272 29273 29274 29275 29276 29277 29278 29279 29280 29281 29282 29283 29284 29285 29286 29287 29288 29289 29290 29291 29292 29293 29294 29295 29296 29297 29298 29299 29300 29301 29302 29303 29304 29305 29306 29307 29308 29309 29310 29311 29312 29313 29314 29315 29316 29317 29318 29319 29320 29321 29322 29323 29324 29325 29326 29327 29328 29329 29330 29331 29332 29333 29334 29335 29336 29337 29338 29339 29340 29341 29342 29343 29344 29345 29346 29347 29348 29349 29350 29351 29352 29353 29354 29355 29356 29357 29358 29359 29360 29361 29362 29363 29364 29365 29366 29367 29368 29369 29370 29371 29372 29373 29374 29375 29376 29377 29378 29379 29380 29381 29382 29383 29384 29385 29386 29387 29388 29389 29390 29391 29392 29393 29394 29395 29396 29397 29398 29399 29400 29401 29402 29403 29404 29405 29406 29407 29408 29409 29410 29411 29412 29413 29414 29415 29416 29417 29418 29419 29420 29421 29422 29423 29424 29425 29426 29427 29428 29429 29430 29431 29432 29433 29434 29435 29436 29437 29438 29439 29440 29441 29442 29443 29444 29445 29446 29447 29448 29449 29450 29451 29452 29453 29454 29455 29456 29457 29458 29459 29460 29461 29462 29463 29464 29465 29466 29467 29468 29469 29470 29471 29472 29473 29474 29475 29476 29477 29478 29479 29480 29481 29482 29483 29484 29485 29486 29487 29488 29489 29490 29491 29492 29493 29494 29495 29496 29497 29498 29499 29500 29501 29502 29503 29504 29505 29506 29507 29508 29509 29510 29511 29512 29513 29514 29515 29516 29517 29518 29519 29520 29521 29522 29523 29524 29525 29526 29527 29528 29529 29530 29531 29532 29533 29534 29535 29536 29537 29538 29539 29540 29541 29542 29543 29544 29545 29546 29547 29548 29549 29550 29551 29552 29553 29554 29555 29556 29557 29558 29559 29560 29561 29562 29563 29564 29565 29566 29567 29568 29569 29570 29571 29572 29573 29574 29575 29576 29577 29578 29579 29580 29581 29582 29583 29584 29585 29586 29587 29588 29589 29590 29591 29592 29593 29594 29595 29596 29597 29598 29599 29600 29601 29602 29603 29604 29605 29606 29607 29608 29609 29610 29611 29612 29613 29614 29615 29616 29617 29618 29619 29620 29621 29622 29623 29624 29625 29626 29627 29628 29629 29630 29631 29632 29633 29634 29635 29636 29637 29638 29639 29640 29641 29642 29643 29644 29645 29646 29647 29648 29649 29650 29651 29652 29653 29654 29655 29656 29657 29658 29659 29660 29661 29662 29663 29664 29665 29666 29667 29668 29669 29670 29671 29672 29673 29674 29675 29676 29677 29678 29679 29680 29681 29682 29683 29684 29685 29686 29687 29688 29689 29690 29691 29692 29693 29694 29695 29696 29697 29698 29699 29700 29701 29702 29703 29704 29705 29706 29707 29708 29709 29710 29711 29712 29713 29714 29715 29716 29717 29718 29719 29720 29721 29722 29723 29724 29725 29726 29727 29728 29729 29730 29731 29732 29733 29734 29735 29736 29737 29738 29739 29740 29741 29742 29743 29744 29745 29746 29747 29748 29749 29750 29751 29752 29753 29754 29755 29756 29757 29758 29759 29760 29761 29762 29763 29764 29765 29766 29767 29768 29769 29770 29771 29772 29773 29774 29775 29776 29777 29778 29779 29780 29781 29782 29783 29784 29785 29786 29787 29788 29789 29790 29791 29792 29793 29794 29795 29796 29797 29798 29799 29800 29801 29802 29803 29804 29805 29806 29807 29808 29809 29810 29811 29812 29813 29814 29815 29816 29817 29818 29819 29820 29821 29822 29823 29824 29825 29826 29827 29828 29829 29830 29831 29832 29833 29834 29835 29836 29837 29838 29839 29840 29841 29842 29843 29844 29845 29846 29847 29848 29849 29850 29851 29852 29853 29854 29855 29856 29857 29858 29859 29860 29861 29862 29863 29864 29865 29866 29867 29868 29869 29870 29871 29872 29873 29874 29875 29876 29877 29878 29879 29880 29881 29882 29883 29884 29885 29886 29887 29888 29889 29890 29891 29892 29893 29894 29895 29896 29897 29898 29899 29900 29901 29902 29903 29904 29905 29906 29907 29908 29909 29910 29911 29912 29913 29914 29915 29916 29917 29918 29919 29920 29921 29922 29923 29924 29925 29926 29927 29928 29929 29930 29931 29932 29933 29934 29935 29936 29937 29938 29939 29940 29941 29942 29943 29944 29945 29946 29947 29948 29949 29950 29951 29952 29953 29954 29955 29956 29957 29958 29959 29960 29961 29962 29963 29964 29965 29966 29967 29968 29969 29970 29971 29972 29973 29974 29975 29976 29977 29978 29979 29980 29981 29982 29983 29984 29985 29986 29987 29988 29989 29990 29991 29992 29993 29994 29995 29996 29997 29998 29999 30000 30001 30002 30003 30004 30005 30006 30007 30008 30009 30010 30011 30012 30013 30014 30015 30016 30017 30018 30019 30020 30021 30022 30023 30024 30025 30026 30027 30028 30029 30030 30031 30032 30033 30034 30035 30036 30037 30038 30039 30040 30041 30042 30043 30044 30045 30046 30047 30048 30049 30050 30051 30052 30053 30054 30055 30056 30057 30058 30059 30060 30061 30062 30063 30064 30065 30066 30067 30068 30069 30070 30071 30072 30073 30074 30075 30076 30077 30078 30079 30080 30081 30082 30083 30084 30085 30086 30087 30088 30089 30090 30091 30092 30093 30094 30095 30096 30097 30098 30099 30100 30101 30102 30103 30104 30105 30106 30107 30108 30109 30110 30111 30112 30113 30114 30115 30116 30117 30118 30119 30120 30121 30122 30123 30124 30125 30126 30127 30128 30129 30130 30131 30132 30133 30134 30135 30136 30137 30138 30139 30140 30141 30142 30143 30144 30145 30146 30147 30148 30149 30150 30151 30152 30153 30154 30155 30156 30157 30158 30159 30160 30161 30162 30163 30164 30165 30166 30167 30168 30169 30170 30171 30172 30173 30174 30175 30176 30177 30178 30179 30180 30181 30182 30183 30184 30185 30186 30187 30188 30189 30190 30191 30192 30193 30194 30195 30196 30197 30198 30199 30200 30201 30202 30203 30204 30205 30206 30207 30208 30209 30210 30211 30212 30213 30214 30215 
</DataArray>
<DataArray type="UInt32" Name="offsets" format="ascii">
3 6 8 11 14 17 20 23 26 29 32 35 38 41 44 47 49 52 55 58 60 63 65 67 69 72 75 78 81 83 85 88 91 94 96 99 102 105 107 110 113 116 119 121 124 127 130 132 134 137 140 143 146 149 152 155 158 161 164 166 169 172 175 177 180 183 186 189 192 195 198 201 203 206 209 212 215 217 220 223 226 229 232 235 238 241 244 247 250 252 255 258 261 264 266 269 272 274 277 279 282 285 288 290 293 296 299 301 304 307 310 313 316 319 322 325 328 331 334 337 340 343 346 349 352 355 358 361 364 367 370 372 375 378 381 384 387 390 393 396 399 402 405 408 410 413 416 419 422 424 427 430 433 435 438 441 444 447 450 453 456 459 461 464 466 469 472 475 478 481 484 487 489 492 495 498 501 503 506 509 512 515 518 521 524 526 529 532 535 538 541 544 547 550 553 556 558 561 564 567 570 572 575 578 581 583 586 589 592 595 598 601 604 607 610 613 616 619 622 625 628 631 634 636 639 641 644 647 650 653 656 659 662 665 668 671 674 677 680 682 685 688 691 693 696 699 702 705 708 711 714 717 720 722 725 728 731 734 737 740 743 746 748 751 754 757 760 763 766 768 771 774 776 779 782 785 788 791 793 796 799 802 805 808 810 813 816 819 822 825 828 831 834 837 840 843 846 849 852 855 858 861 864 867 870 873 876 878 881 884 887 890 893 895 898 901 904 907 910 913 916 919 922 925 928 931 934 936 939 942 944 947 950 953 955 958 961 963 966 969 971 974 977 980 983 985 988 991 994 997 1000 1003 1006 1009 1012 1015 1018 1021 1024 1027 1030 1033 1036 1039 1041 1044 1047 1050 1053 1056 1059 1062 1065 1068 1071 1074 1077 1079 1082 1085 1088 1091 1094 1097 1099 1102 1105 1108 1111 1114 1117 1120 1122 1125 1128 1131 1134 1137 1140 1143 1145 1148 1150 1153 1156 1159 1162 1165 1168 1170 1173 1176 1179 1182 1185 1188 1190 1193 1196 1199 1202 1205 1208 1211 1214 1217 1219 1222 1225 1228 1230 1233 1236 1239 1242 1244 1247 1249 1252 1255 1258 1261 1264 1267 1270 1273 1276 1279 1282 1285 1288 1291 1293 1296 1298 1301 1303 1306 1309 1312 1315 1317 1320 1322 1325 1328 1331 1334 1337 1340 1343 1346 1349 1352 1355 1358 1360 1363 1366 1368 1371 1374 1377 1380 1383 1386 1389 1392 1395 1398 1401 1404 1407 1410 1413 1416 1418 1421 1424 1427 1430 1433 1436 1439 1442 1445 1448 1451 1454 1457 1460 1463 1466 1469 1472 1475 1478 1481 1484 1487 1489 1492 1495 1498 1501 1503 1506 1509 1511 1514 1517 1520 1522 1525 1528 1531 1534 1537 1540 1543 1546 1549 1552 1555 1558 1560 1563 1566 1568 1571 1574 1577 1580 1583 1586 1589 1592 1595 1598 1600 1603 1606 1609 1612 1615 1618 1621 1624 1627 1629 1632 1635 1638 1641 1644 1647 1650 1653 1656 1659 1662 1665 1668 1671 1673 1676 1679 1681 1684 1687 1690 1692 1695 1698 1700 1703 1706 1709 1712 1715 1718 1721 1724 1727 1730 1733 1736 1739 1742 1745 1748 1751 1754 1757 1760 1763 1765 1767 1770 1773 1775 1778 1781 1784 1786 1789 1792 1795 1798 1801 1804 1807 1810 1813 1816 1819 1822 1825 1828 1831 1834 1837 1840 1842 1845 1848 1850 1853 1856 1859 1861 1864 1867 1870 1873 1876 1879 1882 1885 1888 1891 1894 1897 1900 1903 1906 1909 1912 1915 1918 1921 1924 1927 1930 1933 1936 1939 1942 1945 1948 1951 1954 1957 1960 1963 1966 1969 1972 1974 1977 1980 1983 1986 1989 1992 1994 1997 2000 2003 2006 2009 2012 2014 2017 2020 2023 2026 2029 2032 2034 2037 2040 2043 2046 2049 2051 2054 2057 2060 2063 2066 2068 2071 2074 2077 2080 2083 2086 2088 2091 2094 2097 2100 2103 2106 2108 2111 2114 2116 2119 2122 2125 2128 2131 2133 2136 2139 2141 2144 2147 2150 2153 2156 2159 2162 2165 2167 2170 2173 2176 2178 2181 2184 2186 2189 2192 2195 2198 2200 2203 2206 2209 2212 2215 2217 2220 2223 2225 2228 2230 2232 2235 2238 2241 2244 2246 2248 2251 2254 2256 2259 2262 2265 2268 2271 2273 2276 2279 2282 2285 2288 2291 2293 2296 2299 2302 2305 2308 2311 2314 2317 2320 2323 2326 2329 2331 2334 2337 2339 2342 2344 2347 2350 2352 2355 2358 2361 2364 2367 2370 2372 2375 2377 2380 2383 2386 2388 2391 2393 2395 2398 2401 2403 2406 2409 2411 2414 2417 2420 2423 2426 2429 2432 2435 2438 2441 2444 2447 2450 2453 2456 2459 2462 2465 2468 2471 2474 2477 2480 2483 2486 2489 2492 2495 2498 2501 2504 2507 2510 2513 2516 2519 2522 2525 2528 2531 2534 2537 2540 2543 2546 2549 2552 2555 2558 2561 2564 2567 2570 2573 2576 2579 2582 2585 2588 2591 2594 2597 2600 2603 2606 2609 2612 2615 2618 2621 2624 2627 2630 2633 2636 2639 2642 2645 2648 2651 2654 2657 2660 2663 2666 2669 2672 2675 2677 2680 2682 2685 2688 2691 2694 2697 2700 2703 2706 2709 2712 2715 2718 2721 2724 2726 2729 2732 2734 2737 2739 2742 2744 2746 2749 2752 2755 2758 2761 2764 2767 2770 2773 2776 2779 2782 2785 2788 2791 2794 2797 2800 2803 2805 2808 2811 2813 2816 2819 2822 2825 2828 2831 2834 2836 2839 2842 2845 2848 2851 2854 2857 2860 2862 2865 2868 2871 2874 2877 2880 2883 2886 2889 2892 2894 2897 2900 2903 2906 2909 2912 2915 2918 2921 2924 2927 2930 2933 2936 2939 2942 2945 2948 2951 2954 2957 2960 2963 2966 2969 2972 2975 2978 2981 2984 2987 2990 2993 2996 2999 3002 3005 3007 3010 3013 3016 3019 3022 3025 3028 3031 3034 3037 3039 3042 3045 3048 3051 3054 3056 3059 3062 3065 3068 3071 3074 3077 3080 3083 3086 3089 3092 3095 3098 3101 3104 3107 3110 3113 3116 3119 3121 3124 3127 3130 3133 3136 3139 3142 3145 3148 3151 3154 3157 3159 3162 3164 3167 3170 3173 3176 3178 3181 3184 3187 3190 3193 3196 3199 3202 3205 3208 3211 3214 3217 3220 3223 3226 3229 3232 3235 3238 3241 3244 3246 3249 3252 3254 3257 3260 3263 3266 3269 3272 3274 3277 3280 3283 3286 3289 3291 3294 3297 3300 3302 3305 3308 3310 3312 3315 3318 3321 3324 3327 3330 3333 3335 3338 3341 3344 3347 3350 3353 3356 3359 3362 3365 3368 3371 3373 3376 3378 3381 3384 3387 3390 3393 3396 3399 3402 3405 3408 3410 3413 3416 3419 3421 3424 3427 3430 3433 3436 3438 3441 3444 3446 3448 3451 3454 3457 3459 3462 3464 3467 3469 3472 3475 3478 3481 3484 3487 3490 3493 3496 3499 3502 3505 3508 3511 3514 3517 3519 3522 3525 3528 3531 3534 3537 3540 3543 3546 3549 3552 3555 3558 3561 3564 3567 3570 3573 3576 3579 3582 3585 3588 3591 3594 3596 3599 3602 3604 3607 3610 3613 3616 3619 3622 3625 3628 3631 3634 3637 3640 3643 3646 3649 3652 3655 3658 3661 3664 3667 3670 3673 3676 3679 3682 3685 3688 3691 3694 3697 3700 3703 3706 3709 3712 3715 3718 3721 3724 3727 3730 3733 3736 3739 3741 3744 3746 3749 3752 3755 3758 3761 3764 3767 3770 3773 3775 3778 3780 3783 3786 3789 3792 3795 3798 3800 3802 3805 3808 3811 3814 3817 3820 3823 3826 3829 3831 3834 3837 3840 3843 3846 3848 3850 3853 3856 3858 3861 3864 3866 3869 3872 3875 3877 3880 3883 3886 3889 3891 3894 3896 3899 3902 3905 3907 3910 3913 3916 3919 3922 3925 3928 3931 3934 3937 3939 3942 3945 3948 3951 3954 3957 3960 3963 3966 3969 3971 3974 3977 3980 3983 3985 3988 3990 3993 3996 3999 4001 4003 4006 4009 4012 4015 4018 4021 4024 4027 4030 4033 4036 4039 4042 4044 4047 4050 4053 4056 4059 4061 4064 4067 4070 4073 4075 4078 4081 4084 4086 4089 4092 4095 4098 4101 4104 4107 4110 4113 4116 4118 4121 4124 4127 4130 4133 4136 4139 4142 4144 4147 4150 4152 4155 4158 4161 4164 4167 4170 4173 4176 4179 4182 4185 4188 4190 4193 4196 4199 4202 4204 4206 4209 4212 4214 4217 4220 4223 4226 4229 4232 4235 4238 4241 4244 4247 4250 4253 4256 4258 4261 4264 4267 4270 4273 4275 4278 4281 4284 4287 4290 4293 4296 4298 4301 4304 4307 4310 4313 4316 4319 4322 4325 4328 4331 4334 4336 4339 4342 4345 4348 4350 4353 4356 4359 4362 4365 4368 4371 4374 4377 4379 4382 4385 4388 4390 4393 4396 4398 4401 4404 4407 4410 4413 4416 4419 4422 4424 4427 4430 4432 4435 4438 4441 4444 4447 4450 4453 4456 4459 4462 4465 4468 4471 4473 4476 4478 4481 4484 4487 4490 4493 4496 4499 4502 4505 4508 4511 4513 4515 4518 4521 4524 4527 4530 4533 4536 4538 4541 4544 4547 4549 4552 4555 4558 4560 4563 4566 4569 4571 4574 4577 4579 4581 4584 4587 4589 4592 4595 4598 4600 4602 4605 4608 4611 4614 4617 4620 4623 4626 4629 4631 4634 4637 4640 4643 4646 4649 4652 4655 4658 4661 4664 4666 4669 4672 4675 4678 4681 4684 4687 4690 4693 4696 4699 4702 4704 4707 4710 4713 4716 4719 4722 4725 4728 4731 4733 4736 4739 4742 4744 4747 4750 4753 4756 4759 4762 4765 4767 4770 4773 4776 4779 4782 4784 4787 4790 4792 4795 4798 4801 4804 4807 4810 4813 4816 4819 4822 4825 4828 4831 4834 4837 4840 4843 4846 4849 4852 4855 4858 4861 4864 4867 4869 4872 4875 4878 4880 4883 4886 4889 4892 4894 4897 4900 4903 4906 4909 4912 4915 4918 4921 4923 4926 4929 4932 4935 4938 4941 4944 4947 4950 4953 4956 4959 4962 4965 4968 4971 4974 4977 4980 4983 4986 4989 4992 4995 4997 5000 5002 5005 5008 5011 5014 5017 5020 5023 5026 5029 5032 5035 5038 5041 5043 5046 5049 5052 5055 5057 5060 5063 5066 5069 5072 5075 5078 5081 5084 5087 5090 5093 5096 5099 5101 5104 5107 5110 5113 5116 5119 5122 5125 5128 5131 5134 5137 5140 5142 5145 5147 5150 5153 5156 5159 5162 5165 5168 5171 5173 5176 5179 5182 5185 5188 5191 5194 5197 5200 5203 5206 5208 5211 5214 5217 5220 5223 5226 5229 5231 5234 5237 5240 5243 5246 5249 5252 5255 5258 5261 5264 5267 5270 5273 5276 5279 5282 5285 5288 5291 5294 5297 5300 5303 5306 5309 5312 5315 5318 5321 5324 5327 5330 5333 5336 5339 5342 5345 5348 5351 5354 5356 5359 5362 5365 5367 5370 5373 5376 5379 5382 5385 5388 5391 5394 5397 5400 5402 5405 5408 5411 5414 5417 5420 5423 5426 5429 5432 5434 5437 5439 5442 5445 5447 5450 5453 5456 5458 5461 5464 5467 5470 5473 5476 5479 5482 5485 5488 5491 5494 5497 5500 5503 5506 5509 5512 5515 5518 5521 5524 5527 5530 5533 5536 5539 5542 5545 5548 5551 5554 5557 5560 5563 5566 5569 5572 5575 5578 5581 5584 5587 5590 5593 5596 5599 5602 5605 5608 5611 5614 5617 5620 5623 5626 5629 5632 5635 5638 5641 5644 5647 5650 5653 5656 5659 5662 5665 5668 5671 5674 5677 5680 5683 5686 5689 5692 5695 5698 5701 5703 5706 5708 5711 5714 5717 5719 5722 5725 5728 5731 5734 5737 5740 5743 5746 5749 5752 5755 5758 5761 5764 5767 5770 5773 5775 5778 5781 5784 5787 5790 5793 5796 5799 5802 5805 5808 5811 5814 5816 5819 5822 5824 5827 5830 5833 5836 5839 5842 5845 5848 5851 5854 5856 5858 5861 5863 5865 5868 5871 5874 5876 5878 5880 5883 5885 5888 5891 5894 5897 5900 5903 5906 5909 5912 5915 5918 5921 5924 5927 5930 5932 5935 5938 5941 5944 5947 5950 5953 5956 5959 5962 5965 5968 5971 5974 5977 5979 5982 5985 5988 5991 5994 5997 6000 6003 6006 6009 6012 6015 6018 6021 6024 6027 6030 6033 6036 6039 6042 6044 6047 6050 6053 6055 6058 6061 6064 6067 6070 6072 6075 6078 6081 6084 6087 6090 6093 6096 6099 6101 6104 6107 6110 6113 6116 6119 6122 6125 6128 6131 6134 6137 6140 6143 6145 6148 6151 6154 6157 6160 6163 6166 6169 6172 6175 6178 6181 6184 6187 6190 6193 6196 6199 6202 6205 6208 6211 6214 6217 6220 6223 6226 6229 6232 6235 6238 6241 6243 6246 6248 6251 6254 6256 6259 6261 6264 6266 6269 6272 6275 6278 6281 6284 6286 6289 6292 6294 6297 6300 6303 6306 6309 6312 6315 6318 6321 6323 6326 6329 6332 6335 6338 6341 6344 6347 6350 6353 6356 6359 6361 6364 6367 6370 6373 6376 6379 6382 6385 6388 6391 6394 6397 6400 6403 6406 6409 6412 6415 6418 6421 6424 6427 6430 6433 6436 6439 6442 6445 6448 6451 6454 6457 6460 6463 6466 6469 6472 6475 6478 6481 6484 6487 6490 6493 6496 6498 6501 6504 6507 6509 6511 6514 6516 6519 6522 6525 6528 6531 6534 6537 6540 6543 6546 6549 6552 6554 6557 6560 6563 6565 6568 6571 6574 6577 6580 6583 6585 6588 6591 6594 6596 6599 6602 6604 6606 6609 6612 6615 6618 6620 6623 6626 6629 6632 6635 6638 6641 6644 6647 6650 6653 6656 6659 6662 6665 6668 6671 6674 6677 6680 6683 6686 6689 6692 6695 6698 6701 6704 6707 6710 6713 6716 6719 6722 6725 6728 6731 6734 6737 6740 6743 6745 6748 6751 6753 6756 6759 6761 6763 6766 6769 6771 6774 6777 6780 6783 6786 6789 6792 6794 6796 6799 6802 6805 6808 6811 6814 6817 6820 6823 6825 6828 6831 6834 6837 6840 6843 6845 6848 6851 6854 6857 6860 6863 6866 6869 6872 6875 6877 6880 6883 6886 6888 6891 6894 6897 6900 6903 6906 6909 6912 6915 6918 6921 6923 6926 6928 6931 6933 6936 6939 6941 6944 6947 6950 6952 6955 6958 6961 6964 6966 6969 6972 6975 6978 6981 6984 6986 6989 6992 6994 6997 7000 7003 7006 7009 7012 7015 7017 7020 7023 7026 7029 7031 7034 7037 7040 7043 7046 7048 7051 7054 7057 7060 7063 7066 7069 7072 7075 7078 7081 7084 7087 7090 7093 7096 7099 7102 7105 7108 7111 7114 7117 7120 7123 7126 7129 7131 7134 7137 7140 7143 7146 7149 7152 7155 7158 7161 7164 7167 7170 7173 7175 7178 7181 7184 7186 7188 7191 7194 7197 7200 7203 7206 7209 7212 7215 7218 7221 7224 7227 7230 7233 7236 7239 7242 7245 7248 7251 7254 7256 7259 7261 7264 7267 7269 7271 7274 7277 7280 7283 7286 7289 7292 7294 7296 7298 7301 7304 7307 7309 7312 7315 7318 7321 7324 7327 7329 7332 7335 7338 7341 7344 7347 7349 7352 7355 7358 7361 7364 7367 7369 7372 7375 7378 7381 7384 7386 7389 7392 7395 7398 7401 7403 7406 7409 7412 7415 7417 7420 7423 7426 7429 7431 7434 7437 7440 7443 7445 7447 7450 7453 7456 7458 7461 7464 7467 7470 7472 7475 7478 7481 7484 7486 7489 7492 7495 7497 7500 7503 7505 7508 7511 7514 7517 7520 7523 7526 7529 7532 7534 7536 7539 7542 7545 7548 7550 7553 7556 7559 7561 7564 7567 7570 7573 7575 7578 7581 7584 7587 7590 7593 7596 7599 7602 7605 7608 7611 7614 7617 7620 7623 7626 7629 7632 7635 7638 7641 7644 7647 7650 7653 7656 7659 7662 7665 7668 7671 7674 7677 7680 7683 7686 7689 7692 7695 7698 7700 7703 7706 7709 7712 7715 7717 7720 7723 7726 7729 7732 7735 7738 7741 7744 7746 7749 7752 7755 7758 7761 7764 7767 7770 7772 7775 7778 7781 7784 7787 7790 7793 7795 7798 7801 7804 7806 7809 7811 7814 7817 7819 7822 7825 7828 7831 7834 7837 7840 7842 7845 7848 7851 7854 7856 7859 7862 7865 7868 7871 7874 7877 7880 7883 7886 7889 7892 7895 7898 7901 7904 7906 7909 7912 7914 7917 7920 7923 7925 7928 7931 7934 7937 7940 7943 7946 7949 7952 7954 7957 7960 7963 7966 7969 7971 7974 7976 7979 7982 7985 7988 7991 7994 7996 7998 8001 8004 8007 8010 8012 8015 8017 8020 8023 8026 8028 8031 8034 8037 8040 8043 8046 8049 8051 8054 8056 8059 8062 8065 8068 8071 8074 8077 8080 8083 8086 8089 8092 8095 8098 8101 8104 8106 8109 8112 8114 8117 8120 8123 8126 8128 8131 8134 8137 8140 8143 8146 8149 8152 8155 8158 8161 8164 8167 8170 8173 8176 8179 8182 8184 8187 8189 8192 8195 8198 8201 8203 8206 8209 8212 8215 8218 8221 8224 8227 8229 8232 8235 8238 8241 8244 8247 8250 8253 8255 8258 8261 8264 8267 8269 8272 8274 8277 8280 8283 8286 8289 8292 8295 8298 8301 8304 8307 8310 8312 8315 8318 8321 8324 8327 8330 8333 8336 8339 8342 8345 8348 8350 8352 8355 8357 8360 8363 8365 8368 8370 8373 8376 8379 8382 8385 8388 8390 8393 8396 8399 8402 8405 8407 8410 8413 8416 8419 8421 8424 8427 8430 8433 8436 8439 8442 8445 8448 8451 8454 8457 8460 8463 8466 8469 8472 8475 8478 8481 8484 8486 8489 8492 8495 8498 8501 8504 8507 8509 8511 8513 8516 8519 8522 8524 8527 8530 8533 8536 8539 8542 8545 8547 8550 8553 8556 8559 8562 8565 8567 8570 8572 8575 8578 8581 8584 8586 8589 8592 8595 8598 8601 8604 8607 8610 8613 8616 8619 8622 8625 8628 8631 8634 8637 8640 8643 8645 8648 8651 8654 8657 8660 8662 8665 8668 8670 8673 8676 8679 8681 8683 8685 8687 8690 8692 8695 8697 8699 8701 8704 8707 8709 8712 8715 8718 8721 8724 8727 8729 8732 8735 8738 8741 8744 8747 8750 8753 8756 8759 8761 8764 8767 8770 8772 8775 8778 8781 8784 8787 8790 8792 8795 8798 8801 8804 8807 8810 8813 8816 8819 8822 8825 8828 8831 8834 8837 8840 8843 8846 8849 8852 8855 8857 8860 8862 8865 8868 8871 8874 8876 8879 8882 8885 8888 8891 8894 8897 8900 8903 8906 8909 8912 8915 8918 8921 8924 8927 8930 8932 8935 8938 8941 8944 8946 8949 8952 8954 8956 8959 8962 8965 8968 8971 8974 8977 8980 8983 8986 8988 8991 8994 8997 8999 9002 9005 9008 9011 9014 9017 9020 9023 9026 9029 9032 9035 9037 9040 9043 9046 9049 9052 9055 9058 9061 9064 9067 9069 9072 9075 9078 9081 9084 9087 9090 9093 9096 9098 9100 9103 9106 9109 9112 9115 9118 9121 9124 9127 9130 9133 9136 9139 9142 9145 9148 9151 9154 9157 9160 9163 9166 9169 9172 9175 9178 9181 9184 9187 9190 9193 9196 9199 9202 9205 9208 9211 9214 9217 9220 9223 9226 9229 9232 9235 9237 9240 9243 9246 9249 9251 9254 9257 9260 9263 9266 9269 9272 9275 9278 9281 9284 9287 9290 9293 9296 9298 9301 9304 9307 9310 9313 9316 9319 9321 9324 9327 9329 9332 9335 9338 9340 9343 9346 9348 9351 9354 9357 9360 9363 9366 9368 9371 9373 9376 9379 9382 9384 9387 9390 9393 9396 9399 9402 9404 9407 9410 9413 9416 9419 9421 9424 9427 9430 9432 9435 9438 9441 9444 9447 9449 9451 9454 9457 9460 9463 9466 9469 9471 9474 9477 9480 9483 9486 9489 9491 9494 9497 9500 9503 9505 9508 9511 9514 9517 9520 9523 9526 9529 9532 9535 9538 9541 9544 9547 9550 9553 9556 9559 9562 9565 9568 9571 9574 9577 9580 9583 9586 9589 9592 9594 9597 9599 9601 9603 9606 9609 9612 9614 9617 9619 9622 9625 9628 9631 9634 9637 9640 9643 9645 9648 9651 9654 9657 9660 9663 9666 9669 9672 9675 9678 9681 9684 9686 9689 9692 9695 9698 9701 9704 9707 9710 9713 9716 9719 9721 9723 9726 9729 9732 9735 9737 9739 9742 9745 9748 9751 9754 9757 9760 9763 9766 9769 9772 9775 9778 9780 9783 9785 9788 9791 9794 9797 9800 9803 9805 9807 9810 9812 9815 9818 9820 9823 9825 9828 9831 9833 9836 9839 9842 9845 9848 9851 9854 9857 9860 9863 9866 9868 9871 9873 9876 9879 9882 9884 9887 9889 9892 9894 9897 9900 9903 9906 9908 9911 9914 9916 9918 9921 9924 9926 9929 9932 9935 9937 9939 9942 9944 9947 9950 9952 9955 9958 9961 9964 9967 9969 9972 9974 9977 9980 9982 9984 9987 9990 9993 9995 9998 10001 10004 10007 10010 10013 10016 10019 10022 10024 10027 10030 10032 10034 10037 10040 10043 10046 10049 10052 10055 10058 10060 10063 10066 10069 10072 10075 10078 10080 10083 10086 10089 10092 10095 10098 10100 10103 10106 10109 10112 10115 10118 10121 10124 10127 10130 10133 10136 10139 10142 10145 10148 10151 10154 10156 10159 10162 10165 10168 10170 10172 10175 10178 10181 10184 10187 10189 10192 10194 10197 10199 10202 10205 10208 10211 10213 10216 10218 10221 10223 10225 10228 10231 10234 10237 10240 10243 10246 10249 10252 10255 10258 10261 10264 10266 10269 10272 10275 10278 10280 10283 10286 10289 10292 10295 10298 10301 10304 10307 10310 10313 10316 10319 10322 10325 10327 10330 10332 10335 10338 10341 10343 10345 10348 10351 10354 10357 10359 10362 10365 10368 10370 10373 10376 10379 10382 10385 10388 10390 10393 10395 10398 10401 10404 10407 10410 10412 10415 10418 10421 10424 10426 10429 10432 10435 10438 10441 10443 10446 10449 10452 10455 10458 10460 10463 10465 10468 10471 10474 10477 10479 10481 10484 10486 10489 10491 10493 10496 10498 10501 10504 10507 10510 10513 10516 10519 10522 10524 10527 10530 10533 10536 10539 10542 10544 10546 10549 10552 10554 10557 10559 10562 10565 10568 10571 10574 10577 10580 10583 10586 10589 10592 10595 10598 10601 10604 10607 10610 10613 10616 10619 10622 10625 10628 10631 10634 10637 10640 10643 10646 10649 10652 10655 10658 10660 10663 10666 10669 10672 10675 10678 10680 10683 10686 10689 10692 10695 10698 10701 10704 10707 10710 10713 10716 10719 10722 10724 10727 10730 10733 10736 10739 10741 10744 10746 10749 10752 10755 10758 10761 10764 10767 10769 10772 10774 10777 10780 10783 10785 10788 10791 10794 10797 10800 10803 10806 10808 10811 10814 10816 10819 10822 10825 10828 10831 10834 10836 10839 10842 10844 10847 10850 10853 10855 10858 10861 10863 10866 10868 10870 10873 10876 10878 10880 10883 10886 10889 10892 10895 10897 10900 10903 10906 10909 10912 10915 10918 10920 10923 10926 10928 10931 10934 10936 10939 10941 10944 10947 10950 10953 10956 10959 10962 10965 10968 10971 10974 10977 10980 10983 10986 10989 10992 10995 10998 11001 11003 11006 11009 11012 11015 11018 11021 11024 11027 11030 11033 11036 11039 11042 11045 11048 11051 11054 11056 11059 11062 11065 11068 11070 11073 11076 11079 11082 11085 11088 11091 11094 11097 11100 11103 11105 11108 11110 11113 11116 11119 11122 11125 11127 11130 11132 11135 11138 11141 11143 11146 11149 11152 11155 11158 11161 11164 11167 11170 11173 11176 11179 11181 11184 11187 11190 11192 11195 11198 11201 11204 11207 11209 11212 11215 11218 11221 11224 11227 11230 11233 11236 11239 11242 11245 11248 11251 11254 11257 11260 11263 11265 11268 11271 11273 11275 11278 11281 11284 11287 11290 11293 11295 11298 11301 11304 11306 11309 11312 11315 11318 11321 11324 11327 11330 11332 11335 11338 11340 11343 11346 11349 11352 11355 11358 11361 11364 11367 11369 11372 11375 11378 11381 11384 11387 11390 11393 11396 11399 11402 11405 11408 11411 11414 11416 11419 11422 11425 11428 11431 11433 11436 11438 11441 11444 11447 11450 11453 11456 11459 11462 11465 11468 11471 11474 11477 11480 11483 11486 11488 11491 11494 11497 11500 11503 11506 11509 11512 11515 11518 11521 11524 11527 11530 11533 11536 11539 11541 11544 11547 11550 11553 11556 11559 11562 11565 11568 11571 11574 11576 11579 11582 11585 11588 11591 11594 11597 11600 11603 11606 11609 11612 11615 11617 11620 11623 11626 11628 11631 11634 11637 11640 11643 11646 11649 11652 11655 11658 11661 11664 11667 11670 11673 11676 11679 11682 11685 11688 11691 11694 11697 11700 11703 11706 11708 11711 11714 11716 11719 11722 11725 11728 11731 11734 11737 11740 11743 11746 11749 11752 11755 11757 11760 11763 11766 11769 11772 11775 11778 11781 11784 11787 11790 11793 11796 11799 11802 11805 11808 11811 11814 11816 11819 11822 11825 11828 11830 11833 11836 11839 11841 11844 11847 11849 11852 11855 11858 11861 11864 11867 11870 11873 11876 11878 11881 11884 11887 11890 11893 11896 11898 11901 11904 11907 11910 11912 11915 11918 11921 11923 11926 11928 11930 11933 11936 11939 11942 11945 11948 11951 11954 11957 11960 11963 11966 11969 11971 11974 11977 11980 11983 11986 11989 11991 11993 11996 11999 12001 12004 12007 12009 12011 12014 12016 12019 12022 12025 12028 12030 12032 12035 12038 12040 12043 12046 12049 12052 12055 12058 12061 12063 12066 12069 12071 12074 12077 12080 12082 12085 12088 12091 12094 12097 12100 12103 12106 12109 12112 12114 12117 12120 12123 12126 12129 12132 12134 12137 12140 12143 12146 12149 12152 12155 12158 12161 12164 12167 12170 12173 12176 12178 12181 12184 12187 12189 12192 12195 12198 12201 12204 12207 12210 12213 12216 12218 12221 12224 12226 12229 12232 12234 12237 12239 12242 12244 12246 12249 12252 12255 12258 12261 12264 12267 12270 12273 12276 12279 12282 12285 12288 12291 12294 12297 12300 12303 12306 12309 12312 12315 12318 12321 12324 12327 12330 12333 12336 12339 12342 12345 12348 12351 12353 12356 12359 12362 12365 12368 12371 12374 12377 12380 12383 12386 12389 12392 12395 12398 12401 12404 12407 12410 12413 12416 12419 12422 12425 12428 12431 12434 12437 12440 12443 12446 12449 12452 12455 12458 12461 12464 12467 12469 12472 12475 12478 12481 12484 12487 12490 12492 12495 12498 12500 12503 12506 12508 12511 12514 12517 12520 12523 12526 12529 12532 12535 12538 12541 12544 12547 12550 12553 12556 12559 12562 12565 12568 12571 12574 12577 12580 12583 12586 12589 12592 12595 12598 12601 12604 12607 12609 12612 12615 12618 12621 12624 12627 12629 12632 12635 12637 12640 12643 12646 12649 12652 12655 12658 12661 12664 12667 12670 12673 12676 12679 12682 12685 12688 12690 12693 12696 12699 12702 12704 12707 12710 12713 12715 12718 12721 12724 12727 12729 12732 12735 12738 12741 12744 12747 12750 12753 12756 12759 12762 12765 12768 12771 12774 12777 12779 12782 12784 12787 12790 12793 12796 12799 12802 12804 12807 12810 12812 12815 12818 12821 12824 12827 12829 12832 12835 12838 12841 12844 12847 12850 12853 12856 12859 12862 12865 12867 12870 12873 12876 12879 12882 12885 12888 12891 12894 12897 12899 12902 12905 12908 12911 12914 12917 12920 12923 12926 12929 12932 12935 12938 12941 12944 12947 12949 12952 12955 12957 12960 12963 12966 12968 12971 12974 12977 12980 12982 12985 12988 12991 12994 12997 13000 13003 13006 13009 13012 13015 13018 13020 13023 13026 13028 13031 13033 13036 13039 13042 13045 13047 13050 13053 13056 13059 13061 13063 13066 13069 13071 13074 13077 13080 13082 13085 13087 13090 13093 13095 13098 13101 13104 13107 13109 13112 13114 13117 13120 13122 13125 13128 13131 13134 13137 13140 13143 13146 13149 13152 13155 13157 13160 13163 13166 13169 13172 13174 13177 13180 13182 13185 13188 13191 13193 13196 13199 13202 13205 13208 13211 13214 13216 13219 13222 13224 13226 13229 13232 13235 13238 13241 13244 13247 13250 13252 13255 13258 13261 13264 13267 13270 13273 13276 13278 13281 13284 13287 13290 13293 13296 13299 13302 13305 13308 13311 13314 13317 13320 13323 13326 13329 13332 13335 13338 13341 13344 13347 13350 13353 13356 13359 13362 13365 13368 13371 13374 13377 13380 13383 13386 13389 13392 13395 13398 13401 13404 13407 13410 13413 13416 13419 13422 13425 13428 13431 13434 13437 13440 13443 13446 13449 13452 13455 13458 13461 13464 13467 13470 13472 13474 13477 13480 13483 13486 13489 13491 13494 13497 13500 13503 13506 13509 13511 13513 13516 13519 13522 13525 13528 13531 13533 13536 13538 13541 13544 13547 13550 13553 13556 13559 13562 13565 13568 13570 13573 13576 13579 13581 13584 13587 13590 13593 13596 13599 13602 13605 13608 13611 13614 13617 13620 13622 13624 13627 13630 13633 13636 13638 13640 13643 13646 13649 13652 13655 13658 13661 13664 13667 13670 13673 13676 13678 13681 13684 13687 13690 13693 13696 13699 13702 13705 13707 13710 13713 13716 13718 13721 13724 13726 13728 13731 13734 13737 13740 13743 13745 13748 13751 13754 13757 13760 13763 13766 13769 13772 13775 13778 13781 13784 13787 13790 13793 13796 13799 13802 13805 13808 13811 13813 13816 13819 13822 13825 13828 13831 13834 13836 13839 13842 13845 13848 13851 13854 13857 13860 13863 13866 13869 13872 13875 13878 13881 13884 13887 13890 13893 13896 13899 13902 13905 13908 13911 13914 13917 13919 13922 13925 13928 13931 13934 13937 13940 13943 13945 13948 13951 13954 13957 13960 13963 13966 13969 13972 13975 13978 13981 13984 13987 13990 13993 13996 13999 14002 14005 14008 14011 14014 14017 14020 14023 14025 14028 14031 14033 14035 14038 14041 14044 14047 14050 14053 14056 14058 14061 14064 14067 14069 14072 14075 14078 14081 14083 14086 14089 14092 14095 14098 14101 14104 14107 14110 14113 14116 14119 14122 14125 14128 14131 14134 14137 14140 14143 14146 14148 14151 14154 14156 14159 14162 14165 14168 14171 14174 14177 14180 14182 14184 14187 14190 14192 14195 14198 14201 14204 14207 14209 14212 14215 14217 14220 14223 14226 14229 14231 14234 14237 14240 14243 14246 14249 14252 14255 14258 14261 14264 14267 14270 14273 14276 14278 14281 14284 14287 14290 14293 14295 14298 14301 14304 14306 14309 14312 14315 14318 14320 14322 14325 14327 14330 14333 14336 14339 14341 14344 14347 14349 14352 14355 14358 14361 14363 14366 14369 14372 14375 14378 14381 14384 14387 14390 14392 14395 14398 14400 14403 14406 14409 14412 14414 14417 14419 14422 14425 14428 14431 14434 14436 14439 14442 14445 14448 14451 14454 14457 14460 14463 14466 14469 14472 14475 14478 14481 14484 14487 14490 14493 14496 14499 14502 14505 14508 14511 14514 14517 14520 14523 14526 14528 14531 14534 14537 14540 14543 14546 14549 14552 14555 14558 14561 14564 14566 14569 14572 14575 14578 14581 14584 14587 14590 14593 14596 14598 14601 14604 14607 14610 14612 14615 14618 14621 14624 14627 14630 14633 14636 14638 14641 14644 14646 14649 14652 14655 14657 14660 14663 14666 14668 14671 14673 14676 14679 14682 14685 14688 14691 14693 14696 14699 14702 14705 14708 14711 14714 14717 14720 14723 14726 14729 14732 14735 14738 14741 14744 14747 14750 14753 14756 14759 14762 14765 14768 14771 14774 14777 14780 14783 14786 14788 14791 14794 14797 14800 14803 14805 14808 14811 14813 14816 14819 14822 14825 14828 14831 14834 14836 14839 14842 14845 14847 14850 14853 14856 14859 14861 14864 14867 14870 14873 14876 14879 14882 14885 14888 14891 14894 14896 14898 14901 14903 14906 14909 14911 14913 14916 14919 14922 14925 14928 14931 14934 14937 14939 14942 14945 14948 14951 14954 14957 14960 14963 14966 14969 14972 14975 14978 14981 14984 14987 14989 14992 14995 14998 15001 15004 15007 15009 15012 15015 15018 15021 15024 15026 15029 15031 15033 15036 15039 15042 15044 15047 15050 15053 15056 15059 15062 15065 15068 15071 15074 15077 15080 15083 15085 15088 15091 15094 15096 15099 15101 15104 15107 15110 15113 15116 15119 15122 15125 15128 15131 15134 15137 15140 15143 15146 15149 15152 15155 15158 15161 15164 15167 15170 15173 15175 15178 15181 15183 15186 15189 15192 15194 15196 15199 15202 15205 15208 15211 15214 15216 15219 15221 15224 15227 15230 15233 15236 15239 15241 15244 15247 15249 15252 15255 15258 15261 15264 15267 15270 15273 15276 15279 15282 15284 15287 15290 15292 15295 15298 15300 15303 15306 15309 15312 15315 15317 15320 15323 15326 15328 15331 15334 15337 15340 15343 15346 15349 15352 15355 15358 15361 15364 15367 15370 15373 15376 15378 15380 15383 15386 15389 15392 15395 15398 15400 15402 15405 15408 15411 15414 15417 15420 15423 15426 15429 15432 15435 15438 15441 15444 15447 15450 15452 15455 15458 15461 15464 15467 15470 15473 15476 15479 15482 15485 15488 15491 15493 15496 15499 15502 15505 15508 15511 15513 15516 15519 15522 15525 15528 15530 15533 15536 15539 15542 15545 15548 15551 15554 15557 15560 15563 15566 15569 15572 15575 15578 15581 15584 15587 15590 15593 15595 15598 15601 15603 15606 15609 15611 15614 15617 15620 15623 15625 15628 15631 15634 15637 15640 15643 15646 15649 15652 15655 15658 15661 15664 15667 15670 15673 15676 15679 15682 15684 15687 15689 15692 15695 15698 15701 15704 15707 15709 15712 15715 15718 15721 15724 15727 15729 15732 15735 15737 15740 15743 15746 15749 15752 15755 15758 15761 15764 15767 15770 15773 15776 15779 15782 15785 15788 15791 15794 15797 15800 15803 15805 15808 15811 15813 15816 15819 15821 15824 15827 15830 15833 15836 15839 15842 15844 15847 15850 15853 15856 15858 15861 15864 15867 15869 15872 15875 15878 15881 15884 15887 15890 15893 15896 15899 15902 15905 15908 15911 15914 15917 15920 15923 15926 15929 15932 15935 15938 15941 15944 15947 15950 15953 15956 15959 15961 15964 15967 15969 15972 15975 15978 15981 15984 15987 15990 15993 15996 15998 16001 16004 16007 16009 16012 16015 16017 16019 16022 16025 16028 16031 16034 16037 16040 16043 16046 16049 16052 16055 16058 16061 16064 16067 16070 16073 16076 16079 16082 16085 16087 16090 16093 16096 16099 16102 16105 16108 16111 16114 16117 16120 16123 16126 16129 16132 16134 16137 16140 16143 16145 16148 16150 16152 16155 16157 16160 16162 16164 16167 16170 16173 16176 16179 16182 16185 16187 16190 16193 16196 16199 16202 16205 16207 16210 16213 16216 16219 16222 16224 16227 16230 16233 16236 16239 16242 16245 16248 16251 16254 16257 16260 16263 16266 16269 16272 16274 16276 16279 16282 16284 16287 16290 16293 16296 16299 16302 16305 16308 16310 16313 16316 16318 16321 16323 16326 16329 16332 16335 16338 16340 16343 16346 16349 16352 16355 16358 16361 16364 16367 16369 16372 16375 16378 16381 16384 16387 16390 16393 16396 16399 16401 16404 16407 16410 16413 16416 16419 16422 16425 16428 16431 16434 16437 16440 16443 16446 16449 16452 16455 16458 16461 16464 16467 16470 16473 16476 16479 16482 16485 16488 16491 16494 16497 16500 16503 16506 16509 16512 16514 16517 16520 16522 16525 16528 16531 16534 16537 16540 16543 16546 16548 16551 16554 16557 16560 16563 16566 16569 16572 16575 16578 16581 16584 16587 16590 16593 16596 16599 16602 16605 16608 16611 16613 16616 16619 16621 16624 16627 16629 16632 16635 16638 16641 16644 16647 16650 16653 16656 16659 16662 16665 16668 16671 16674 16677 16680 16683 16686 16689 16692 16695 16698 16701 16704 16707 16709 16712 16715 16717 16720 16723 16725 16728 16731 16734 16737 16739 16742 16745 16748 16751 16753 16756 16759 16762 16765 16768 16771 16774 16777 16780 16783 16786 16789 16792 16795 16798 16800 16803 16806 16809 16812 16814 16817 16820 16822 16825 16828 16830 16833 16835 16838 16841 16844 16847 16850 16853 16856 16859 16862 16865 16867 16870 16873 16876 16879 16882 16885 16888 16891 16894 16897 16900 16903 16906 16909 16912 16914 16917 16920 16923 16926 16929 16932 16935 16938 16941 16944 16947 16949 16952 16955 16958 16961 16963 16966 16969 16971 16974 16977 16980 16983 16986 16989 16991 16994 16997 16999 17001 17004 17007 17010 17013 17016 17019 17022 17025 17028 17031 17034 17037 17039 17042 17045 17048 17051 17054 17057 17060 17063 17066 17069 17072 17075 17078 17081 17084 17086 17089 17092 17095 17098 17101 17103 17106 17109 17111 17114 17117 17120 17123 17126 17129 17132 17135 17138 17141 17144 17147 17150 17153 17156 17159 17162 17164 17167 17170 17172 17175 17178 17181 17183 17186 17189 17192 17195 17197 17200 17203 17206 17209 17212 17215 17218 17221 17224 17227 17230 17233 17236 17239 17242 17245 17248 17251 17254 17257 17260 17263 17266 17268 17271 17274 17277 17280 17283 17286 17289 17292 17294 17297 17300 17303 17306 17308 17311 17314 17316 17319 17321 17324 17327 17330 17333 17336 17339 17342 17345 17348 17351 17354 17357 17360 17363 17366 17369 17372 17375 17378 17381 17384 17387 17390 17392 17395 17398 17401 17404 17407 17410 17412 17415 17418 17421 17423 17426 17429 17432 17435 17438 17441 17444 17447 17450 17453 17456 17459 17462 17464 17467 17470 17473 17476 17479 17481 17484 17487 17490 17493 17495 17498 17501 17503 17506 17509 17511 17514 17517 17520 17522 17525 17528 17531 17534 17537 17540 17543 17546 17549 17552 17555 17558 17560 17563 17566 17569 17572 17575 17578 17581 17583 17586 17588 17591 17594 17597 17600 17603 17606 17609 17612 17615 17618 17621 17624 17627 17630 17633 17636 17639 17642 17645 17648 17651 17654 17657 17660 17663 17666 17669 17672 17675 17678 17681 17684 17687 17690 17693 17696 17698 17701 17704 17707 17710 17713 17716 17719 17722 17725 17728 17731 17734 17737 17740 17743 17746 17749 17752 17755 17758 17761 17764 17767 17770 17773 17776 17779 17782 17785 17788 17791 17794 17797 17799 17802 17805 17808 17811 17813 17816 17818 17821 17824 17827 17829 17832 17835 17838 17841 17843 17846 17849 17852 17855 17858 17861 17864 17867 17870 17873 17876 17879 17882 17885 17887 17890 17893 17896 17899 17901 17904 17907 17909 17912 17915 17918 17920 17923 17926 17929 17932 17935 17938 17941 17944 17947 17950 17953 17956 17959 17962 17964 17967 17969 17972 17975 17978 17981 17984 17987 17990 17993 17996 17998 18000 18003 18005 18007 18010 18013 18016 18019 18022 18024 18027 18030 18033 18036 18038 18041 18044 18047 18050 18053 18056 18059 18061 18064 18067 18069 18072 18074 18077 18080 18083 18086 18089 18092 18095 18098 18101 18104 18107 18110 18113 18116 18119 18122 18125 18128 18131 18134 18137 18140 18143 18146 18149 18152 18155 18158 18161 18164 18167 18170 18173 18176 18179 18182 18184 18187 18189 18191 18193 18196 18199 18202 18204 18207 18209 18212 18215 18218 18221 18224 18227 18230 18233 18235 18238 18241 18243 18246 18249 18252 18255 18258 18261 18264 18267 18270 18273 18275 18278 18281 18283 18286 18289 18292 18294 18297 18300 18303 18306 18309 18312 18315 18318 18321 18324 18326 18329 18332 18335 18338 18340 18343 18346 18349 18352 18355 18358 18360 18362 18365 18368 18371 18374 18376 18379 18382 18384 18386 18389 18392 18395 18398 18401 18404 18407 18410 18413 18416 18418 18421 18424 18426 18429 18431 18434 18436 18439 18442 18445 18448 18451 18454 18456 18459 18462 18465 18468 18471 18474 18477 18480 18483 18486 18489 18492 18495 18498 18501 18504 18507 18510 18513 18516 18519 18522 18525 18527 18530 18533 18536 18539 18541 18544 18547 18550 18553 18556 18558 18561 18564 18567 18570 18573 18576 18579 18582 18585 18588 18591 18594 18597 18600 18603 18606 18609 18612 18615 18618 18621 18624 18627 18629 18632 18635 18637 18640 18643 18646 18648 18650 18653 18656 18658 18661 18664 18666 18669 18672 18675 18678 18681 18684 18687 18690 18693 18696 18699 18701 18704 18707 18710 18713 18715 18718 18720 18723 18726 18729 18732 18735 18738 18741 18744 18746 18748 18750 18753 18756 18759 18762 18765 18768 18771 18774 18776 18779 18782 18785 18787 18790 18793 18796 18799 18801 18804 18807 18810 18812 18815 18818 18821 18824 18827 18830 18833 18836 18839 18842 18845 18848 18851 18853 18856 18859 18862 18865 18868 18871 18873 18876 18879 18881 18884 18887 18890 18893 18895 18898 18901 18904 18907 18910 18913 18916 18919 18922 18924 18927 18930 18933 18935 18938 18940 18943 18946 18949 18952 18954 18957 18960 18963 18965 18968 18971 18974 18977 18980 18983 18986 18989 18992 18995 18998 19001 19004 19007 19010 19013 19016 19019 19022 19025 19028 19031 19034 19037 19040 19043 19046 19049 19052 19055 19058 19061 19064 19067 19070 19073 19076 19079 19081 19084 19087 19090 19093 19096 19099 19102 19104 19107 19110 19112 19115 19118 19120 19123 19125 19128 19131 19134 19137 19140 19143 19146 19149 19152 19154 19157 19160 19163 19166 19169 19171 19174 19177 19180 19183 19186 19189 19192 19195 19197 19200 19202 19204 19207 19210 19213 19216 19219 19222 19224 19227 19230 19233 19236 19238 19241 19244 19247 19249 19252 19255 19258 19261 19264 19266 19269 19272 19275 19278 19281 19284 19287 19290 19293 19296 19299 19302 19304 19307 19310 19313 19316 19319 19322 19325 19328 19331 19334 19337 19340 19343 19346 19348 19351 19354 19357 19359 19362 19365 19368 19371 19374 19377 19380 19383 19386 19389 19392 19395 19397 19400 19403 19406 19409 19411 19414 19417 19420 19422 19425 19428 19431 19434 19437 19440 19442 19445 19447 19450 19453 19456 19459 19462 19465 19468 19471 19474 19477 19480 19483 19486 19489 19492 19495 19498 19501 19504 19507 19510 19513 19516 19519 19522 19525 19528 19531 19534 19537 19540 19542 19545 19548 19551 19553 19556 19559 19562 19564 19567 19570 19573 19576 19579 19582 19585 19587 19590 19593 19596 19599 19602 19605 19608 19611 19614 19617 19620 19623 19626 19628 19631 19633 19636 19639 19642 19644 19647 19650 19653 19656 19659 19662 19665 19667 19669 19672 19674 19677 19679 19682 19685 19688 19691 19693 19696 19699 19701 19704 19706 19709 19712 19715 19718 19721 19724 19727 19730 19732 19734 19737 19740 19742 19745 19747 19750 19753 19756 19759 19762 19765 19767 19770 19773 19776 19779 19782 19785 19787 19790 19793 19796 19799 19802 19805 19808 19810 19813 19816 19819 19822 19824 19827 19830 19833 19835 19837 19840 19843 19846 19849 19852 19855 19858 19861 19863 19866 19868 19871 19874 19877 19880 19882 19885 19888 19891 19893 19896 19898 19901 19903 19906 19909 19911 19914 19917 19919 19922 19925 19928 19931 19934 19937 19940 19943 19946 19949 19952 19955 19958 19961 19964 19967 19970 19973 19976 19979 19982 19985 19988 19990 19993 19995 19998 20000 20003 20006 20009 20012 20014 20016 20019 20022 20025 20028 20031 20034 20037 20040 20042 20044 20047 20050 20053 20056 20059 20062 20065 20068 20071 20074 20077 20079 20082 20085 20087 20090 20093 20096 20099 20102 20105 20108 20111 20114 20117 20120 20123 20126 20129 20132 20135 20138 20141 20144 20146 20149 20152 20155 20158 20161 20164 20167 20170 20173 20176 20179 20182 20185 20188 20191 20194 20197 20200 20203 20206 20209 20211 20214 20217 20220 20223 20225 20228 20231 20233 20236 20239 20241 20244 20247 20250 20253 20256 20259 20261 20263 20266 20269 20272 20275 20278 20281 20284 20287 20290 20293 20296 20299 20302 20305 20308 20311 20313 20316 20319 20321 20324 20327 20330 20332 20334 20337 20340 20343 20346 20348 20351 20354 20357 20360 20363 20365 20368 20371 20374 20377 20380 20383 20386 20389 20392 20395 20398 20401 20404 20407 20410 20413 20416 20419 20422 20425 20428 20431 20434 20437 20440 20442 20445 20448 20451 20454 20456 20458 20461 20464 20467 20470 20473 20476 20479 20482 20485 20488 20491 20494 20497 20500 20503 20506 20509 20512 20515 20518 20521 20524 20527 20530 20532 20535 20538 20540 20543 20546 20549 20552 20555 20558 20561 20564 20567 20570 20573 20576 20579 20582 20585 20588 20590 20593 20596 20598 20601 20604 20607 20610 20613 20616 20618 20621 20624 20627 20630 20632 20635 20638 20641 20643 20646 20649 20651 20654 20657 20660 20663 20666 20668 20671 20673 20675 20678 20681 20684 20687 20690 20693 20696 20699 20702 20705 20708 20710 20713 20716 20719 20721 20724 20726 20729 20732 20735 20738 20740 20743 20746 20749 20752 20755 20758 20761 20764 20767 20770 20773 20775 20777 20780 20783 20785 20788 20791 20793 20796 20798 20801 20804 20807 20810 20812 20815 20818 20821 20824 20827 20830 20833 20836 20839 20841 20844 20847 20850 20853 20856 20859 20861 20864 20867 20869 20872 20875 20877 20880 20882 20885 20888 20891 20893 20896 20899 20902 20905 20908 20911 20914 20917 20920 20923 20926 20929 20932 20935 20938 20941 20944 20946 20949 20952 20954 20957 20960 20963 20966 20969 20972 20975 20978 20981 20984 20987 20989 20992 20994 20997 21000 21002 21005 21008 21011 21013 21016 21019 21021 21023 21025 21027 21030 21033 21036 21038 21040 21043 21046 21049 21052 21055 21058 21060 21063 21066 21069 21072 21075 21078 21081 21084 21086 21089 21092 21095 21098 21101 21104 21107 21110 21113 21116 21118 21121 21123 21126 21128 21131 21133 21136 21138 21141 21144 21147 21149 21152 21155 21158 21161 21164 21167 21169 21172 21175 21178 21181 21184 21186 21189 21192 21195 21198 21201 21204 21206 21209 21212 21215 21218 21221 21224 21226 21229 21232 21235 21237 21239 21242 21245 21247 21250 21252 21255 21258 21261 21264 21267 21270 21272 21275 21278 21281 21284 21287 21290 21293 21296 21299 21302 21305 21308 21311 21314 21317 21320 21323 21326 21329 21332 21335 21338 21341 21344 21347 21350 21353 21356 21359 21362 21365 21368 21371 21374 21377 21380 21382 21385 21388 21391 21394 21397 21400 21403 21406 21409 21412 21415 21418 21421 21424 21427 21430 21433 21436 21439 21442 21445 21448 21451 21454 21457 21460 21463 21466 21469 21472 21475 21478 21481 21484 21487 21490 21493 21496 21499 21502 21505 21508 21511 21514 21517 21520 21522 21525 21528 21531 21534 21537 21540 21543 21546 21549 21552 21555 21558 21561 21564 21567 21570 21573 21576 21579 21582 21585 21588 21591 21594 21597 21600 21603 21606 21609 21612 21615 21618 21621 21624 21627 21630 21633 21636 21639 21642 21645 21648 21651 21654 21657 21660 21663 21666 21669 21672 21675 21678 21681 21684 21687 21690 21693 21696 21699 21702 21705 21708 21711 21714 21717 21720 21723 21726 21729 21732 21735 21738 21741 21744 21747 21750 21753 21756 21759 21762 21765 21768 21771 21774 21777 21780 21783 21786 21789 21792 21795 21798 21801 21804 21807 21810 21813 21816 21819 21822 21825 21828 21831 21834 21837 21840 21843 21846 21849 21852 21855 21858 21861 21864 21867 21870 21873 21876 21879 21882 21885 21888 21891 21894 21897 21900 21903 21906 21908 21911 21914 21917 21920 21923 21926 21929 21932 21935 21938 21941 21944 21947 21950 21953 21956 21959 21962 21965 21968 21971 21974 21977 21980 21983 21986 21989 21992 21995 21998 22001 22004 22006 22009 22012 22015 22018 22021 22024 22027 22030 22033 22035 22038 22041 22044 22047 22050 22053 22056 22058 22061 22064 22067 22070 22073 22076 22078 22081 22084 22086 22089 22092 22095 22098 22101 22104 22107 22110 22113 22116 22119 22121 22124 22127 22130 22133 22136 22139 22142 22145 22147 22150 22153 22156 22158 22160 22163 22165 22168 22171 22174 22177 22180 22182 22185 22187 22190 22193 22195 22198 22201 22204 22207 22210 22213 22216 22219 22222 22225 22228 22231 22234 22237 22240 22243 22246 22249 22252 22255 22258 22260 22263 22266 22269 22272 22274 22276 22279 22282 22285 22288 22291 22294 22297 22300 22303 22305 22308 22311 22314 22317 22320 22323 22326 22329 22332 22335 22338 22341 22344 22347 22350 22353 22356 22359 22362 22364 22367 22370 22373 22376 22378 22381 22384 22387 22389 22391 22394 22396 22399 22402 22405 22408 22411 22414 22417 22420 22422 22425 22428 22431 22434 22437 22440 22443 22446 22449 22452 22455 22458 22461 22464 22467 22470 22473 22476 22479 22482 22485 22487 22490 22493 22496 22498 22501 22503 22506 22509 22511 22514 22517 22520 22523 22526 22529 22532 22535 22538 22541 22544 22547 22550 22553 22556 22558 22561 22564 22567 22570 22573 22576 22579 22581 22584 22587 22590 22593 22596 22599 22602 22605 22608 22611 22614 22617 22620 22622 22625 22628 22631 22634 22637 22640 22642 22645 22648 22651 22654 22656 22659 22662 22665 22667 22670 22673 22676 22679 22682 22685 22688 22691 22694 22697 22699 22702 22705 22707 22710 22713 22715 22717 22720 22722 22725 22728 22730 22733 22736 22739 22742 22745 22748 22751 22754 22757 22760 22763 22766 22769 22771 22774 22777 22780 22783 22786 22789 22792 22795 22798 22800 22803 22806 22809 22812 22814 22817 22820 22823 22826 22829 22832 22835 22838 22841 22844 22846 22849 22852 22855 22857 22860 22863 22866 22869 22872 22875 22877 22880 22883 22886 22889 22892 22895 22898 22901 22904 22907 22910 22913 22915 22918 22921 22924 22927 22930 22933 22935 22938 22941 22944 22947 22950 22953 22956 22959 22962 22965 22968 22970 22973 22976 22979 22982 22985 22987 22989 22992 22995 22998 23001 23004 23007 23010 23012 23014 23017 23020 23022 23025 23028 23030 23033 23036 23039 23042 23044 23047 23050 23052 23055 23058 23061 23064 23067 23070 23073 23076 23079 23082 23085 23088 23090 23093 23096 23098 23101 23104 23106 23109 23111 23114 23116 23119 23122 23125 23128 23131 23134 23137 23140 23143 23145 23148 23151 23154 23157 23159 23162 23165 23167 23170 23173 23175 23178 23181 23184 23187 23190 23192 23195 23198 23201 23204 23207 23209 23211 23214 23216 23219 23222 23225 23228 23230 23232 23234 23237 23240 23243 23246 23249 23252 23254 23256 23259 23261 23264 23267 23270 23273 23276 23279 23281 23284 23287 23290 23293 23295 23298 23300 23303 23306 23309 23312 23314 23317 23319 23322 23325 23328 23331 23333 23336 23339 23342 23345 23348 23351 23354 23357 23360 23363 23366 23369 23372 23375 23377 23380 23383 23386 23389 23392 23395 23398 23401 23404 23406 23409 23412 23415 23418 23421 23424 23427 23430 23433 23436 23438 23441 23444 23447 23450 23453 23456 23459 23462 23464 23466 23469 23472 23475 23478 23480 23483 23486 23489 23491 23494 23497 23499 23502 23505 23508 23511 23513 23516 23519 23522 23525 23528 23531 23534 23537 23540 23543 23546 23548 23551 23554 23557 23560 23562 23565 23568 23570 23573 23576 23579 23582 23585 23588 23591 23594 23597 23600 23603 23606 23608 23611 23614 23617 23620 23623 23626 23629 23632 23635 23637 23640 23643 23646 23649 23652 23655 23657 23660 23663 23665 23668 23671 23673 23676 23679 23682 23685 23688 23691 23694 23697 23700 23703 23705 23708 23711 23714 23717 23720 23723 23726 23729 23732 23735 23738 23741 23744 23747 23750 23753 23756 23759 23762 23765 23767 23770 23773 23776 23779 23782 23785 23788 23790 23793 23796 23799 23802 23805 23807 23810 23812 23815 23818 23821 23824 23827 23830 23833 23836 23839 23842 23845 23848 23851 23854 23857 23860 23863 23866 23868 23870 23873 23876 23879 23882 23884 23887 23889 23892 23894 23897 23900 23902 23905 23907 23910 23913 23916 23918 23921 23924 23927 23930 23933 23936 23939 23942 23945 23948 23951 23954 23957 23960 23963 23966 23969 23972 23975 23978 23981 23984 23987 23989 23992 23995 23998 24001 24004 24006 24009 24011 24014 24017 24020 24023 24026 24029 24032 24035 24037 24040 24043 24046 24049 24052 24055 24057 24060 24063 24066 24068 24071 24074 24077 24080 24083 24086 24089 24091 24094 24096 24099 24102 24104 24107 24110 24113 24116 24119 24122 24125 24128 24131 24134 24136 24139 24142 24145 24148 24151 24154 24157 24160 24162 24165 24168 24171 24174 24177 24179 24182 24185 24188 24191 24194 24197 24200 24202 24204 24206 24209 24212 24214 24217 24220 24223 24226 24229 24232 24235 24238 24241 24244 24247 24250 24253 24255 24258 24261 24264 24267 24270 24273 24275 24278 24281 24284 24287 24290 24293 24296 24299 24302 24305 24308 24311 24313 24316 24319 24322 24325 24328 24331 24333 24336 24339 24342 24344 24346 24349 24352 24355 24358 24361 24363 24366 24368 24370 24373 24375 24378 24381 24384 24387 24389 24392 24395 24398 24400 24402 24405 24407 24409 24412 24415 24418 24421 24424 24427 24430 24433 24436 24439 24442 24445 24448 24451 24454 24456 24459 24462 24465 24468 24470 24473 24476 24479 24482 24484 24487 24489 24492 24494 24496 24498 24501 24504 24506 24508 24511 24514 24517 24520 24523 24526 24529 24532 24534 24537 24540 24543 24546 24549 24552 24555 24558 24561 24564 24567 24570 24573 24576 24579 24582 24585 24588 24591 24593 24596 24599 24601 24604 24607 24609 24612 24615 24617 24620 24623 24626 24629 24631 24634 24637 24640 24643 24645 24648 24650 24653 24656 24659 24662 24665 24668 24671 24674 24677 24680 24683 24686 24689 24692 24695 24698 24701 24704 24707 24710 24713 24715 24718 24721 24724 24726 24728 24731 24734 24737 24740 24743 24746 24749 24752 24755 24757 24760 24763 24766 24768 24771 24774 24777 24780 24783 24786 24788 24791 24794 24797 24800 24803 24806 24809 24812 24815 24818 24820 24823 24825 24828 24831 24833 24836 24839 24842 24844 24847 24850 24853 24856 24859 24862 24865 24868 24870 24873 24876 24879 24882 24885 24887 24890 24893 24895 24898 24901 24904 24907 24910 24913 24915 24918 24921 24923 24926 24929 24932 24935 24937 24940 24943 24945 24948 24951 24954 24957 24960 24963 24966 24969 24971 24973 24976 24979 24982 24985 24987 24990 24992 24995 24998 25001 25004 25007 25010 25013 25016 25019 25022 25025 25028 25031 25034 25037 25040 25043 25045 25048 25051 25053 25056 25059 25062 25065 25068 25071 25073 25076 25079 25081 25084 25087 25090 25093 25096 25098 25101 25104 25107 25109 25112 25115 25117 25120 25123 25126 25128 25131 25134 25137 25139 25141 25144 25147 25150 25153 25156 25159 25162 25165 25167 25169 25171 25174 25177 25180 25182 25185 25187 25189 25192 25195 25197 25200 25203 25206 25209 25212 25215 25218 25221 25224 25226 25229 25231 25234 25237 25240 25243 25245 25248 25251 25254 25257 25259 25262 25264 25267 25270 25273 25276 25278 25281 25284 25287 25290 25293 25296 25299 25302 25305 25308 25311 25314 25317 25320 25323 25326 25329 25331 25334 25337 25340 25343 25346 25348 25351 25353 25356 25359 25362 25365 25367 25370 25373 25376 25379 25382 25385 25388 25391 25394 25397 25399 25402 25405 25408 25411 25414 25417 25419 25421 25424 25427 25430 25433 25436 25439 25442 25445 25448 25451 25454 25457 25459 25462 25465 25467 25470 25473 25476 25479 25482 25485 25488 25491 25494 25496 25498 25501 25504 25507 25510 25513 25516 25519 25522 25524 25527 25530 25532 25534 25537 25539 25541 25544 25547 25550 25552 25554 25556 25559 25562 25565 25568 25571 25573 25576 25579 25582 25585 25588 25590 25593 25596 25598 25601 25604 25607 25610 25612 25615 25618 25621 25624 25627 25629 25632 25634 25637 25639 25642 25645 25648 25650 25653 25656 25659 25662 25665 25668 25671 25673 25676 25679 25682 25685 25687 25690 25693 25696 25699 25702 25705 25708 25711 25714 25717 25720 25723 25726 25728 25731 25734 25737 25740 25743 25746 25748 25751 25753 25756 25759 25762 25765 25768 25771 25774 25777 25780 25783 25786 25789 25792 25795 25798 25801 25804 25807 25810 25813 25816 25819 25822 25825 25828 25831 25834 25837 25840 25843 25845 25848 25851 25853 25856 25859 25862 25865 25868 25870 25872 25875 25878 25881 25883 25886 25889 25892 25895 25898 25901 25904 25907 25910 25913 25916 25918 25921 25924 25926 25928 25931 25934 25936 25938 25941 25944 25946 25948 25951 25954 25957 25960 25963 25966 25969 25972 25975 25978 25981 25984 25987 25990 25993 25996 25999 26002 26005 26007 26010 26012 26015 26018 26021 26024 26027 26030 26033 26036 26039 26042 26045 26048 26051 26054 26057 26060 26063 26066 26069 26072 26075 26078 26081 26084 26087 26090 26092 26095 26098 26101 26104 26107 26110 26112 26115 26118 26121 26123 26126 26129 26132 26135 26138 26140 26143 26146 26148 26151 26154 26157 26160 26163 26166 26169 26171 26174 26176 26179 26182 26185 26188 26191 26194 26197 26200 26203 26206 26209 26212 26215 26218 26221 26224 26227 26230 26232 26235 26238 26240 26243 26246 26249 26252 26254 26257 26260 26262 26265 26267 26270 26273 26276 26279 26281 26284 26287 26290 26293 26296 26299 26302 26305 26308 26311 26314 26317 26320 26323 26326 26329 26332 26335 26338 26341 26344 26346 26349 26352 26355 26358 26361 26364 26367 26370 26372 26375 26378 26380 26383 26386 26389 26392 26395 26398 26401 26404 26407 26410 26413 26416 26419 26422 26425 26428 26431 26434 26437 26440 26443 26445 26448 26451 26454 26457 26460 26463 26466 26469 26472 26475 26478 26481 26484 26487 26490 26493 26496 26499 26502 26505 26508 26511 26514 26517 26520 26523 26526 26529 26532 26535 26538 26541 26544 26547 26550 26553 26556 26559 26562 26565 26568 26571 26574 26577 26580 26582 26585 26588 26591 26594 26597 26600 26603 26606 26609 26612 26615 26618 26621 26624 26627 26629 26632 26635 26638 26641 26644 26647 26650 26653 26656 26658 26661 26664 26667 26670 26673 26676 26679 26682 26684 26687 26690 26693 26696 26699 26702 26705 26708 26711 26714 26717 26719 26722 26725 26728 26731 26734 26737 26740 26743 26745 26748 26751 26754 26757 26760 26763 26766 26769 26771 26774 26777 26780 26783 26786 26788 26790 26793 26796 26799 26802 26805 26808 26811 26814 26817 26820 26823 26826 26829 26832 26834 26837 26840 26843 26845 26848 26851 26853 26856 26859 26862 26864 26867 26869 26872 26874 26876 26879 26882 26885 26887 26890 26893 26896 26899 26902 26905 26908 26911 26914 26917 26919 26922 26925 26927 26930 26933 26936 26939 26942 26945 26948 26951 26954 26957 26960 26963 26966 26968 26971 26974 26977 26980 26983 26986 26989 26992 26995 26997 27000 27002 27005 27008 27011 27014 27017 27020 27023 27025 27028 27031 27034 27037 27040 27042 27045 27047 27049 27052 27054 27057 27060 27063 27065 27068 27071 27074 27077 27080 27083 27086 27089 27092 27095 27097 27100 27103 27106 27108 27111 27114 27117 27119 27122 27125 27128 27131 27134 27136 27138 27140 27142 27145 27148 27151 27154 27157 27159 27161 27164 27167 27170 27172 27175 27178 27181 27184 27187 27190 27193 27196 27199 27201 27204 27207 27210 27213 27216 27219 27221 27224 27227 27230 27233 27236 27238 27241 27244 27247 27250 27253 27256 27259 27262 27265 27268 27271 27274 27277 27280 27283 27286 27289 27292 27295 27298 27301 27304 27307 27310 27313 27316 27319 27322 27325 27327 27330 27333 27336 27339 27342 27345 27348 27351 27354 27357 27360 27363 27366 27368 27371 27374 27377 27380 27383 27386 27389 27392 27395 27398 27401 27404 27407 27410 27413 27416 27419 27422 27425 27428 27431 27434 27436 27439 27441 27444 27447 27449 27452 27455 27458 27461 27464 27467 27469 27472 27475 27478 27481 27484 27487 27490 27493 27495 27497 27500 27503 27505 27508 27510 27512 27515 27518 27520 27523 27526 27529 27532 27535 27538 27541 27544 27546 27549 27552 27555 27558 27561 27564 27567 27569 27572 27575 27578 27581 27584 27587 27590 27593 27596 27599 27602 27604 27607 27610 27613 27616 27619 27622 27625 27628 27631 27633 27636 27639 27641 27643 27646 27649 27652 27655 27658 27660 27662 27665 27668 27671 27674 27677 27680 27683 27686 27688 27691 27694 27697 27700 27703 27706 27709 27712 27715 27718 27721 27724 27727 27730 27733 27735 27738 27741 27743 27746 27748 27751 27754 27756 27759 27762 27765 27768 27770 27773 27775 27777 27780 27782 27784 27787 27789 27792 27795 27798 27801 27804 27807 27810 27813 27816 27819 27821 27824 27826 27829 27832 27835 27838 27840 27843 27845 27848 27851 27854 27857 27860 27863 27866 27869 27872 27874 27877 27880 27883 27885 27888 27891 27894 27897 27900 27903 27906 27909 27912 27915 27918 27921 27923 27926 27929 27932 27935 27938 27941 27944 27947 27950 27953 27955 27958 27961 27964 27967 27970 27973 27976 27979 27982 27985 27988 27991 27994 27997 28000 28003 28006 28009 28012 28015 28018 28021 28024 28026 28029 28032 28035 28037 28040 28043 28046 28049 28052 28055 28058 28061 28063 28065 28068 28071 28074 28077 28080 28083 28086 28088 28091 28094 28097 28100 28103 28106 28109 28112 28115 28118 28121 28124 28127 28130 28133 28136 28139 28142 28145 28148 28151 28154 28157 28160 28163 28166 28169 28172 28175 28178 28181 28183 28186 28189 28192 28195 28198 28201 28203 28206 28209 28212 28215 28218 28221 28224 28227 28230 28233 28236 28239 28242 28245 28248 28251 28254 28257 28260 28263 28266 28269 28271 28273 28276 28279 28281 28284 28287 28290 28293 28296 28299 28302 28305 28307 28310 28313 28316 28319 28322 28325 28328 28331 28334 28337 28340 28343 28345 28348 28351 28354 28357 28360 28363 28366 28369 28372 28375 28378 28381 28384 28386 28389 28392 28395 28397 28400 28403 28406 28409 28412 28415 28418 28421 28424 28426 28428 28431 28434 28437 28439 28441 28444 28447 28450 28453 28456 28459 28462 28464 28467 28470 28473 28476 28478 28481 28484 28486 28489 28492 28495 28498 28501 28504 28507 28510 28513 28516 28519 28522 28525 28528 28530 28533 28536 28539 28542 28545 28548 28551 28554 28557 28560 28563 28566 28569 28572 28575 28578 28581 28584 28587 28590 28593 28596 28599 28602 28605 28607 28610 28613 28615 28618 28621 28624 28627 28630 28633 28636 28639 28642 28644 28647 28649 28652 28655 28658 28661 28664 28667 28670 28673 28676 28679 28682 28685 28688 28690 28692 28695 28698 28701 28704 28707 28709 28712 28715 28718 28721 28724 28727 28730 28733 28736 28738 28740 28743 28746 28749 28752 28755 28757 28759 28762 28764 28767 28770 28773 28776 28779 28782 28785 28788 28791 28794 28797 28800 28803 28806 28808 28811 28814 28817 28820 28823 28825 28828 28831 28834 28837 28840 28842 28845 28848 28851 28853 28856 28859 28862 28865 28868 28871 28873 28876 28879 28882 28885 28888 28891 28894 28896 28899 28902 28905 28908 28910 28912 28915 28918 28921 28924 28926 28928 28931 28934 28937 28939 28942 28945 28948 28951 28954 28957 28960 28963 28965 28968 28971 28974 28977 28980 28983 28986 28989 28992 28995 28998 29001 29004 29007 29010 29013 29016 29019 29022 29025 29028 29031 29033 29036 29039 29042 29045 29047 29050 29053 29055 29058 29061 29064 29067 29069 29072 29075 29078 29081 29084 29087 29089 29092 29095 29098 29101 29104 29107 29110 29113 29116 29119 29122 29125 29127 29130 29133 29136 29139 29142 29145 29148 29151 29154 29157 29160 29163 29166 29169 29172 29175 29178 29180 29183 29186 29189 29192 29194 29197 29200 29203 29206 29209 29212 29215 29218 29221 29224 29227 29230 29233 29236 29239 29242 29245 29248 29251 29253 29256 29258 29261 29264 29267 29270 29273 29275 29278 29281 29284 29286 29289 29292 29295 29298 29301 29304 29307 29310 29313 29316 29319 29322 29325 29328 29331 29334 29337 29340 29343 29346 29349 29351 29354 29357 29360 29363 29366 29369 29372 29375 29378 29380 29382 29385 29387 29390 29393 29395 29398 29401 29404 29407 29410 29413 29416 29419 29422 29425 29428 29431 29434 29437 29440 29443 29446 29449 29452 29455 29458 29460 29463 29466 29469 29472 29475 29477 29480 29483 29486 29488 29491 29494 29497 29500 29503 29506 29509 29512 29515 29517 29520 29523 29526 29529 29531 29533 29535 29538 29541 29544 29547 29550 29553 29556 29559 29562 29565 29568 29571 29574 29577 29580 29583 29586 29588 29591 29594 29596 29599 29602 29605 29608 29611 29614 29617 29620 29622 29625 29628 29630 29633 29636 29639 29642 29645 29648 29651 29654 29657 29660 29663 29666 29669 29672 29675 29678 29681 29684 29687 29690 29693 29696 29699 29702 29705 29707 29710 29712 29715 29718 29721 29724 29726 29729 29732 29734 29737 29740 29743 29746 29749 29752 29755 29757 29760 29763 29766 29768 29771 29774 29777 29780 29783 29786 29789 29792 29795 29798 29800 29803 29806 29809 29812 29815 29818 29821 29824 29827 29830 29833 29836 29839 29842 29845 29848 29851 29854 29857 29860 29863 29866 29869 29872 29875 29878 29881 29884 29887 29890 29893 29896 29899 29902 29905 29908 29911 29914 29917 29920 29923 29926 29929 29932 29935 29938 29941 29944 29947 29950 29953 29956 29959 29962 29965 29968 29971 29974 29977 29980 29983 29986 29989 29992 29995 29998 30001 30004 30007 30010 30013 30016 30019 30022 30025 30028 30031 30034 30036 30039 30041 30044 30047 30050 30053 30055 30058 30061 30064 30067 30070 30073 30076 30079 30082 30085 30088 30091 30094 30097 30100 30103 30106 30109 30112 30115 30118 30121 30124 30127 30130 30133 30136 30139 30142 30145 30148 30151 30154 30156 30159 30162 30165 30168 30171 30174 30177 30179 30182 30185 30188 30190 30193 30196 30199 30202 30205 30208 30211 30214 30216 
</DataArray>
<DataArray type="UInt32" Name="types" format="ascii">
5 5 3 5 5 5 5 5 5 5 5 5 5 5 5 5 3 5 5 5 3 5 3 3 3 5 5 5 5 3 3 5 5 5 3 5 5 5 3 5 5 5 5 3 5 5 5 3 3 5 5 5 5 5 5 5 5 5 5 3 5 5 5 3 5 5 5 5 5 5 5 5 3 5 5 5 5 3 5 5 5 5 5 5 5 5 5 5 5 3 5 5 5 5 3 5 5 3 5 3 5 5 5 3 5 5 5 3 5 5 5 5 5 5 5 5 5 5 5 5 5 5 5 5 5 5 5 5 5 5 5 3 5 5 5 5 5 5 5 5 5 5 5 5 3 5 5 5 5 3 5 5 5 3 5 5 5 5 5 5 5 5 3 5 3 5 5 5 5 5 5 5 3 5 5 5 5 3 5 5 5 5 5 5 5 3 5 5 5 5 5 5 5 5 5 5 3 5 5 5 5 3 5 5 5 3 5 5 5 5 5 5 5 5 5 5 5 5 5 5 5 5 5 3 5 3 5 5 5 5 5 5 5 5 5 5 5 5 5 3 5 5 5 3 5 5 5 5 5 5 5 5 5 3 5 5 5 5 5 5 5 5 3 5 5 5 5 5 5 3 5 5 3 5 5 5 5 5 3 5 5 5 5 5 3 5 5 5 5 5 5 5 5 5 5 5 5 5 5 5 5 5 5 5 5 5 5 3 5 5 5 5 5 3 5 5 5 5 5 5 5 5 5 5 5 5 5 3 5 5 3 5 5 5 3 5 5 3 5 5 3 5 5 5 5 3 5 5 5 5 5 5 5 5 5 5 5 5 5 5 5 5 5 5 3 5 5 5 5 5 5 5 5 5 5 5 5 3 5 5 5 5 5 5 3 5 5 5 5 5 5 5 3 5 5 5 5 5 5 5 3 5 3 5 5 5 5 5 5 3 5 5 5 5 5 5 3 5 5 5 5 5 5 5 5 5 3 5 5 5 3 5 5 5 5 3 5 3 5 5 5 5 5 5 5 5 5 5 5 5 5 5 3 5 3 5 3 5 5 5 5 3 5 3 5 5 5 5 5 5 5 5 5 5 5 5 3 5 5 3 5 5 5 5 5 5 5 5 5 5 5 5 5 5 5 5 3 5 5 5 5 5 5 5 5 5 5 5 5 5 5 5 5 5 5 5 5 5 5 5 3 5 5 5 5 3 5 5 3 5 5 5 3 5 5 5 5 5 5 5 5 5 5 5 5 3 5 5 3 5 5 5 5 5 5 5 5 5 5 3 5 5 5 5 5 5 5 5 5 3 5 5 5 5 5 5 5 5 5 5 5 5 5 5 3 5 5 3 5 5 5 3 5 5 3 5 5 5 5 5 5 5 5 5 5 5 5 5 5 5 5 5 5 5 5 5 3 3 5 5 3 5 5 5 3 5 5 5 5 5 5 5 5 5 5 5 5 5 5 5 5 5 5 3 5 5 3 5 5 5 3 5 5 5 5 5 5 5 5 5 5 5 5 5 5 5 5 5 5 5 5 5 5 5 5 5 5 5 5 5 5 5 5 5 5 5 5 5 3 5 5 5 5 5 5 3 5 5 5 5 5 5 3 5 5 5 5 5 5 3 5 5 5 5 5 3 5 5 5 5 5 3 5 5 5 5 5 5 3 5 5 5 5 5 5 3 5 5 3 5 5 5 5 5 3 5 5 3 5 5 5 5 5 5 5 5 3 5 5 5 3 5 5 3 5 5 5 5 3 5 5 5 5 5 3 5 5 3 5 3 3 5 5 5 5 3 3 5 5 3 5 5 5 5 5 3 5 5 5 5 5 5 3 5 5 5 5 5 5 5 5 5 5 5 5 3 5 5 3 5 3 5 5 3 5 5 5 5 5 5 3 5 3 5 5 5 3 5 3 3 5 5 3 5 5 3 5 5 5 5 5 5 5 5 5 5 5 5 5 5 5 5 5 5 5 5 5 5 5 5 5 5 5 5 5 5 5 5 5 5 5 5 5 5 5 5 5 5 5 5 5 5 5 5 5 5 5 5 5 5 5 5 5 5 5 5 5 5 5 5 5 5 5 5 5 5 5 5 5 5 5 5 5 5 5 5 5 5 5 5 5 5 5 5 3 5 3 5 5 5 5 5 5 5 5 5 5 5 5 5 5 3 5 5 3 5 3 5 3 3 5 5 5 5 5 5 5 5 5 5 5 5 5 5 5 5 5 5 5 3 5 5 3 5 5 5 5 5 5 5 3 5 5 5 5 5 5 5 5 3 5 5 5 5 5 5 5 5 5 5 3 5 5 5 5 5 5 5 5 5 5 5 5 5 5 5 5 5 5 5 5 5 5 5 5 5 5 5 5 5 5 5 5 5 5 5 5 5 3 5 5 5 5 5 5 5 5 5 5 3 5 5 5 5 5 3 5 5 5 5 5 5 5 5 5 5 5 5 5 5 5 5 5 5 5 5 5 3 5 5 5 5 5 5 5 5 5 5 5 5 3 5 3 5 5 5 5 3 5 5 5 5 5 5 5 5 5 5 5 5 5 5 5 5 5 5 5 5 5 5 3 5 5 3 5 5 5 5 5 5 3 5 5 5 5 5 3 5 5 5 3 5 5 3 3 5 5 5 5 5 5 5 3 5 5 5 5 5 5 5 5 5 5 5 5 3 5 3 5 5 5 5 5 5 5 5 5 5 3 5 5 5 3 5 5 5 5 5 3 5 5 3 3 5 5 5 3 5 3 5 3 5 5 5 5 5 5 5 5 5 5 5 5 5 5 5 5 3 5 5 5 5 5 5 5 5 5 5 5 5 5 5 5 5 5 5 5 5 5 5 5 5 5 3 5 5 3 5 5 5 5 5 5 5 5 5 5 5 5 5 5 5 5 5 5 5 5 5 5 5 5 5 5 5 5 5 5 5 5 5 5 5 5 5 5 5 5 5 5 5 5 5 3 5 3 5 5 5 5 5 5 5 5 5 3 5 3 5 5 5 5 5 5 3 3 5 5 5 5 5 5 5 5 5 3 5 5 5 5 5 3 3 5 5 3 5 5 3 5 5 5 3 5 5 5 5 3 5 3 5 5 5 3 5 5 5 5 5 5 5 5 5 5 3 5 5 5 5 5 5 5 5 5 5 3 5 5 5 5 3 5 3 5 5 5 3 3 5 5 5 5 5 5 5 5 5 5 5 5 5 3 5 5 5 5 5 3 5 5 5 5 3 5 5 5 3 5 5 5 5 5 5 5 5 5 5 3 5 5 5 5 5 5 5 5 3 5 5 3 5 5 5 5 5 5 5 5 5 5 5 5 3 5 5 5 5 3 3 5 5 3 5 5 5 5 5 5 5 5 5 5 5 5 5 5 3 5 5 5 5 5 3 5 5 5 5 5 5 5 3 5 5 5 5 5 5 5 5 5 5 5 5 3 5 5 5 5 3 5 5 5 5 5 5 5 5 5 3 5 5 5 3 5 5 3 5 5 5 5 5 5 5 5 3 5 5 3 5 5 5 5 5 5 5 5 5 5 5 5 5 3 5 3 5 5 5 5 5 5 5 5 5 5 5 3 3 5 5 5 5 5 5 5 3 5 5 5 3 5 5 5 3 5 5 5 3 5 5 3 3 5 5 3 5 5 5 3 3 5 5 5 5 5 5 5 5 5 3 5 5 5 5 5 5 5 5 5 5 5 3 5 5 5 5 5 5 5 5 5 5 5 5 3 5 5 5 5 5 5 5 5 5 3 5 5 5 3 5 5 5 5 5 5 5 3 5 5 5 5 5 3 5 5 3 5 5 5 5 5 5 5 5 5 5 5 5 5 5 5 5 5 5 5 5 5 5 5 5 5 3 5 5 5 3 5 5 5 5 3 5 5 5 5 5 5 5 5 5 3 5 5 5 5 5 5 5 5 5 5 5 5 5 5 5 5 5 5 5 5 5 5 5 5 3 5 3 5 5 5 5 5 5 5 5 5 5 5 5 5 3 5 5 5 5 3 5 5 5 5 5 5 5 5 5 5 5 5 5 5 3 5 5 5 5 5 5 5 5 5 5 5 5 5 3 5 3 5 5 5 5 5 5 5 5 3 5 5 5 5 5 5 5 5 5 5 5 3 5 5 5 5 5 5 5 3 5 5 5 5 5 5 5 5 5 5 5 5 5 5 5 5 5 5 5 5 5 5 5 5 5 5 5 5 5 5 5 5 5 5 5 5 5 5 5 5 5 3 5 5 5 3 5 5 5 5 5 5 5 5 5 5 5 3 5 5 5 5 5 5 5 5 5 5 3 5 3 5 5 3 5 5 5 3 5 5 5 5 5 5 5 5 5 5 5 5 5 5 5 5 5 5 5 5 5 5 5 5 5 5 5 5 5 5 5 5 5 5 5 5 5 5 5 5 5 5 5 5 5 5 5 5 5 5 5 5 5 5 5 5 5 5 5 5 5 5 5 5 5 5 5 5 5 5 5 5 5 5 5 5 5 5 5 5 5 3 5 3 5 5 5 3 5 5 5 5 5 5 5 5 5 5 5 5 5 5 5 5 5 5 3 5 5 5 5 5 5 5 5 5 5 5 5 5 3 5 5 3 5 5 5 5 5 5 5 5 5 5 3 3 5 3 3 5 5 5 3 3 3 5 3 5 5 5 5 5 5 5 5 5 5 5 5 5 5 5 3 5 5 5 5 5 5 5 5 5 5 5 5 5 5 5 3 5 5 5 5 5 5 5 5 5 5 5 5 5 5 5 5 5 5 5 5 5 3 5 5 5 3 5 5 5 5 5 3 5 5 5 5 5 5 5 5 5 3 5 5 5 5 5 5 5 5 5 5 5 5 5 5 3 5 5 5 5 5 5 5 5 5 5 5 5 5 5 5 5 5 5 5 5 5 5 5 5 5 5 5 5 5 5 5 5 3 5 3 5 5 3 5 3 5 3 5 5 5 5 5 5 3 5 5 3 5 5 5 5 5 5 5 5 5 3 5 5 5 5 5 5 5 5 5 5 5 5 3 5 5 5 5 5 5 5 5 5 5 5 5 5 5 5 5 5 5 5 5 5 5 5 5 5 5 5 5 5 5 5 5 5 5 5 5 5 5 5 5 5 5 5 5 5 3 5 5 5 3 3 5 3 5 5 5 5 5 5 5 5 5 5 5 5 3 5 5 5 3 5 5 5 5 5 5 3 5 5 5 3 5 5 3 3 5 5 5 5 3 5 5 5 5 5 5 5 5 5 5 5 5 5 5 5 5 5 5 5 5 5 5 5 5 5 5 5 5 5 5 5 5 5 5 5 5 5 5 5 5 5 3 5 5 3 5 5 3 3 5 5 3 5 5 5 5 5 5 5 3 3 5 5 5 5 5 5 5 5 5 3 5 5 5 5 5 5 3 5 5 5 5 5 5 5 5 5 5 3 5 5 5 3 5 5 5 5 5 5 5 5 5 5 5 3 5 3 5 3 5 5 3 5 5 5 3 5 5 5 5 3 5 5 5 5 5 5 3 5 5 3 5 5 5 5 5 5 5 3 5 5 5 5 3 5 5 5 5 5 3 5 5 5 5 5 5 5 5 5 5 5 5 5 5 5 5 5 5 5 5 5 5 5 5 5 5 5 3 5 5 5 5 5 5 5 5 5 5 5 5 5 5 3 5 5 5 3 3 5 5 5 5 5 5 5 5 5 5 5 5 5 5 5 5 5 5 5 5 5 5 3 5 3 5 5 3 3 5 5 5 5 5 5 5 3 3 3 5 5 5 3 5 5 5 5 5 5 3 5 5 5 5 5 5 3 5 5 5 5 5 5 3 5 5 5 5 5 3 5 5 5 5 5 3 5 5 5 5 3 5 5 5 5 3 5 5 5 5 3 3 5 5 5 3 5 5 5 5 3 5 5 5 5 3 5 5 5 3 5 5 3 5 5 5 5 5 5 5 5 5 3 3 5 5 5 5 3 5 5 5 3 5 5 5 5 3 5 5 5 5 5 5 5 5 5 5 5 5 5 5 5 5 5 5 5 5 5 5 5 5 5 5 5 5 5 5 5 5 5 5 5 5 5 5 5 5 5 3 5 5 5 5 5 3 5 5 5 5 5 5 5 5 5 3 5 5 5 5 5 5 5 5 3 5 5 5 5 5 5 5 3 5 5 5 3 5 3 5 5 3 5 5 5 5 5 5 5 3 5 5 5 5 3 5 5 5 5 5 5 5 5 5 5 5 5 5 5 5 5 3 5 5 3 5 5 5 3 5 5 5 5 5 5 5 5 5 3 5 5 5 5 5 3 5 3 5 5 5 5 5 5 3 3 5 5 5 5 3 5 3 5 5 5 3 5 5 5 5 5 5 5 3 5 3 5 5 5 5 5 5 5 5 5 5 5 5 5 5 5 5 3 5 5 3 5 5 5 5 3 5 5 5 5 5 5 5 5 5 5 5 5 5 5 5 5 5 5 3 5 3 5 5 5 5 3 5 5 5 5 5 5 5 5 3 5 5 5 5 5 5 5 5 3 5 5 5 5 3 5 3 5 5 5 5 5 5 5 5 5 5 5 5 3 5 5 5 5 5 5 5 5 5 5 5 5 3 3 5 3 5 5 3 5 3 5 5 5 5 5 5 3 5 5 5 5 5 3 5 5 5 5 3 5 5 5 5 5 5 5 5 5 5 5 5 5 5 5 5 5 5 5 5 5 3 5 5 5 5 5 5 5 3 3 3 5 5 5 3 5 5 5 5 5 5 5 3 5 5 5 5 5 5 3 5 3 5 5 5 5 3 5 5 5 5 5 5 5 5 5 5 5 5 5 5 5 5 5 5 5 3 5 5 5 5 5 3 5 5 3 5 5 5 3 3 3 3 5 3 5 3 3 3 5 5 3 5 5 5 5 5 5 3 5 5 5 5 5 5 5 5 5 5 3 5 5 5 3 5 5 5 5 5 5 3 5 5 5 5 5 5 5 5 5 5 5 5 5 5 5 5 5 5 5 5 5 3 5 3 5 5 5 5 3 5 5 5 5 5 5 5 5 5 5 5 5 5 5 5 5 5 5 3 5 5 5 5 3 5 5 3 3 5 5 5 5 5 5 5 5 5 5 3 5 5 5 3 5 5 5 5 5 5 5 5 5 5 5 5 3 5 5 5 5 5 5 5 5 5 5 3 5 5 5 5 5 5 5 5 5 3 3 5 5 5 5 5 5 5 5 5 5 5 5 5 5 5 5 5 5 5 5 5 5 5 5 5 5 5 5 5 5 5 5 5 5 5 5 5 5 5 5 5 5 5 5 5 3 5 5 5 5 3 5 5 5 5 5 5 5 5 5 5 5 5 5 5 5 3 5 5 5 5 5 5 5 3 5 5 3 5 5 5 3 5 5 3 5 5 5 5 5 5 3 5 3 5 5 5 3 5 5 5 5 5 5 3 5 5 5 5 5 3 5 5 5 3 5 5 5 5 5 3 3 5 5 5 5 5 5 3 5 5 5 5 5 5 3 5 5 5 5 3 5 5 5 5 5 5 5 5 5 5 5 5 5 5 5 5 5 5 5 5 5 5 5 5 5 5 5 5 5 3 5 3 3 3 5 5 5 3 5 3 5 5 5 5 5 5 5 5 3 5 5 5 5 5 5 5 5 5 5 5 5 5 3 5 5 5 5 5 5 5 5 5 5 5 3 3 5 5 5 5 3 3 5 5 5 5 5 5 5 5 5 5 5 5 5 3 5 3 5 5 5 5 5 5 3 3 5 3 5 5 3 5 3 5 5 3 5 5 5 5 5 5 5 5 5 5 5 3 5 3 5 5 5 3 5 3 5 3 5 5 5 5 3 5 5 3 3 5 5 3 5 5 5 3 3 5 3 5 5 3 5 5 5 5 5 3 5 3 5 5 3 3 5 5 5 3 5 5 5 5 5 5 5 5 5 3 5 5 3 3 5 5 5 5 5 5 5 5 3 5 5 5 5 5 5 3 5 5 5 5 5 5 3 5 5 5 5 5 5 5 5 5 5 5 5 5 5 5 5 5 5 3 5 5 5 5 3 3 5 5 5 5 5 3 5 3 5 3 5 5 5 5 3 5 3 5 3 3 5 5 5 5 5 5 5 5 5 5 5 5 5 3 5 5 5 5 3 5 5 5 5 5 5 5 5 5 5 5 5 5 5 5 3 5 3 5 5 5 3 3 5 5 5 5 3 5 5 5 3 5 5 5 5 5 5 3 5 3 5 5 5 5 5 3 5 5 5 5 3 5 5 5 5 5 3 5 5 5 5 5 3 5 3 5 5 5 5 3 3 5 3 5 3 3 5 3 5 5 5 5 5 5 5 5 3 5 5 5 5 5 5 3 3 5 5 3 5 3 5 5 5 5 5 5 5 5 5 5 5 5 5 5 5 5 5 5 5 5 5 5 5 5 5 5 5 5 5 5 5 5 5 3 5 5 5 5 5 5 3 5 5 5 5 5 5 5 5 5 5 5 5 5 5 3 5 5 5 5 5 3 5 3 5 5 5 5 5 5 5 3 5 3 5 5 5 3 5 5 5 5 5 5 5 3 5 5 3 5 5 5 5 5 5 3 5 5 3 5 5 5 3 5 5 3 5 3 3 5 5 3 3 5 5 5 5 5 3 5 5 5 5 5 5 5 3 5 5 3 5 5 3 5 3 5 5 5 5 5 5 5 5 5 5 5 5 5 5 5 5 5 5 5 5 3 5 5 5 5 5 5 5 5 5 5 5 5 5 5 5 5 5 3 5 5 5 5 3 5 5 5 5 5 5 5 5 5 5 5 3 5 3 5 5 5 5 5 3 5 3 5 5 5 3 5 5 5 5 5 5 5 5 5 5 5 5 3 5 5 5 3 5 5 5 5 5 3 5 5 5 5 5 5 5 5 5 5 5 5 5 5 5 5 5 5 3 5 5 3 3 5 5 5 5 5 5 3 5 5 5 3 5 5 5 5 5 5 5 5 3 5 5 3 5 5 5 5 5 5 5 5 5 3 5 5 5 5 5 5 5 5 5 5 5 5 5 5 5 3 5 5 5 5 5 3 5 3 5 5 5 5 5 5 5 5 5 5 5 5 5 5 5 5 3 5 5 5 5 5 5 5 5 5 5 5 5 5 5 5 5 5 3 5 5 5 5 5 5 5 5 5 5 5 3 5 5 5 5 5 5 5 5 5 5 5 5 5 3 5 5 5 3 5 5 5 5 5 5 5 5 5 5 5 5 5 5 5 5 5 5 5 5 5 5 5 5 5 5 3 5 5 3 5 5 5 5 5 5 5 5 5 5 5 5 5 3 5 5 5 5 5 5 5 5 5 5 5 5 5 5 5 5 5 5 5 3 5 5 5 5 3 5 5 5 3 5 5 3 5 5 5 5 5 5 5 5 5 3 5 5 5 5 5 5 3 5 5 5 5 3 5 5 5 3 5 3 3 5 5 5 5 5 5 5 5 5 5 5 5 5 3 5 5 5 5 5 5 3 3 5 5 3 5 5 3 3 5 3 5 5 5 5 3 3 5 5 3 5 5 5 5 5 5 5 3 5 5 3 5 5 5 3 5 5 5 5 5 5 5 5 5 5 3 5 5 5 5 5 5 3 5 5 5 5 5 5 5 5 5 5 5 5 5 5 3 5 5 5 3 5 5 5 5 5 5 5 5 5 3 5 5 3 5 5 3 5 3 5 3 3 5 5 5 5 5 5 5 5 5 5 5 5 5 5 5 5 5 5 5 5 5 5 5 5 5 5 5 5 5 5 5 5 5 5 5 3 5 5 5 5 5 5 5 5 5 5 5 5 5 5 5 5 5 5 5 5 5 5 5 5 5 5 5 5 5 5 5 5 5 5 5 5 5 5 3 5 5 5 5 5 5 5 3 5 5 3 5 5 3 5 5 5 5 5 5 5 5 5 5 5 5 5 5 5 5 5 5 5 5 5 5 5 5 5 5 5 5 5 5 5 5 5 3 5 5 5 5 5 5 3 5 5 3 5 5 5 5 5 5 5 5 5 5 5 5 5 5 5 5 5 3 5 5 5 5 3 5 5 5 3 5 5 5 5 3 5 5 5 5 5 5 5 5 5 5 5 5 5 5 5 5 3 5 3 5 5 5 5 5 5 3 5 5 3 5 5 5 5 5 3 5 5 5 5 5 5 5 5 5 5 5 5 3 5 5 5 5 5 5 5 5 5 5 3 5 5 5 5 5 5 5 5 5 5 5 5 5 5 5 5 3 5 5 3 5 5 5 3 5 5 5 5 3 5 5 5 5 5 5 5 5 5 5 5 5 3 5 5 3 5 3 5 5 5 5 3 5 5 5 5 3 3 5 5 3 5 5 5 3 5 3 5 5 3 5 5 5 5 3 5 3 5 5 3 5 5 5 5 5 5 5 5 5 5 5 3 5 5 5 5 5 3 5 5 3 5 5 5 3 5 5 5 5 5 5 5 3 5 5 3 3 5 5 5 5 5 5 5 5 3 5 5 5 5 5 5 5 5 3 5 5 5 5 5 5 5 5 5 5 5 5 5 5 5 5 5 5 5 5 5 5 5 5 5 5 5 5 5 5 5 5 5 5 5 5 5 5 5 5 5 5 5 5 5 5 5 5 5 5 5 5 5 5 5 5 5 5 5 5 5 5 5 5 3 3 5 5 5 5 5 3 5 5 5 5 5 5 3 3 5 5 5 5 5 5 3 5 3 5 5 5 5 5 5 5 5 5 5 3 5 5 5 3 5 5 5 5 5 5 5 5 5 5 5 5 5 3 3 5 5 5 5 3 3 5 5 5 5 5 5 5 5 5 5 5 5 3 5 5 5 5 5 5 5 5 5 3 5 5 5 3 5 5 3 3 5 5 5 5 5 3 5 5 5 5 5 5 5 5 5 5 5 5 5 5 5 5 5 5 5 5 5 5 3 5 5 5 5 5 5 5 3 5 5 5 5 5 5 5 5 5 5 5 5 5 5 5 5 5 5 5 5 5 5 5 5 5 5 5 3 5 5 5 5 5 5 5 5 3 5 5 5 5 5 5 5 5 5 5 5 5 5 5 5 5 5 5 5 5 5 5 5 5 5 5 3 5 5 3 3 5 5 5 5 5 5 5 3 5 5 5 3 5 5 5 5 3 5 5 5 5 5 5 5 5 5 5 5 5 5 5 5 5 5 5 5 5 5 3 5 5 3 5 5 5 5 5 5 5 5 3 3 5 5 3 5 5 5 5 5 3 5 5 3 5 5 5 5 3 5 5 5 5 5 5 5 5 5 5 5 5 5 5 5 3 5 5 5 5 5 3 5 5 5 3 5 5 5 5 3 3 5 3 5 5 5 5 3 5 5 3 5 5 5 5 3 5 5 5 5 5 5 5 5 5 3 5 5 3 5 5 5 5 3 5 3 5 5 5 5 5 3 5 5 5 5 5 5 5 5 5 5 5 5 5 5 5 5 5 5 5 5 5 5 5 5 5 5 5 5 5 5 3 5 5 5 5 5 5 5 5 5 5 5 5 3 5 5 5 5 5 5 5 5 5 5 3 5 5 5 5 3 5 5 5 5 5 5 5 5 3 5 5 3 5 5 5 3 5 5 5 3 5 3 5 5 5 5 5 5 3 5 5 5 5 5 5 5 5 5 5 5 5 5 5 5 5 5 5 5 5 5 5 5 5 5 5 5 5 5 5 5 3 5 5 5 5 5 3 5 5 3 5 5 5 5 5 5 5 3 5 5 5 3 5 5 5 5 3 5 5 5 5 5 5 5 5 5 5 5 3 3 5 3 5 5 3 3 5 5 5 5 5 5 5 5 3 5 5 5 5 5 5 5 5 5 5 5 5 5 5 5 5 3 5 5 5 5 5 5 3 5 5 5 5 5 3 5 3 3 5 5 5 3 5 5 5 5 5 5 5 5 5 5 5 5 5 3 5 5 5 3 5 3 5 5 5 5 5 5 5 5 5 5 5 5 5 5 5 5 5 5 5 5 5 5 5 5 3 5 5 3 5 5 5 3 3 5 5 5 5 5 5 3 5 3 5 5 5 5 5 5 3 5 5 3 5 5 5 5 5 5 5 5 5 5 5 3 5 5 3 5 5 3 5 5 5 5 5 3 5 5 5 3 5 5 5 5 5 5 5 5 5 5 5 5 5 5 5 5 3 3 5 5 5 5 5 5 3 3 5 5 5 5 5 5 5 5 5 5 5 5 5 5 5 5 3 5 5 5 5 5 5 5 5 5 5 5 5 5 3 5 5 5 5 5 5 3 5 5 5 5 5 3 5 5 5 5 5 5 5 5 5 5 5 5 5 5 5 5 5 5 5 5 5 3 5 5 3 5 5 3 5 5 5 5 3 5 5 5 5 5 5 5 5 5 5 5 5 5 5 5 5 5 5 5 3 5 3 5 5 5 5 5 5 3 5 5 5 5 5 5 3 5 5 3 5 5 5 5 5 5 5 5 5 5 5 5 5 5 5 5 5 5 5 5 5 5 3 5 5 3 5 5 3 5 5 5 5 5 5 5 3 5 5 5 5 3 5 5 5 3 5 5 5 5 5 5 5 5 5 5 5 5 5 5 5 5 5 5 5 5 5 5 5 5 5 5 5 5 5 5 3 5 5 3 5 5 5 5 5 5 5 5 5 3 5 5 5 3 5 5 3 3 5 5 5 5 5 5 5 5 5 5 5 5 5 5 5 5 5 5 5 5 5 5 3 5 5 5 5 5 5 5 5 5 5 5 5 5 5 5 3 5 5 5 3 5 3 3 5 3 5 3 3 5 5 5 5 5 5 5 3 5 5 5 5 5 5 3 5 5 5 5 5 3 5 5 5 5 5 5 5 5 5 5 5 5 5 5 5 5 3 3 5 5 3 5 5 5 5 5 5 5 5 3 5 5 3 5 3 5 5 5 5 5 3 5 5 5 5 5 5 5 5 5 3 5 5 5 5 5 5 5 5 5 5 3 5 5 5 5 5 5 5 5 5 5 5 5 5 5 5 5 5 5 5 5 5 5 5 5 5 5 5 5 5 5 5 5 5 5 5 5 5 3 5 5 3 5 5 5 5 5 5 5 5 3 5 5 5 5 5 5 5 5 5 5 5 5 5 5 5 5 5 5 5 5 5 3 5 5 3 5 5 3 5 5 5 5 5 5 5 5 5 5 5 5 5 5 5 5 5 5 5 5 5 5 5 5 5 5 3 5 5 3 5 5 3 5 5 5 5 3 5 5 5 5 3 5 5 5 5 5 5 5 5 5 5 5 5 5 5 5 3 5 5 5 5 3 5 5 3 5 5 3 5 3 5 5 5 5 5 5 5 5 5 5 3 5 5 5 5 5 5 5 5 5 5 5 5 5 5 5 3 5 5 5 5 5 5 5 5 5 5 5 3 5 5 5 5 3 5 5 3 5 5 5 5 5 5 3 5 5 3 3 5 5 5 5 5 5 5 5 5 5 5 5 3 5 5 5 5 5 5 5 5 5 5 5 5 5 5 5 3 5 5 5 5 5 3 5 5 3 5 5 5 5 5 5 5 5 5 5 5 5 5 5 5 5 5 3 5 5 3 5 5 5 3 5 5 5 5 3 5 5 5 5 5 5 5 5 5 5 5 5 5 5 5 5 5 5 5 5 5 5 5 3 5 5 5 5 5 5 5 5 3 5 5 5 5 3 5 5 3 5 3 5 5 5 5 5 5 5 5 5 5 5 5 5 5 5 5 5 5 5 5 5 5 5 3 5 5 5 5 5 5 3 5 5 5 3 5 5 5 5 5 5 5 5 5 5 5 5 5 3 5 5 5 5 5 3 5 5 5 5 3 5 5 3 5 5 3 5 5 5 3 5 5 5 5 5 5 5 5 5 5 5 5 3 5 5 5 5 5 5 5 3 5 3 5 5 5 5 5 5 5 5 5 5 5 5 5 5 5 5 5 5 5 5 5 5 5 5 5 5 5 5 5 5 5 5 5 5 5 5 3 5 5 5 5 5 5 5 5 5 5 5 5 5 5 5 5 5 5 5 5 5 5 5 5 5 5 5 5 5 5 5 5 5 3 5 5 5 5 3 5 3 5 5 5 3 5 5 5 5 3 5 5 5 5 5 5 5 5 5 5 5 5 5 5 3 5 5 5 5 3 5 5 3 5 5 5 3 5 5 5 5 5 5 5 5 5 5 5 5 5 5 3 5 3 5 5 5 5 5 5 5 5 5 3 3 5 3 3 5 5 5 5 5 3 5 5 5 5 3 5 5 5 5 5 5 5 3 5 5 3 5 3 5 5 5 5 5 5 5 5 5 5 5 5 5 5 5 5 5 5 5 5 5 5 5 5 5 5 5 5 5 5 5 5 5 5 5 5 3 5 3 3 3 5 5 5 3 5 3 5 5 5 5 5 5 5 5 3 5 5 3 5 5 5 5 5 5 5 5 5 5 3 5 5 3 5 5 5 3 5 5 5 5 5 5 5 5 5 5 3 5 5 5 5 3 5 5 5 5 5 5 3 3 5 5 5 5 3 5 5 3 3 5 5 5 5 5 5 5 5 5 5 3 5 5 3 5 3 5 3 5 5 5 5 5 5 3 5 5 5 5 5 5 5 5 5 5 5 5 5 5 5 5 5 5 5 5 5 5 5 3 5 5 5 5 3 5 5 5 5 5 3 5 5 5 5 5 5 5 5 5 5 5 5 5 5 5 5 5 5 5 5 5 5 5 3 5 5 3 5 5 5 3 3 5 5 3 5 5 3 5 5 5 5 5 5 5 5 5 5 5 3 5 5 5 5 3 5 3 5 5 5 5 5 5 5 5 3 3 3 5 5 5 5 5 5 5 5 3 5 5 5 3 5 5 5 5 3 5 5 5 3 5 5 5 5 5 5 5 5 5 5 5 5 5 3 5 5 5 5 5 5 3 5 5 3 5 5 5 5 3 5 5 5 5 5 5 5 5 5 3 5 5 5 3 5 3 5 5 5 5 3 5 5 5 3 5 5 5 5 5 5 5 5 5 5 5 5 5 5 5 5 5 5 5 5 5 5 5 5 5 5 5 5 5 5 5 5 5 5 5 5 5 5 3 5 5 5 5 5 5 5 3 5 5 3 5 5 3 5 3 5 5 5 5 5 5 5 5 5 3 5 5 5 5 5 3 5 5 5 5 5 5 5 5 3 5 3 3 5 5 5 5 5 5 3 5 5 5 5 3 5 5 5 3 5 5 5 5 5 3 5 5 5 5 5 5 5 5 5 5 5 5 3 5 5 5 5 5 5 5 5 5 5 5 5 5 5 3 5 5 5 3 5 5 5 5 5 5 5 5 5 5 5 5 3 5 5 5 5 3 5 5 5 3 5 5 5 5 5 5 3 5 3 5 5 5 5 5 5 5 5 5 5 5 5 5 5 5 5 5 5 5 5 5 5 5 5 5 5 5 5 5 5 5 3 5 5 5 3 5 5 5 3 5 5 5 5 5 5 5 3 5 5 5 5 5 5 5 5 5 5 5 5 5 3 5 3 5 5 5 3 5 5 5 5 5 5 5 3 3 5 3 5 3 5 5 5 5 3 5 5 3 5 3 5 5 5 5 5 5 5 5 3 3 5 5 3 5 3 5 5 5 5 5 5 3 5 5 5 5 5 5 3 5 5 5 5 5 5 5 3 5 5 5 5 3 5 5 5 3 3 5 5 5 5 5 5 5 5 3 5 3 5 5 5 5 3 5 5 5 3 5 3 5 3 5 5 3 5 5 3 5 5 5 5 5 5 5 5 5 5 5 5 5 5 5 5 5 5 5 5 5 5 5 3 5 3 5 3 5 5 5 5 3 3 5 5 5 5 5 5 5 5 3 3 5 5 5 5 5 5 5 5 5 5 5 3 5 5 3 5 5 5 5 5 5 5 5 5 5 5 5 5 5 5 5 5 5 5 3 5 5 5 5 5 5 5 5 5 5 5 5 5 5 5 5 5 5 5 5 5 3 5 5 5 5 3 5 5 3 5 5 3 5 5 5 5 5 5 3 3 5 5 5 5 5 5 5 5 5 5 5 5 5 5 5 5 3 5 5 3 5 5 5 3 3 5 5 5 5 3 5 5 5 5 5 3 5 5 5 5 5 5 5 5 5 5 5 5 5 5 5 5 5 5 5 5 5 5 5 5 5 3 5 5 5 5 3 3 5 5 5 5 5 5 5 5 5 5 5 5 5 5 5 5 5 5 5 5 5 5 5 5 3 5 5 3 5 5 5 5 5 5 5 5 5 5 5 5 5 5 5 5 3 5 5 3 5 5 5 5 5 5 3 5 5 5 5 3 5 5 5 3 5 5 3 5 5 5 5 5 3 5 3 3 5 5 5 5 5 5 5 5 5 5 5 3 5 5 5 3 5 3 5 5 5 5 3 5 5 5 5 5 5 5 5 5 5 5 3 3 5 5 3 5 5 3 5 3 5 5 5 5 3 5 5 5 5 5 5 5 5 5 3 5 5 5 5 5 5 3 5 5 3 5 5 3 5 3 5 5 5 3 5 5 5 5 5 5 5 5 5 5 5 5 5 5 5 5 5 3 5 5 3 5 5 5 5 5 5 5 5 5 5 5 3 5 3 5 5 3 5 5 5 3 5 5 3 3 3 3 5 5 5 3 3 5 5 5 5 5 5 3 5 5 5 5 5 5 5 5 3 5 5 5 5 5 5 5 5 5 5 3 5 3 5 3 5 3 5 3 5 5 5 3 5 5 5 5 5 5 3 5 5 5 5 5 3 5 5 5 5 5 5 3 5 5 5 5 5 5 3 5 5 5 3 3 5 5 3 5 3 5 5 5 5 5 5 3 5 5 5 5 5 5 5 5 5 5 5 5 5 5 5 5 5 5 5 5 5 5 5 5 5 5 5 5 5 5 5 5 5 5 5 5 3 5 5 5 5 5 5 5 5 5 5 5 5 5 5 5 5 5 5 5 5 5 5 5 5 5 5 5 5 5 5 5 5 5 5 5 5 5 5 5 5 5 5 5 5 5 5 3 5 5 5 5 5 5 5 5 5 5 5 5 5 5 5 5 5 5 5 5 5 5 5 5 5 5 5 5 5 5 5 5 5 5 5 5 5 5 5 5 5 5 5 5 5 5 5 5 5 5 5 5 5 5 5 5 5 5 5 5 5 5 5 5 5 5 5 5 5 5 5 5 5 5 5 5 5 5 5 5 5 5 5 5 5 5 5 5 5 5 5 5 5 5 5 5 5 5 5 5 5 5 5 5 5 5 5 5 5 5 5 5 5 5 5 5 5 5 5 5 5 5 5 5 5 5 5 5 3 5 5 5 5 5 5 5 5 5 5 5 5 5 5 5 5 5 5 5 5 5 5 5 5 5 5 5 5 5 5 5 5 3 5 5 5 5 5 5 5 5 5 3 5 5 5 5 5 5 5 3 5 5 5 5 5 5 3 5 5 3 5 5 5 5 5 5 5 5 5 5 5 3 5 5 5 5 5 5 5 5 3 5 5 5 3 3 5 3 5 5 5 5 5 3 5 3 5 5 3 5 5 5 5 5 5 5 5 5 5 5 5 5 5 5 5 5 5 5 5 5 3 5 5 5 5 3 3 5 5 5 5 5 5 5 5 5 3 5 5 5 5 5 5 5 5 5 5 5 5 5 5 5 5 5 5 5 3 5 5 5 5 3 5 5 5 3 3 5 3 5 5 5 5 5 5 5 5 3 5 5 5 5 5 5 5 5 5 5 5 5 5 5 5 5 5 5 5 5 5 3 5 5 5 3 5 3 5 5 3 5 5 5 5 5 5 5 5 5 5 5 5 5 5 5 3 5 5 5 5 5 5 5 3 5 5 5 5 5 5 5 5 5 5 5 5 5 3 5 5 5 5 5 5 3 5 5 5 5 3 5 5 5 3 5 5 5 5 5 5 5 5 5 5 3 5 5 3 5 5 3 3 5 3 5 5 3 5 5 5 5 5 5 5 5 5 5 5 5 5 3 5 5 5 5 5 5 5 5 5 3 5 5 5 5 3 5 5 5 5 5 5 5 5 5 5 3 5 5 5 3 5 5 5 5 5 5 3 5 5 5 5 5 5 5 5 5 5 5 5 3 5 5 5 5 5 5 3 5 5 5 5 5 5 5 5 5 5 5 3 5 5 5 5 5 3 3 5 5 5 5 5 5 5 3 3 5 5 3 5 5 3 5 5 5 5 3 5 5 3 5 5 5 5 5 5 5 5 5 5 5 5 3 5 5 3 5 5 3 5 3 5 3 5 5 5 5 5 5 5 5 5 3 5 5 5 5 3 5 5 3 5 5 3 5 5 5 5 5 3 5 5 5 5 5 3 3 5 3 5 5 5 5 3 3 3 5 5 5 5 5 5 3 3 5 3 5 5 5 5 5 5 3 5 5 5 5 3 5 3 5 5 5 5 3 5 3 5 5 5 5 3 5 5 5 5 5 5 5 5 5 5 5 5 5 5 3 5 5 5 5 5 5 5 5 5 3 5 5 5 5 5 5 5 5 5 5 3 5 5 5 5 5 5 5 5 3 3 5 5 5 5 3 5 5 5 3 5 5 3 5 5 5 5 3 5 5 5 5 5 5 5 5 5 5 5 3 5 5 5 5 3 5 5 3 5 5 5 5 5 5 5 5 5 5 5 5 3 5 5 5 5 5 5 5 5 5 3 5 5 5 5 5 5 3 5 5 3 5 5 3 5 5 5 5 5 5 5 5 5 5 3 5 5 5 5 5 5 5 5 5 5 5 5 5 5 5 5 5 5 5 5 3 5 5 5 5 5 5 5 3 5 5 5 5 5 3 5 3 5 5 5 5 5 5 5 5 5 5 5 5 5 5 5 5 5 5 3 3 5 5 5 5 3 5 3 5 3 5 5 3 5 3 5 5 5 3 5 5 5 5 5 5 5 5 5 5 5 5 5 5 5 5 5 5 5 5 5 5 5 3 5 5 5 5 5 3 5 3 5 5 5 5 5 5 5 5 3 5 5 5 5 5 5 3 5 5 5 3 5 5 5 5 5 5 5 3 5 3 5 5 3 5 5 5 5 5 5 5 5 5 5 3 5 5 5 5 5 5 5 5 3 5 5 5 5 5 3 5 5 5 5 5 5 5 3 3 3 5 5 3 5 5 5 5 5 5 5 5 5 5 5 5 5 3 5 5 5 5 5 5 3 5 5 5 5 5 5 5 5 5 5 5 5 3 5 5 5 5 5 5 3 5 5 5 3 3 5 5 5 5 5 3 5 3 3 5 3 5 5 5 5 3 5 5 5 3 3 5 3 3 5 5 5 5 5 5 5 5 5 5 5 5 5 5 5 3 5 5 5 5 3 5 5 5 5 3 5 3 5 3 3 3 5 5 3 3 5 5 5 5 5 5 5 5 3 5 5 5 5 5 5 5 5 5 5 5 5 5 5 5 5 5 5 5 3 5 5 3 5 5 3 5 5 3 5 5 5 5 3 5 5 5 5 3 5 3 5 5 5 5 5 5 5 5 5 5 5 5 5 5 5 5 5 5 5 5 5 3 5 5 5 3 3 5 5 5 5 5 5 5 5 5 3 5 5 5 3 5 5 5 5 5 5 3 5 5 5 5 5 5 5 5 5 5 3 5 3 5 5 3 5 5 5 3 5 5 5 5 5 5 5 5 3 5 5 5 5 5 3 5 5 3 5 5 5 5 5 5 3 5 5 3 5 5 5 5 3 5 5 3 5 5 5 5 5 5 5 5 3 3 5 5 5 5 3 5 3 5 5 5 5 5 5 5 5 5 5 5 5 5 5 5 5 5 3 5 5 3 5 5 5 5 5 5 3 5 5 3 5 5 5 5 5 3 5 5 5 3 5 5 3 5 5 5 3 5 5 5 3 3 5 5 5 5 5 5 5 5 3 3 3 5 5 5 3 5 3 3 5 5 3 5 5 5 5 5 5 5 5 5 3 5 3 5 5 5 5 3 5 5 5 5 3 5 3 5 5 5 5 3 5 5 5 5 5 5 5 5 5 5 5 5 5 5 5 5 5 3 5 5 5 5 5 3 5 3 5 5 5 5 3 5 5 5 5 5 5 5 5 5 5 3 5 5 5 5 5 5 3 3 5 5 5 5 5 5 5 5 5 5 5 5 3 5 5 3 5 5 5 5 5 5 5 5 5 3 3 5 5 5 5 5 5 5 5 3 5 5 3 3 5 3 3 5 5 5 3 3 3 5 5 5 5 5 3 5 5 5 5 5 3 5 5 3 5 5 5 5 3 5 5 5 5 5 3 5 3 5 3 5 5 5 3 5 5 5 5 5 5 5 3 5 5 5 5 3 5 5 5 5 5 5 5 5 5 5 5 5 5 3 5 5 5 5 5 5 3 5 3 5 5 5 5 5 5 5 5 5 5 5 5 5 5 5 5 5 5 5 5 5 5 5 5 5 5 5 5 5 5 3 5 5 3 5 5 5 5 5 3 3 5 5 5 3 5 5 5 5 5 5 5 5 5 5 5 3 5 5 3 3 5 5 3 3 5 5 3 3 5 5 5 5 5 5 5 5 5 5 5 5 5 5 5 5 5 5 5 3 5 3 5 5 5 5 5 5 5 5 5 5 5 5 5 5 5 5 5 5 5 5 5 5 5 5 5 5 3 5 5 5 5 5 5 3 5 5 5 3 5 5 5 5 5 3 5 5 3 5 5 5 5 5 5 5 3 5 3 5 5 5 5 5 5 5 5 5 5 5 5 5 5 5 5 5 5 3 5 5 3 5 5 5 5 3 5 5 3 5 3 5 5 5 5 3 5 5 5 5 5 5 5 5 5 5 5 5 5 5 5 5 5 5 5 5 5 3 5 5 5 5 5 5 5 5 3 5 5 3 5 5 5 5 5 5 5 5 5 5 5 5 5 5 5 5 5 5 5 5 5 3 5 5 5 5 5 5 5 5 5 5 5 5 5 5 5 5 5 5 5 5 5 5 5 5 5 5 5 5 5 5 5 5 5 5 5 5 5 5 5 5 5 5 5 5 5 3 5 5 5 5 5 5 5 5 5 5 5 5 5 5 5 3 5 5 5 5 5 5 5 5 5 3 5 5 5 5 5 5 5 5 3 5 5 5 5 5 5 5 5 5 5 5 3 5 5 5 5 5 5 5 5 3 5 5 5 5 5 5 5 5 3 5 5 5 5 5 3 3 5 5 5 5 5 5 5 5 5 5 5 5 5 5 3 5 5 5 3 5 5 3 5 5 5 3 5 3 5 3 3 5 5 5 3 5 5 5 5 5 5 5 5 5 5 3 5 5 3 5 5 5 5 5 5 5 5 5 5 5 5 5 3 5 5 5 5 5 5 5 5 5 3 5 3 5 5 5 5 5 5 5 3 5 5 5 5 5 3 5 3 3 5 3 5 5 5 3 5 5 5 5 5 5 5 5 5 5 3 5 5 5 3 5 5 5 3 5 5 5 5 5 3 3 3 3 5 5 5 5 5 3 3 5 5 5 3 5 5 5 5 5 5 5 5 5 3 5 5 5 5 5 5 3 5 5 5 5 5 3 5 5 5 5 5 5 5 5 5 5 5 5 5 5 5 5 5 5 5 5 5 5 5 5 5 5 5 5 5 3 5 5 5 5 5 5 5 5 5 5 5 5 5 3 5 5 5 5 5 5 5 5 5 5 5 5 5 5 5 5 5 5 5 5 5 5 3 5 3 5 5 3 5 5 5 5 5 5 3 5 5 5 5 5 5 5 5 3 3 5 5 3 5 3 3 5 5 3 5 5 5 5 5 5 5 5 3 5 5 5 5 5 5 5 3 5 5 5 5 5 5 5 5 5 5 5 3 5 5 5 5 5 5 5 5 5 3 5 5 3 3 5 5 5 5 5 3 3 5 5 5 5 5 5 5 5 3 5 5 5 5 5 5 5 5 5 5 5 5 5 5 5 3 5 5 3 5 3 5 5 3 5 5 5 5 3 5 3 3 5 3 3 5 3 5 5 5 5 5 5 5 5 5 5 3 5 3 5 5 5 5 3 5 3 5 5 5 5 5 5 5 5 5 3 5 5 5 3 5 5 5 5 5 5 5 5 5 5 5 5 3 5 5 5 5 5 5 5 5 5 5 3 5 5 5 5 5 5 5 5 5 5 5 5 5 5 5 5 5 5 5 5 5 5 5 3 5 5 5 3 5 5 5 5 5 5 5 5 3 3 5 5 5 5 5 5 5 3 5 5 5 5 5 5 5 5 5 5 5 5 5 5 5 5 5 5 5 5 5 5 5 5 5 5 5 5 5 5 5 3 5 5 5 5 5 5 3 5 5 5 5 5 5 5 5 5 5 5 5 5 5 5 5 5 5 5 5 5 5 3 3 5 5 3 5 5 5 5 5 5 5 5 3 5 5 5 5 5 5 5 5 5 5 5 5 3 5 5 5 5 5 5 5 5 5 5 5 5 5 3 5 5 5 3 5 5 5 5 5 5 5 5 5 3 3 5 5 5 3 3 5 5 5 5 5 5 5 3 5 5 5 5 3 5 5 3 5 5 5 5 5 5 5 5 5 5 5 5 5 5 3 5 5 5 5 5 5 5 5 5 5 5 5 5 5 5 5 5 5 5 5 5 5 5 5 5 3 5 5 3 5 5 5 5 5 5 5 5 5 3 5 3 5 5 5 5 5 5 5 5 5 5 5 5 5 3 3 5 5 5 5 5 3 5 5 5 5 5 5 5 5 5 3 3 5 5 5 5 5 3 3 5 3 5 5 5 5 5 5 5 5 5 5 5 5 5 5 3 5 5 5 5 5 3 5 5 5 5 5 3 5 5 5 3 5 5 5 5 5 5 3 5 5 5 5 5 5 5 3 5 5 5 5 3 3 5 5 5 5 3 3 5 5 5 3 5 5 5 5 5 5 5 5 3 5 5 5 5 5 5 5 5 5 5 5 5 5 5 5 5 5 5 5 5 5 5 3 5 5 5 5 3 5 5 3 5 5 5 5 3 5 5 5 5 5 5 3 5 5 5 5 5 5 5 5 5 5 5 5 3 5 5 5 5 5 5 5 5 5 5 5 5 5 5 5 5 5 3 5 5 5 5 3 5 5 5 5 5 5 5 5 5 5 5 5 5 5 5 5 5 5 5 3 5 3 5 5 5 5 5 3 5 5 5 3 5 5 5 5 5 5 5 5 5 5 5 5 5 5 5 5 5 5 5 5 5 3 5 5 5 5 5 5 5 5 5 3 3 5 3 5 5 3 5 5 5 5 5 5 5 5 5 5 5 5 5 5 5 5 5 5 5 5 5 3 5 5 5 5 5 3 5 5 5 3 5 5 5 5 5 5 5 5 5 3 5 5 5 5 3 3 3 5 5 5 5 5 5 5 5 5 5 5 5 5 5 5 5 5 3 5 5 3 5 5 5 5 5 5 5 5 3 5 5 3 5 5 5 5 5 5 5 5 5 5 5 5 5 5 5 5 5 5 5 5 5 5 5 5 5 3 5 3 5 5 5 5 3 5 5 3 5 5 5 5 5 5 5 3 5 5 5 3 5 5 5 5 5 5 5 5 5 5 3 5 5 5 5 5 5 5 5 5 5 5 5 5 5 5 5 5 5 5 5 5 5 5 5 5 5 5 5 5 5 5 5 5 5 5 5 5 5 5 5 5 5 5 5 5 5 5 5 5 5 5 5 5 5 5 5 5 5 5 5 5 5 5 5 5 5 5 5 5 5 5 5 5 5 5 5 5 5 3 5 3 5 5 5 5 3 5 5 5 5 5 5 5 5 5 5 5 5 5 5 5 5 5 5 5 5 5 5 5 5 5 5 5 5 5 5 5 5 5 3 5 5 5 5 5 5 5 3 5 5 5 3 5 5 5 5 5 5 5 5 3 
</DataArray>
</Cells>
<PointData Scalars="" Vectors="displacement," Tensors="">
<DataArray type="Float64" Name="displacement" NumberOfComponents="3" format="ascii">
0.014998959163551992 3.5302743335286872e-07 0 0.014999676908001145 -1.8681588829486695e-07 0 0.014719020997426929 -1.6063222232481951e-05 0 0.014998959163551992 3.5302743335286872e-07 0 0.014719020997426929 -1.6063222232481951e-05 0 0.014180533748162638 -5.1642650013150296e-07 0 0.014178153894904075 8.6505260153618183e-08 0 0.013830834038579379 -0.00013321405782152284 0 0.014178089906753327 -1.8924994742240116e-08 0 0.01337825730714251 -7.5038027096178161e-08 0 0.013356963325350198 -7.7912939378836618e-06 0 0.014719020997426929 -1.6063222232481951e-05 0 0.014180533748162638 -5.1642650013150296e-07 0 0.014354627016525914 -0.00036117632575597645 0 0.014354627016525914 -0.00036117632575597645 0 0.01474210088511186 -0.00026921659099599489 0 0.014552274492163425 -0.00045878315779465412 0 0.014719020997426929 -1.6063222232481951e-05 0 0.014354627016525914 -0.00036117632575597645 0 0.01474210088511186 -0.00026921659099599489 0 0.01337825730714251 -7.5038027096178161e-08 0 0.013356963325350198 -7.7912939378836618e-06 0 0.012604424510063238 1.2719833995831704e-06 0 0.01474210088511186 -0.00026921659099599489 0 0.014872070193171532 -0.00012347531784652325 0 0.014990928143353207 -0.00024648892575529762 0 0.01474210088511186 -0.00026921659099599489 0 0.014990928143353207 -0.00024648892575529762 0 0.01491465382890725 -0.00047647410199739312 0 0.01474210088511186 -0.00026921659099599489 0 0.014552274492163425 -0.00045878315779465412 0 0.014694511691548734 -0.00054596407311930327 0 0.014719020997426929 -1.6063222232481951e-05 0 0.01474210088511186 -0.00026921659099599489 0 0.014872070193171532 -0.00012347531784652325 0 0.014872070193171532 -0.00012347531784652325 0 0.014876680292474272 6.1555731107627854e-06 0 0.01503135425057852 -6.7346468087406687e-05 0 0.014719020997426929 -1.6063222232481951e-05 0 0.014872070193171532 -0.00012347531784652325 0 0.014876680292474272 6.1555731107627854e-06 0 0.015000002453684415 1.0339897435607587e-09 0 0.014999206025115928 -1.2924739585755431e-07 0 0.014999996351052201 -2.077223049082838e-09 0 0.014999676908001145 -1.8681588829486695e-07 0 0.014719020997426929 -1.6063222232481951e-05 0 0.014876680292474272 6.1555731107627854e-06 0 0.014999587896447616 1.1529286827752325e-07 0 0.015200878991798387 -5.5106057085806811e-06 0 0.014999206025115928 -1.2924739585755431e-07 0 0.014999996351052201 -2.077223049082838e-09 0 0.014990896436022656 -2.9173875232288128e-06 0 0.014999996351052201 -2.077223049082838e-09 0 0.014999986495519804 -2.9261701666726306e-09 0 0.014990896436022656 -2.9173875232288128e-06 0 0.015000029790349118 1.2063580427796097e-08 0 0.014994107680198189 2.4891400910794718e-05 0 0.014979396827780623 1.4422477172243609e-05 0 0.015000727974281104 7.8868639070622117e-07 0 0.013665527984360574 -0.00028677966225371804 0 0.014994107680198189 2.4891400910794718e-05 0 0.014979396827780623 1.4422477172243609e-05 0 0.014960586763542484 5.4851722883859252e-05 0 0.013665527984360574 -0.00028677966225371804 0 0.012186257005747889 -0.00012272806738251494 0 0.015200878991798387 -5.5106057085806811e-06 0 0.013665527984360574 -0.00028677966225371804 0 0.014999904504836646 1.4061213305715698e-07 0 0.015196020853827116 -1.9196629951839397e-06 0 0.015000095917009982 2.8728788199463415e-08 0 0.015037328376873419 6.2608734945116166e-05 0 0.015000016591741487 3.7299572561329031e-08 0 0.014999869395747743 -5.4665468307777186e-09 0 0.014979396827780623 1.4422477172243609e-05 0 0.014927815020889896 2.6927215526803705e-05 0 0.015000029790349118 1.2063580427796097e-08 0 0.014999869395747743 -5.4665468307777186e-09 0 0.014979396827780623 1.4422477172243609e-05 0 0.014979396827780623 1.4422477172243609e-05 0 0.014927815020889896 2.6927215526803705e-05 0 0.014960586763542484 5.4851722883859252e-05 0 0.015196020853827116 -1.9196629951839397e-06 0 0.012279498533668746 -1.1733228243076816e-07 0 0.012279498533668746 -1.1733228243076816e-07 0 0.012186257005747889 -0.00012272806738251494 0 0.014927815020889896 2.6927215526803705e-05 0 0.014873256818251161 9.6233056557399306e-05 0 0.014960586763542484 5.4851722883859252e-05 0 0.0095195077278405569 -0.00019020049316859005 0 0.0098398433798787925 -0.00038308811865543873 0 0.0097333666715861463 -4.5868814638651413e-05 0 0.0098398433798787925 -0.00038308811865543873 0 0.0097333666715861463 -4.5868814638651413e-05 0 0.010043380449015137 -0.00021712932477321203 0 0.012279498533668746 -1.1733228243076816e-07 0 0.0089837375234820063 0.00024986350696087754 0 0.0095195077278405569 -0.00019020049316859005 0 0.0097333666715861463 -4.5868814638651413e-05 0 0.0094804365343006489 0.00015636446595252749 0 0.014872070193171532 -0.00012347531784652325 0 0.01503135425057852 -6.7346468087406687e-05 0 0.014990928143353207 -0.00024648892575529762 0 0.010226222812748185 -0.00055878224767248752 0 0.010326370538551202 -0.0002000263577023045 0 0.010043380449015137 -0.00021712932477321203 0 0.013665527984360574 -0.00028677966225371804 0 0.012518096742507888 -0.00028432998305581697 0 0.010226222812748185 -0.00055878224767248752 0 0.0098398433798787925 -0.00038308811865543873 0 0.010043380449015137 -0.00021712932477321203 0 0.010326370538551202 -0.0002000263577023045 0 0.010043380449015137 -0.00021712932477321203 0 0.010040522921955671 5.7647579330178772e-05 0 0.0097333666715861463 -4.5868814638651413e-05 0 0.010043380449015137 -0.00021712932477321203 0 0.010040522921955671 5.7647579330178772e-05 0 0.010326370538551202 -0.0002000263577023045 0 0.010040522921955671 5.7647579330178772e-05 0 0.010461035493298635 0.00016452370713050343 0 0.012518096742507888 -0.00028432998305581697 0 0.012888254029945216 -8.5115741410123346e-05 0 0.010040522921955671 5.7647579330178772e-05 0 0.010130028240587379 0.00043077767282010001 0 0.010461035493298635 0.00016452370713050343 0 0.010040522921955671 5.7647579330178772e-05 0 0.010130028240587379 0.00043077767282010001 0 0.0096176784763377168 0.00023649711000881782 0 0.0094718604326909008 7.7280127142712312e-05 0 0.0095301233573729695 0.00017203672083937845 0 0.0094545936905157009 8.6831945655488102e-05 0 0.0096094627961438427 0.00027223013782364696 0 0.0097158672324087602 0.00024047203328892176 0 0.0096094627961438427 0.00027223013782364696 0 0.011054706712516502 -7.3183589739707258e-05 0 0.0094718604326909008 7.7280127142712312e-05 0 0.009521961900426144 4.2608771500456486e-05 0 0.0096472907511186475 -5.3311159759111124e-05 0 0.010130028240587379 0.00043077767282010001 0 0.010461035493298635 0.00016452370713050343 0 0.010604546822907082 0.00056225556958393709 0 0.0097333666715861463 -4.5868814638651413e-05 0 0.0096176784763377168 0.00023649711000881782 0 0.0094804365343006489 0.00015636446595252749 0 0.0097333666715861463 -4.5868814638651413e-05 0 0.010040522921955671 5.7647579330178772e-05 0 0.0096176784763377168 0.00023649711000881782 0 0.0094718604326909008 7.7280127142712312e-05 0 0.0096176784763377168 0.00023649711000881782 0 0.0095301233573729695 0.00017203672083937845 0 0.0096176784763377168 0.00023649711000881782 0 0.0094980962017238973 0.00031065457583902349 0 0.0094804365343006489 0.00015636446595252749 0 0.0096176784763377168 0.00023649711000881782 0 0.0095301233573729695 0.00017203672083937845 0 0.0094980962017238973 0.00031065457583902349 0 0.0094980962017238973 0.00031065457583902349 0 0.0095343785510413753 0.00039086050127283355 0 0.00946844824191251 0.00042619433824793332 0 0.0095301233573729695 0.00017203672083937845 0 0.0094980962017238973 0.00031065457583902349 0 0.0095343785510413753 0.00039086050127283355 0 0.0095301233573729695 0.00017203672083937845 0 0.009382459638059313 0.00012838970462503553 0 0.0094545936905157009 8.6831945655488102e-05 0 0.0094863678334554408 0.00021270896734181566 0 0.0094265111102192559 0.00023053813857009276 0 0.0095301233573729695 0.00017203672083937845 0 0.009382459638059313 0.00012838970462503553 0 0.0092515139097160397 0.00014560809961471744 0 0.009382459638059313 0.00012838970462503553 0 0.0092569234118301032 0.00023116604953983056 0 0.0092515139097160397 0.00014560809961471744 0 0.0095343785510413753 0.00039086050127283355 0 0.00946844824191251 0.00042619433824793332 0 0.0094774714088850902 0.00051611345125329624 0 0.0094265111102192559 0.00023053813857009276 0 0.0091262841545938535 0.00061320932384745024 0 0.0092569234118301032 0.00023116604953983056 0 0.0092515139097160397 0.00014560809961471744 0 0.0091044081590655572 0.0002741026025967142 0 0.009382459638059313 0.00012838970462503553 0 0.0094545936905157009 8.6831945655488102e-05 0 0.0094195890063891088 0.00013431431716593868 0 0.0094718604326909008 7.7280127142712312e-05 0 0.009521961900426144 4.2608771500456486e-05 0 0.0094545936905157009 8.6831945655488102e-05 0 0.009521961900426144 4.2608771500456486e-05 0 0.0094545936905157009 8.6831945655488102e-05 0 0.0094195890063891088 0.00013431431716593868 0 0.009382459638059313 0.00012838970462503553 0 0.0092569234118301032 0.00023116604953983056 0 0.0094195890063891088 0.00013431431716593868 0 0.0094195890063891088 0.00013431431716593868 0 0.0096170343383740198 3.6694271469485961e-05 0 0.0095297864785784444 0.000261087170304937 0 0.009521961900426144 4.2608771500456486e-05 0 0.0094195890063891088 0.00013431431716593868 0 0.0096170343383740198 3.6694271469485961e-05 0 0.0096170343383740198 3.6694271469485961e-05 0 0.0099274228498791566 1.0855267968286826e-05 0 0.0095297864785784444 0.000261087170304937 0 0.0094766606989963916 -0.00021763326344662653 0 0.011054706712516502 -7.3183589739707258e-05 0 0.009521961900426144 4.2608771500456486e-05 0 0.0096170343383740198 3.6694271469485961e-05 0 0.0096472907511186475 -5.3311159759111124e-05 0 0.0096170343383740198 3.6694271469485961e-05 0 0.0099274228498791566 1.0855267968286826e-05 0 0.0096472907511186475 -5.3311159759111124e-05 0 0.010227061526695695 -0.00071216314868840201 0 0.0099274228498791566 1.0855267968286826e-05 0 0.010445555876535994 -0.0004605138897100854 0 0.010227061526695695 -0.00071216314868840201 0 0.0099274228498791566 1.0855267968286826e-05 0 0.0096803132966878733 -0.00086493977913143017 0 0.01264140494342165 -0.00071299053317825495 0 0.011054706712516502 -7.3183589739707258e-05 0 0.0099274228498791566 1.0855267968286826e-05 0 0.010409069978549334 -0.00011176336686580621 0 0.010445555876535994 -0.0004605138897100854 0 0.0099274228498791566 1.0855267968286826e-05 0 0.010409069978549334 -0.00011176336686580621 0 0.010244528436000579 0.00012914335916077129 0 0.010409069978549334 -0.00011176336686580621 0 0.010602809152559777 5.9184079929950436e-05 0 0.010244528436000579 0.00012914335916077129 0 0.01070180012651095 -0.00012215154733911146 0 0.011071416770788012 -4.7677481360856149e-06 0 0.010602809152559777 5.9184079929950436e-05 0 0.01070180012651095 -0.00012215154733911146 0 0.010409069978549334 -0.00011176336686580621 0 0.010602809152559777 5.9184079929950436e-05 0 0.01059067868481731 -0.00026852965578122424 0 0.01070180012651095 -0.00012215154733911146 0 0.010804147405696187 -0.0003835217511424468 0 0.01070180012651095 -0.00012215154733911146 0 0.011071416770788012 -4.7677481360856149e-06 0 0.010804147405696187 -0.0003835217511424468 0 0.01059067868481731 -0.00026852965578122424 0 0.01070180012651095 -0.00012215154733911146 0 0.010409069978549334 -0.00011176336686580621 0 0.01059067868481731 -0.00026852965578122424 0 0.010409069978549334 -0.00011176336686580621 0 0.010445555876535994 -0.0004605138897100854 0 0.011071416770788012 -4.7677481360856149e-06 0 0.011777263227890914 -1.2330876174618246e-06 0 0.011156566957226706 4.9096276013178112e-07 0 0.011071416770788012 -4.7677481360856149e-06 0 0.011777263227890914 -1.2330876174618246e-06 0 0.010804147405696187 -0.0003835217511424468 0 0.011777704593350277 -3.4427571897679256e-07 0 0.012371594660960879 -0.00056459793245008645 0 0.011779613144777986 -2.8192424647977987e-07 0 0.012167061289731045 4.1986890168086269e-06 0 0.01257801940129343 2.1651175728228558e-07 0 0.011777263227890914 -1.2330876174618246e-06 0 0.010804147405696187 -0.0003835217511424468 0 0.010858896397510063 -0.00060744618618438831 0 0.010227061526695695 -0.00071216314868840201 0 0.010445555876535994 -0.0004605138897100854 0 0.010834891043782383 -0.00054222294874343578 0 0.014635783566954629 -0.00077372464611637237 0 0.014453437087563118 -0.00082261292617653143 0 0.014557353182187144 -0.00064683296432344625 0 0.01264140494342165 -0.00071299053317825495 0 0.012371594660960879 -0.00056459793245008645 0 0.01059067868481731 -0.00026852965578122424 0 0.010445555876535994 -0.0004605138897100854 0 0.010804147405696187 -0.0003835217511424468 0 0.010445555876535994 -0.0004605138897100854 0 0.010804147405696187 -0.0003835217511424468 0 0.010834891043782383 -0.00054222294874343578 0 0.012072062773444452 -0.00039414985437830573 0 0.012371594660960879 -0.00056459793245008645 0 0.014453437087563118 -0.00082261292617653143 0 0.014557353182187144 -0.00064683296432344625 0 0.014421315576846708 -0.00058305757548798463 0 0.012371594660960879 -0.00056459793245008645 0 0.013625749839335767 -0.00024899776671909868 0 0.012167061289731045 4.1986890168086269e-06 0 0.01257801940129343 2.1651175728228558e-07 0 0.012604424510063238 1.2719833995831704e-06 0 0.014354627016525914 -0.00036117632575597645 0 0.014421315576846708 -0.00058305757548798463 0 0.014552274492163425 -0.00045878315779465412 0 0.01337825730714251 -7.5038027096178161e-08 0 0.01257801940129343 2.1651175728228558e-07 0 0.012604424510063238 1.2719833995831704e-06 0 0.013830834038579379 -0.00013321405782152284 0 0.013625749839335767 -0.00024899776671909868 0 0.014557353182187144 -0.00064683296432344625 0 0.014552274492163425 -0.00045878315779465412 0 0.014694511691548734 -0.00054596407311930327 0 0.014557353182187144 -0.00064683296432344625 0 0.014421315576846708 -0.00058305757548798463 0 0.014552274492163425 -0.00045878315779465412 0 0.01474210088511186 -0.00026921659099599489 0 0.014694511691548734 -0.00054596407311930327 0 0.01491465382890725 -0.00047647410199739312 0 0.012888254029945216 -8.5115741410123346e-05 0 0.011054706712516502 -7.3183589739707258e-05 0 0.014694511691548734 -0.00054596407311930327 0 0.01491465382890725 -0.00047647410199739312 0 0.01481154142588581 -0.0007186569344740406 0 0.014635783566954629 -0.00077372464611637237 0 0.014694511691548734 -0.00054596407311930327 0 0.01481154142588581 -0.0007186569344740406 0 0.014635783566954629 -0.00077372464611637237 0 0.014557353182187144 -0.00064683296432344625 0 0.014694511691548734 -0.00054596407311930327 0 0.014643913413458113 0.00030785056521336811 0 0.01475700657911801 0.00042378364378154056 0 0.014793469610519987 0.00022897675319917177 0 0.014643913413458113 0.00030785056521336811 0 0.014557121714238697 0.00049363517305727606 0 0.01475700657911801 0.00042378364378154056 0 0.014557121714238697 0.00049363517305727606 0 0.01475700657911801 0.00042378364378154056 0 0.0145831934728204 0.00066633357544619944 0 0.01475700657911801 0.00042378364378154056 0 0.014896062613151202 0.00022856692130565341 0 0.014859048089297259 0.00052753537420332391 0 0.014896062613151202 0.00022856692130565341 0 0.014793469610519987 0.00022897675319917177 0 0.0148879252676906 5.999715662221856e-05 0 0.01475700657911801 0.00042378364378154056 0 0.014896062613151202 0.00022856692130565341 0 0.014793469610519987 0.00022897675319917177 0 0.014793469610519987 0.00022897675319917177 0 0.014746442856018444 0.00013091168135633989 0 0.0148879252676906 5.999715662221856e-05 0 0.014643913413458113 0.00030785056521336811 0 0.014793469610519987 0.00022897675319917177 0 0.014746442856018444 0.00013091168135633989 0 0.014746442856018444 0.00013091168135633989 0 0.0148879252676906 5.999715662221856e-05 0 0.014813065790048712 -9.2117129786262357e-06 0 0.014999739058934614 -5.1444241678637194e-08 0 0.0148879252676906 5.999715662221856e-05 0 0.014813065790048712 -9.2117129786262357e-06 0 0.014999930862827653 4.1695424308950953e-08 0 0.0148879252676906 5.999715662221856e-05 0 0.014974000440221751 7.9795427263729311e-05 0 0.014999739058934614 -5.1444241678637194e-08 0 0.014999930862827653 4.1695424308950953e-08 0 0.0148879252676906 5.999715662221856e-05 0 0.014896062613151202 0.00022856692130565341 0 0.0148879252676906 5.999715662221856e-05 0 0.014974000440221751 7.9795427263729311e-05 0 0.014974000440221751 7.9795427263729311e-05 0 0.014999990324006262 3.1911003549316508e-08 0 0.015005961519308888 0.00015796174593780455 0 0.014999930862827653 4.1695424308950953e-08 0 0.014974000440221751 7.9795427263729311e-05 0 0.014999990324006262 3.1911003549316508e-08 0 0.014972465831651615 0.00029947412589354373 0 0.015005961519308888 0.00015796174593780455 0 0.015031044748794943 0.00032508690606062771 0 0.014974000440221751 7.9795427263729311e-05 0 0.014972465831651615 0.00029947412589354373 0 0.015005961519308888 0.00015796174593780455 0 0.014896062613151202 0.00022856692130565341 0 0.014974000440221751 7.9795427263729311e-05 0 0.014972465831651615 0.00029947412589354373 0 0.014896062613151202 0.00022856692130565341 0 0.014972465831651615 0.00029947412589354373 0 0.014859048089297259 0.00052753537420332391 0 0.015024832129392556 0.00015767231346508281 0 0.015005961519308888 0.00015796174593780455 0 0.015031044748794943 0.00032508690606062771 0 0.012203633099687975 0.00016945321191413001 0 0.012121636440048964 0.00030077092702944101 0 0.015024832129392556 0.00015767231346508281 0 0.015025083114548634 0.00019123409949815408 0 0.015031044748794943 0.00032508690606062771 0 0.014999990324006262 3.1911003549316508e-08 0 0.015005961519308888 0.00015796174593780455 0 0.015011457024572824 8.0975724479825378e-05 0 0.015024832129392556 0.00015767231346508281 0 0.015005961519308888 0.00015796174593780455 0 0.015011457024572824 8.0975724479825378e-05 0 0.014999990324006262 3.1911003549316508e-08 0 0.015000028328631251 6.3623866186470814e-08 0 0.015011457024572824 8.0975724479825378e-05 0 0.015000028328631251 6.3623866186470814e-08 0 0.015011457024572824 8.0975724479825378e-05 0 0.015019966431771873 9.1443020069101381e-05 0 0.015024832129392556 0.00015767231346508281 0 0.015011457024572824 8.0975724479825378e-05 0 0.015019966431771873 9.1443020069101381e-05 0 0.015000028328631251 6.3623866186470814e-08 0 0.015019966431771873 9.1443020069101381e-05 0 0.015000016591741487 3.7299572561329031e-08 0 0.015037328376873419 6.2608734945116166e-05 0 0.015019966431771873 9.1443020069101381e-05 0 0.015000016591741487 3.7299572561329031e-08 0 0.015037328376873419 6.2608734945116166e-05 0 0.015038399050053766 0.00012672239895888138 0 0.015019966431771873 9.1443020069101381e-05 0 0.015038399050053766 0.00012672239895888138 0 0.015019966431771873 9.1443020069101381e-05 0 0.015025083114548634 0.00019123409949815408 0 0.015024832129392556 0.00015767231346508281 0 0.015019966431771873 9.1443020069101381e-05 0 0.015025083114548634 0.00019123409949815408 0 0.0095480930403330968 3.4021110148503909e-05 0 0.0093871172374002457 0.00011720113787367853 0 0.0094804365343006489 0.00015636446595252749 0 0.012279498533668746 -1.1733228243076816e-07 0 0.012203633099687975 0.00016945321191413001 0 0.0093871172374002457 0.00011720113787367853 0 0.0094804365343006489 0.00015636446595252749 0 0.0093879312756473075 0.00030538368751133286 0 0.0094980962017238973 0.00031065457583902349 0 0.0094804365343006489 0.00015636446595252749 0 0.0093879312756473075 0.00030538368751133286 0 0.0094980962017238973 0.00031065457583902349 0 0.0093879312756473075 0.00030538368751133286 0 0.0093726692971684931 0.00046209503907897534 0 0.0094980962017238973 0.00031065457583902349 0 0.00946844824191251 0.00042619433824793332 0 0.0093726692971684931 0.00046209503907897534 0 0.0093290516874271704 0.000602173066854501 0 0.0091262841545938535 0.00061320932384745024 0 0.00946844824191251 0.00042619433824793332 0 0.0093726692971684931 0.00046209503907897534 0 0.0094774714088850902 0.00051611345125329624 0 0.0092140742279837751 0.00071953260225055568 0 0.0091730307203989007 0.00071848592274712908 0 0.009150556950659184 0.00082044598714790448 0 0.0093879312756473075 0.00030538368751133286 0 0.0093726692971684931 0.00046209503907897534 0 0.0092323477296272476 0.00047986662209008481 0 0.0093290516874271704 0.000602173066854501 0 0.0092035397732823099 0.00046946418122730655 0 0.0092140742279837751 0.00071953260225055568 0 0.0092323477296272476 0.00047986662209008481 0 0.0091730307203989007 0.00071848592274712908 0 0.0091730307203989007 0.00071848592274712908 0 0.0090902087249213649 0.00072918556012002407 0 0.0091274894940845917 0.0008633022148102509 0 0.0092323477296272476 0.00047986662209008481 0 0.0091730307203989007 0.00071848592274712908 0 0.0090902087249213649 0.00072918556012002407 0 0.0092323477296272476 0.00047986662209008481 0 0.0090902087249213649 0.00072918556012002407 0 0.0091028738624600349 0.00050552737387757069 0 0.0092323477296272476 0.00047986662209008481 0 0.0091028738624600349 0.00050552737387757069 0 0.0092030938522695196 0.00024912160701911367 0 0.0093879312756473075 0.00030538368751133286 0 0.0092323477296272476 0.00047986662209008481 0 0.0092030938522695196 0.00024912160701911367 0 0.0093871172374002457 0.00011720113787367853 0 0.0093879312756473075 0.00030538368751133286 0 0.0092030938522695196 0.00024912160701911367 0 0.014972465831651615 0.00029947412589354373 0 0.015031044748794943 0.00032508690606062771 0 0.014965339548780919 0.00055050318628145915 0 0.012121636440048964 0.00030077092702944101 0 0.011940177503005021 0.0003916374657323873 0 0.014972465831651615 0.00029947412589354373 0 0.014965339548780919 0.00055050318628145915 0 0.014859048089297259 0.00052753537420332391 0 0.011940177503005021 0.0003916374657323873 0 0.012149744905152192 0.0012866357096009535 0 0.014965339548780919 0.00055050318628145915 0 0.014789281829653963 0.00083547686627838597 0 0.014859048089297259 0.00052753537420332391 0 0.0090269996298950553 0.00039645995403262806 0 0.0089926877702484736 0.00056426816212076585 0 0.0088706874002446 0.00050992330983881272 0 0.0091028738624600349 0.00050552737387757069 0 0.0092030938522695196 0.00024912160701911367 0 0.0090269996298950553 0.00039645995403262806 0 0.0091028738624600349 0.00050552737387757069 0 0.0090269996298950553 0.00039645995403262806 0 0.0089926877702484736 0.00056426816212076585 0 0.0090902087249213649 0.00072918556012002407 0 0.0091028738624600349 0.00050552737387757069 0 0.0089926877702484736 0.00056426816212076585 0 0.0090902087249213649 0.00072918556012002407 0 0.0089291196435496694 0.00070757376852828362 0 0.0089926877702484736 0.00056426816212076585 0 0.0089291196435496694 0.00070757376852828362 0 0.0089926877702484736 0.00056426816212076585 0 0.0088706874002446 0.00050992330983881272 0 0.0090969038651099732 0.0015359889567286393 0 0.012149744905152192 0.0012866357096009535 0 0.010025624188101412 0.0022886680576886978 0 0.010635012592522867 0.0024452969954286722 0 0.01043784665145275 0.0031505442907047319 0 0.010025624188101412 0.0022886680576886978 0 0.010635012592522867 0.0024452969954286722 0 0.010438726470981379 0.0018615870616441816 0 0.010635012592522867 0.0024452969954286722 0 0.010438726470981379 0.0018615870616441816 0 0.011194763800368575 0.0020832335250881959 0 0.010635012592522867 0.0024452969954286722 0 0.011139190692933666 0.0028669442651989489 0 0.011194763800368575 0.0020832335250881959 0 0.012822617476739328 0.0022225293356722339 0 0.012149744905152192 0.0012866357096009535 0 0.010635012592522867 0.0024452969954286722 0 0.011139190692933666 0.0028669442651989489 0 0.01043784665145275 0.0031505442907047319 0 0.014390857525382491 0.0014486103040965829 0 0.014554127617175247 0.00099501659359173831 0 0.014927083223103609 0.0011262581005767667 0 0.014390857525382491 0.0014486103040965829 0 0.014554127617175247 0.00099501659359173831 0 0.014262234659804481 0.00093414699728952262 0 0.014554127617175247 0.00099501659359173831 0 0.0145831934728204 0.00066633357544619944 0 0.014262234659804481 0.00093414699728952262 0 0.014554127617175247 0.00099501659359173831 0 0.014773557547026674 0.00077808968424052376 0 0.0145831934728204 0.00066633357544619944 0 0.014554127617175247 0.00099501659359173831 0 0.014927083223103609 0.0011262581005767667 0 0.014773557547026674 0.00077808968424052376 0 0.014789281829653963 0.00083547686627838597 0 0.014773557547026674 0.00077808968424052376 0 0.014859048089297259 0.00052753537420332391 0 0.012149744905152192 0.0012866357096009535 0 0.014217003567059955 0.0012611975695751006 0 0.014773557547026674 0.00077808968424052376 0 0.014859048089297259 0.00052753537420332391 0 0.014754960156591798 0.00059486953803195106 0 0.01475700657911801 0.00042378364378154056 0 0.014859048089297259 0.00052753537420332391 0 0.014754960156591798 0.00059486953803195106 0 0.01475700657911801 0.00042378364378154056 0 0.014754960156591798 0.00059486953803195106 0 0.0145831934728204 0.00066633357544619944 0 0.014557121714238697 0.00049363517305727606 0 0.0145831934728204 0.00066633357544619944 0 0.014381970946096247 0.00064470417701788371 0 0.014773557547026674 0.00077808968424052376 0 0.014754960156591798 0.00059486953803195106 0 0.0145831934728204 0.00066633357544619944 0 0.010279402578829979 0.00085886138256637066 0 0.010373536446737573 0.0013225280379703032 0 0.0099237709218803899 0.0010465889938567972 0 0.010279402578829979 0.00085886138256637066 0 0.010373536446737573 0.0013225280379703032 0 0.010642833910262862 0.0011318736693425586 0 0.010279402578829979 0.00085886138256637066 0 0.010832188962119427 0.00082214751111730643 0 0.010642833910262862 0.0011318736693425586 0 0.010279402578829979 0.00085886138256637066 0 0.0099237709218803899 0.0010465889938567972 0 0.0097593225911377732 0.00072789006843855856 0 0.010373536446737573 0.0013225280379703032 0 0.010770729116976126 0.0015005712393863768 0 0.010642833910262862 0.0011318736693425586 0 0.01043486602094653 0.001319108808168515 0 0.011073601418424426 0.001387069146450672 0 0.010438726470981379 0.0018615870616441816 0 0.010373536446737573 0.0013225280379703032 0 0.011370572083766768 0.0012528049931127638 0 0.010438726470981379 0.0018615870616441816 0 0.011370572083766768 0.0012528049931127638 0 0.011194763800368575 0.0020832335250881959 0 0.010438726470981379 0.0018615870616441816 0 0.010373536446737573 0.0013225280379703032 0 0.0096766380988137293 0.0015801776646515177 0 0.010025624188101412 0.0022886680576886978 0 0.010438726470981379 0.0018615870616441816 0 0.0096766380988137293 0.0015801776646515177 0 0.0090969038651099732 0.0015359889567286393 0 0.0094217664654967816 0.001236139642475625 0 0.0090902087249213649 0.00072918556012002407 0 0.0090408995958191386 0.00090139932898560514 0 0.0091330598822607599 0.00091314447283089907 0 0.0090902087249213649 0.00072918556012002407 0 0.0089291196435496694 0.00070757376852828362 0 0.0090408995958191386 0.00090139932898560514 0 0.0090408995958191386 0.00090139932898560514 0 0.0093109116586673393 0.00099738599492891285 0 0.0091330598822607599 0.00091314447283089907 0 0.0094217664654967816 0.001236139642475625 0 0.0092806013270743965 0.00099190949950040699 0 0.0096766380988137293 0.0015801776646515177 0 0.0099237709218803899 0.0010465889938567972 0 0.0093109116586673393 0.00099738599492891285 0 0.010373536446737573 0.0013225280379703032 0 0.0096766380988137293 0.0015801776646515177 0 0.0099237709218803899 0.0010465889938567972 0 0.0099237709218803899 0.0010465889938567972 0 0.0093109116586673393 0.00099738599492891285 0 0.0097593225911377732 0.00072789006843855856 0 0.0093109116586673393 0.00099738599492891285 0 0.0090161262616571987 0.00083884855256402254 0 0.0093489664784216324 0.00065120896323739156 0 0.0093109116586673393 0.00099738599492891285 0 0.0090161262616571987 0.00083884855256402254 0 0.0090952882361786235 0.00095481509637521046 0 0.0090161262616571987 0.00083884855256402254 0 0.0090952882361786235 0.00095481509637521046 0 0.0089523347926661733 0.00090275349419864127 0 0.0093109116586673393 0.00099738599492891285 0 0.0090952882361786235 0.00095481509637521046 0 0.0091330598822607599 0.00091314447283089907 0 0.0090902087249213649 0.00072918556012002407 0 0.0091330598822607599 0.00091314447283089907 0 0.0091274894940845917 0.0008633022148102509 0 0.0091730307203989007 0.00071848592274712908 0 0.0091274894940845917 0.0008633022148102509 0 0.009150556950659184 0.00082044598714790448 0 0.0090952882361786235 0.00095481509637521046 0 0.0091330598822607599 0.00091314447283089907 0 0.0091274894940845917 0.0008633022148102509 0 0.0090952882361786235 0.00095481509637521046 0 0.0091274894940845917 0.0008633022148102509 0 0.0090612003323375725 0.00090796479875156406 0 0.0090952882361786235 0.00095481509637521046 0 0.0090612003323375725 0.00090796479875156406 0 0.0089230765448225172 0.00092459699252602249 0 0.0090612003323375725 0.00090796479875156406 0 0.0091339465261205417 0.00088401963392307754 0 0.0089230765448225172 0.00092459699252602249 0 0.0090612003323375725 0.00090796479875156406 0 0.009150556950659184 0.00082044598714790448 0 0.0091339465261205417 0.00088401963392307754 0 0.0091274894940845917 0.0008633022148102509 0 0.0090612003323375725 0.00090796479875156406 0 0.009150556950659184 0.00082044598714790448 0 0.0092140742279837751 0.00071953260225055568 0 0.009150556950659184 0.00082044598714790448 0 0.0092079109275440673 0.00082220582909937401 0 0.009150556950659184 0.00082044598714790448 0 0.0092079109275440673 0.00082220582909937401 0 0.0091339465261205417 0.00088401963392307754 0 0.0091262841545938535 0.00061320932384745024 0 0.0089213635250519566 0.00095524420406932085 0 0.0087608692203567026 0.00094809670605526194 0 0.0087029844766964275 0.0008899503169451107 0 0.0089230765448225172 0.00092459699252602249 0 0.0089213635250519566 0.00095524420406932085 0 0.0089516395462181635 0.00088918353948848371 0 0.0087029844766964275 0.0008899503169451107 0 0.0089230765448225172 0.00092459699252602249 0 0.0086626307145393714 0.00085849867527932732 0 0.0090952882361786235 0.00095481509637521046 0 0.0089230765448225172 0.00092459699252602249 0 0.0089523347926661733 0.00090275349419864127 0 0.0089230765448225172 0.00092459699252602249 0 0.0089523347926661733 0.00090275349419864127 0 0.0087834951378721708 0.00085403148013024166 0 0.0090161262616571987 0.00083884855256402254 0 0.0089523347926661733 0.00090275349419864127 0 0.0087834951378721708 0.00085403148013024166 0 0.0087834951378721708 0.00085403148013024166 0 0.0086626307145393714 0.00085849867527932732 0 0.0085398977518059069 0.00083379202215186734 0 0.0089230765448225172 0.00092459699252602249 0 0.0087834951378721708 0.00085403148013024166 0 0.0086626307145393714 0.00085849867527932732 0 0.0087834951378721708 0.00085403148013024166 0 0.0085398977518059069 0.00083379202215186734 0 0.0086845857843439768 0.00071648710576234812 0 0.0085398977518059069 0.00083379202215186734 0 0.0086845857843439768 0.00071648710576234812 0 0.0084450436587485793 0.00072072207328632528 0 0.0090161262616571987 0.00083884855256402254 0 0.0087834951378721708 0.00085403148013024166 0 0.0086845857843439768 0.00071648710576234812 0 0.0086845857843439768 0.00071648710576234812 0 0.0084450436587485793 0.00072072207328632528 0 0.008287859288735178 0.00054351384298402181 0 0.008287859288735178 0.00054351384298402181 0 0.0084257754466746503 0.00033945545041035572 0 0.0079552751317958845 0.00025523437336931514 0 0.0086845857843439768 0.00071648710576234812 0 0.008287859288735178 0.00054351384298402181 0 0.0089076033705637308 0.00031927583311742758 0 0.008287859288735178 0.00054351384298402181 0 0.0084257754466746503 0.00033945545041035572 0 0.0086171378665147735 0.00058731494051742655 0 0.0083216095883355042 0.00053204841428227984 0 0.0087649027372020231 0.00045597170883408008 0 0.0084257754466746503 0.00033945545041035572 0 0.0086171378665147735 0.00058731494051742655 0 0.0088909131675534124 0.00014002602658072605 0 0.0086171378665147735 0.00058731494051742655 0 0.0092572612907238713 0.00050466183621915317 0 0.0088909131675534124 0.00014002602658072605 0 0.0092572612907238713 0.00050466183621915317 0 0.0093530379332407414 0.00016171208284251816 0 0.0088909131675534124 0.00014002602658072605 0 0.0087649027372020231 0.00045597170883408008 0 0.0093300724401602624 0.00037021162598103807 0 0.0089076033705637308 0.00031927583311742758 0 0.0090703987125670248 0.0005691582700637943 0 0.0094042862448339686 0.00024110277187106927 0 0.0090703987125670248 0.0005691582700637943 0 0.0093489664784216324 0.00065120896323739156 0 0.0094042862448339686 0.00024110277187106927 0 0.0086845857843439768 0.00071648710576234812 0 0.0089076033705637308 0.00031927583311742758 0 0.0090703987125670248 0.0005691582700637943 0 0.0090161262616571987 0.00083884855256402254 0 0.0086845857843439768 0.00071648710576234812 0 0.0090703987125670248 0.0005691582700637943 0 0.0090161262616571987 0.00083884855256402254 0 0.0090703987125670248 0.0005691582700637943 0 0.0093489664784216324 0.00065120896323739156 0 0.0093109116586673393 0.00099738599492891285 0 0.0093489664784216324 0.00065120896323739156 0 0.0097593225911377732 0.00072789006843855856 0 0.0097593225911377732 0.00072789006843855856 0 0.0096879414241720259 0.00046319403611390044 0 0.010023492919952954 0.00047897850428938414 0 0.0093489664784216324 0.00065120896323739156 0 0.0096879414241720259 0.00046319403611390044 0 0.0094042862448339686 0.00024110277187106927 0 0.0093489664784216324 0.00065120896323739156 0 0.0097593225911377732 0.00072789006843855856 0 0.0096879414241720259 0.00046319403611390044 0 0.0093300724401602624 0.00037021162598103807 0 0.0098253050097280546 0.00029135431147777658 0 0.0092572612907238713 0.00050466183621915317 0 0.0093530379332407414 0.00016171208284251816 0 0.0098627168914166095 0.00027990017068119463 0 0.0098627168914166095 0.00027990017068119463 0 0.0099021994654014435 7.2979321332302733e-05 0 0.0096372270482708126 -2.8149590349077577e-05 0 0.0093530379332407414 0.00016171208284251816 0 0.0098627168914166095 0.00027990017068119463 0 0.0096372270482708126 -2.8149590349077577e-05 0 0.0096879414241720259 0.00046319403611390044 0 0.0098627168914166095 0.00027990017068119463 0 0.010023492919952954 0.00047897850428938414 0 0.0096879414241720259 0.00046319403611390044 0 0.0094042862448339686 0.00024110277187106927 0 0.0098627168914166095 0.00027990017068119463 0 0.0098627168914166095 0.00027990017068119463 0 0.010133436553346935 0.00018492698435935298 0 0.010023492919952954 0.00047897850428938414 0 0.0098627168914166095 0.00027990017068119463 0 0.0099021994654014435 7.2979321332302733e-05 0 0.010133436553346935 0.00018492698435935298 0 0.010380190543779592 0.0002674657488968189 0 0.010514189599588018 0.00012985888142936147 0 0.010604597985419561 0.0003109198189875027 0 0.010260880741684587 0.00023500534825178517 0 0.010415594868472117 0.00050592364798343213 0 0.010133436553346935 0.00018492698435935298 0 0.010430796394936832 0.00050657183488565414 0 0.010023492919952954 0.00047897850428938414 0 0.010380190543779592 0.0002674657488968189 0 0.010430796394936832 0.00050657183488565414 0 0.010604597985419561 0.0003109198189875027 0 0.010279402578829979 0.00085886138256637066 0 0.010430796394936832 0.00050657183488565414 0 0.010023492919952954 0.00047897850428938414 0 0.010279402578829979 0.00085886138256637066 0 0.0097593225911377732 0.00072789006843855856 0 0.010023492919952954 0.00047897850428938414 0 0.010279402578829979 0.00085886138256637066 0 0.010430796394936832 0.00050657183488565414 0 0.010832188962119427 0.00082214751111730643 0 0.0097872773266486357 0.00088711147925468498 0 0.010241204853065379 0.0005953992389659148 0 0.0099355691756103422 0.00036847557624718782 0 0.0096849902017856499 0.00042490465169128642 0 0.01004845453486842 0.00027842386296729466 0 0.0094465865692915305 4.1834553681671371e-06 0 0.0099382750254508167 4.770697169930871e-05 0 0.0099072526995180824 -8.5924409271345288e-05 0 0.0094829287993328411 0.00066953201958839951 0 0.0097872773266486357 0.00088711147925468498 0 0.0099355691756103422 0.00036847557624718782 0 0.0096849902017856499 0.00042490465169128642 0 0.0089192046298446626 0.00079209681800338817 0 0.0094829287993328411 0.00066953201958839951 0 0.0097872773266486357 0.00088711147925468498 0 0.0093324266318860535 0.0012214700797118264 0 0.0094465865692915305 4.1834553681671371e-06 0 0.0091892347258973866 0.00019557279574255207 0 0.0093506539615364689 0.00019540469745270544 0 0.0094465865692915305 4.1834553681671371e-06 0 0.009667182187265734 0.00014574853578248984 0 0.0099382750254508167 4.770697169930871e-05 0 0.0094465865692915305 4.1834553681671371e-06 0 0.009667182187265734 0.00014574853578248984 0 0.0093506539615364689 0.00019540469745270544 0 0.009667182187265734 0.00014574853578248984 0 0.0099382872518361202 0.0001220463776363537 0 0.0099382750254508167 4.770697169930871e-05 0 0.0094703881892370216 8.9661941924100845e-05 0 0.0099124868814459977 5.6078716398075638e-08 0 0.0099382872518361202 0.0001220463776363537 0 0.0099382750254508167 4.770697169930871e-05 0 0.0099139987401306376 1.0464132580084354e-07 0 0.00901763358190877 -2.6450455277618424e-05 0 0.0099118068909302727 -5.2898639466245147e-07 0 0.0091809611666717975 3.3435711994235498e-07 0 0.0099139987401306376 1.0464132580084354e-07 0 0.010185908510636469 3.5671398887663613e-05 0 0.010534128736556724 1.343373495892676e-07 0 0.0099382750254508167 4.770697169930871e-05 0 0.0099139987401306376 1.0464132580084354e-07 0 0.010185908510636469 3.5671398887663613e-05 0 0.0099382750254508167 4.770697169930871e-05 0 0.010185908510636469 3.5671398887663613e-05 0 0.0099072526995180824 -8.5924409271345288e-05 0 0.01004845453486842 0.00027842386296729466 0 0.010437818549603026 0.00012256636226304522 0 0.010185908510636469 3.5671398887663613e-05 0 0.0099072526995180824 -8.5924409271345288e-05 0 0.010515311234999563 0.00010547510091288936 0 0.010241204853065379 0.0005953992389659148 0 0.010515311234999563 0.00010547510091288936 0 0.010380806707712043 0.0002250021162457503 0 0.010185908510636469 3.5671398887663613e-05 0 0.010534128736556724 1.343373495892676e-07 0 0.010515311234999563 0.00010547510091288936 0 0.010534128736556724 1.343373495892676e-07 0 0.010515311234999563 0.00010547510091288936 0 0.01076345588089425 9.5972453318562194e-05 0 0.010534128736556724 1.343373495892676e-07 0 0.01076345588089425 9.5972453318562194e-05 0 0.011156566957226706 4.9096276013178112e-07 0 0.011071416770788012 -4.7677481360856149e-06 0 0.01076345588089425 9.5972453318562194e-05 0 0.010602809152559777 5.9184079929950436e-05 0 0.011071416770788012 -4.7677481360856149e-06 0 0.01076345588089425 9.5972453318562194e-05 0 0.011156566957226706 4.9096276013178112e-07 0 0.010515311234999563 0.00010547510091288936 0 0.01076345588089425 9.5972453318562194e-05 0 0.010380806707712043 0.0002250021162457503 0 0.01076345588089425 9.5972453318562194e-05 0 0.010380806707712043 0.0002250021162457503 0 0.010602809152559777 5.9184079929950436e-05 0 0.010380806707712043 0.0002250021162457503 0 0.010602809152559777 5.9184079929950436e-05 0 0.010244528436000579 0.00012914335916077129 0 0.0099274228498791566 1.0855267968286826e-05 0 0.010244528436000579 0.00012914335916077129 0 0.0099355691756103422 0.00036847557624718782 0 0.010380806707712043 0.0002250021162457503 0 0.010244528436000579 0.00012914335916077129 0 0.0099355691756103422 0.00036847557624718782 0 0.010241204853065379 0.0005953992389659148 0 0.010380806707712043 0.0002250021162457503 0 0.0099355691756103422 0.00036847557624718782 0 0.0094829287993328411 0.00066953201958839951 0 0.0099355691756103422 0.00036847557624718782 0 0.0095297864785784444 0.000261087170304937 0 0.0099274228498791566 1.0855267968286826e-05 0 0.0099355691756103422 0.00036847557624718782 0 0.0095297864785784444 0.000261087170304937 0 0.0094195890063891088 0.00013431431716593868 0 0.0095297864785784444 0.000261087170304937 0 0.0092812993357409418 0.00030620471701389159 0 0.0092569234118301032 0.00023116604953983056 0 0.0094195890063891088 0.00013431431716593868 0 0.0092812993357409418 0.00030620471701389159 0 0.0092751108714877288 0.00046542778215685781 0 0.0091269790871033405 0.00040672707269948869 0 0.0089856463375907296 0.00068081338867684998 0 0.0092812993357409418 0.00030620471701389159 0 0.0092751108714877288 0.00046542778215685781 0 0.0091269790871033405 0.00040672707269948869 0 0.0094829287993328411 0.00066953201958839951 0 0.0095297864785784444 0.000261087170304937 0 0.0092751108714877288 0.00046542778215685781 0 0.0095297864785784444 0.000261087170304937 0 0.0092812993357409418 0.00030620471701389159 0 0.0092751108714877288 0.00046542778215685781 0 0.0092569234118301032 0.00023116604953983056 0 0.0091044081590655572 0.0002741026025967142 0 0.0091269790871033405 0.00040672707269948869 0 0.0091262841545938535 0.00061320932384745024 0 0.0088561791513103137 0.00061531082758324519 0 0.0092569234118301032 0.00023116604953983056 0 0.0092812993357409418 0.00030620471701389159 0 0.0091269790871033405 0.00040672707269948869 0 0.0087608692203567026 0.00094809670605526194 0 0.0087029844766964275 0.0008899503169451107 0 0.0086241284053042207 0.0008118202170121102 0 0.0087207101638380486 0.0009886921368738521 0 0.0087608692203567026 0.00094809670605526194 0 0.0086241284053042207 0.0008118202170121102 0 0.0087029844766964275 0.0008899503169451107 0 0.0086241284053042207 0.0008118202170121102 0 0.0086300177008256616 0.00084502208627545994 0 0.0087029844766964275 0.0008899503169451107 0 0.0086626307145393714 0.00085849867527932732 0 0.0086300177008256616 0.00084502208627545994 0 0.0088561791513103137 0.00061531082758324519 0 0.0090164765479823373 0.00070602490198043107 0 0.0086241284053042207 0.0008118202170121102 0 0.0086300177008256616 0.00084502208627545994 0 0.0086372619494453021 0.00081060407655212752 0 0.0086241284053042207 0.0008118202170121102 0 0.0086372619494453021 0.00081060407655212752 0 0.0089856463375907296 0.00068081338867684998 0 0.0086012245835056372 0.00086798846807876063 0 0.0085499265922644469 0.00085596749439104016 0 0.0083948821781672199 0.00088286792520902546 0 0.0086372619494453021 0.00081060407655212752 0 0.0086012245835056372 0.00086798846807876063 0 0.0085499265922644469 0.00085596749439104016 0 0.0086372619494453021 0.00081060407655212752 0 0.0086012245835056372 0.00086798846807876063 0 0.0089856463375907296 0.00068081338867684998 0 0.0086626307145393714 0.00085849867527932732 0 0.0085398977518059069 0.00083379202215186734 0 0.0085499265922644469 0.00085596749439104016 0 0.0086300177008256616 0.00084502208627545994 0 0.0086372619494453021 0.00081060407655212752 0 0.0085499265922644469 0.00085596749439104016 0 0.0086626307145393714 0.00085849867527932732 0 0.0086300177008256616 0.00084502208627545994 0 0.0085499265922644469 0.00085596749439104016 0 0.0094829287993328411 0.00066953201958839951 0 0.0092751108714877288 0.00046542778215685781 0 0.0091641257757832592 0.00074541717110419359 0 0.0092751108714877288 0.00046542778215685781 0 0.0091641257757832592 0.00074541717110419359 0 0.0089856463375907296 0.00068081338867684998 0 0.0086012245835056372 0.00086798846807876063 0 0.0089856463375907296 0.00068081338867684998 0 0.0088667263080818882 0.00087311344754642084 0 0.0091641257757832592 0.00074541717110419359 0 0.0089856463375907296 0.00068081338867684998 0 0.0088667263080818882 0.00087311344754642084 0 0.0086012245835056372 0.00086798846807876063 0 0.0088667263080818882 0.00087311344754642084 0 0.0085157717945813539 0.00093381907651013873 0 0.0095046039867256148 0.00077245512988494678 0 0.0089192046298446626 0.00079209681800338817 0 0.0094829287993328411 0.00066953201958839951 0 0.0091641257757832592 0.00074541717110419359 0 0.0091683449708742908 0.00095496097086161357 0 0.0091641257757832592 0.00074541717110419359 0 0.0088667263080818882 0.00087311344754642084 0 0.0091683449708742908 0.00095496097086161357 0 0.0089192046298446626 0.00079209681800338817 0 0.0079777891463492408 0.00076203909571507795 0 0.0076464895777151026 0.0013364476619178497 0 0.0078902599126101022 0.0011469333075084624 0 0.0077701741423518338 0.00082195292750847024 0 0.0091892347258973866 0.00019557279574255207 0 0.0092303658810908643 0.00029304231729353403 0 0.0092301857625571686 0.00028457245092003967 0 0.0088667263080818882 0.00087311344754642084 0 0.0091683449708742908 0.00095496097086161357 0 0.0088032207871535789 0.0010369046300698613 0 0.0089192046298446626 0.00079209681800338817 0 0.008276678969791831 0.0011253230018951216 0 0.0088667263080818882 0.00087311344754642084 0 0.0085157717945813539 0.00093381907651013873 0 0.0088032207871535789 0.0010369046300698613 0 0.0085157717945813539 0.00093381907651013873 0 0.0088032207871535789 0.0010369046300698613 0 0.0082492440885890781 0.00094402190065453378 0 0.008276678969791831 0.0011253230018951216 0 0.0083424942486951016 0.00095250164893370844 0 0.0078902599126101022 0.0011469333075084624 0 0.0080011683246517477 0.0009780589435566128 0 0.0082492440885890781 0.00094402190065453378 0 0.0078902599126101022 0.0011469333075084624 0 0.0080011683246517477 0.0009780589435566128 0 0.0077701741423518338 0.00082195292750847024 0 0.0079553291363885798 0.00091194912514817872 0 0.0079777891463492408 0.00076203909571507795 0 0.0080011683246517477 0.0009780589435566128 0 0.0082492440885890781 0.00094402190065453378 0 0.0079447840673194225 0.00074315743272012388 0 0.0082492440885890781 0.00094402190065453378 0 0.0079447840673194225 0.00074315743272012388 0 0.0081424737118684695 0.00075307727794084991 0 0.0080011683246517477 0.0009780589435566128 0 0.0079447840673194225 0.00074315743272012388 0 0.0077822764007001496 0.0008258795856799819 0 0.0092303658810908643 0.00029304231729353403 0 0.0091591489687711195 0.00011834426866820326 0 0.0091883375724707509 0.00025399705059344231 0 0.0079777891463492408 0.00076203909571507795 0 0.0082043086167707963 0.00048162153127113109 0 0.0092303658810908643 0.00029304231729353403 0 0.0091883375724707509 0.00025399705059344231 0 0.0092301857625571686 0.00028457245092003967 0 0.0085398977518059069 0.00083379202215186734 0 0.0085499265922644469 0.00085596749439104016 0 0.0083948821781672199 0.00088286792520902546 0 0.0085398977518059069 0.00083379202215186734 0 0.0083948821781672199 0.00088286792520902546 0 0.0083019726109067569 0.00075921914637431371 0 0.0086012245835056372 0.00086798846807876063 0 0.0085157717945813539 0.00093381907651013873 0 0.0083948821781672199 0.00088286792520902546 0 0.0085157717945813539 0.00093381907651013873 0 0.0082492440885890781 0.00094402190065453378 0 0.0083948821781672199 0.00088286792520902546 0 0.0082492440885890781 0.00094402190065453378 0 0.0081424737118684695 0.00075307727794084991 0 0.0082711210465240634 0.00084186297439632651 0 0.0082492440885890781 0.00094402190065453378 0 0.0083948821781672199 0.00088286792520902546 0 0.0082711210465240634 0.00084186297439632651 0 0.0081424737118684695 0.00075307727794084991 0 0.0082711210465240634 0.00084186297439632651 0 0.0083019726109067569 0.00075921914637431371 0 0.0083948821781672199 0.00088286792520902546 0 0.0082711210465240634 0.00084186297439632651 0 0.0083019726109067569 0.00075921914637431371 0 0.0084450436587485793 0.00072072207328632528 0 0.008287859288735178 0.00054351384298402181 0 0.0083019726109067569 0.00075921914637431371 0 0.0085398977518059069 0.00083379202215186734 0 0.0084450436587485793 0.00072072207328632528 0 0.0083019726109067569 0.00075921914637431371 0 0.008287859288735178 0.00054351384298402181 0 0.0083019726109067569 0.00075921914637431371 0 0.0079752459673525459 0.00054895096045204025 0 0.0081424737118684695 0.00075307727794084991 0 0.0083019726109067569 0.00075921914637431371 0 0.0079752459673525459 0.00054895096045204025 0 0.0079447840673194225 0.00074315743272012388 0 0.0081424737118684695 0.00075307727794084991 0 0.0079752459673525459 0.00054895096045204025 0 0.0079752459673525459 0.00054895096045204025 0 0.007601116373086571 0.00037450649980578512 0 0.0076979880934687122 0.0003302628493653928 0 0.0079752459673525459 0.00054895096045204025 0 0.0076979880934687122 0.0003302628493653928 0 0.0079552751317958845 0.00025523437336931514 0 0.008287859288735178 0.00054351384298402181 0 0.0079752459673525459 0.00054895096045204025 0 0.0079552751317958845 0.00025523437336931514 0 0.0075029640605826448 0.0010801844040387843 0 0.0076416912495110281 0.00055206808451031353 0 0.007351055463568768 0.00062913548322561909 0 0.0079777891463492408 0.00076203909571507795 0 0.0075619205512290318 0.00065608311554217718 0 0.0075029640605826448 0.0010801844040387843 0 0.007351055463568768 0.00062913548322561909 0 0.0071500770067881771 0.00080964870446044055 0 0.0079447840673194225 0.00074315743272012388 0 0.0077822764007001496 0.0008258795856799819 0 0.0076416912495110281 0.00055206808451031353 0 0.0079447840673194225 0.00074315743272012388 0 0.0079752459673525459 0.00054895096045204025 0 0.0076416912495110281 0.00055206808451031353 0 0.0079752459673525459 0.00054895096045204025 0 0.0076416912495110281 0.00055206808451031353 0 0.007601116373086571 0.00037450649980578512 0 0.007351055463568768 0.00062913548322561909 0 0.0071170654089865509 0.00050308142706097258 0 0.0073643470803277725 0.000309188328003633 0 0.0076416912495110281 0.00055206808451031353 0 0.007351055463568768 0.00062913548322561909 0 0.0073643470803277725 0.000309188328003633 0 0.0071170654089865509 0.00050308142706097258 0 0.0068386570887942685 0.00054906310792734764 0 0.0071500770067881771 0.00080964870446044055 0 0.007351055463568768 0.00062913548322561909 0 0.0071170654089865509 0.00050308142706097258 0 0.0071500770067881771 0.00080964870446044055 0 0.0071170654089865509 0.00050308142706097258 0 0.0068386570887942685 0.00054906310792734764 0 0.0068902314037371445 0.00027063314624825433 0 0.0088747653020820397 9.8498375882798077e-05 0 0.0090971120598718723 0.0002797138253804187 0 0.0086429598840980799 0.00015711704200331765 0 0.0087090498424497904 -9.947606197631722e-05 0 0.0088747653020820397 9.8498375882798077e-05 0 0.0086429598840980799 0.00015711704200331765 0 0.0087090498424497904 -9.947606197631722e-05 0 0.0088747653020820397 9.8498375882798077e-05 0 0.0091591489687711195 0.00011834426866820326 0 0.0077661102181733463 0.0002275738172768182 0 0.0082043086167707963 0.00048162153127113109 0 0.0088747653020820397 9.8498375882798077e-05 0 0.0091591489687711195 0.00011834426866820326 0 0.0090971120598718723 0.0002797138253804187 0 0.0091883375724707509 0.00025399705059344231 0 0.0090971120598718723 0.0002797138253804187 0 0.0092301857625571686 0.00028457245092003967 0 0.0090971120598718723 0.0002797138253804187 0 0.0092301857625571686 0.00028457245092003967 0 0.009299025463272239 0.00028373153398392165 0 0.0091591489687711195 0.00011834426866820326 0 0.0091883375724707509 0.00025399705059344231 0 0.0090971120598718723 0.0002797138253804187 0 0.0090971120598718723 0.0002797138253804187 0 0.0095959624273763821 0.00032256615398721576 0 0.009299025463272239 0.00028373153398392165 0 0.0090971120598718723 0.0002797138253804187 0 0.0087508167716686142 0.00021742549878222287 0 0.0086429598840980799 0.00015711704200331765 0 0.0091344329754253495 0.00026057833287885336 0 0.0092000079972244745 0.00024162631003046427 0 0.009667182187265734 0.00014574853578248984 0 0.0095959624273763821 0.00032256615398721576 0 0.0093506539615364689 0.00019540469745270544 0 0.0095959624273763821 0.00032256615398721576 0 0.0093506539615364689 0.00019540469745270544 0 0.009299025463272239 0.00028373153398392165 0 0.0091892347258973866 0.00019557279574255207 0 0.0093506539615364689 0.00019540469745270544 0 0.0092301857625571686 0.00028457245092003967 0 0.0093506539615364689 0.00019540469745270544 0 0.0092301857625571686 0.00028457245092003967 0 0.009299025463272239 0.00028373153398392165 0 0.00901763358190877 -2.6450455277618424e-05 0 0.0091809611666717975 3.3435711994235498e-07 0 0.0087899171819187938 0.00014146442921459431 0 0.00901763358190877 -2.6450455277618424e-05 0 0.0087508167716686142 0.00021742549878222287 0 0.0087899171819187938 0.00014146442921459431 0 0.009667182187265734 0.00014574853578248984 0 0.0099382872518361202 0.0001220463776363537 0 0.0095959624273763821 0.00032256615398721576 0 0.0094703881892370216 8.9661941924100845e-05 0 0.0092000079972244745 0.00024162631003046427 0 0.0087508167716686142 0.00021742549878222287 0 0.0087899171819187938 0.00014146442921459431 0 0.0086429598840980799 0.00015711704200331765 0 0.0087899171819187938 0.00014146442921459431 0 0.0084492132730002497 2.5473838516348009e-07 0 0.0086429598840980799 0.00015711704200331765 0 0.0091809611666717975 3.3435711994235498e-07 0 0.0087899171819187938 0.00014146442921459431 0 0.0084492132730002497 2.5473838516348009e-07 0 0.0084492132730002497 2.5473838516348009e-07 0 0.0082741609707231087 3.7652535152853921e-05 0 0.0077175648796051106 1.1523353629729803e-07 0 0.0084492132730002497 2.5473838516348009e-07 0 0.0086429598840980799 0.00015711704200331765 0 0.0082741609707231087 3.7652535152853921e-05 0 0.0087090498424497904 -9.947606197631722e-05 0 0.0086429598840980799 0.00015711704200331765 0 0.0082741609707231087 3.7652535152853921e-05 0 0.0087090498424497904 -9.947606197631722e-05 0 0.0082741609707231087 3.7652535152853921e-05 0 0.0080737308834636767 -0.00018731180023591601 0 0.0077661102181733463 0.0002275738172768182 0 0.007376909226266627 5.9866906108686332e-05 0 0.0082741609707231087 3.7652535152853921e-05 0 0.0077175648796051106 1.1523353629729803e-07 0 0.0080737308834636767 -0.00018731180023591601 0 0.007376909226266627 5.9866906108686332e-05 0 0.0069859442241430193 9.0514842975991235e-08 0 0.0077175648796051106 1.1523353629729803e-07 0 0.0080737308834636767 -0.00018731180023591601 0 0.0069867263419927678 -7.2191408827370048e-07 0 0.0065810759746598039 0.00020599319887171171 0 0.0064488614346826425 0.00013091917130608142 0 0.0068902314037371445 0.00027063314624825433 0 0.0065810759746598039 0.00020599319887171171 0 0.0064488614346826425 0.00013091917130608142 0 0.0069838955756141808 2.0350158083643482e-07 0 0.0064488614346826425 0.00013091917130608142 0 0.0069838955756141808 2.0350158083643482e-07 0 0.0061391537363426289 2.7009808110924749e-07 0 0.0071170654089865509 0.00050308142706097258 0 0.0068902314037371445 0.00027063314624825433 0 0.0073643470803277725 0.000309188328003633 0 0.0068386570887942685 0.00054906310792734764 0 0.0065810759746598039 0.00020599319887171171 0 0.0068902314037371445 0.00027063314624825433 0 0.0068769627768549522 0.0003109086479364928 0 0.0068865118332221203 0.00024367541428107312 0 0.0064488614346826425 0.00013091917130608142 0 0.0068902314037371445 0.00027063314624825433 0 0.0064955376181026524 0.00015891370496082507 0 0.0068902314037371445 0.00027063314624825433 0 0.0072730975477530652 0.00027167134242045031 0 0.0073643470803277725 0.000309188328003633 0 0.0072730975477530652 0.00027167134242045031 0 0.0073770149632892993 0.00036972601510389471 0 0.0073643470803277725 0.000309188328003633 0 0.0064488614346826425 0.00013091917130608142 0 0.0064955376181026524 0.00015891370496082507 0 0.0060808306977224238 9.6088760283042881e-05 0 0.0064955376181026524 0.00015891370496082507 0 0.0063942593725202163 -2.92030047862415e-05 0 0.0060808306977224238 9.6088760283042881e-05 0 0.0063942593725202163 -2.92030047862415e-05 0 0.0060808306977224238 9.6088760283042881e-05 0 0.006034793366834411 -0.0001790485982519703 0 0.0068865118332221203 0.00024367541428107312 0 0.0069016210101057488 0.00025539864205372165 0 0.0072730975477530652 0.00027167134242045031 0 0.0074528246613448463 0.00048284722320585767 0 0.0073770149632892993 0.00036972601510389471 0 0.0064488614346826425 0.00013091917130608142 0 0.0061391537363426289 2.7009808110924749e-07 0 0.0060808306977224238 9.6088760283042881e-05 0 0.0060808306977224238 9.6088760283042881e-05 0 0.0056871582676701199 -1.2664948210370632e-05 0 0.0052885718396073964 -0.00015992195487208973 0 0.0061391537363426289 2.7009808110924749e-07 0 0.0060808306977224238 9.6088760283042881e-05 0 0.0056871582676701199 -1.2664948210370632e-05 0 0.0061391537363426289 2.7009808110924749e-07 0 0.0056871582676701199 -1.2664948210370632e-05 0 0.0052919369436323516 -3.7498496800601961e-07 0 0.0056871582676701199 -1.2664948210370632e-05 0 0.0052919369436323516 -3.7498496800601961e-07 0 0.0052885718396073964 -0.00015992195487208973 0 0.0052919369436323516 -3.7498496800601961e-07 0 0.0044451417681597568 2.0272562503613165e-07 0 0.0046446879162625968 2.1817113288917033e-05 0 0.0052919369436323516 -3.7498496800601961e-07 0 0.0052885718396073964 -0.00015992195487208973 0 0.0046446879162625968 2.1817113288917033e-05 0 0.0052885718396073964 -0.00015992195487208973 0 0.0040484173786988738 -1.6870665454139823e-05 0 0.0046446879162625968 2.1817113288917033e-05 0 0.0052237333099482202 -0.0001428994813064577 0 0.0050766939426198478 -0.00042588837199926497 0 0.0060808306977224238 9.6088760283042881e-05 0 0.0052885718396073964 -0.00015992195487208973 0 0.006034793366834411 -0.0001790485982519703 0 0.0063942593725202163 -2.92030047862415e-05 0 0.006034793366834411 -0.0001790485982519703 0 0.0065101385909154342 -0.00052418798790190217 0 0.0074528246613448463 0.00048284722320585767 0 0.007456984909635582 0.00071507576316231385 0 0.0073936504806237247 0.00057868820505352239 0 0.0069016210101057488 0.00025539864205372165 0 0.0071495700385052902 -1.0271198343202941e-05 0 0.0052885718396073964 -0.00015992195487208973 0 0.006034793366834411 -0.0001790485982519703 0 0.0061123798320921437 -0.00069250942934554469 0 0.006034793366834411 -0.0001790485982519703 0 0.0065101385909154342 -0.00052418798790190217 0 0.0061123798320921437 -0.00069250942934554469 0 0.0040484173786988738 -1.6870665454139823e-05 0 0.0041130967542699782 0.00017701419858771186 0 0.0039374229329237967 0.00027002820738460744 0 0.0065101385909154342 -0.00052418798790190217 0 0.0061123798320921437 -0.00069250942934554469 0 0.0065886423533988913 -0.0009996027195313948 0 0.0071495700385052902 -1.0271198343202941e-05 0 0.0054509670426085956 0.00027465335402300647 0 0.0040484173786988738 -1.6870665454139823e-05 0 0.0039374229329237967 0.00027002820738460744 0 0.0038442367296923404 0.00028739907584554336 0 0.0050766939426198478 -0.00042588837199926497 0 0.0054509670426085956 0.00027465335402300647 0 0.0039178686047465425 0.00034601943243169807 0 0.0039374229329237967 0.00027002820738460744 0 0.0038442367296923404 0.00028739907584554336 0 0.0039178686047465425 0.00034601943243169807 0 0.0039374229329237967 0.00027002820738460744 0 0.0038647094826913921 0.00030629281542794695 0 0.0041130967542699782 0.00017701419858771186 0 0.0039374229329237967 0.00027002820738460744 0 0.0038113581139696323 0.00025538103335677004 0 0.0039374229329237967 0.00027002820738460744 0 0.0038113581139696323 0.00025538103335677004 0 0.0038647094826913921 0.00030629281542794695 0 0.0041130967542699782 0.00017701419858771186 0 0.0040117412558039129 0.00015213063310131068 0 0.0038113581139696323 0.00025538103335677004 0 0.0040117412558039129 0.00015213063310131068 0 0.0044451417681597568 2.0272562503613165e-07 0 0.0035983198830744421 2.8444741029620791e-07 0 0.0040117412558039129 0.00015213063310131068 0 0.0044451417681597568 2.0272562503613165e-07 0 0.0046446879162625968 2.1817113288917033e-05 0 0.0041130967542699782 0.00017701419858771186 0 0.0040117412558039129 0.00015213063310131068 0 0.0046446879162625968 2.1817113288917033e-05 0 0.0040484173786988738 -1.6870665454139823e-05 0 0.0041130967542699782 0.00017701419858771186 0 0.0046446879162625968 2.1817113288917033e-05 0 0.0062001392703531144 0.00097730767071801711 0 0.00562460056706654 0.00073340562034172549 0 0.0054853955727657616 0.0010753062609002745 0 0.0062001392703531144 0.00097730767071801711 0 0.0054853955727657616 0.0010753062609002745 0 0.0061940670970173787 0.001181670786087012 0 0.0062001392703531144 0.00097730767071801711 0 0.0062029074092532673 0.00067854394884148074 0 0.0064773827247580663 0.00088994750484966282 0 0.0062001392703531144 0.00097730767071801711 0 0.0062029074092532673 0.00067854394884148074 0 0.00562460056706654 0.00073340562034172549 0 0.00562460056706654 0.00073340562034172549 0 0.0050032155921387947 0.00071061838316492057 0 0.0054853955727657616 0.0010753062609002745 0 0.0055246396975412214 0.00096354462131090549 0 0.0064380528919574225 0.00095848279498590694 0 0.0050032155921387947 0.00071061838316492057 0 0.0049071972982128393 0.00081745759087862929 0 0.0054853955727657616 0.0010753062609002745 0 0.0049766853032059714 0.00096589473940428706 0 0.0055246396975412214 0.00096354462131090549 0 0.0050032155921387947 0.00071061838316492057 0 0.004511205985761919 0.0010937803892589685 0 0.0045626513501587336 0.00054100537778998604 0 0.0054509670426085956 0.00027465335402300647 0 0.0037833037221897182 0.00069631840274253694 0 0.0039911785069844854 0.0014159125211126551 0 0.004163583140759387 0.00070337818487365648 0 0.0041346539220910037 0.00040280327603993264 0 0.0039178686047465425 0.00034601943243169807 0 0.0038442367296923404 0.00028739907584554336 0 0.0041346539220910037 0.00040280327603993264 0 0.0044611225524859334 0.0010433177171071839 0 0.0039911785069844854 0.0014159125211126551 0 0.004163583140759387 0.00070337818487365648 0 0.004511205985761919 0.0010937803892589685 0 0.004163583140759387 0.00070337818487365648 0 0.0045626513501587336 0.00054100537778998604 0 0.0055246396975412214 0.00096354462131090549 0 0.0044660193504984331 0.00053710194215243388 0 0.007331927124636285 0.00092874968329120138 0 0.0074065850944277159 0.00088095378731424133 0 0.0073408089316425685 0.00085988342640443355 0 0.0055246396975412214 0.00096354462131090549 0 0.0054509670426085956 0.00027465335402300647 0 0.007456984909635582 0.00071507576316231385 0 0.0074065850944277159 0.00088095378731424133 0 0.0073670324062669705 0.00079125990390257279 0 0.0074065850944277159 0.00088095378731424133 0 0.0073408089316425685 0.00085988342640443355 0 0.0073670324062669705 0.00079125990390257279 0 0.0073408089316425685 0.00085988342640443355 0 0.0073670324062669705 0.00079125990390257279 0 0.0072610937840280054 0.00083670029192081045 0 0.007331927124636285 0.00092874968329120138 0 0.0073408089316425685 0.00085988342640443355 0 0.0072610937840280054 0.00083670029192081045 0 0.0072610937840280054 0.00083670029192081045 0 0.0073282008826662309 0.00071067182395933366 0 0.0071877261449002187 0.00081297984957454745 0 0.0073670324062669705 0.00079125990390257279 0 0.0072610937840280054 0.00083670029192081045 0 0.0073282008826662309 0.00071067182395933366 0 0.007456984909635582 0.00071507576316231385 0 0.0073670324062669705 0.00079125990390257279 0 0.0073282008826662309 0.00071067182395933366 0 0.007456984909635582 0.00071507576316231385 0 0.0073282008826662309 0.00071067182395933366 0 0.0073936504806237247 0.00057868820505352239 0 0.0073282008826662309 0.00071067182395933366 0 0.0073936504806237247 0.00057868820505352239 0 0.0073442519209841886 0.00054467877244059591 0 0.0073282008826662309 0.00071067182395933366 0 0.0071877261449002187 0.00081297984957454745 0 0.0073442519209841886 0.00054467877244059591 0 0.0071877261449002187 0.00081297984957454745 0 0.0069484983172811146 0.00084295087631124262 0 0.0072747598315894297 0.00059438564575483254 0 0.0071877261449002187 0.00081297984957454745 0 0.0072747598315894297 0.00059438564575483254 0 0.0073442519209841886 0.00054467877244059591 0 0.0064380528919574225 0.00095848279498590694 0 0.0066589296273373956 0.00094198091062213697 0 0.0062001392703531144 0.00097730767071801711 0 0.0065833764089019029 0.0010590893075178352 0 0.0065671982705872416 0.0010079781410188766 0 0.0062001392703531144 0.00097730767071801711 0 0.0061940670970173787 0.001181670786087012 0 0.0065833764089019029 0.0010590893075178352 0 0.0066589296273373956 0.00094198091062213697 0 0.0068593611335013311 0.0008442732074391546 0 0.0061940670970173787 0.001181670786087012 0 0.0065833764089019029 0.0010590893075178352 0 0.0069484983172811146 0.00084295087631124262 0 0.0065833764089019029 0.0010590893075178352 0 0.0069484983172811146 0.00084295087631124262 0 0.0067509038423009572 0.00097936397791819263 0 0.0069484983172811146 0.00084295087631124262 0 0.0072747598315894297 0.00059438564575483254 0 0.0073275324821152248 0.00047411908999161941 0 0.0069484983172811146 0.00084295087631124262 0 0.0073275324821152248 0.00047411908999161941 0 0.0070222541813530397 0.00067926374360009767 0 0.0072747598315894297 0.00059438564575483254 0 0.0073275324821152248 0.00047411908999161941 0 0.0074783429495900843 0.00034658311783822092 0 0.0073936504806237247 0.00057868820505352239 0 0.0073442519209841886 0.00054467877244059591 0 0.0073770149632892993 0.00036972601510389471 0 0.0074528246613448463 0.00048284722320585767 0 0.0073936504806237247 0.00057868820505352239 0 0.0073770149632892993 0.00036972601510389471 0 0.0072747598315894297 0.00059438564575483254 0 0.0073442519209841886 0.00054467877244059591 0 0.0074783429495900843 0.00034658311783822092 0 0.0073442519209841886 0.00054467877244059591 0 0.0073770149632892993 0.00036972601510389471 0 0.0074783429495900843 0.00034658311783822092 0 0.0073770149632892993 0.00036972601510389471 0 0.0074783429495900843 0.00034658311783822092 0 0.0073643470803277725 0.000309188328003633 0 0.0074783429495900843 0.00034658311783822092 0 0.007601116373086571 0.00037450649980578512 0 0.0073643470803277725 0.000309188328003633 0 0.0076416912495110281 0.00055206808451031353 0 0.007601116373086571 0.00037450649980578512 0 0.0073643470803277725 0.000309188328003633 0 0.0073275324821152248 0.00047411908999161941 0 0.0074783429495900843 0.00034658311783822092 0 0.0075675724053133036 0.00031666577133547931 0 0.0074783429495900843 0.00034658311783822092 0 0.0075675724053133036 0.00031666577133547931 0 0.0076979880934687122 0.0003302628493653928 0 0.0074783429495900843 0.00034658311783822092 0 0.007601116373086571 0.00037450649980578512 0 0.0076979880934687122 0.0003302628493653928 0 0.0075675724053133036 0.00031666577133547931 0 0.0076979880934687122 0.0003302628493653928 0 0.0079552751317958845 0.00025523437336931514 0 0.007892135511322243 0.00026017744363939215 0 0.007759002920837363 6.0582963915322354e-05 0 0.0073275324821152248 0.00047411908999161941 0 0.0075675724053133036 0.00031666577133547931 0 0.0072671854109327095 0.00035045362109603113 0 0.0075675724053133036 0.00031666577133547931 0 0.0079552751317958845 0.00025523437336931514 0 0.0072671854109327095 0.00035045362109603113 0 0.0082344931994065597 -0.0003144039280415009 0 0.0085571540163309531 -0.00011650253783385913 0 0.0086877982084136735 -0.00050622911387224417 0 0.0079552751317958845 0.00025523437336931514 0 0.0082344931994065597 -0.0003144039280415009 0 0.0085571540163309531 -0.00011650253783385913 0 0.0084257754466746503 0.00033945545041035572 0 0.0079552751317958845 0.00025523437336931514 0 0.0085571540163309531 -0.00011650253783385913 0 0.0084257754466746503 0.00033945545041035572 0 0.0085571540163309531 -0.00011650253783385913 0 0.0088909131675534124 0.00014002602658072605 0 0.0085571540163309531 -0.00011650253783385913 0 0.0088909131675534124 0.00014002602658072605 0 0.008887328578580973 -0.00033395093532336998 0 0.0088909131675534124 0.00014002602658072605 0 0.0092047737389309991 -0.00015264721029784614 0 0.008887328578580973 -0.00033395093532336998 0 0.0093530379332407414 0.00016171208284251816 0 0.0088909131675534124 0.00014002602658072605 0 0.0092047737389309991 -0.00015264721029784614 0 0.0092047737389309991 -0.00015264721029784614 0 0.008887328578580973 -0.00033395093532336998 0 0.0091717855016340104 -0.00041717492444657666 0 0.0085571540163309531 -0.00011650253783385913 0 0.008887328578580973 -0.00033395093532336998 0 0.0086877982084136735 -0.00050622911387224417 0 0.008887328578580973 -0.00033395093532336998 0 0.0086877982084136735 -0.00050622911387224417 0 0.0090261049218589989 -0.00062040998004180242 0 0.0086877982084136735 -0.00050622911387224417 0 0.0090261049218589989 -0.00062040998004180242 0 0.0088413964901319884 -0.00081498000415023027 0 0.008887328578580973 -0.00033395093532336998 0 0.0091717855016340104 -0.00041717492444657666 0 0.0090261049218589989 -0.00062040998004180242 0 0.0091717855016340104 -0.00041717492444657666 0 0.0090261049218589989 -0.00062040998004180242 0 0.009259619915732948 -0.00055465948663856895 0 0.0090261049218589989 -0.00062040998004180242 0 0.009259619915732948 -0.00055465948663856895 0 0.0092205284150567966 -0.0007502078457035581 0 0.0090261049218589989 -0.00062040998004180242 0 0.0090415442485052688 -0.00081906151467402426 0 0.0092205284150567966 -0.0007502078457035581 0 0.0090261049218589989 -0.00062040998004180242 0 0.0090415442485052688 -0.00081906151467402426 0 0.0088413964901319884 -0.00081498000415023027 0 0.0090415442485052688 -0.00081906151467402426 0 0.0088413964901319884 -0.00081498000415023027 0 0.0089620748554804282 -0.00097686575098804404 0 0.0090415442485052688 -0.00081906151467402426 0 0.0091551205690761101 -0.00088100260971058137 0 0.0089620748554804282 -0.00097686575098804404 0 0.0090415442485052688 -0.00081906151467402426 0 0.0092205284150567966 -0.0007502078457035581 0 0.0091551205690761101 -0.00088100260971058137 0 0.0086877982084136735 -0.00050622911387224417 0 0.0088413964901319884 -0.00081498000415023027 0 0.0084817923595312556 -0.00071499442848994301 0 0.0088413964901319884 -0.00081498000415023027 0 0.0084817923595312556 -0.00071499442848994301 0 0.0086796715342519655 -0.0010165998036523619 0 0.0076655913797248273 -1.313153291062447e-05 0 0.0076943126268994161 -9.949129293828682e-07 0 0.0068334007347385251 0.00067087672181801534 0 0.0070222541813530397 0.00067926374360009767 0 0.0067509038423009572 0.00097936397791819263 0 0.0073275324821152248 0.00047411908999161941 0 0.0072671854109327095 0.00035045362109603113 0 0.0070222541813530397 0.00067926374360009767 0 0.0072671854109327095 0.00035045362109603113 0 0.0068334007347385251 0.00067087672181801534 0 0.0070222541813530397 0.00067926374360009767 0 0.0082344931994065597 -0.0003144039280415009 0 0.0086877982084136735 -0.00050622911387224417 0 0.0084817923595312556 -0.00071499442848994301 0 0.007759002920837363 6.0582963915322354e-05 0 0.0076655913797248273 -1.313153291062447e-05 0 0.010514189599588018 0.00012985888142936147 0 0.010183771869878497 7.9601341937048153e-06 0 0.010398958345193809 -0.00027733911394969168 0 0.010380190543779592 0.0002674657488968189 0 0.010514189599588018 0.00012985888142936147 0 0.010183771869878497 7.9601341937048153e-06 0 0.010260880741684587 0.00023500534825178517 0 0.010073422444570945 -8.950127815450569e-05 0 0.0099021994654014435 7.2979321332302733e-05 0 0.0099682232469411498 -0.00015169019570721338 0 0.0096372270482708126 -2.8149590349077577e-05 0 0.0099021994654014435 7.2979321332302733e-05 0 0.010133436553346935 0.00018492698435935298 0 0.0099682232469411498 -0.00015169019570721338 0 0.010183771869878497 7.9601341937048153e-06 0 0.0098848465741032156 -0.00056408024321291563 0 0.010398958345193809 -0.00027733911394969168 0 0.010073422444570945 -8.950127815450569e-05 0 0.0098970639420030374 -0.00054577752476258864 0 0.0099682232469411498 -0.00015169019570721338 0 0.009727555919272499 -0.00031932487351331047 0 0.0098848465741032156 -0.00056408024321291563 0 0.009727555919272499 -0.00031932487351331047 0 0.0096372270482708126 -2.8149590349077577e-05 0 0.0094682210153077158 -0.00036113577787061401 0 0.0099682232469411498 -0.00015169019570721338 0 0.009727555919272499 -0.00031932487351331047 0 0.0096372270482708126 -2.8149590349077577e-05 0 0.0093530379332407414 0.00016171208284251816 0 0.0092047737389309991 -0.00015264721029784614 0 0.0096372270482708126 -2.8149590349077577e-05 0 0.0092047737389309991 -0.00015264721029784614 0 0.0096372270482708126 -2.8149590349077577e-05 0 0.0094682210153077158 -0.00036113577787061401 0 0.0092047737389309991 -0.00015264721029784614 0 0.0091717855016340104 -0.00041717492444657666 0 0.0094682210153077158 -0.00036113577787061401 0 0.0091717855016340104 -0.00041717492444657666 0 0.0094682210153077158 -0.00036113577787061401 0 0.009259619915732948 -0.00055465948663856895 0 0.0094682210153077158 -0.00036113577787061401 0 0.0094252967250949542 -0.00063022530298193771 0 0.0096696482497482389 -0.00051917674899376544 0 0.0094682210153077158 -0.00036113577787061401 0 0.0094252967250949542 -0.00063022530298193771 0 0.009259619915732948 -0.00055465948663856895 0 0.0094252967250949542 -0.00063022530298193771 0 0.009259619915732948 -0.00055465948663856895 0 0.0092205284150567966 -0.0007502078457035581 0 0.0094252967250949542 -0.00063022530298193771 0 0.0092205284150567966 -0.0007502078457035581 0 0.0092294954479207898 -0.00098056170683769083 0 0.0094252967250949542 -0.00063022530298193771 0 0.0092294954479207898 -0.00098056170683769083 0 0.0095300053382961995 -0.00070250221571480076 0 0.0091978530658890067 -0.00080185975126009822 0 0.0091756653121033687 -0.00080106190682280407 0 0.0089472455660806315 -0.00041863881700060187 0 0.0091593858008016862 -0.00038242374780914269 0 0.0090871850408315458 -0.00047557651381382993 0 0.0089472455660806315 -0.00041863881700060187 0 0.0091593858008016862 -0.00038242374780914269 0 0.0093035258736175481 -0.00016491052938449847 0 0.0091756653121033687 -0.00080106190682280407 0 0.0095383942015339999 -0.00041172938839784676 0 0.0092294954479207898 -0.00098056170683769083 0 0.0095300053382961995 -0.00070250221571480076 0 0.0097936511008389279 -0.00068582480110776761 0 0.0091593858008016862 -0.00038242374780914269 0 0.0093033691161967559 -0.00035829118098414429 0 0.0091728505587714334 -0.00052301529319613766 0 0.0091593858008016862 -0.00038242374780914269 0 0.0093033691161967559 -0.00035829118098414429 0 0.0093035258736175481 -0.00016491052938449847 0 0.0093033691161967559 -0.00035829118098414429 0 0.0093035258736175481 -0.00016491052938449847 0 0.0094530955824665367 -0.00027417414726142324 0 0.0097936511008389279 -0.00068582480110776761 0 0.0096696482497482389 -0.00051917674899376544 0 0.0098848465741032156 -0.00056408024321291563 0 0.009727555919272499 -0.00031932487351331047 0 0.0096696482497482389 -0.00051917674899376544 0 0.0098848465741032156 -0.00056408024321291563 0 0.0095300053382961995 -0.00070250221571480076 0 0.0097936511008389279 -0.00068582480110776761 0 0.0096696482497482389 -0.00051917674899376544 0 0.0094252967250949542 -0.00063022530298193771 0 0.0095300053382961995 -0.00070250221571480076 0 0.0096696482497482389 -0.00051917674899376544 0 0.009727555919272499 -0.00031932487351331047 0 0.0094682210153077158 -0.00036113577787061401 0 0.0096696482497482389 -0.00051917674899376544 0 0.0097936511008389279 -0.00068582480110776761 0 0.0098848465741032156 -0.00056408024321291563 0 0.010398958345193809 -0.00027733911394969168 0 0.0095383942015339999 -0.00041172938839784676 0 0.010161172922954754 -0.00011584668770540941 0 0.0093035258736175481 -0.00016491052938449847 0 0.009710387864387297 -0.00018026852332146237 0 0.0099404426649591492 7.754263741219144e-05 0 0.0093035258736175481 -0.00016491052938449847 0 0.0094530955824665367 -0.00027417414726142324 0 0.009710387864387297 -0.00018026852332146237 0 0.0093033691161967559 -0.00035829118098414429 0 0.0094530955824665367 -0.00027417414726142324 0 0.0095101085841957419 -0.00037667516396461189 0 0.0093033691161967559 -0.00035829118098414429 0 0.0095101085841957419 -0.00037667516396461189 0 0.0093212802122386446 -0.0005335728861205945 0 0.0095101085841957419 -0.00037667516396461189 0 0.009710387864387297 -0.00018026852332146237 0 0.0097963083183939363 -0.00036846346080896474 0 0.0094530955824665367 -0.00027417414726142324 0 0.0095101085841957419 -0.00037667516396461189 0 0.009710387864387297 -0.00018026852332146237 0 0.009710387864387297 -0.00018026852332146237 0 0.0097963083183939363 -0.00036846346080896474 0 0.010197106230880434 -0.00016362226201444978 0 0.0097963083183939363 -0.00036846346080896474 0 0.010083759685058723 -0.00050002259046185164 0 0.010197106230880434 -0.00016362226201444978 0 0.009710387864387297 -0.00018026852332146237 0 0.0099404426649591492 7.754263741219144e-05 0 0.010197106230880434 -0.00016362226201444978 0 0.0092985601901554686 -0.00080693278077486903 0 0.0093589778015337934 -0.00091304412890954917 0 0.0095866618584957344 -0.00061303207524795685 0 0.0092271452053297974 -0.00080423104169203771 0 0.0099745928497729074 -0.00084528583954152938 0 0.0092271452053297974 -0.00080423104169203771 0 0.008986509115210612 -0.0006845197842132555 0 0.0088960447770997878 -0.00092278908685457185 0 0.0095866618584957344 -0.00061303207524795685 0 0.010083759685058723 -0.00050002259046185164 0 0.0099745928497729074 -0.00084528583954152938 0 0.0097963083183939363 -0.00036846346080896474 0 0.0095866618584957344 -0.00061303207524795685 0 0.010083759685058723 -0.00050002259046185164 0 0.0095101085841957419 -0.00037667516396461189 0 0.0095866618584957344 -0.00061303207524795685 0 0.0093212802122386446 -0.0005335728861205945 0 0.0095101085841957419 -0.00037667516396461189 0 0.0097963083183939363 -0.00036846346080896474 0 0.0095866618584957344 -0.00061303207524795685 0 0.0095866618584957344 -0.00061303207524795685 0 0.0093212802122386446 -0.0005335728861205945 0 0.0092271452053297974 -0.00080423104169203771 0 0.0092271452053297974 -0.00080423104169203771 0 0.0091488595010100517 -0.00065007098357018698 0 0.0091163490928250941 -0.00069456856823557015 0 0.0093212802122386446 -0.0005335728861205945 0 0.0092271452053297974 -0.00080423104169203771 0 0.0091488595010100517 -0.00065007098357018698 0 0.0093212802122386446 -0.0005335728861205945 0 0.0091488595010100517 -0.00065007098357018698 0 0.0091728505587714334 -0.00052301529319613766 0 0.0093033691161967559 -0.00035829118098414429 0 0.0093212802122386446 -0.0005335728861205945 0 0.0091728505587714334 -0.00052301529319613766 0 0.0091593858008016862 -0.00038242374780914269 0 0.0091728505587714334 -0.00052301529319613766 0 0.0090871850408315458 -0.00047557651381382993 0 0.0091488595010100517 -0.00065007098357018698 0 0.0091728505587714334 -0.00052301529319613766 0 0.0090583387462110625 -0.00056745522650943471 0 0.0089472455660806315 -0.00041863881700060187 0 0.0090583387462110625 -0.00056745522650943471 0 0.0089694076476409621 -0.00073984551069220092 0 0.0091756653121033687 -0.00080106190682280407 0 0.0087827391026061713 -0.00047462780349729716 0 0.0089472455660806315 -0.00041863881700060187 0 0.0090583387462110625 -0.00056745522650943471 0 0.0090871850408315458 -0.00047557651381382993 0 0.0091728505587714334 -0.00052301529319613766 0 0.0090583387462110625 -0.00056745522650943471 0 0.0090871850408315458 -0.00047557651381382993 0 0.0090062563245240923 -0.00058385948033228073 0 0.0087827391026061713 -0.00047462780349729716 0 0.0091488595010100517 -0.00065007098357018698 0 0.009064694196045775 -0.00065989772927500768 0 0.0091163490928250941 -0.00069456856823557015 0 0.0091488595010100517 -0.00065007098357018698 0 0.0090583387462110625 -0.00056745522650943471 0 0.009064694196045775 -0.00065989772927500768 0 0.009064694196045775 -0.00065989772927500768 0 0.0090991165525297658 -0.00063613409107797286 0 0.0091163490928250941 -0.00069456856823557015 0 0.0087827391026061713 -0.00047462780349729716 0 0.0086514034501068791 2.9963204480484971e-05 0 0.0090991165525297658 -0.00063613409107797286 0 0.0090719741491660216 -0.00062966915941957511 0 0.0091163490928250941 -0.00069456856823557015 0 0.0090991165525297658 -0.00063613409107797286 0 0.0090179704366028339 -0.00055289867972485151 0 0.0089637769921937262 -0.00045209504952374081 0 0.0086514034501068791 2.9963204480484971e-05 0 0.0086358948404036389 -9.49138243615516e-05 0 0.0082395035056186949 0.0005169554160608013 0 0.0082126358956304667 0.00044971202023817003 0 0.0083306272277673295 0.00038258873732133599 0 0.0090991165525297658 -0.00063613409107797286 0 0.0090719741491660216 -0.00062966915941957511 0 0.0090179704366028339 -0.00055289867972485151 0 0.0090719741491660216 -0.00062966915941957511 0 0.0090179704366028339 -0.00055289867972485151 0 0.0090824122692845198 -0.00063015288025384056 0 0.0090179704366028339 -0.00055289867972485151 0 0.0090824122692845198 -0.00063015288025384056 0 0.0090003366176279031 -0.00049837814375520094 0 0.0092271452053297974 -0.00080423104169203771 0 0.0091163490928250941 -0.00069456856823557015 0 0.0090824122692845198 -0.00063015288025384056 0 0.0090719741491660216 -0.00062966915941957511 0 0.0091163490928250941 -0.00069456856823557015 0 0.0090824122692845198 -0.00063015288025384056 0 0.0092271452053297974 -0.00080423104169203771 0 0.0090824122692845198 -0.00063015288025384056 0 0.008986509115210612 -0.0006845197842132555 0 0.0090824122692845198 -0.00063015288025384056 0 0.008910201365202328 -0.0005361390102923588 0 0.0090003366176279031 -0.00049837814375520094 0 0.008910201365202328 -0.0005361390102923588 0 0.008986509115210612 -0.0006845197842132555 0 0.0087995439989632593 -0.00070396260250020395 0 0.0090824122692845198 -0.00063015288025384056 0 0.008910201365202328 -0.0005361390102923588 0 0.008986509115210612 -0.0006845197842132555 0 0.0067098566577119788 0.0009664354429791349 0 0.0068450380695952535 0.00096941205676280779 0 0.0066980392636331113 0.00098290879398208624 0 0.0067509038423009572 0.00097936397791819263 0 0.0067098566577119788 0.0009664354429791349 0 0.0066980392636331113 0.00098290879398208624 0 0.0065833764089019029 0.0010590893075178352 0 0.0065671982705872416 0.0010079781410188766 0 0.0067509038423009572 0.00097936397791819263 0 0.0065671982705872416 0.0010079781410188766 0 0.0067509038423009572 0.00097936397791819263 0 0.0066980392636331113 0.00098290879398208624 0 0.0069484983172811146 0.00084295087631124262 0 0.0070222541813530397 0.00067926374360009767 0 0.0067509038423009572 0.00097936397791819263 0 0.0068334007347385251 0.00067087672181801534 0 0.0067509038423009572 0.00097936397791819263 0 0.0067098566577119788 0.0009664354429791349 0 0.0088413964901319884 -0.00081498000415023027 0 0.0086796715342519655 -0.0010165998036523619 0 0.0089620748554804282 -0.00097686575098804404 0 0.0086796715342519655 -0.0010165998036523619 0 0.0089620748554804282 -0.00097686575098804404 0 0.0089081876191249802 -0.0011273489832616323 0 0.0091551205690761101 -0.00088100260971058137 0 0.0090844109081539091 -0.0011208893238392186 0 0.0089620748554804282 -0.00097686575098804404 0 0.0090844109081539091 -0.0011208893238392186 0 0.0089081876191249802 -0.0011273489832616323 0 0.0089594810314563827 -0.0012567392385735838 0 0.0090844109081539091 -0.0011208893238392186 0 0.0089620748554804282 -0.00097686575098804404 0 0.0089081876191249802 -0.0011273489832616323 0 0.0087827391026061713 -0.00047462780349729716 0 0.0085877967717723023 -0.00042680964163270508 0 0.0076943126268994161 -9.949129293828682e-07 0 0.0078493602440961787 -0.00025161294421062387 0 0.0086796715342519655 -0.0010165998036523619 0 0.0089081876191249802 -0.0011273489832616323 0 0.0088155670600258453 -0.001217510017676474 0 0.0068450380695952535 0.00096941205676280779 0 0.0070853219084976654 0.00072188517097204546 0 0.0068368077268975997 0.00082020722805400286 0 0.0078493602440961787 -0.00025161294421062387 0 0.0080046362826462075 0.00026578929300361378 0 0.0089081876191249802 -0.0011273489832616323 0 0.0088155670600258453 -0.001217510017676474 0 0.0089594810314563827 -0.0012567392385735838 0 0.0082289872481048579 0.00051124186585373719 0 0.0082395035056186949 0.0005169554160608013 0 0.0082195471334124814 0.00052121680703025829 0 0.0088155670600258453 -0.001217510017676474 0 0.0089594810314563827 -0.0012567392385735838 0 0.0088797067029608781 -0.00135676475449013 0 0.0085877967717723023 -0.00042680964163270508 0 0.0080046362826462075 0.00026578929300361378 0 0.0082395035056186949 0.0005169554160608013 0 0.0082126358956304667 0.00044971202023817003 0 0.0081547337080379242 0.00048013697077803341 0 0.0082395035056186949 0.0005169554160608013 0 0.0082195471334124814 0.00052121680703025829 0 0.0081547337080379242 0.00048013697077803341 0 0.0070853219084976654 0.00072188517097204546 0 0.0068368077268975997 0.00082020722805400286 0 0.0068733698237173242 0.00061540611268401076 0 0.0066393871104453344 0.00074849833694289806 0 0.0068368077268975997 0.00082020722805400286 0 0.0068733698237173242 0.00061540611268401076 0 0.0066393871104453344 0.00074849833694289806 0 0.0068368077268975997 0.00082020722805400286 0 0.0066980392636331113 0.00098290879398208624 0 0.0068450380695952535 0.00096941205676280779 0 0.0068368077268975997 0.00082020722805400286 0 0.0066980392636331113 0.00098290879398208624 0 0.0066393871104453344 0.00074849833694289806 0 0.0066980392636331113 0.00098290879398208624 0 0.0064773827247580663 0.00088994750484966282 0 0.0062001392703531144 0.00097730767071801711 0 0.0065671982705872416 0.0010079781410188766 0 0.0064773827247580663 0.00088994750484966282 0 0.0065671982705872416 0.0010079781410188766 0 0.0066980392636331113 0.00098290879398208624 0 0.0064773827247580663 0.00088994750484966282 0 0.0062029074092532673 0.00067854394884148074 0 0.0066393871104453344 0.00074849833694289806 0 0.0064773827247580663 0.00088994750484966282 0 0.0062029074092532673 0.00067854394884148074 0 0.0065240799192059998 0.00035848739931615935 0 0.0059909213104545403 0.00025269569507658433 0 0.0062029074092532673 0.00067854394884148074 0 0.0066393871104453344 0.00074849833694289806 0 0.0065240799192059998 0.00035848739931615935 0 0.0065240799192059998 0.00035848739931615935 0 0.0060774333038091967 -0.00018055049638953527 0 0.00684530056902183 -0.00019872956218389509 0 0.0065240799192059998 0.00035848739931615935 0 0.0060774333038091967 -0.00018055049638953527 0 0.0059909213104545403 0.00025269569507658433 0 0.0065240799192059998 0.00035848739931615935 0 0.0070766312665800947 0.0002804754845900722 0 0.00684530056902183 -0.00019872956218389509 0 0.0065240799192059998 0.00035848739931615935 0 0.0068733698237173242 0.00061540611268401076 0 0.0070766312665800947 0.0002804754845900722 0 0.0066393871104453344 0.00074849833694289806 0 0.0065240799192059998 0.00035848739931615935 0 0.0068733698237173242 0.00061540611268401076 0 0.0070853219084976654 0.00072188517097204546 0 0.0068733698237173242 0.00061540611268401076 0 0.0070766312665800947 0.0002804754845900722 0 0.0080046362826462075 0.00026578929300361378 0 0.0069527432820524213 0.00055257874011590234 0 0.0076569756296952455 0.0013249747558477089 0 0.0078836971844618645 0.00066973324100008907 0 0.0070766312665800947 0.0002804754845900722 0 0.0082126358956304667 0.00044971202023817003 0 0.0081185652331791473 0.00036432476462589268 0 0.0083306272277673295 0.00038258873732133599 0 0.0080046362826462075 0.00026578929300361378 0 0.0079735397024415979 0.00058543426136399676 0 0.0082126358956304667 0.00044971202023817003 0 0.0081547337080379242 0.00048013697077803341 0 0.0081185652331791473 0.00036432476462589268 0 0.0081185652331791473 0.00036432476462589268 0 0.0081325578473097158 1.8127289153631592e-05 0 0.0083306272277673295 0.00038258873732133599 0 0.0078836971844618645 0.00066973324100008907 0 0.0081325578473097158 1.8127289153631592e-05 0 0.0075445417697583223 -6.6024777804304515e-05 0 0.0079735397024415979 0.00058543426136399676 0 0.00813558431691133 5.3285572265756357e-05 0 0.0081325578473097158 1.8127289153631592e-05 0 0.0075445417697583223 -6.6024777804304515e-05 0 0.0080012347598225515 -0.00043173906528739522 0 0.0070766312665800947 0.0002804754845900722 0 0.0075445417697583223 -6.6024777804304515e-05 0 0.00684530056902183 -0.00019872956218389509 0 0.0078836971844618645 0.00066973324100008907 0 0.0070766312665800947 0.0002804754845900722 0 0.0075445417697583223 -6.6024777804304515e-05 0 0.0075445417697583223 -6.6024777804304515e-05 0 0.0080012347598225515 -0.00043173906528739522 0 0.0074826234252588211 -0.00078987866559726908 0 0.0075445417697583223 -6.6024777804304515e-05 0 0.0074826234252588211 -0.00078987866559726908 0 0.00684530056902183 -0.00019872956218389509 0 0.0080012347598225515 -0.00043173906528739522 0 0.0074826234252588211 -0.00078987866559726908 0 0.0083276694885747373 -0.00082466561455836029 0 0.0081325578473097158 1.8127289153631592e-05 0 0.0080012347598225515 -0.00043173906528739522 0 0.0085153342288573648 -0.00041876842657711486 0 0.0080012347598225515 -0.00043173906528739522 0 0.0085153342288573648 -0.00041876842657711486 0 0.0083276694885747373 -0.00082466561455836029 0 0.0074826234252588211 -0.00078987866559726908 0 0.0083276694885747373 -0.00082466561455836029 0 0.0081431821181376894 -0.001429802958124381 0 0.0074826234252588211 -0.00078987866559726908 0 0.0071758017886351267 -0.0013008663040066002 0 0.0081431821181376894 -0.001429802958124381 0 0.0074826234252588211 -0.00078987866559726908 0 0.006505889920362805 -0.00092946238761816493 0 0.0071758017886351267 -0.0013008663040066002 0 0.006505889920362805 -0.00092946238761816493 0 0.0057262527561817208 -0.001727138642362181 0 0.0056847923509246497 -0.00070421127458004311 0 0.006505889920362805 -0.00092946238761816493 0 0.0060774333038091967 -0.00018055049638953527 0 0.0056847923509246497 -0.00070421127458004311 0 0.006505889920362805 -0.00092946238761816493 0 0.0060774333038091967 -0.00018055049638953527 0 0.00684530056902183 -0.00019872956218389509 0 0.0074826234252588211 -0.00078987866559726908 0 0.006505889920362805 -0.00092946238761816493 0 0.00684530056902183 -0.00019872956218389509 0 0.0088943108368834435 -0.00039446809765900564 0 0.0089663865870685568 -0.00045241974322142334 0 0.0090174230285219297 -0.00050848791090920404 0 0.0088943108368834435 -0.00039446809765900564 0 0.0089566392074952664 -0.00046785526576952302 0 0.0089663865870685568 -0.00045241974322142334 0 0.008910201365202328 -0.0005361390102923588 0 0.0088943108368834435 -0.00039446809765900564 0 0.0089566392074952664 -0.00046785526576952302 0 0.008910201365202328 -0.0005361390102923588 0 0.0089566392074952664 -0.00046785526576952302 0 0.0090003366176279031 -0.00049837814375520094 0 0.0089566392074952664 -0.00046785526576952302 0 0.0090003366176279031 -0.00049837814375520094 0 0.0089731881472120013 -0.00045764860417769687 0 0.0090003366176279031 -0.00049837814375520094 0 0.0089731881472120013 -0.00045764860417769687 0 0.0089507533957982905 -0.00046184844921344883 0 0.0089566392074952664 -0.00046785526576952302 0 0.0089731881472120013 -0.00045764860417769687 0 0.0089663865870685568 -0.00045241974322142334 0 0.0089731881472120013 -0.00045764860417769687 0 0.0089663865870685568 -0.00045241974322142334 0 0.0089801504700063699 -0.00047511502385943599 0 0.0089731881472120013 -0.00045764860417769687 0 0.0089801504700063699 -0.00047511502385943599 0 0.0089465477860019571 -0.00049716331667937186 0 0.0089094145544169629 -0.00045413645260561998 0 0.0088503038714136967 -0.00052566963420640244 0 0.0089465477860019571 -0.00049716331667937186 0 0.0089731881472120013 -0.00045764860417769687 0 0.0089094145544169629 -0.00045413645260561998 0 0.0089465477860019571 -0.00049716331667937186 0 0.0089094145544169629 -0.00045413645260561998 0 0.0087781313459507123 -0.00042707249902140072 0 0.0088503038714136967 -0.00052566963420640244 0 0.0089094145544169629 -0.00045413645260561998 0 0.0088923382391696369 -0.00044404900887099472 0 0.0089507533957982905 -0.00046184844921344883 0 0.0089094145544169629 -0.00045413645260561998 0 0.0088923382391696369 -0.00044404900887099472 0 0.0087781313459507123 -0.00042707249902140072 0 0.0089731881472120013 -0.00045764860417769687 0 0.0089094145544169629 -0.00045413645260561998 0 0.0089507533957982905 -0.00046184844921344883 0 0.0090179704366028339 -0.00055289867972485151 0 0.0090003366176279031 -0.00049837814375520094 0 0.0089560646526658412 -0.00048033333792813821 0 0.0090003366176279031 -0.00049837814375520094 0 0.0089507533957982905 -0.00046184844921344883 0 0.0089560646526658412 -0.00048033333792813821 0 0.0088923382391696369 -0.00044404900887099472 0 0.0089507533957982905 -0.00046184844921344883 0 0.0089560646526658412 -0.00048033333792813821 0 0.0088923382391696369 -0.00044404900887099472 0 0.0089560646526658412 -0.00048033333792813821 0 0.0089637769921937262 -0.00045209504952374081 0 0.0090179704366028339 -0.00055289867972485151 0 0.0089560646526658412 -0.00048033333792813821 0 0.0089637769921937262 -0.00045209504952374081 0 0.0089637769921937262 -0.00045209504952374081 0 0.0087781313459507123 -0.00042707249902140072 0 0.0085153342288573648 -0.00041876842657711486 0 0.0088923382391696369 -0.00044404900887099472 0 0.0089637769921937262 -0.00045209504952374081 0 0.0087781313459507123 -0.00042707249902140072 0 0.0086358948404036389 -9.49138243615516e-05 0 0.008542789127679978 -0.0004164799034170594 0 0.0081325578473097158 1.8127289153631592e-05 0 0.0083306272277673295 0.00038258873732133599 0 0.0085153342288573648 -0.00041876842657711486 0 0.0087781313459507123 -0.00042707249902140072 0 0.008712080381525723 -0.00062144186546178495 0 0.0088503038714136967 -0.00052566963420640244 0 0.0087781313459507123 -0.00042707249902140072 0 0.0085153342288573648 -0.00041876842657711486 0 0.008712080381525723 -0.00062144186546178495 0 0.0085153342288573648 -0.00041876842657711486 0 0.008712080381525723 -0.00062144186546178495 0 0.0083276694885747373 -0.00082466561455836029 0 0.008712080381525723 -0.00062144186546178495 0 0.0083276694885747373 -0.00082466561455836029 0 0.0088434656903643907 -0.00087237196349079793 0 0.0083276694885747373 -0.00082466561455836029 0 0.0088434656903643907 -0.00087237196349079793 0 0.0081431821181376894 -0.001429802958124381 0 0.0081072087170669539 -0.00072427723160816727 0 0.0073358615365977835 -0.0012514440705980747 0 0.0073898352987986082 -0.00055560218802720295 0 0.0075964507624755387 -0.0008762282842655583 0 0.0071870227500917131 -0.0011911618997643952 0 0.0073898352987986082 -0.00055560218802720295 0 0.0079502425190117795 -0.00055541869824498192 0 0.0084554568360973754 -8.2988355055435681e-05 0 0.0075964507624755387 -0.0008762282842655583 0 0.0079631332318662613 -0.00076499891175227917 0 0.0079502425190117795 -0.00055541869824498192 0 0.0073898352987986082 -0.00055560218802720295 0 0.0075964507624755387 -0.0008762282842655583 0 0.0079502425190117795 -0.00055541869824498192 0 0.0075964507624755387 -0.0008762282842655583 0 0.0079631332318662613 -0.00076499891175227917 0 0.0079294050240437362 -0.0011123603604294397 0 0.0088434656903643907 -0.00087237196349079793 0 0.0088911053899095194 -0.00060148268636581431 0 0.0090174230285219297 -0.00050848791090920404 0 0.0081072087170669539 -0.00072427723160816727 0 0.0087075486829526413 -0.00031830528534931043 0 0.008712080381525723 -0.00062144186546178495 0 0.0088911053899095194 -0.00060148268636581431 0 0.0088503038714136967 -0.00052566963420640244 0 0.008712080381525723 -0.00062144186546178495 0 0.0088434656903643907 -0.00087237196349079793 0 0.0088911053899095194 -0.00060148268636581431 0 0.0088911053899095194 -0.00060148268636581431 0 0.0088503038714136967 -0.00052566963420640244 0 0.0089465477860019571 -0.00049716331667937186 0 0.0088911053899095194 -0.00060148268636581431 0 0.0089465477860019571 -0.00049716331667937186 0 0.0090174230285219297 -0.00050848791090920404 0 0.0089801504700063699 -0.00047511502385943599 0 0.0089465477860019571 -0.00049716331667937186 0 0.0090174230285219297 -0.00050848791090920404 0 0.0089663865870685568 -0.00045241974322142334 0 0.0089801504700063699 -0.00047511502385943599 0 0.0090174230285219297 -0.00050848791090920404 0 0.0086424783174943974 -2.5926926242361485e-05 0 0.0085509122282076272 -0.00021252593357836292 0 0.0087126381441244918 -4.4864851680830288e-05 0 0.0086457277353577198 -6.8378774320768218e-05 0 0.0085972181255570754 -0.00012110475009058314 0 0.0084554568360973754 -8.2988355055435681e-05 0 0.0083657855782566168 -0.00051437080041164766 0 0.0085972181255570754 -0.00012110475009058314 0 0.0079631332318662613 -0.00076499891175227917 0 0.0079502425190117795 -0.00055541869824498192 0 0.0083657855782566168 -0.00051437080041164766 0 0.0087126381441244918 -4.4864851680830288e-05 0 0.0086781204279966512 1.6583322968709624e-05 0 0.0087464127821211511 2.9210923673236333e-05 0 0.0079502425190117795 -0.00055541869824498192 0 0.0084554568360973754 -8.2988355055435681e-05 0 0.0083657855782566168 -0.00051437080041164766 0 0.0086424783174943974 -2.5926926242361485e-05 0 0.0056684853555435425 -0.00075593500726887431 0 0.0079631332318662613 -0.00076499891175227917 0 0.0083657855782566168 -0.00051437080041164766 0 0.0079294050240437362 -0.0011123603604294397 0 0.0087126381441244918 -4.4864851680830288e-05 0 0.0086457277353577198 -6.8378774320768218e-05 0 0.0086781204279966512 1.6583322968709624e-05 0 0.0086457277353577198 -6.8378774320768218e-05 0 0.0086781204279966512 1.6583322968709624e-05 0 0.0086456402147464841 -2.5395013953186659e-05 0 0.0086781204279966512 1.6583322968709624e-05 0 0.0086456402147464841 -2.5395013953186659e-05 0 0.0086399553797082609 6.6009477425841466e-05 0 0.0086457277353577198 -6.8378774320768218e-05 0 0.0086456402147464841 -2.5395013953186659e-05 0 0.0086505389613937937 -0.00011342545923205759 0 0.0087856244662593529 -0.00029752968770830436 0 0.0087075486829526413 -0.00031830528534931043 0 0.00871254079987532 -0.00017570819490104521 0 0.0084554568360973754 -8.2988355055435681e-05 0 0.0085972181255570754 -0.00012110475009058314 0 0.00871254079987532 -0.00017570819490104521 0 0.0085972181255570754 -0.00012110475009058314 0 0.0086505389613937937 -0.00011342545923205759 0 0.0086457277353577198 -6.8378774320768218e-05 0 0.0085972181255570754 -0.00012110475009058314 0 0.0086505389613937937 -0.00011342545923205759 0 0.0012286307408570303 -0.0005805644432229683 0 0.0010902504730940957 -0.00065601874521609279 0 0.0013947608428965129 -0.00094554645571454836 0 0.0086781204279966512 1.6583322968709624e-05 0 0.0086682099017812344 0.00014750569764104287 0 0.0086399553797082609 6.6009477425841466e-05 0 0.0086682099017812344 0.00014750569764104287 0 0.0086399553797082609 6.6009477425841466e-05 0 0.0085868769960250595 0.00015193325511894277 0 0.0047728233439904254 -0.00012218146080166821 0 0.0056684853555435425 -0.00075593500726887431 0 0.0012286307408570303 -0.0005805644432229683 0 0.0011827604816570579 -0.00066946477064917602 0 0.001206629922573792 -0.00072960868892405102 0 0.0086781204279966512 1.6583322968709624e-05 0 0.0086682099017812344 0.00014750569764104287 0 0.0087464127821211511 2.9210923673236333e-05 0 0.0012286307408570303 -0.0005805644432229683 0 0.0011827604816570579 -0.00066946477064917602 0 0.0010902504730940957 -0.00065601874521609279 0 0.0011827604816570579 -0.00066946477064917602 0 0.0010902504730940957 -0.00065601874521609279 0 0.0011969220809376069 -0.00056331918414650897 0 0.0011827604816570579 -0.00066946477064917602 0 0.0011969220809376069 -0.00056331918414650897 0 0.0013605644037839669 -0.00066153132161625449 0 0.0011827604816570579 -0.00066946477064917602 0 0.0013605644037839669 -0.00066153132161625449 0 0.001206629922573792 -0.00072960868892405102 0 0.0041518647208158756 -0.001259906965275168 0 0.0056684853555435425 -0.00075593500726887431 0 0.0075964507624755387 -0.0008762282842655583 0 0.0078224410390752425 -0.0010380858692246653 0 0.0071870227500917131 -0.0011911618997643952 0 0.0072904128724069666 -0.0017134073479050445 0 0.0078224410390752425 -0.0010380858692246653 0 0.0071870227500917131 -0.0011911618997643952 0 0.0073717174962960501 -0.0013403452250564415 0 0.0056684853555435425 -0.00075593500726887431 0 0.0071870227500917131 -0.0011911618997643952 0 0.0065464579756728657 -0.0010934812491715155 0 0.0065024517433630771 -0.0017938793653877203 0 0.0073898352987986082 -0.00055560218802720295 0 0.0071870227500917131 -0.0011911618997643952 0 0.0065464579756728657 -0.0010934812491715155 0 0.0072904128724069666 -0.0017134073479050445 0 0.0071870227500917131 -0.0011911618997643952 0 0.0065024517433630771 -0.0017938793653877203 0 0.0072904128724069666 -0.0017134073479050445 0 0.0067845422553156325 -0.0023439655973521187 0 0.0065024517433630771 -0.0017938793653877203 0 0.0013605644037839669 -0.00066153132161625449 0 0.0016260621362552505 -0.00034798289704557252 0 0.0012812719311445825 -0.0003241018077890534 0 0.0041518647208158756 -0.001259906965275168 0 0.004471423601076838 -0.0013957669242648373 0 0.0016260621362552505 -0.00034798289704557252 0 0.001467128446077922 3.4694771381250261e-05 0 0.0012812719311445825 -0.0003241018077890534 0 0.0016260621362552505 -0.00034798289704557252 0 0.001467128446077922 3.4694771381250261e-05 0 0.0018698745918228929 1.5653263123849393e-05 0 0.00037996440207279151 0.00013760526464609872 0 0.0016702810695719311 -0.00024521228707894679 0 0.001467128446077922 3.4694771381250261e-05 0 0.0012812719311445825 -0.0003241018077890534 0 0.0010436795165043099 6.5145554828044104e-05 0 0.0011969220809376069 -0.00056331918414650897 0 0.0013605644037839669 -0.00066153132161625449 0 0.0012812719311445825 -0.0003241018077890534 0 0.0011969220809376069 -0.00056331918414650897 0 0.0012812719311445825 -0.0003241018077890534 0 0.00092822788422231646 -0.00033485145534668998 0 0.0010902504730940957 -0.00065601874521609279 0 0.0011969220809376069 -0.00056331918414650897 0 0.00092822788422231646 -0.00033485145534668998 0 0.00092822788422231646 -0.00033485145534668998 0 0.0010436795165043099 6.5145554828044104e-05 0 0.00044208396840523525 3.762628229361645e-05 0 0.0012812719311445825 -0.0003241018077890534 0 0.00092822788422231646 -0.00033485145534668998 0 0.0010436795165043099 6.5145554828044104e-05 0 0.00092822788422231646 -0.00033485145534668998 0 0.00050674548711591549 -0.00030038449083036849 0 0.00044208396840523525 3.762628229361645e-05 0 0.0010902504730940957 -0.00065601874521609279 0 0.00092822788422231646 -0.00033485145534668998 0 0.00050674548711591549 -0.00030038449083036849 0 0.001062052321029275 -0.00065440746403883858 0 0.00096791899052449718 -0.00061284136837637946 0 0.0012286307408570303 -0.0005805644432229683 0 0.0013947608428965129 -0.00094554645571454836 0 0.0016934733869044768 -0.00077284152308376231 0 0.0058003230450796479 -0.0015869893762779034 0 0.0058790997033547534 -0.0020886031738528536 0 0.0050977728693890178 -0.0020474254456646231 0 0.006627458817790117 -0.0017150859872197082 0 0.0073148849569347751 -0.0019265733437192096 0 0.0064927645048817231 -0.0024366560400217716 0 0.0066104987427214367 -0.0018082960683357178 0 0.0054144726150619112 -0.0017679602875405865 0 0.0050517284852948626 -0.0013032015391140283 0 0.0048236544554982478 -0.0014346679696678191 0 0.0048454209399706651 -0.0010392210594656827 0 0.006627458817790117 -0.0017150859872197082 0 0.0064927645048817231 -0.0024366560400217716 0 0.0057262527561817208 -0.001727138642362181 0 0.0054144726150619112 -0.0017679602875405865 0 0.0053576713293058036 -0.001404213703926314 0 0.006505889920362805 -0.00092946238761816493 0 0.006627458817790117 -0.0017150859872197082 0 0.0057262527561817208 -0.001727138642362181 0 0.006505889920362805 -0.00092946238761816493 0 0.006627458817790117 -0.0017150859872197082 0 0.0071758017886351267 -0.0013008663040066002 0 0.006627458817790117 -0.0017150859872197082 0 0.0071758017886351267 -0.0013008663040066002 0 0.0073148849569347751 -0.0019265733437192096 0 0.0071758017886351267 -0.0013008663040066002 0 0.0081431821181376894 -0.001429802958124381 0 0.0073148849569347751 -0.0019265733437192096 0 0.0073358615365977835 -0.0012514440705980747 0 0.0066104987427214367 -0.0018082960683357178 0 0.0065464579756728657 -0.0010934812491715155 0 0.0065024517433630771 -0.0017938793653877203 0 0.0058003230450796479 -0.0015869893762779034 0 0.0065024517433630771 -0.0017938793653877203 0 0.0058003230450796479 -0.0015869893762779034 0 0.0058790997033547534 -0.0020886031738528536 0 0.0058790997033547534 -0.0020886031738528536 0 0.0061927463227261581 -0.002438878251917393 0 0.0055924621403607823 -0.0024946311716590656 0 0.0065024517433630771 -0.0017938793653877203 0 0.0058790997033547534 -0.0020886031738528536 0 0.0061927463227261581 -0.002438878251917393 0 0.0067845422553156325 -0.0023439655973521187 0 0.0065024517433630771 -0.0017938793653877203 0 0.0061927463227261581 -0.002438878251917393 0 0.004471423601076838 -0.0013957669242648373 0 0.0016702810695719311 -0.00024521228707894679 0 0.0067845422553156325 -0.0023439655973521187 0 0.0061927463227261581 -0.002438878251917393 0 0.0063211543230923227 -0.0029405134133121255 0 0.0061927463227261581 -0.002438878251917393 0 0.0063211543230923227 -0.0029405134133121255 0 0.0060688102206786108 -0.002929106010357365 0 0.0016702810695719311 -0.00024521228707894679 0 0.0027689551102497109 -0.00094738691878599589 0 0.0061927463227261581 -0.002438878251917393 0 0.0060688102206786108 -0.002929106010357365 0 0.0055924621403607823 -0.0024946311716590656 0 0.0027689551102497109 -0.00094738691878599589 0 0.0015874016753081198 -0.00041269118697093854 0 0.0027689551102497109 -0.00094738691878599589 0 0.0054685964594367951 -0.0022512187179402933 0 0.0045014596201137427 -0.0013463878031184124 0 0.0047375908250519424 -0.0013946054428171446 0 0.0046518373047720052 -0.0014632658093096762 0 0.0047375908250519424 -0.0013946054428171446 0 0.0046518373047720052 -0.0014632658093096762 0 0.0047737495070280592 -0.0014406120898903538 0 0.0046518373047720052 -0.0014632658093096762 0 0.0047662893905658574 -0.0015177735766611767 0 0.0047737495070280592 -0.0014406120898903538 0 0.0058790997033547534 -0.0020886031738528536 0 0.0055924621403607823 -0.0024946311716590656 0 0.0050977728693890178 -0.0020474254456646231 0 0.0054685964594367951 -0.0022512187179402933 0 0.0054144726150619112 -0.0017679602875405865 0 0.0054144726150619112 -0.0017679602875405865 0 0.0047598104492265437 -0.0014695973748362061 0 0.0047662893905658574 -0.0015177735766611767 0 0.0047737495070280592 -0.0014406120898903538 0 0.0048236544554982478 -0.0014346679696678191 0 0.0047375908250519424 -0.0013946054428171446 0 0.0047737495070280592 -0.0014406120898903538 0 0.0047500603627511169 -0.0015225113124004931 0 0.0015874016753081198 -0.00041269118697093854 0 0.0015773655792754792 -0.00052490657415506226 0 0.0047737495070280592 -0.0014406120898903538 0 0.0047500603627511169 -0.0015225113124004931 0 0.0048236544554982478 -0.0014346679696678191 0 0.0047500603627511169 -0.0015225113124004931 0 0.0046709597264207106 -0.0014908695574711974 0 0.0048236544554982478 -0.0014346679696678191 0 0.0047500603627511169 -0.0015225113124004931 0 0.0046709597264207106 -0.0014908695574711974 0 0.0044267666976215789 -0.0016314464837474138 0 -0.0015225236391837446 0.00039220331866693289 0 -0.0017555241955404658 0.00036843866480082031 0 -0.0016550032963716657 0.00029082787010760973 0 0.0046709597264207106 -0.0014908695574711974 0 0.0045316386336845069 -0.001535110788902236 0 0.0044267666976215789 -0.0016314464837474138 0 0.0015773655792754792 -0.00052490657415506226 0 0.0016446269037912336 -0.00098174522290492392 0 0.0046786134042357246 -0.0013299832382989208 0 0.0046035796405275338 -0.0010516460622192975 0 0.0044647524609744684 -0.001343925822337298 0 0.0045316386336845069 -0.001535110788902236 0 0.0046786134042357246 -0.0013299832382989208 0 0.0044647524609744684 -0.001343925822337298 0 0.0046709597264207106 -0.0014908695574711974 0 0.0045316386336845069 -0.001535110788902236 0 0.0046786134042357246 -0.0013299832382989208 0 0.0046709597264207106 -0.0014908695574711974 0 0.0046786134042357246 -0.0013299832382989208 0 0.0048236544554982478 -0.0014346679696678191 0 0.0046786134042357246 -0.0013299832382989208 0 0.0048236544554982478 -0.0014346679696678191 0 0.0048454209399706651 -0.0010392210594656827 0 0.0046786134042357246 -0.0013299832382989208 0 0.0046035796405275338 -0.0010516460622192975 0 0.0048454209399706651 -0.0010392210594656827 0 0.0053576713293058036 -0.001404213703926314 0 0.0048184499954527053 -0.0008267098955843259 0 0.0046035796405275338 -0.0010516460622192975 0 0.0048454209399706651 -0.0010392210594656827 0 0.0048387424026681098 -0.00080492789246759591 0 0.0057262527561817208 -0.001727138642362181 0 0.0056847923509246497 -0.00070421127458004311 0 0.0048387424026681098 -0.00080492789246759591 0 0.0044233687307197352 -0.00084394294061181303 0 0.0040872243329986091 -0.0009940012693084629 0 0.0040747206146943349 -0.00051743797607153364 0 0.0040872243329986091 -0.0009940012693084629 0 0.0035458879655932917 -0.00047485069785427379 0 0.0040747206146943349 -0.00051743797607153364 0 0.0046035796405275338 -0.0010516460622192975 0 0.0044233687307197352 -0.00084394294061181303 0 0.0048387424026681098 -0.00080492789246759591 0 0.0046035796405275338 -0.0010516460622192975 0 0.0040872243329986091 -0.0009940012693084629 0 0.0044647524609744684 -0.001343925822337298 0 0.0046035796405275338 -0.0010516460622192975 0 0.0044233687307197352 -0.00084394294061181303 0 0.0040872243329986091 -0.0009940012693084629 0 0.0040788091510308511 -0.0014083064456696485 0 0.003840181376524397 -0.001858367691655766 0 0.0035011882504840876 -0.0013785043827473818 0 0.0040872243329986091 -0.0009940012693084629 0 0.0040788091510308511 -0.0014083064456696485 0 0.0035011882504840876 -0.0013785043827473818 0 0.0040872243329986091 -0.0009940012693084629 0 0.0040788091510308511 -0.0014083064456696485 0 0.0044647524609744684 -0.001343925822337298 0 0.0040788091510308511 -0.0014083064456696485 0 0.0044647524609744684 -0.001343925822337298 0 0.0042681363659786784 -0.0015770390329831881 0 0.0045316386336845069 -0.001535110788902236 0 0.0044647524609744684 -0.001343925822337298 0 0.0042681363659786784 -0.0015770390329831881 0 0.0042023026408407769 -0.00090206694080426466 0 0.0016446269037912336 -0.00098174522290492392 0 0.0045316386336845069 -0.001535110788902236 0 0.0042681363659786784 -0.0015770390329831881 0 0.0043538616162511184 -0.0017905456407490456 0 0.0042681363659786784 -0.0015770390329831881 0 0.0043538616162511184 -0.0017905456407490456 0 0.003840181376524397 -0.001858367691655766 0 0.0016446269037912336 -0.00098174522290492392 0 0.0022852257202466645 -0.001216358119836027 0 0.0040788091510308511 -0.0014083064456696485 0 0.0042681363659786784 -0.0015770390329831881 0 0.003840181376524397 -0.001858367691655766 0 0.0022852257202466645 -0.001216358119836027 0 0.0019114434790489855 -0.0012561584341901637 0 0.00046327351264928803 -0.00054978589805753156 0 0.00042941606707507158 -0.00057025511809339561 0 0.00044157369244467154 -0.00057223452889951969 0 0.003840181376524397 -0.001858367691655766 0 0.0031922652783306763 -0.0018963898550591115 0 0.0035011882504840876 -0.0013785043827473818 0 0.0019114434790489855 -0.0012561584341901637 0 0.00078933310898455296 -0.00077609127636865725 0 0.00042941606707507158 -0.00057025511809339561 0 0.00043232711541781916 -0.00057216122527082279 0 0.00042428413736776775 -0.00056849959215916478 0 0.0031922652783306763 -0.0018963898550591115 0 0.0028777707607317731 -0.0015838485507909958 0 0.0035011882504840876 -0.0013785043827473818 0 0.0031922652783306763 -0.0018963898550591115 0 0.0028777707607317731 -0.0015838485507909958 0 0.0024792663211493475 -0.0018849314768412658 0 0.0028777707607317731 -0.0015838485507909958 0 0.0028732633841124641 -0.001138733653715912 0 0.0035011882504840876 -0.0013785043827473818 0 0.0028732633841124641 -0.001138733653715912 0 0.0035011882504840876 -0.0013785043827473818 0 0.0032895279555130207 -0.00080964521546961275 0 0.00021211606410049356 -6.7255005600644911e-07 0 0.00094930400268571969 -0.00011543189537756743 0 0.00097956877526079013 -9.0926815103959971e-05 0 0.00023853457517597062 -0.00034401573964068933 0 -7.3276456516166647e-05 -2.1141354848567476e-07 0 0.00020993386720811891 -2.9976900210891912e-09 0 0.00019896340032135037 -1.5264984822748875e-06 0 -7.2345757976916122e-05 9.0575044938356147e-10 0 0.00021110876046786546 -2.5815883356413599e-07 0 0.00023853457517597062 -0.00034401573964068933 0 0.00021211606410049356 -6.7255005600644911e-07 0 0.00079389070713740343 -0.00025291362491274889 0 0.00094930400268571969 -0.00011543189537756743 0 0.00079389070713740343 -0.00025291362491274889 0 0.00094930400268571969 -0.00011543189537756743 0 0.0010867641205864022 -0.00011610371009154443 0 -0.00052324569399911196 -0.00038400116662632035 0 -0.00087426993425524413 -0.00033949522480294393 0 -0.00071110315494350295 -3.2875217463476551e-07 0 0.00078933310898455296 -0.00077609127636865725 0 0.0015883502567991235 -0.00095200469627233981 0 0.00069034793266423936 -0.00076294960857112596 0 0.00099113924941093552 -0.00077470889263020416 0 0.00094441143413155951 -0.00054674005750919737 0 0.00023853457517597062 -0.00034401573964068933 0 0.0015883502567991235 -0.00095200469627233981 0 0.00023853457517597062 -0.00034401573964068933 0 0.00078933310898455296 -0.00077609127636865725 0 0.0028777707607317731 -0.0015838485507909958 0 0.0024792663211493475 -0.0018849314768412658 0 0.002408087524844383 -0.0015354927285779509 0 0.0010867641205864022 -0.00011610371009154443 0 0.00097956877526079013 -9.0926815103959971e-05 0 0.0016743203969818285 -0.00039651440005508822 0 0.0015883502567991235 -0.00095200469627233981 0 0.0015946394190192077 -0.00043816264939296521 0 0.0028732633841124641 -0.001138733653715912 0 0.001925257882342323 -0.0019070836607030896 0 0.0016743203969818285 -0.00039651440005508822 0 0.0028777707607317731 -0.0015838485507909958 0 0.0028732633841124641 -0.001138733653715912 0 0.002408087524844383 -0.0015354927285779509 0 0.0028120609095600053 -0.0012380056790411392 0 0.0015883502567991235 -0.00095200469627233981 0 0.00021211606410049356 -6.7255005600644911e-07 0 0.00097956877526079013 -9.0926815103959971e-05 0 0.0010580105386235794 -4.850958635415674e-07 0 0.00094930400268571969 -0.00011543189537756743 0 0.0010867641205864022 -0.00011610371009154443 0 0.00097956877526079013 -9.0926815103959971e-05 0 0.0010580105386235794 -4.850958635415674e-07 0 0.0016743203969818285 -0.00039651440005508822 0 0.0021513740726758681 -0.00016041440637022886 0 0.00097956877526079013 -9.0926815103959971e-05 0 0.0010580105386235794 -4.850958635415674e-07 0 0.0016743203969818285 -0.00039651440005508822 0 0.0028732633841124641 -0.001138733653715912 0 0.0016743203969818285 -0.00039651440005508822 0 0.0025272624253033209 -0.00054258698198158867 0 0.0016743203969818285 -0.00039651440005508822 0 0.0025272624253033209 -0.00054258698198158867 0 0.0021513740726758681 -0.00016041440637022886 0 0.0025272624253033209 -0.00054258698198158867 0 0.0021513740726758681 -0.00016041440637022886 0 0.0028805046079172468 -0.00038928044600879168 0 0.0021513740726758681 -0.00016041440637022886 0 0.0028805046079172468 -0.00038928044600879168 0 0.0029798148255601744 -0.00015943593509870472 0 0.0010580105386235794 -4.850958635415674e-07 0 0.0021513740726758681 -0.00016041440637022886 0 0.0019049246907352588 -7.5610922543639916e-08 0 0.0040872243329986091 -0.0009940012693084629 0 0.0035011882504840876 -0.0013785043827473818 0 0.0032895279555130207 -0.00080964521546961275 0 0.0040872243329986091 -0.0009940012693084629 0 0.0032895279555130207 -0.00080964521546961275 0 0.0035458879655932917 -0.00047485069785427379 0 0.0028732633841124641 -0.001138733653715912 0 0.0025272624253033209 -0.00054258698198158867 0 0.0032895279555130207 -0.00080964521546961275 0 0.0025272624253033209 -0.00054258698198158867 0 0.0032895279555130207 -0.00080964521546961275 0 0.0028805046079172468 -0.00038928044600879168 0 0.0032895279555130207 -0.00080964521546961275 0 0.0028805046079172468 -0.00038928044600879168 0 0.0035458879655932917 -0.00047485069785427379 0 0.0028805046079172468 -0.00038928044600879168 0 0.0035458879655932917 -0.00047485069785427379 0 0.0029798148255601744 -0.00015943593509870472 0 0.0035458879655932917 -0.00047485069785427379 0 0.0038692619039712478 -0.0002284740152186849 0 0.0034311683537296004 -0.00011273660749364149 0 0.0035458879655932917 -0.00047485069785427379 0 0.0038692619039712478 -0.0002284740152186849 0 0.0040747206146943349 -0.00051743797607153364 0 0.0035458879655932917 -0.00047485069785427379 0 0.0029798148255601744 -0.00015943593509870472 0 0.0034311683537296004 -0.00011273660749364149 0 0.0029798148255601744 -0.00015943593509870472 0 0.0034311683537296004 -0.00011273660749364149 0 0.0031149420383270576 -4.5771239824843264e-06 0 0.0031149420383270576 -4.5771239824843264e-06 0 0.0034529028114141775 7.9508009214562569e-05 0 0.0031230826828471418 8.0221898043239317e-05 0 0.0034311683537296004 -0.00011273660749364149 0 0.0031149420383270576 -4.5771239824843264e-06 0 0.0034529028114141775 7.9508009214562569e-05 0 0.0034311683537296004 -0.00011273660749364149 0 0.0034529028114141775 7.9508009214562569e-05 0 0.0037463645482913141 1.2574525536487851e-05 0 0.0038692619039712478 -0.0002284740152186849 0 0.0037463645482913141 1.2574525536487851e-05 0 0.00404846648829484 -3.2228026851980909e-05 0 0.0038692619039712478 -0.0002284740152186849 0 0.0034311683537296004 -0.00011273660749364149 0 0.0037463645482913141 1.2574525536487851e-05 0 0.0021513740726758681 -0.00016041440637022886 0 0.0019049246907352588 -7.5610922543639916e-08 0 0.0026251298511461296 -1.0402602360445245e-06 0 0.0019049246907352588 -7.5610922543639916e-08 0 0.0026251298511461296 -1.0402602360445245e-06 0 0.002751587666972278 1.7351119317824367e-07 0 0.0029798148255601744 -0.00015943593509870472 0 0.0031149420383270576 -4.5771239824843264e-06 0 0.0026251298511461296 -1.0402602360445245e-06 0 0.0021513740726758681 -0.00016041440637022886 0 0.0029798148255601744 -0.00015943593509870472 0 0.0026251298511461296 -1.0402602360445245e-06 0 0.0031149420383270576 -4.5771239824843264e-06 0 0.0026251298511461296 -1.0402602360445245e-06 0 0.0031230826828471418 8.0221898043239317e-05 0 0.0026251298511461296 -1.0402602360445245e-06 0 0.0031230826828471418 8.0221898043239317e-05 0 0.002751587666972278 1.7351119317824367e-07 0 0.0031230826828471418 8.0221898043239317e-05 0 0.002751587666972278 1.7351119317824367e-07 0 0.0034798600641364396 0.00013748379956253601 0 0.002751587666972278 1.7351119317824367e-07 0 0.0034798600641364396 0.00013748379956253601 0 0.0035983198830744421 2.8444741029620791e-07 0 0.0031230826828471418 8.0221898043239317e-05 0 0.0034798600641364396 0.00013748379956253601 0 0.0035423429586462544 0.00018963532946607127 0 0.0040117412558039129 0.00015213063310131068 0 0.0034798600641364396 0.00013748379956253601 0 0.0038113581139696323 0.00025538103335677004 0 0.0034798600641364396 0.00013748379956253601 0 0.0035423429586462544 0.00018963532946607127 0 0.0038113581139696323 0.00025538103335677004 0 0.0040117412558039129 0.00015213063310131068 0 0.0034798600641364396 0.00013748379956253601 0 0.0035983198830744421 2.8444741029620791e-07 0 0.0037676905722601479 0.00020072807823973956 0 0.0039520612608448455 0.00012101922149379367 0 0.0040262476424593836 0.0002558277997728085 0 0.0037463645482913141 1.2574525536487851e-05 0 0.0039520612608448455 0.00012101922149379367 0 0.00404846648829484 -3.2228026851980909e-05 0 0.0037463645482913141 1.2574525536487851e-05 0 0.0037676905722601479 0.00020072807823973956 0 0.0039520612608448455 0.00012101922149379367 0 0.0034529028114141775 7.9508009214562569e-05 0 0.0037463645482913141 1.2574525536487851e-05 0 0.0037676905722601479 0.00020072807823973956 0 0.0037676905722601479 0.00020072807823973956 0 0.0035423429586462544 0.00018963532946607127 0 0.0037557594344004349 0.00026817252408389483 0 0.0034529028114141775 7.9508009214562569e-05 0 0.0037676905722601479 0.00020072807823973956 0 0.0035423429586462544 0.00018963532946607127 0 0.0034529028114141775 7.9508009214562569e-05 0 0.0031230826828471418 8.0221898043239317e-05 0 0.0035423429586462544 0.00018963532946607127 0 0.0035423429586462544 0.00018963532946607127 0 0.0037557594344004349 0.00026817252408389483 0 0.0038113581139696323 0.00025538103335677004 0 0.0037557594344004349 0.00026817252408389483 0 0.0038113581139696323 0.00025538103335677004 0 0.0038647094826913921 0.00030629281542794695 0 0.0037557594344004349 0.00026817252408389483 0 0.0038647094826913921 0.00030629281542794695 0 0.0038951880839438362 0.00031815050056478429 0 0.0039178686047465425 0.00034601943243169807 0 0.0038647094826913921 0.00030629281542794695 0 0.0038951880839438362 0.00031815050056478429 0 0.0037676905722601479 0.00020072807823973956 0 0.0037557594344004349 0.00026817252408389483 0 0.0038951880839438362 0.00031815050056478429 0 0.0037676905722601479 0.00020072807823973956 0 0.0038951880839438362 0.00031815050056478429 0 0.0040262476424593836 0.0002558277997728085 0 0.0039178686047465425 0.00034601943243169807 0 0.0038951880839438362 0.00031815050056478429 0 0.0041346539220910037 0.00040280327603993264 0 0.004163583140759387 0.00070337818487365648 0 0.0045626513501587336 0.00054100537778998604 0 0.0041346539220910037 0.00040280327603993264 0 0.0045626513501587336 0.00054100537778998604 0 0.00441764530157284 0.0003173498598976375 0 0.0041346539220910037 0.00040280327603993264 0 0.0038951880839438362 0.00031815050056478429 0 0.0041346539220910037 0.00040280327603993264 0 0.0040262476424593836 0.0002558277997728085 0 0.00441764530157284 0.0003173498598976375 0 0.0041346539220910037 0.00040280327603993264 0 0.0040262476424593836 0.0002558277997728085 0 0.0039520612608448455 0.00012101922149379367 0 0.0040262476424593836 0.0002558277997728085 0 0.004240328054982985 0.00015685438998340578 0 0.00441764530157284 0.0003173498598976375 0 0.0040262476424593836 0.0002558277997728085 0 0.004240328054982985 0.00015685438998340578 0 0.004240328054982985 0.00015685438998340578 0 0.0044392877284849053 -1.929013011520286e-05 0 0.0047008301419465539 0.00024735158539479767 0 0.00441764530157284 0.0003173498598976375 0 0.004240328054982985 0.00015685438998340578 0 0.0047008301419465539 0.00024735158539479767 0 0.004240328054982985 0.00015685438998340578 0 0.0044392877284849053 -1.929013011520286e-05 0 0.00404846648829484 -3.2228026851980909e-05 0 0.0039520612608448455 0.00012101922149379367 0 0.004240328054982985 0.00015685438998340578 0 0.00404846648829484 -3.2228026851980909e-05 0 0.0049338320006812545 1.8925262549428134e-05 0 0.0047008301419465539 0.00024735158539479767 0 0.0051656199770484159 0.00045441144176219822 0 0.0044392877284849053 -1.929013011520286e-05 0 0.0049338320006812545 1.8925262549428134e-05 0 0.0047008301419465539 0.00024735158539479767 0 0.0047008301419465539 0.00024735158539479767 0 0.0051656199770484159 0.00045441144176219822 0 0.0048441660890249085 0.00046130313331058478 0 0.00562460056706654 0.00073340562034172549 0 0.0050032155921387947 0.00071061838316492057 0 0.0051656199770484159 0.00045441144176219822 0 0.00441764530157284 0.0003173498598976375 0 0.0047008301419465539 0.00024735158539479767 0 0.0048441660890249085 0.00046130313331058478 0 0.0045626513501587336 0.00054100537778998604 0 0.00441764530157284 0.0003173498598976375 0 0.0048441660890249085 0.00046130313331058478 0 0.0050032155921387947 0.00071061838316492057 0 0.0045626513501587336 0.00054100537778998604 0 0.0048441660890249085 0.00046130313331058478 0 0.0050032155921387947 0.00071061838316492057 0 0.0051656199770484159 0.00045441144176219822 0 0.0048441660890249085 0.00046130313331058478 0 0.00562460056706654 0.00073340562034172549 0 0.0051656199770484159 0.00045441144176219822 0 0.0055847250609774822 0.00038752920396331391 0 0.0049338320006812545 1.8925262549428134e-05 0 0.0051656199770484159 0.00045441144176219822 0 0.0055847250609774822 0.00038752920396331391 0 0.0062029074092532673 0.00067854394884148074 0 0.0055847250609774822 0.00038752920396331391 0 0.0059909213104545403 0.00025269569507658433 0 0.0062029074092532673 0.00067854394884148074 0 0.00562460056706654 0.00073340562034172549 0 0.0055847250609774822 0.00038752920396331391 0 0.0060774333038091967 -0.00018055049638953527 0 0.0059909213104545403 0.00025269569507658433 0 0.0055472439492946102 -7.7196031055848483e-05 0 0.0055847250609774822 0.00038752920396331391 0 0.0059909213104545403 0.00025269569507658433 0 0.0055472439492946102 -7.7196031055848483e-05 0 0.0049338320006812545 1.8925262549428134e-05 0 0.0055847250609774822 0.00038752920396331391 0 0.0055472439492946102 -7.7196031055848483e-05 0 0.0055472439492946102 -7.7196031055848483e-05 0 0.005055085175243443 -0.00036673344773694648 0 0.0056847923509246497 -0.00070421127458004311 0 0.0049338320006812545 1.8925262549428134e-05 0 0.0055472439492946102 -7.7196031055848483e-05 0 0.005055085175243443 -0.00036673344773694648 0 0.0060774333038091967 -0.00018055049638953527 0 0.0055472439492946102 -7.7196031055848483e-05 0 0.0056847923509246497 -0.00070421127458004311 0 0.005055085175243443 -0.00036673344773694648 0 0.0056847923509246497 -0.00070421127458004311 0 0.0048387424026681098 -0.00080492789246759591 0 0.005055085175243443 -0.00036673344773694648 0 0.0048387424026681098 -0.00080492789246759591 0 0.0044203062929010998 -0.00033009631670499219 0 0.0044233687307197352 -0.00084394294061181303 0 0.0040747206146943349 -0.00051743797607153364 0 0.0044203062929010998 -0.00033009631670499219 0 0.0044233687307197352 -0.00084394294061181303 0 0.0048387424026681098 -0.00080492789246759591 0 0.0044203062929010998 -0.00033009631670499219 0 0.0038692619039712478 -0.0002284740152186849 0 0.0040747206146943349 -0.00051743797607153364 0 0.0044203062929010998 -0.00033009631670499219 0 0.0038692619039712478 -0.0002284740152186849 0 0.00404846648829484 -3.2228026851980909e-05 0 0.0044203062929010998 -0.00033009631670499219 0 0.0044392877284849053 -1.929013011520286e-05 0 0.00404846648829484 -3.2228026851980909e-05 0 0.0044203062929010998 -0.00033009631670499219 0 0.0044392877284849053 -1.929013011520286e-05 0 0.0049338320006812545 1.8925262549428134e-05 0 0.0044203062929010998 -0.00033009631670499219 0 0.0049338320006812545 1.8925262549428134e-05 0 0.005055085175243443 -0.00036673344773694648 0 0.0044203062929010998 -0.00033009631670499219 0 0.0040499934520512419 0.00011803606475610919 0 0.0038369141327826207 4.9110710947252982e-05 0 0.0040301229023447715 -0.00010174631485719954 0 0.0069458682830908312 -0.00016963019296878813 0 0.0054483075792181399 6.0519482655846708e-05 0 0.005725636780793816 -0.00021646447887231732 0 0.0057118125011315487 -0.0002118142449109129 0 0.005742264986964383 -0.00016727211345318936 0 0.0047764955875233325 -9.6029610571383896e-05 0 0.0054483075792181399 6.0519482655846708e-05 0 0.0040499934520512419 0.00011803606475610919 0 0.0038369141327826207 4.9110710947252982e-05 0 0.0039492298864509693 0.00031242847704115903 0 0.0040499934520512419 0.00011803606475610919 0 0.0039492298864509693 0.00031242847704115903 0 0.0041061194701420287 0.00028022513160594012 0 0.0040499934520512419 0.00011803606475610919 0 0.004225760504917157 0.00016782040712031489 0 0.0041061194701420287 0.00028022513160594012 0 0.004225760504917157 0.00016782040712031489 0 0.0042185078747545351 0.0003551292335920168 0 0.0041061194701420287 0.00028022513160594012 0 0.004225760504917157 0.00016782040712031489 0 0.0041489058685937339 -9.3145989368577218e-06 0 0.0042897090217242735 -1.7899115560516816e-05 0 0.0040499934520512419 0.00011803606475610919 0 0.004225760504917157 0.00016782040712031489 0 0.0041489058685937339 -9.3145989368577218e-06 0 0.0040499934520512419 0.00011803606475610919 0 0.0041489058685937339 -9.3145989368577218e-06 0 0.0040301229023447715 -0.00010174631485719954 0 0.0041489058685937339 -9.3145989368577218e-06 0 0.004147488251340899 -0.0001837900778516244 0 0.0040301229023447715 -0.00010174631485719954 0 0.0041489058685937339 -9.3145989368577218e-06 0 0.004147488251340899 -0.0001837900778516244 0 0.0042897090217242735 -1.7899115560516816e-05 0 0.004147488251340899 -0.0001837900778516244 0 0.0042897090217242735 -1.7899115560516816e-05 0 0.0043109225684164771 -0.00014644522089141791 0 0.004147488251340899 -0.0001837900778516244 0 0.0040301229023447715 -0.00010174631485719954 0 0.0040170063505632885 -0.00037298093265493134 0 0.0038369141327826207 4.9110710947252982e-05 0 0.0040301229023447715 -0.00010174631485719954 0 0.003892164362928701 -0.00016401304494135797 0 0.0040301229023447715 -0.00010174631485719954 0 0.003892164362928701 -0.00016401304494135797 0 0.0040170063505632885 -0.00037298093265493134 0 0.003892164362928701 -0.00016401304494135797 0 0.0036754199829074404 -0.00025903150321412158 0 0.0040170063505632885 -0.00037298093265493134 0 0.0046535754970275754 -0.0004550739354133193 0 0.0038812659939032818 -0.00035236761591710895 0 0.005725636780793816 -0.00021646447887231732 0 0.0057045948489624068 -0.00026035044962415281 0 0.0057118125011315487 -0.0002118142449109129 0 0.0057045948489624068 -0.00026035044962415281 0 0.0056798133881745903 -0.000251493008818149 0 0.0057118125011315487 -0.0002118142449109129 0 0.0046535754970275754 -0.0004550739354133193 0 0.0064439421373017553 -0.00050861139960341585 0 0.0042534277581395882 -0.0013358226153616485 0 0.0050287472757978907 -0.0015916855391026625 0 0.0046220715307318484 -0.00060164551428033624 0 0.0064439421373017553 -0.00050861139960341585 0 0.0069458682830908312 -0.00016963019296878813 0 0.0038369141327826207 4.9110710947252982e-05 0 0.003892164362928701 -0.00016401304494135797 0 0.0036754199829074404 -0.00025903150321412158 0 0.0047764955875233325 -9.6029610571383896e-05 0 0.0046535754970275754 -0.0004550739354133193 0 0.0064439421373017553 -0.00050861139960341585 0 0.0078043546088003481 -0.0002969598134718081 0 0.0078738324608574693 -0.00032200723092238231 0 0.0078935705233196506 -0.00036742608277560659 0 0.0079400320397758992 -0.00034383721375027209 0 0.0078935705233196506 -0.00036742608277560659 0 0.0078447282095126542 -0.00035544937814554198 0 0.0078539557976759593 -0.0003911766150499763 0 0.0078738324608574693 -0.00032200723092238231 0 0.0078935705233196506 -0.00036742608277560659 0 0.0078447282095126542 -0.00035544937814554198 0 0.0078447282095126542 -0.00035544937814554198 0 0.0078539557976759593 -0.0003911766150499763 0 0.0078254366540326924 -0.00039408627048004866 0 0.0078539557976759593 -0.0003911766150499763 0 0.0078904860740900435 -0.00042539287860865097 0 0.0078477149910458968 -0.00041515198522873274 0 0.0078539557976759593 -0.0003911766150499763 0 0.0078477149910458968 -0.00041515198522873274 0 0.0078425124701918952 -0.0004029727603428067 0 0.0078935705233196506 -0.00036742608277560659 0 0.0078539557976759593 -0.0003911766150499763 0 0.0078904860740900435 -0.00042539287860865097 0 0.0078935705233196506 -0.00036742608277560659 0 0.0078904860740900435 -0.00042539287860865097 0 0.0079543045094876662 -0.00037917162451714972 0 0.0078904860740900435 -0.00042539287860865097 0 0.0078856627653663448 -0.0005056634007947515 0 0.0079325177206280573 -0.00049986749041066149 0 0.0078904860740900435 -0.00042539287860865097 0 0.0079620545033186295 -0.00044835029145905782 0 0.0079325177206280573 -0.00049986749041066149 0 0.0078904860740900435 -0.00042539287860865097 0 0.0078564946199667293 -0.00045092464478936579 0 0.0078856627653663448 -0.0005056634007947515 0 0.0078904860740900435 -0.00042539287860865097 0 0.0078477149910458968 -0.00041515198522873274 0 0.0078564946199667293 -0.00045092464478936579 0 0.0078477149910458968 -0.00041515198522873274 0 0.0078510584885268624 -0.0004149090904440112 0 0.0078564946199667293 -0.00045092464478936579 0 0.0078477149910458968 -0.00041515198522873274 0 0.0078510584885268624 -0.0004149090904440112 0 0.0078512339077037429 -0.00040392134546144771 0 0.0078512339077037429 -0.00040392134546144771 0 0.0078583498541247056 -0.0004093604472731778 0 0.0078671493556537794 -0.00037254584693903914 0 0.0078512339077037429 -0.00040392134546144771 0 0.007844797395938569 -0.00040713830169328925 0 0.0078583498541247056 -0.0004093604472731778 0 0.0078477149910458968 -0.00041515198522873274 0 0.0078512339077037429 -0.00040392134546144771 0 0.007844797395938569 -0.00040713830169328925 0 0.0078477149910458968 -0.00041515198522873274 0 0.007844797395938569 -0.00040713830169328925 0 0.0078425124701918952 -0.0004029727603428067 0 0.007844797395938569 -0.00040713830169328925 0 0.0078254366540326924 -0.00039408627048004866 0 0.0078583498541247056 -0.0004093604472731778 0 0.0054483075792181399 6.0519482655846708e-05 0 0.0059735222490744115 0.00013647847589503734 0 0.007844797395938569 -0.00040713830169328925 0 0.0078425124701918952 -0.0004029727603428067 0 0.0078254366540326924 -0.00039408627048004866 0 0.0039595839814272 0.00032114572512248268 0 0.0040777183212100353 0.00045440101436401839 0 0.0041026436281033276 0.00063921074128074293 0 0.0054483075792181399 6.0519482655846708e-05 0 0.0042421038862354953 4.0306501112368421e-05 0 0.0039492298864509693 0.00031242847704115903 0 0.0041061194701420287 0.00028022513160594012 0 0.0040777183212100353 0.00045440101436401839 0 0.0078539557976759593 -0.0003911766150499763 0 0.0078425124701918952 -0.0004029727603428067 0 0.0078254366540326924 -0.00039408627048004866 0 0.004225760504917157 0.00016782040712031489 0 0.0042185078747545351 0.0003551292335920168 0 0.0043580393411410592 0.00032879995884286682 0 0.0042185078747545351 0.0003551292335920168 0 0.0041061194701420287 0.00028022513160594012 0 0.0040777183212100353 0.00045440101436401839 0 0.0042185078747545351 0.0003551292335920168 0 0.0040777183212100353 0.00045440101436401839 0 0.0041982160344259918 0.00053787774676411016 0 0.0042185078747545351 0.0003551292335920168 0 0.0041982160344259918 0.00053787774676411016 0 0.0043313045464749306 0.0005215724190347381 0 0.0041982160344259918 0.00053787774676411016 0 0.0041026436281033276 0.00063921074128074293 0 0.0042983860096105497 0.00073608522428008608 0 0.0059735222490744115 0.00013647847589503734 0 0.0067666795267969006 8.9382496729354208e-06 0 0.0041026436281033276 0.00063921074128074293 0 0.0042983860096105497 0.00073608522428008608 0 0.0042697018044740047 0.00093768407166732143 0 0.0041982160344259918 0.00053787774676411016 0 0.0042983860096105497 0.00073608522428008608 0 0.0043313045464749306 0.0005215724190347381 0 0.0040777183212100353 0.00045440101436401839 0 0.0041982160344259918 0.00053787774676411016 0 0.0041026436281033276 0.00063921074128074293 0 0.0045809422544135538 0.0008136834825894383 0 0.0045182333882594974 0.00041680968169483152 0 0.0043313045464749306 0.0005215724190347381 0 0.0042983860096105497 0.00073608522428008608 0 0.0045809422544135538 0.0008136834825894383 0 0.0043313045464749306 0.0005215724190347381 0 0.0045809422544135538 0.0008136834825894383 0 0.004738063072826525 0.00051463782081403705 0 0.0049415382371697982 0.00074035297691278125 0 0.0076223222274550192 0.00029574573717038678 0 0.0074065497306951061 0.0003321254527192479 0 0.0074052154816945876 0.00019695398283563447 0 0.0045809422544135538 0.0008136834825894383 0 0.004738063072826525 0.00051463782081403705 0 0.0045182333882594974 0.00041680968169483152 0 0.0059573432656804563 0.00064572258459598246 0 0.0062208644258275473 0.00052137086381463587 0 0.004738063072826525 0.00051463782081403705 0 0.0050212595509937681 0.00036767363128250506 0 0.004678448031511807 0.00017226685973568463 0 0.004738063072826525 0.00051463782081403705 0 0.0045182333882594974 0.00041680968169483152 0 0.004678448031511807 0.00017226685973568463 0 0.0045182333882594974 0.00041680968169483152 0 0.0043580393411410592 0.00032879995884286682 0 0.0044232454717542027 0.00016817673751794 0 0.0042185078747545351 0.0003551292335920168 0 0.0043580393411410592 0.00032879995884286682 0 0.0043313045464749306 0.0005215724190347381 0 0.0045182333882594974 0.00041680968169483152 0 0.0043580393411410592 0.00032879995884286682 0 0.0043313045464749306 0.0005215724190347381 0 0.0074065497306951061 0.0003321254527192479 0 0.0072328682887582213 0.00034853604041908956 0 0.0072867378042663303 0.00022746268845637611 0 0.0072328682887582213 0.00034853604041908956 0 0.0072867378042663303 0.00022746268845637611 0 0.0071425702844776237 0.00024795866928135099 0 0.0074065497306951061 0.0003321254527192479 0 0.0072867378042663303 0.00022746268845637611 0 0.0074052154816945876 0.00019695398283563447 0 0.004738063072826525 0.00051463782081403705 0 0.0049415382371697982 0.00074035297691278125 0 0.0050212595509937681 0.00036767363128250506 0 0.0049415382371697982 0.00074035297691278125 0 0.0050212595509937681 0.00036767363128250506 0 0.0055260445328340685 0.00070406246049393138 0 0.0062208644258275473 0.00052137086381463587 0 0.0063982695071289663 0.000503656432667452 0 0.0050212595509937681 0.00036767363128250506 0 0.0055260445328340685 0.00070406246049393138 0 0.0052456438609922874 3.9005015887291093e-05 0 0.0055260445328340685 0.00070406246049393138 0 0.0052456438609922874 3.9005015887291093e-05 0 0.0059987720416660095 6.5900191251904046e-05 0 0.0052456438609922874 3.9005015887291093e-05 0 0.0054413809386428154 -0.00038764821624734467 0 0.0059987720416660095 6.5900191251904046e-05 0 0.0050212595509937681 0.00036767363128250506 0 0.0049259537259250079 -3.9278523909579496e-05 0 0.004678448031511807 0.00017226685973568463 0 0.0050212595509937681 0.00036767363128250506 0 0.0052456438609922874 3.9005015887291093e-05 0 0.0049259537259250079 -3.9278523909579496e-05 0 0.0052456438609922874 3.9005015887291093e-05 0 0.0049259537259250079 -3.9278523909579496e-05 0 0.0051472469102090829 -0.00022934361855008278 0 0.0049334453846915103 -0.00025026013809266434 0 0.0046928642947912111 -0.00012997455529769025 0 0.0046972733867726288 -0.0003098005510394408 0 0.0049259537259250079 -3.9278523909579496e-05 0 0.0049334453846915103 -0.00025026013809266434 0 0.0046928642947912111 -0.00012997455529769025 0 0.0049259537259250079 -3.9278523909579496e-05 0 0.0049334453846915103 -0.00025026013809266434 0 0.0051472469102090829 -0.00022934361855008278 0 0.0054413809386428154 -0.00038764821624734467 0 0.0052079328190456266 -0.00032733461611908759 0 0.0052404965566853557 -0.00036152945634650396 0 0.0052456438609922874 3.9005015887291093e-05 0 0.0051472469102090829 -0.00022934361855008278 0 0.0054413809386428154 -0.00038764821624734467 0 0.0051472469102090829 -0.00022934361855008278 0 0.0054413809386428154 -0.00038764821624734467 0 0.0052079328190456266 -0.00032733461611908759 0 0.0049334453846915103 -0.00025026013809266434 0 0.0051472469102090829 -0.00022934361855008278 0 0.0052079328190456266 -0.00032733461611908759 0 0.0044232454717542027 0.00016817673751794 0 0.0044766819423942309 -3.421781075458333e-05 0 0.0042897090217242735 -1.7899115560516816e-05 0 0.004225760504917157 0.00016782040712031489 0 0.0044232454717542027 0.00016817673751794 0 0.0042897090217242735 -1.7899115560516816e-05 0 0.004225760504917157 0.00016782040712031489 0 0.0043580393411410592 0.00032879995884286682 0 0.0044232454717542027 0.00016817673751794 0 0.0049259537259250079 -3.9278523909579496e-05 0 0.004678448031511807 0.00017226685973568463 0 0.0046928642947912111 -0.00012997455529769025 0 0.0045182333882594974 0.00041680968169483152 0 0.0044232454717542027 0.00016817673751794 0 0.004678448031511807 0.00017226685973568463 0 0.0044232454717542027 0.00016817673751794 0 0.004678448031511807 0.00017226685973568463 0 0.0044766819423942309 -3.421781075458333e-05 0 0.004678448031511807 0.00017226685973568463 0 0.0046928642947912111 -0.00012997455529769025 0 0.0044766819423942309 -3.421781075458333e-05 0 0.0046928642947912111 -0.00012997455529769025 0 0.0044766819423942309 -3.421781075458333e-05 0 0.0044591670082821068 -0.00020153595951723913 0 0.0044766819423942309 -3.421781075458333e-05 0 0.0043109225684164771 -0.00014644522089141791 0 0.0044591670082821068 -0.00020153595951723913 0 0.0044766819423942309 -3.421781075458333e-05 0 0.0042897090217242735 -1.7899115560516816e-05 0 0.0043109225684164771 -0.00014644522089141791 0 0.0043109225684164771 -0.00014644522089141791 0 0.004220843302415604 -0.00023791189509044297 0 0.0044591670082821068 -0.00020153595951723913 0 0.004220843302415604 -0.00023791189509044297 0 0.0042613563865501356 -0.00029560435420733017 0 0.0044322620097702907 -0.00030408868290144941 0 0.004220843302415604 -0.00023791189509044297 0 0.0044591670082821068 -0.00020153595951723913 0 0.0044322620097702907 -0.00030408868290144941 0 0.0046928642947912111 -0.00012997455529769025 0 0.0044591670082821068 -0.00020153595951723913 0 0.0046972733867726288 -0.0003098005510394408 0 0.0044591670082821068 -0.00020153595951723913 0 0.0046972733867726288 -0.0003098005510394408 0 0.0044322620097702907 -0.00030408868290144941 0 0.0046142644219362297 -0.00040636251487288072 0 0.0044025394081581345 -0.00038944858832197781 0 0.0044322620097702907 -0.00030408868290144941 0 0.0046972733867726288 -0.0003098005510394408 0 0.0046142644219362297 -0.00040636251487288072 0 0.0044322620097702907 -0.00030408868290144941 0 0.0046142644219362297 -0.00040636251487288072 0 0.0044025394081581345 -0.00038944858832197781 0 0.0045421116948800013 -0.00052142356042982952 0 0.0044025394081581345 -0.00038944858832197781 0 0.0042613563865501356 -0.00029560435420733017 0 0.00419031041910052 -0.00033874437568119441 0 0.0042613563865501356 -0.00029560435420733017 0 0.00419031041910052 -0.00033874437568119441 0 0.0040786626164628888 -0.00024044315363212321 0 0.004220843302415604 -0.00023791189509044297 0 0.0042613563865501356 -0.00029560435420733017 0 0.0040786626164628888 -0.00024044315363212321 0 0.0044025394081581345 -0.00038944858832197781 0 0.0042613563865501356 -0.00029560435420733017 0 0.0044322620097702907 -0.00030408868290144941 0 0.0052079328190456266 -0.00032733461611908759 0 0.0051679376294278476 -0.00023510773005401087 0 0.0051753665112770396 -0.00031242589429826274 0 0.0052079328190456266 -0.00032733461611908759 0 0.004922724604762339 -0.00036781832432140096 0 0.0049237489534055771 -0.00044978841995494144 0 0.005178638710834611 -0.00030721640862083272 0 0.0050295591793843176 -0.0003479642525442014 0 0.0049334453846915103 -0.00025026013809266434 0 0.0052079328190456266 -0.00032733461611908759 0 0.004922724604762339 -0.00036781832432140096 0 0.0049334453846915103 -0.00025026013809266434 0 0.0046972733867726288 -0.0003098005510394408 0 0.004922724604762339 -0.00036781832432140096 0 0.0046972733867726288 -0.0003098005510394408 0 0.004922724604762339 -0.00036781832432140096 0 0.0048073811814348796 -0.00042574917755106918 0 0.0046972733867726288 -0.0003098005510394408 0 0.0046142644219362297 -0.00040636251487288072 0 0.0048073811814348796 -0.00042574917755106918 0 0.0046142644219362297 -0.00040636251487288072 0 0.0048073811814348796 -0.00042574917755106918 0 0.0047472695091129403 -0.00051990614669839594 0 0.0048073811814348796 -0.00042574917755106918 0 0.0049237489534055771 -0.00044978841995494144 0 0.0047472695091129403 -0.00051990614669839594 0 0.004922724604762339 -0.00036781832432140096 0 0.0048073811814348796 -0.00042574917755106918 0 0.0049237489534055771 -0.00044978841995494144 0 0.0051679376294278476 -0.00023510773005401087 0 0.0051753665112770396 -0.00031242589429826274 0 0.0051169093575807534 -0.0002468209851990008 0 0.0051679376294278476 -0.00023510773005401087 0 0.0050562600949625308 -0.00013909666234703996 0 0.0051169093575807534 -0.0002468209851990008 0 0.0051679376294278476 -0.00023510773005401087 0 0.0050562600949625308 -0.00013909666234703996 0 0.0051615533329892492 -3.037316378040791e-06 0 0.0050295591793843176 -0.0003479642525442014 0 0.0053418672679557992 -0.00028590706800170752 0 0.0050562600949625308 -0.00013909666234703996 0 0.0051615533329892492 -3.037316378040791e-06 0 0.0049599950121626754 -5.7140561556827865e-05 0 0.0047472695091129403 -0.00051990614669839594 0 0.0046572227519130257 -0.00069326289607355373 0 0.0045421116948800013 -0.00052142356042982952 0 0.0047472695091129403 -0.00051990614669839594 0 0.0046572227519130257 -0.00069326289607355373 0 0.0048453722600158549 -0.00065640352741025041 0 0.0049237489534055771 -0.00044978841995494144 0 0.0047472695091129403 -0.00051990614669839594 0 0.0048453722600158549 -0.00065640352741025041 0 0.0046572227519130257 -0.00069326289607355373 0 0.0048453722600158549 -0.00065640352741025041 0 0.0047893644509614322 -0.00093637875148400347 0 0.0053418672679557992 -0.00028590706800170752 0 0.001387640824680389 -0.00031676539044271748 0 0.0051615533329892492 -3.037316378040791e-06 0 0.0049771953264151798 0.00019559885894494599 0 0.0051644726253762254 0.0003969869694908157 0 0.0051615533329892492 -3.037316378040791e-06 0 0.0049771953264151798 0.00019559885894494599 0 0.0049599950121626754 -5.7140561556827865e-05 0 0.0043388997331872603 -0.00049058334970552035 0 0.0044519657323408568 -0.00063897019564013993 0 0.0042707190605744075 -0.00061274841832557132 0 0.0043388997331872603 -0.00049058334970552035 0 0.0041427796984807213 -0.00046039693960020327 0 0.0042707190605744075 -0.00061274841832557132 0 0.0043388997331872603 -0.00049058334970552035 0 0.0041427796984807213 -0.00046039693960020327 0 0.00419031041910052 -0.00033874437568119441 0 0.0044025394081581345 -0.00038944858832197781 0 0.0043388997331872603 -0.00049058334970552035 0 0.00419031041910052 -0.00033874437568119441 0 0.0044025394081581345 -0.00038944858832197781 0 0.0043388997331872603 -0.00049058334970552035 0 0.0045421116948800013 -0.00052142356042982952 0 0.0046142644219362297 -0.00040636251487288072 0 0.0047472695091129403 -0.00051990614669839594 0 0.0045421116948800013 -0.00052142356042982952 0 0.0046572227519130257 -0.00069326289607355373 0 0.0045421116948800013 -0.00052142356042982952 0 0.0044519657323408568 -0.00063897019564013993 0 0.0043388997331872603 -0.00049058334970552035 0 0.0045421116948800013 -0.00052142356042982952 0 0.0044519657323408568 -0.00063897019564013993 0 0.0044519657323408568 -0.00063897019564013993 0 0.0043207182064662081 -0.00075071695929410185 0 0.0045203869753725409 -0.00090013842750688599 0 0.0046572227519130257 -0.00069326289607355373 0 0.0044519657323408568 -0.00063897019564013993 0 0.0045203869753725409 -0.00090013842750688599 0 0.0043207182064662081 -0.00075071695929410185 0 0.0041640844363828129 -0.00088503108379023115 0 0.0045203869753725409 -0.00090013842750688599 0 0.0044519657323408568 -0.00063897019564013993 0 0.0043207182064662081 -0.00075071695929410185 0 0.0042707190605744075 -0.00061274841832557132 0 0.0043207182064662081 -0.00075071695929410185 0 0.0042707190605744075 -0.00061274841832557132 0 0.0041956798149983196 -0.0007331068058274 0 0.0041427796984807213 -0.00046039693960020327 0 0.0042707190605744075 -0.00061274841832557132 0 0.0041124338546041604 -0.000638647976156461 0 0.0042707190605744075 -0.00061274841832557132 0 0.0041124338546041604 -0.000638647976156461 0 0.0041956798149983196 -0.0007331068058274 0 0.0041124338546041604 -0.000638647976156461 0 0.0041956798149983196 -0.0007331068058274 0 0.0040823221066718972 -0.00075867209155860071 0 0.0041956798149983196 -0.0007331068058274 0 0.0041640844363828129 -0.00088503108379023115 0 0.0040823221066718972 -0.00075867209155860071 0 0.0043207182064662081 -0.00075071695929410185 0 0.0041956798149983196 -0.0007331068058274 0 0.0041640844363828129 -0.00088503108379023115 0 0.0041640844363828129 -0.00088503108379023115 0 0.0040823221066718972 -0.00075867209155860071 0 0.0038822718200492747 -0.00078131369948350926 0 0.00035627806097930875 -0.00051548870936899143 0 0.0011973766548781877 -0.0010073972002604215 0 -0.0031802597823868371 -0.00023685563634233644 0 -0.002548747866860158 -0.00044724441206977936 0 -0.0031226407426605696 -0.00021478351537423761 0 0.0041640844363828129 -0.00088503108379023115 0 0.0038822718200492747 -0.00078131369948350926 0 0.0035295193808346698 -0.00084760673432865419 0 0.0040823221066718972 -0.00075867209155860071 0 0.0038822718200492747 -0.00078131369948350926 0 0.0040025040069057542 -0.00069538966821271675 0 0.0038822718200492747 -0.00078131369948350926 0 0.0037219258105332864 -0.00070276394241873042 0 0.0035295193808346698 -0.00084760673432865419 0 0.0037219258105332864 -0.00070276394241873042 0 0.0039243135530694553 -0.00054800379931405129 0 0.003567925346320736 -0.00060534982373578502 0 0.0039243135530694553 -0.00054800379931405129 0 0.003567925346320736 -0.00060534982373578502 0 0.0037543806538796625 -0.00032175592015732052 0 0.0038822718200492747 -0.00078131369948350926 0 0.0037219258105332864 -0.00070276394241873042 0 0.0039243135530694553 -0.00054800379931405129 0 0.0038822718200492747 -0.00078131369948350926 0 0.0039243135530694553 -0.00054800379931405129 0 0.0040025040069057542 -0.00069538966821271675 0 0.0041427796984807213 -0.00046039693960020327 0 0.0041124338546041604 -0.000638647976156461 0 0.0039243135530694553 -0.00054800379931405129 0 0.0041124338546041604 -0.000638647976156461 0 0.0039243135530694553 -0.00054800379931405129 0 0.0040025040069057542 -0.00069538966821271675 0 0.0041124338546041604 -0.000638647976156461 0 0.0040823221066718972 -0.00075867209155860071 0 0.0040025040069057542 -0.00069538966821271675 0 0.0033688295444088451 -0.0012029213752170682 0 0.0029780634223690078 -0.00070012884864637686 0 0.0022337969498005417 -0.00074791306825893432 0 0.0011973766548781877 -0.0010073972002604215 0 0.002672749854280398 -0.00095698795272111767 0 0.0020846897138782346 -0.00076307446712045146 0 0.0022337969498005417 -0.00074791306825893432 0 0.0020635579937661832 -0.00077234373662854905 0 0.0011973766548781877 -0.0010073972002604215 0 0.002435268576071683 -0.00042814843521003445 0 0.0033688295444088451 -0.0012029213752170682 0 0.003567925346320736 -0.00060534982373578502 0 0.0029780634223690078 -0.00070012884864637686 0 0.003567925346320736 -0.00060534982373578502 0 0.0029780634223690078 -0.00070012884864637686 0 0.0028974215681015318 -0.00035342194502736987 0 0.0037219258105332864 -0.00070276394241873042 0 0.0035295193808346698 -0.00084760673432865419 0 0.003567925346320736 -0.00060534982373578502 0 0.0029780634223690078 -0.00070012884864637686 0 0.0028974215681015318 -0.00035342194502736987 0 0.0022337969498005417 -0.00074791306825893432 0 0.0036993117606834939 4.4695391461357008e-05 0 0.0031119137146857255 7.4981318208731181e-05 0 0.0037024971786890582 -3.5546253277811409e-06 0 0.0040737106810777735 -6.067509190731763e-05 0 0.00430909558351464 0.00019647464315460634 0 0.0028974215681015318 -0.00035342194502736987 0 0.0037024971786890582 -3.5546253277811409e-06 0 0.002175903991574525 2.9152030791715425e-05 0 0.003567925346320736 -0.00060534982373578502 0 0.0028974215681015318 -0.00035342194502736987 0 0.0037543806538796625 -0.00032175592015732052 0 0.0028974215681015318 -0.00035342194502736987 0 0.0037024971786890582 -3.5546253277811409e-06 0 0.0037543806538796625 -0.00032175592015732052 0 0.0041427796984807213 -0.00046039693960020327 0 0.0039243135530694553 -0.00054800379931405129 0 0.0039599066943887375 -0.00024765163810936503 0 0.0039243135530694553 -0.00054800379931405129 0 0.0037543806538796625 -0.00032175592015732052 0 0.0039599066943887375 -0.00024765163810936503 0 0.0037024971786890582 -3.5546253277811409e-06 0 0.0039599066943887375 -0.00024765163810936503 0 0.0038981405728526863 -0.00015434058230789216 0 0.0037024971786890582 -3.5546253277811409e-06 0 0.0037543806538796625 -0.00032175592015732052 0 0.0039599066943887375 -0.00024765163810936503 0 0.0041427796984807213 -0.00046039693960020327 0 0.00419031041910052 -0.00033874437568119441 0 0.0039599066943887375 -0.00024765163810936503 0 0.00419031041910052 -0.00033874437568119441 0 0.0039599066943887375 -0.00024765163810936503 0 0.0040786626164628888 -0.00024044315363212321 0 0.0040786626164628888 -0.00024044315363212321 0 0.0038981405728526863 -0.00015434058230789216 0 0.004048185663300178 -0.0002637234554459501 0 0.0039599066943887375 -0.00024765163810936503 0 0.0040786626164628888 -0.00024044315363212321 0 0.0038981405728526863 -0.00015434058230789216 0 0.0038981405728526863 -0.00015434058230789216 0 0.0040737106810777735 -6.067509190731763e-05 0 0.0040241064484630188 -0.00023226451342625991 0 0.0038981405728526863 -0.00015434058230789216 0 0.0040241064484630188 -0.00023226451342625991 0 0.004048185663300178 -0.0002637234554459501 0 0.0037024971786890582 -3.5546253277811409e-06 0 0.0038981405728526863 -0.00015434058230789216 0 0.0040737106810777735 -6.067509190731763e-05 0 0.0040737106810777735 -6.067509190731763e-05 0 0.0040241064484630188 -0.00023226451342625991 0 0.0041978572447150652 -0.00032533696072728247 0 0.0040241064484630188 -0.00023226451342625991 0 0.0040170063505632885 -0.00037298093265493134 0 0.004048185663300178 -0.0002637234554459501 0 0.0040241064484630188 -0.00023226451342625991 0 0.0040170063505632885 -0.00037298093265493134 0 0.0041978572447150652 -0.00032533696072728247 0 0.004147488251340899 -0.0001837900778516244 0 0.0040170063505632885 -0.00037298093265493134 0 0.004048185663300178 -0.0002637234554459501 0 0.004147488251340899 -0.0001837900778516244 0 0.0043109225684164771 -0.00014644522089141791 0 0.004220843302415604 -0.00023791189509044297 0 0.004147488251340899 -0.0001837900778516244 0 0.004220843302415604 -0.00023791189509044297 0 0.004048185663300178 -0.0002637234554459501 0 0.004220843302415604 -0.00023791189509044297 0 0.0040786626164628888 -0.00024044315363212321 0 0.004048185663300178 -0.0002637234554459501 0 0.0064439421373017553 -0.00050861139960341585 0 0.0065028958767958589 -0.00033699834196546308 0 0.0050287472757978907 -0.0015916855391026625 0 0.0046220715307318484 -0.00060164551428033624 0 0.0060862369295595535 -0.00066856327397485252 0 0.0046220715307318484 -0.00060164551428033624 0 0.0054949013775377805 0.00014836748352240053 0 0.0060862369295595535 -0.00066856327397485252 0 0.0046535754970275754 -0.0004550739354133193 0 0.0044985791974229807 -0.00078465946208627132 0 0.0043957745298812889 -0.00072768555000034014 0 0.0040170063505632885 -0.00037298093265493134 0 0.0041978572447150652 -0.00032533696072728247 0 0.0043957745298812889 -0.00072768555000034014 0 0.0046220715307318484 -0.00060164551428033624 0 0.0041978572447150652 -0.00032533696072728247 0 0.0046220715307318484 -0.00060164551428033624 0 0.0041978572447150652 -0.00032533696072728247 0 0.0044399208808878089 -5.3172498530671041e-05 0 0.0040737106810777735 -6.067509190731763e-05 0 0.0041978572447150652 -0.00032533696072728247 0 0.0044399208808878089 -5.3172498530671041e-05 0 0.0040737106810777735 -6.067509190731763e-05 0 0.0044399208808878089 -5.3172498530671041e-05 0 0.00430909558351464 0.00019647464315460634 0 0.0054949013775377805 0.00014836748352240053 0 0.0054559509176283182 0.0012412065504373421 0 0.0063044297283255122 0.00052560918952435445 0 0.0048422082637631005 0.00033648946565627389 0 0.0039045303028235503 2.7233648396416848e-05 0 0.0046220715307318484 -0.00060164551428033624 0 0.0044399208808878089 -5.3172498530671041e-05 0 0.0054949013775377805 0.00014836748352240053 0 0.0044399208808878089 -5.3172498530671041e-05 0 0.0054949013775377805 0.00014836748352240053 0 0.0054559509176283182 0.0012412065504373421 0 0.0015252941643811569 -8.0832730337943105e-05 0 0.002175903991574525 2.9152030791715425e-05 0 0.0016420829069284744 -0.00062477895332614186 0 0.0028974215681015318 -0.00035342194502736987 0 0.002175903991574525 2.9152030791715425e-05 0 0.0022337969498005417 -0.00074791306825893432 0 0.0044399208808878089 -5.3172498530671041e-05 0 0.0045724684581016084 0.00021580856667298924 0 0.00430909558351464 0.00019647464315460634 0 0.0039045303028235503 2.7233648396416848e-05 0 0.0031119137146857255 7.4981318208731181e-05 0 0.0022337969498005417 -0.00074791306825893432 0 0.0016420829069284744 -0.00062477895332614186 0 0.0016955465712697893 -0.00081912467516968791 0 0.002175903991574525 2.9152030791715425e-05 0 0.0022337969498005417 -0.00074791306825893432 0 0.0016420829069284744 -0.00062477895332614186 0 0.0015252941643811569 -8.0832730337943105e-05 0 0.0016420829069284744 -0.00062477895332614186 0 0.0011277468879462335 -0.00071354614016048068 0 0.0039045303028235503 2.7233648396416848e-05 0 0.0025590416309499587 -0.00051008022573271268 0 0.0040621341428820233 -0.00048388425735334942 0 0.0043137831794979676 -0.0004696430606719365 0 0.0042441947423904874 -0.00023622365399684448 0 0.0054559509176283182 0.0012412065504373421 0 0.0069498214520690663 0.0011201821081189144 0 0.0063044297283255122 0.00052560918952435445 0 0.0039045303028235503 2.7233648396416848e-05 0 0.0057979392853848583 0.00035994469560922794 0 0.0057979392853848583 0.00035994469560922794 0 0.0060543133512933204 0.00020185438657807384 0 0.0069498214520690663 0.0011201821081189144 0 0.0077500385546360887 0.00087278571599510104 0 0.0072080518745738648 0.00034982285362473916 0 0.0043137831794979676 -0.0004696430606719365 0 0.004464122152472912 -0.00021127125993020062 0 0.0042441947423904874 -0.00023622365399684448 0 0.0043137831794979676 -0.0004696430606719365 0 0.0045738656926639998 -0.00045498104573494716 0 0.004464122152472912 -0.00021127125993020062 0 0.0046884953326539955 -0.00029984676113863171 0 0.0045738656926639998 -0.00045498104573494716 0 0.004464122152472912 -0.00021127125993020062 0 0.0046884953326539955 -0.00029984676113863171 0 0.004842510805015114 -0.00043962019463737685 0 0.0045738656926639998 -0.00045498104573494716 0 0.0046884953326539955 -0.00029984676113863171 0 0.004842510805015114 -0.00043962019463737685 0 0.004895590282743353 -0.00026688207678815604 0 0.0081133290855672745 0.0006807643936557337 0 0.0077500385546360887 0.00087278571599510104 0 0.0080366080845517985 0.0004247262788264398 0 0.0067117543176527326 0.00015425401854511211 0 0.0060543133512933204 0.00020185438657807384 0 0.0077500385546360887 0.00087278571599510104 0 0.0077026732901313323 0.00032664701746187169 0 0.0072080518745738648 0.00034982285362473916 0 0.0077500385546360887 0.00087278571599510104 0 0.0077026732901313323 0.00032664701746187169 0 0.0080366080845517985 0.0004247262788264398 0 0.0077026732901313323 0.00032664701746187169 0 0.0080366080845517985 0.0004247262788264398 0 0.007941784731185059 0.00012436477076431209 0 0.0080366080845517985 0.0004247262788264398 0 0.007941784731185059 0.00012436477076431209 0 0.0082019519889607647 0.00015314635349564988 0 0.007941784731185059 0.00012436477076431209 0 0.0082019519889607647 0.00015314635349564988 0 0.0081050213969433519 -0.00013756334854885926 0 0.007941784731185059 0.00012436477076431209 0 0.0075343368255076978 3.610276751243358e-05 0 0.0078849569312324352 -8.2936585237467557e-05 0 0.0077026732901313323 0.00032664701746187169 0 0.007941784731185059 0.00012436477076431209 0 0.0075343368255076978 3.610276751243358e-05 0 0.0075343368255076978 3.610276751243358e-05 0 0.0071011332922536353 0.00013371130733046745 0 0.0072080518745738648 0.00034982285362473916 0 0.0077026732901313323 0.00032664701746187169 0 0.0075343368255076978 3.610276751243358e-05 0 0.0072080518745738648 0.00034982285362473916 0 0.0060862369295595535 -0.00066856327397485252 0 0.0063044297283255122 0.00052560918952435445 0 0.0072080518745738648 0.00034982285362473916 0 0.0069498214520690663 0.0011201821081189144 0 0.0063044297283255122 0.00052560918952435445 0 0.0072080518745738648 0.00034982285362473916 0 0.0054949013775377805 0.00014836748352240053 0 0.0060862369295595535 -0.00066856327397485252 0 0.0063044297283255122 0.00052560918952435445 0 0.0065028958767958589 -0.00033699834196546308 0 0.0072073519727910342 0.00034316057806051478 0 0.0013947608428965129 -0.00094554645571454836 0 0.0016934733869044768 -0.00077284152308376231 0 0.0017519801600805354 -0.0010080730816668833 0 0.00096791899052449718 -0.00061284136837637946 0 0.0010680210329045616 -0.00060393133145906282 0 0.0013947608428965129 -0.00094554645571454836 0 0.0017442576991863125 -0.0011797334007895813 0 0.0017519801600805354 -0.0010080730816668833 0 0.00050674548711591549 -0.00030038449083036849 0 0.00039358767187354783 -2.3312888595736207e-05 0 0.00044208396840523525 3.762628229361645e-05 0 0.0017442576991863125 -0.0011797334007895813 0 0.0019074903395547356 -0.0011144691515809237 0 0.0019484875160640978 -0.0011860726394664384 0 0.0017442576991863125 -0.0011797334007895813 0 0.0017519801600805354 -0.0010080730816668833 0 0.0019074903395547356 -0.0011144691515809237 0 0.0017519801600805354 -0.0010080730816668833 0 0.0019074903395547356 -0.0011144691515809237 0 0.00195407823899113 -0.0010079249372368043 0 0.0019074903395547356 -0.0011144691515809237 0 0.00195407823899113 -0.0010079249372368043 0 0.0019745701258682552 -0.0010725864863316995 0 0.0016934733869044768 -0.00077284152308376231 0 0.00195407823899113 -0.0010079249372368043 0 0.0020370255533794391 -0.0010001970711705755 0 0.0084651727085825294 0.00039835151887374754 0 0.0083824326395943952 0.00051460328592811894 0 0.0083631325409880639 0.00057059824975543537 0 0.0085633368230638683 0.00034358350071676201 0 0.0084651727085825294 0.00039835151887374754 0 0.0083631325409880639 0.00057059824975543537 0 0.0016934733869044768 -0.00077284152308376231 0 0.0017519801600805354 -0.0010080730816668833 0 0.00195407823899113 -0.0010079249372368043 0 0.0053356010321243211 -0.00021354110430717556 0 0.0041272657938134626 -0.00068415979072171688 0 0.0084651727085825294 0.00039835151887374754 0 0.0083805025864105501 0.00041106538312545504 0 0.0083824326395943952 0.00051460328592811894 0 0.0083805025864105501 0.00041106538312545504 0 0.0083191121495579615 0.00047321878368720684 0 0.0083824326395943952 0.00051460328592811894 0 0.0083805025864105501 0.00041106538312545504 0 0.0083191121495579615 0.00047321878368720684 0 0.0082683965411341643 0.00037969663136102981 0 0.0073994456927632297 -0.00038871627631169558 0 0.0056112265998586224 -0.00011899790701720478 0 0.0083824326395943952 0.00051460328592811894 0 0.0083631325409880639 0.00057059824975543537 0 0.0082937524109960078 0.00056549730185657661 0 0.0083191121495579615 0.00047321878368720684 0 0.0083824326395943952 0.00051460328592811894 0 0.0083379043229054803 0.00057425570934990203 0 0.0021607784690797389 -0.0010731065565049106 0 0.002088196650941389 -0.00096431829307677599 0 0.0024224830055486792 -0.0011888089961341179 0 0.0020084974011522908 -0.00099463563652555081 0 0.0020180096251532788 -0.0011412982011580087 0 0.0021607784690797389 -0.0010731065565049106 0 0.0020084974011522908 -0.00099463563652555081 0 0.0019745701258682552 -0.0010725864863316995 0 0.0020180096251532788 -0.0011412982011580087 0 0.0028054162594286329 -0.00082328993196482991 0 0.0041272657938134626 -0.00068415979072171688 0 0.00195407823899113 -0.0010079249372368043 0 0.0020084974011522908 -0.00099463563652555081 0 0.0019745701258682552 -0.0010725864863316995 0 0.0020180096251532788 -0.0011412982011580087 0 0.0021607784690797389 -0.0010731065565049106 0 0.0023974587437959288 -0.0012928697845505806 0 0.0020130143186213169 -0.0011513338225939754 0 0.0021687932738481196 -0.0012607029187155013 0 0.0041272657938134626 -0.00068415979072171688 0 0.0056112265998586224 -0.00011899790701720478 0 0.0019074903395547356 -0.0011144691515809237 0 0.0020180096251532788 -0.0011412982011580087 0 0.0019484875160640978 -0.0011860726394664384 0 0.0019074903395547356 -0.0011144691515809237 0 0.0019745701258682552 -0.0010725864863316995 0 0.0020180096251532788 -0.0011412982011580087 0 0.0020191950537797299 -0.00096976913850133799 0 0.0021607784690797389 -0.0010731065565049106 0 0.002088196650941389 -0.00096431829307677599 0 0.0041272657938134626 -0.00068415979072171688 0 0.002265290375954829 -0.00051415265042097894 0 0.004842510805015114 -0.00043962019463737685 0 0.0051216919359785562 -0.00041852169685945961 0 0.004895590282743353 -0.00026688207678815604 0 0.0056112265998586224 -0.00011899790701720478 0 0.0033490798358300658 -0.00066562357012248769 0 0.0021607784690797389 -0.0010731065565049106 0 0.0024224830055486792 -0.0011888089961341179 0 0.0023974587437959288 -0.0012928697845505806 0 0.0067117543176527326 0.00015425401854511211 0 0.0056112265998586224 -0.00011899790701720478 0 0.0081133290855672745 0.0006807643936557337 0 0.0083191121495579615 0.00047321878368720684 0 0.0082683965411341643 0.00037969663136102981 0 0.0081133290855672745 0.0006807643936557337 0 0.0080366080845517985 0.0004247262788264398 0 0.0082683965411341643 0.00037969663136102981 0 0.0081133290855672745 0.0006807643936557337 0 0.0083191121495579615 0.00047321878368720684 0 0.0083379043229054803 0.00057425570934990203 0 0.0082683965411341643 0.00037969663136102981 0 0.0082019519889607647 0.00015314635349564988 0 0.0083629516430412439 0.00017489553440029436 0 0.0080366080845517985 0.0004247262788264398 0 0.0082683965411341643 0.00037969663136102981 0 0.0082019519889607647 0.00015314635349564988 0 0.0082019519889607647 0.00015314635349564988 0 0.0083629516430412439 0.00017489553440029436 0 0.0083739739636178988 -5.2423101932174828e-05 0 0.0083629516430412439 0.00017489553440029436 0 0.0084927048163729556 9.7594525979913854e-05 0 0.0083739739636178988 -5.2423101932174828e-05 0 0.0083629516430412439 0.00017489553440029436 0 0.0084566515297425874 0.00027809927142530906 0 0.0084927048163729556 9.7594525979913854e-05 0 0.0083805025864105501 0.00041106538312545504 0 0.0082683965411341643 0.00037969663136102981 0 0.0084566515297425874 0.00027809927142530906 0 0.0082683965411341643 0.00037969663136102981 0 0.0083629516430412439 0.00017489553440029436 0 0.0084566515297425874 0.00027809927142530906 0 0.0085633368230638683 0.00034358350071676201 0 0.0084566515297425874 0.00027809927142530906 0 0.0085868769960250595 0.00015193325511894277 0 0.0084651727085825294 0.00039835151887374754 0 0.0083805025864105501 0.00041106538312545504 0 0.0084566515297425874 0.00027809927142530906 0 0.0085633368230638683 0.00034358350071676201 0 0.0084651727085825294 0.00039835151887374754 0 0.0084566515297425874 0.00027809927142530906 0 0.0084566515297425874 0.00027809927142530906 0 0.0084927048163729556 9.7594525979913854e-05 0 0.0085868769960250595 0.00015193325511894277 0 0.0086399553797082609 6.6009477425841466e-05 0 0.0085868769960250595 0.00015193325511894277 0 0.0085997943643585529 -8.7390323031386107e-06 0 0.0084927048163729556 9.7594525979913854e-05 0 0.0085868769960250595 0.00015193325511894277 0 0.0085997943643585529 -8.7390323031386107e-06 0 0.0047728233439904254 -0.00012218146080166821 0 0.0053356010321243211 -0.00021354110430717556 0 0.0086682099017812344 0.00014750569764104287 0 0.0085633368230638683 0.00034358350071676201 0 0.0085868769960250595 0.00015193325511894277 0 0.00871254079987532 -0.00017570819490104521 0 0.0086505389613937937 -0.00011342545923205759 0 0.008639948042285777 -0.00019540333397273903 0 0.008601782967316389 -0.0001119000814571932 0 0.0086505389613937937 -0.00011342545923205759 0 0.008639948042285777 -0.00019540333397273903 0 0.0086456402147464841 -2.5395013953186659e-05 0 0.0086505389613937937 -0.00011342545923205759 0 0.0085997943643585529 -8.7390323031386107e-06 0 0.0086456402147464841 -2.5395013953186659e-05 0 0.0086399553797082609 6.6009477425841466e-05 0 0.0085997943643585529 -8.7390323031386107e-06 0 0.008601782967316389 -0.0001119000814571932 0 0.0086505389613937937 -0.00011342545923205759 0 0.0085997943643585529 -8.7390323031386107e-06 0 0.008601782967316389 -0.0001119000814571932 0 0.0085997943643585529 -8.7390323031386107e-06 0 0.0085195712737929519 -5.3557192044295813e-05 0 0.0084927048163729556 9.7594525979913854e-05 0 0.0085997943643585529 -8.7390323031386107e-06 0 0.0085195712737929519 -5.3557192044295813e-05 0 0.008601782967316389 -0.0001119000814571932 0 0.0085195712737929519 -5.3557192044295813e-05 0 0.0085292297987583868 -0.00019040094238558154 0 0.008601782967316389 -0.0001119000814571932 0 0.0085292297987583868 -0.00019040094238558154 0 0.008639948042285777 -0.00019540333397273903 0 0.0085292297987583868 -0.00019040094238558154 0 0.0083739739636178988 -5.2423101932174828e-05 0 0.0084366365575550429 -0.00032377111848902538 0 0.0084927048163729556 9.7594525979913854e-05 0 0.0085195712737929519 -5.3557192044295813e-05 0 0.0083739739636178988 -5.2423101932174828e-05 0 0.0085195712737929519 -5.3557192044295813e-05 0 0.0085292297987583868 -0.00019040094238558154 0 0.0083739739636178988 -5.2423101932174828e-05 0 0.0082019519889607647 0.00015314635349564988 0 0.0083739739636178988 -5.2423101932174828e-05 0 0.0081050213969433519 -0.00013756334854885926 0 0.0083739739636178988 -5.2423101932174828e-05 0 0.0082681360719171794 -0.00027246727635109265 0 0.0084366365575550429 -0.00032377111848902538 0 0.0083739739636178988 -5.2423101932174828e-05 0 0.0082681360719171794 -0.00027246727635109265 0 0.0081050213969433519 -0.00013756334854885926 0 0.0082681360719171794 -0.00027246727635109265 0 0.0084306232407457826 -0.0004983202330917975 0 0.0084366365575550429 -0.00032377111848902538 0 0.008511717031763252 -0.00046817256228934002 0 0.0084366365575550429 -0.00032377111848902538 0 0.0086509539168429291 -0.00042251318598629121 0 0.0084306232407457826 -0.0004983202330917975 0 0.008511717031763252 -0.00046817256228934002 0 0.0084366365575550429 -0.00032377111848902538 0 0.0084306232407457826 -0.0004983202330917975 0 0.008511717031763252 -0.00046817256228934002 0 0.0085319669821746803 -0.0005977968277982935 0 0.0085292297987583868 -0.00019040094238558154 0 0.0084366365575550429 -0.00032377111848902538 0 0.0086509539168429291 -0.00042251318598629121 0 0.0085292297987583868 -0.00019040094238558154 0 0.0086509539168429291 -0.00042251318598629121 0 0.008639948042285777 -0.00019540333397273903 0 0.008511717031763252 -0.00046817256228934002 0 0.0086509539168429291 -0.00042251318598629121 0 0.008660655361303388 -0.00058818972864784608 0 0.008910201365202328 -0.0005361390102923588 0 0.0086509539168429291 -0.00042251318598629121 0 0.008660655361303388 -0.00058818972864784608 0 0.008910201365202328 -0.0005361390102923588 0 0.0088943108368834435 -0.00039446809765900564 0 0.0086509539168429291 -0.00042251318598629121 0 0.0087856244662593529 -0.00029752968770830436 0 0.0086481137697021065 -0.00041720540812502865 0 0.00871254079987532 -0.00017570819490104521 0 0.0086509539168429291 -0.00042251318598629121 0 0.008639948042285777 -0.00019540333397273903 0 0.0079400320397758992 -0.00034383721375027209 0 0.0079226857987420504 -0.00032470249665631461 0 0.0079543045094876662 -0.00037917162451714972 0 0.0078043546088003481 -0.0002969598134718081 0 0.0078181271208402764 -0.00032218531725893002 0 0.0078935705233196506 -0.00036742608277560659 0 0.0079400320397758992 -0.00034383721375027209 0 0.0079543045094876662 -0.00037917162451714972 0 0.006825329258008583 -0.00014421782894173641 0 0.0071011332922536353 0.00013371130733046745 0 0.007286275658882355 -0.00027081027913487111 0 0.0075343368255076978 3.610276751243358e-05 0 0.0071011332922536353 0.00013371130733046745 0 0.007286275658882355 -0.00027081027913487111 0 0.0075343368255076978 3.610276751243358e-05 0 0.007286275658882355 -0.00027081027913487111 0 0.0079226857987420504 -0.00032470249665631461 0 0.0075343368255076978 3.610276751243358e-05 0 0.0078849569312324352 -8.2936585237467557e-05 0 0.0079226857987420504 -0.00032470249665631461 0 0.0078849569312324352 -8.2936585237467557e-05 0 0.0081050213969433519 -0.00013756334854885926 0 0.0079226857987420504 -0.00032470249665631461 0 0.007941784731185059 0.00012436477076431209 0 0.0078849569312324352 -8.2936585237467557e-05 0 0.0081050213969433519 -0.00013756334854885926 0 0.0081050213969433519 -0.00013756334854885926 0 0.0079226857987420504 -0.00032470249665631461 0 0.0081403688631192343 -0.00037237520118983144 0 0.0082681360719171794 -0.00027246727635109265 0 0.0081050213969433519 -0.00013756334854885926 0 0.0081403688631192343 -0.00037237520118983144 0 0.0081403688631192343 -0.00037237520118983144 0 0.0081811116554116915 -0.00047748527914950726 0 0.0080397791080719962 -0.00042647593984648774 0 0.0079226857987420504 -0.00032470249665631461 0 0.0081403688631192343 -0.00037237520118983144 0 0.0080397791080719962 -0.00042647593984648774 0 0.0082681360719171794 -0.00027246727635109265 0 0.0084306232407457826 -0.0004983202330917975 0 0.0081403688631192343 -0.00037237520118983144 0 0.0084306232407457826 -0.0004983202330917975 0 0.0081811116554116915 -0.00047748527914950726 0 0.0083186939910346175 -0.00059321226050216235 0 0.0084306232407457826 -0.0004983202330917975 0 0.0081403688631192343 -0.00037237520118983144 0 0.0081811116554116915 -0.00047748527914950726 0 0.0081811116554116915 -0.00047748527914950726 0 0.0080397791080719962 -0.00042647593984648774 0 0.0081777936172528157 -0.00058147178935001977 0 0.0081811116554116915 -0.00047748527914950726 0 0.0081777936172528157 -0.00058147178935001977 0 0.0083186939910346175 -0.00059321226050216235 0 0.0080397791080719962 -0.00042647593984648774 0 0.008047424626500984 -0.00050989898194594768 0 0.0079620545033186295 -0.00044835029145905782 0 0.0080397791080719962 -0.00042647593984648774 0 0.008047424626500984 -0.00050989898194594768 0 0.0081777936172528157 -0.00058147178935001977 0 0.0079226857987420504 -0.00032470249665631461 0 0.0080397791080719962 -0.00042647593984648774 0 0.0079543045094876662 -0.00037917162451714972 0 0.0078904860740900435 -0.00042539287860865097 0 0.0079543045094876662 -0.00037917162451714972 0 0.0079620545033186295 -0.00044835029145905782 0 0.0080397791080719962 -0.00042647593984648774 0 0.0079543045094876662 -0.00037917162451714972 0 0.0079620545033186295 -0.00044835029145905782 0 0.008047424626500984 -0.00050989898194594768 0 0.0079620545033186295 -0.00044835029145905782 0 0.0080021876409021291 -0.00055789305180511571 0 0.0079620545033186295 -0.00044835029145905782 0 0.0080021876409021291 -0.00055789305180511571 0 0.0079325177206280573 -0.00049986749041066149 0 0.0080021876409021291 -0.00055789305180511571 0 0.0079325177206280573 -0.00049986749041066149 0 0.007924633351551854 -0.00056227806458160074 0 0.0080021876409021291 -0.00055789305180511571 0 0.0079675146275424644 -0.00071850851176615026 0 0.0081306509542250719 -0.00064886967325030614 0 0.0080021876409021291 -0.00055789305180511571 0 0.0079675146275424644 -0.00071850851176615026 0 0.007924633351551854 -0.00056227806458160074 0 0.0079675146275424644 -0.00071850851176615026 0 0.0082135011630167041 -0.00076181866703511523 0 0.0081306509542250719 -0.00064886967325030614 0 0.0082135011630167041 -0.00076181866703511523 0 0.0082622973737777449 -0.00075315129382247869 0 0.0083994106168113342 -0.00083641983300078578 0 0.0082135011630167041 -0.00076181866703511523 0 0.0081306509542250719 -0.00064886967325030614 0 0.0082622973737777449 -0.00075315129382247869 0 0.008047424626500984 -0.00050989898194594768 0 0.0081306509542250719 -0.00064886967325030614 0 0.0081777936172528157 -0.00058147178935001977 0 0.008047424626500984 -0.00050989898194594768 0 0.0080021876409021291 -0.00055789305180511571 0 0.0081306509542250719 -0.00064886967325030614 0 0.0081306509542250719 -0.00064886967325030614 0 0.0081777936172528157 -0.00058147178935001977 0 0.0082622973737777449 -0.00075315129382247869 0 0.0081777936172528157 -0.00058147178935001977 0 0.0083186939910346175 -0.00059321226050216235 0 0.0083242785986699427 -0.00073123252895541425 0 0.0081777936172528157 -0.00058147178935001977 0 0.0083242785986699427 -0.00073123252895541425 0 0.0082622973737777449 -0.00075315129382247869 0 0.0084306232407457826 -0.0004983202330917975 0 0.0083186939910346175 -0.00059321226050216235 0 0.0085201356103398497 -0.00071561113136836216 0 0.0083186939910346175 -0.00059321226050216235 0 0.0083242785986699427 -0.00073123252895541425 0 0.0085201356103398497 -0.00071561113136836216 0 0.0084019435719072527 -0.0008364312908379851 0 0.0082165753515822358 -0.00094562015079951891 0 0.0088095770636769169 -0.00086561775990790619 0 0.0083242785986699427 -0.00073123252895541425 0 0.0084019435719072527 -0.0008364312908379851 0 0.0085201356103398497 -0.00071561113136836216 0 0.0083242785986699427 -0.00073123252895541425 0 0.0084019435719072527 -0.0008364312908379851 0 0.0083424555190876187 -0.00088856872832353859 0 0.0083242785986699427 -0.00073123252895541425 0 0.0082622973737777449 -0.00075315129382247869 0 0.0083424555190876187 -0.00088856872832353859 0 0.0082622973737777449 -0.00075315129382247869 0 0.0083424555190876187 -0.00088856872832353859 0 0.0083994106168113342 -0.00083641983300078578 0 0.0083424555190876187 -0.00088856872832353859 0 0.008606945442462554 -0.000788533007656921 0 0.0083994106168113342 -0.00083641983300078578 0 0.0083424555190876187 -0.00088856872832353859 0 0.008606945442462554 -0.000788533007656921 0 0.0082165753515822358 -0.00094562015079951891 0 0.0084019435719072527 -0.0008364312908379851 0 0.0083424555190876187 -0.00088856872832353859 0 0.0082165753515822358 -0.00094562015079951891 0 0.010089133851407478 -0.00080365287137723412 0 0.010202131962586087 -0.00030439814036643803 0 0.0092698167114051936 -0.00073961414153927789 0 0.010597225007630639 -0.00031432588120492507 0 0.010062617303319159 -0.00073901534042861009 0 0.008606945442462554 -0.000788533007656921 0 0.0082165753515822358 -0.00094562015079951891 0 0.0089882896050531187 0.00010765338885815746 0 0.0091862156643820192 -0.00083493390234899169 0 0.010007107879537904 -2.2813740640069362e-06 0 0.010089133851407478 -0.00080365287137723412 0 0.010202131962586087 -0.00030439814036643803 0 0.011107957482395753 -0.00029700383288839844 0 0.0089882896050531187 0.00010765338885815746 0 0.01008551847085561 -0.00025550922724798774 0 0.010458768492469833 0.00028178191775970508 0 0.008606945442462554 -0.000788533007656921 0 0.0089882896050531187 0.00010765338885815746 0 0.0094689349901752578 -0.00058812937531074402 0 0.0094689349901752578 -0.00058812937531074402 0 0.01008551847085561 -0.00025550922724798774 0 0.010349685261414207 -0.00067555896914664633 0 0.0089882896050531187 0.00010765338885815746 0 0.0094689349901752578 -0.00058812937531074402 0 0.01008551847085561 -0.00025550922724798774 0 0.01099227589699619 -0.0003551802494919858 0 0.010349685261414207 -0.00067555896914664633 0 0.011653499201670654 -0.00077307563996925361 0 0.01099227589699619 -0.0003551802494919858 0 0.010458768492469833 0.00028178191775970508 0 0.011803885074171462 -0.00028046595483571015 0 0.01008551847085561 -0.00025550922724798774 0 0.01099227589699619 -0.0003551802494919858 0 0.010458768492469833 0.00028178191775970508 0 0.01008551847085561 -0.00025550922724798774 0 0.01099227589699619 -0.0003551802494919858 0 0.010349685261414207 -0.00067555896914664633 0 0.0077648809035245833 -0.00044837982758877447 0 0.0084714200538050354 -0.00073063435365856356 0 0.010349685261414207 -0.00067555896914664633 0 0.0094455106239503678 -0.0014425519530277451 0 0.011653499201670654 -0.00077307563996925361 0 0.0084714200538050354 -0.00073063435365856356 0 0.0097591326951262519 -0.00041967319464823559 0 0.007763882766909507 -0.0002775330174628267 0 0.0077473123725177676 -0.00019568151121220225 0 0.0076181288170296402 -0.00020718144436738809 0 0.0077473123725177676 -0.00019568151121220225 0 0.0076181288170296402 -0.00020718144436738809 0 0.0078174242087049404 -8.6372265467016336e-05 0 0.0077473123725177676 -0.00019568151121220225 0 0.0078174242087049404 -8.6372265467016336e-05 0 0.0077921493365601217 -0.00020243901862081109 0 0.007763882766909507 -0.0002775330174628267 0 0.0077473123725177676 -0.00019568151121220225 0 0.0077921493365601217 -0.00020243901862081109 0 0.0079675146275424644 -0.00071850851176615026 0 0.0082135011630167041 -0.00076181866703511523 0 0.0082159877316901296 -0.00089271585735064933 0 0.0082135011630167041 -0.00076181866703511523 0 0.0083994106168113342 -0.00083641983300078578 0 0.0082159877316901296 -0.00089271585735064933 0 0.0083521084509153333 -0.00080558856031171596 0 0.0084714200538050354 -0.00073063435365856356 0 0.0087712034756484807 -0.0009409283978429108 0 0.0084714200538050354 -0.00073063435365856356 0 0.008606945442462554 -0.000788533007656921 0 0.0083994106168113342 -0.00083641983300078578 0 0.0083289327519533267 -0.00086499285970636727 0 0.008606945442462554 -0.000788533007656921 0 0.0094689349901752578 -0.00058812937531074402 0 0.0094455106239503678 -0.0014425519530277451 0 0.0094689349901752578 -0.00058812937531074402 0 0.010349685261414207 -0.00067555896914664633 0 0.0094455106239503678 -0.0014425519530277451 0 0.008986509115210612 -0.0006845197842132555 0 0.0087995439989632593 -0.00070396260250020395 0 0.0088960447770997878 -0.00092278908685457185 0 0.008910201365202328 -0.0005361390102923588 0 0.0087995439989632593 -0.00070396260250020395 0 0.008660655361303388 -0.00058818972864784608 0 0.008660655361303388 -0.00058818972864784608 0 0.0086084146365606896 -0.00070842167550763527 0 0.0085319669821746803 -0.0005977968277982935 0 0.0087995439989632593 -0.00070396260250020395 0 0.0086084146365606896 -0.00070842167550763527 0 0.00871604450253456 -0.00084184312217899738 0 0.0087995439989632593 -0.00070396260250020395 0 0.008660655361303388 -0.00058818972864784608 0 0.0086084146365606896 -0.00070842167550763527 0 0.0086084146365606896 -0.00070842167550763527 0 0.0085727141579119009 -0.00083882185806904964 0 0.00871604450253456 -0.00084184312217899738 0 0.0091844037197075703 -0.00080286567712076174 0 0.0094355702381852778 -0.00081513680821755381 0 0.01047347388968971 -0.0010826445724231037 0 0.010767861560344958 -0.00067985142994759107 0 0.010303930039376864 -0.00075817705493851919 0 0.0086084146365606896 -0.00070842167550763527 0 0.0084817360908238538 -0.00067394735323465218 0 0.0085727141579119009 -0.00083882185806904964 0 0.0086084146365606896 -0.00070842167550763527 0 0.0084817360908238538 -0.00067394735323465218 0 0.0085319669821746803 -0.0005977968277982935 0 0.0084306232407457826 -0.0004983202330917975 0 0.0085022026879642137 -0.00064386685820175878 0 0.0085319669821746803 -0.0005977968277982935 0 0.008511717031763252 -0.00046817256228934002 0 0.008660655361303388 -0.00058818972864784608 0 0.0085319669821746803 -0.0005977968277982935 0 0.0091844037197075703 -0.00080286567712076174 0 0.0087444868551128895 -0.00079234582607821101 0 0.0082756697645199172 -0.00045028576090670237 0 0.0091844037197075703 -0.00080286567712076174 0 0.0084306232407457826 -0.0004983202330917975 0 0.0087018081220463957 -0.00086850321637726698 0 0.0085201356103398497 -0.00071561113136836216 0 0.0084019435719072527 -0.0008364312908379851 0 0.0085201356103398497 -0.00071561113136836216 0 0.0088095770636769169 -0.00086561775990790619 0 0.0091844037197075703 -0.00080286567712076174 0 0.010062617303319159 -0.00073901534042861009 0 0.0087018081220463957 -0.00086850321637726698 0 0.0085201356103398497 -0.00071561113136836216 0 0.0088095770636769169 -0.00086561775990790619 0 0.0087018081220463957 -0.00086850321637726698 0 0.0088095770636769169 -0.00086561775990790619 0 0.0092698167114051936 -0.00073961414153927789 0 0.0091862156643820192 -0.00083493390234899169 0 0.0088748476095784502 -0.00085597757679741816 0 0.010089133851407478 -0.00080365287137723412 0 0.0088095770636769169 -0.00086561775990790619 0 0.0092698167114051936 -0.00073961414153927789 0 0.010767861560344958 -0.00067985142994759107 0 0.010604467764754299 -0.00025217416845227993 0 0.010495841413370869 -0.00053611793169119394 0 0.011049690623591171 -0.00027610042074611274 0 0.010767861560344958 -0.00067985142994759107 0 0.010604467764754299 -0.00025217416845227993 0 0.01083867657591649 -0.00027483193371039536 0 0.0099314929740562351 -0.00057482227471100937 0 0.010903189071263152 -0.00034798329942462063 0 0.010573456033206204 -0.00055991770558945584 0 0.010707003596207519 -0.00029879976046068551 0 0.010604467764754299 -0.00025217416845227993 0 0.010495841413370869 -0.00053611793169119394 0 0.010124334172154494 -0.0004300100917125651 0 0.010767861560344958 -0.00067985142994759107 0 0.010495841413370869 -0.00053611793169119394 0 0.010303930039376864 -0.00075817705493851919 0 0.010495841413370869 -0.00053611793169119394 0 0.010303930039376864 -0.00075817705493851919 0 0.010124334172154494 -0.0004300100917125651 0 0.0094355702381852778 -0.00081513680821755381 0 0.0099314929740562351 -0.00057482227471100937 0 0.0085727141579119009 -0.00083882185806904964 0 0.00871604450253456 -0.00084184312217899738 0 0.008668586163575031 -0.0010026233571702055 0 0.0099314929740562351 -0.00057482227471100937 0 0.010493403508605517 -0.00045683653464191203 0 0.010573456033206204 -0.00055991770558945584 0 0.010402888507629618 -0.00033999456547163998 0 0.010707003596207519 -0.00029879976046068551 0 0.010559091215015637 -0.00067727246641703285 0 0.010083759685058723 -0.00050002259046185164 0 0.010402888507629618 -0.00033999456547163998 0 0.010559091215015637 -0.00067727246641703285 0 0.010083759685058723 -0.00050002259046185164 0 0.0099745928497729074 -0.00084528583954152938 0 0.0099314929740562351 -0.00057482227471100937 0 0.0093589778015337934 -0.00091304412890954917 0 0.00871604450253456 -0.00084184312217899738 0 0.008668586163575031 -0.0010026233571702055 0 0.0088960447770997878 -0.00092278908685457185 0 0.0087995439989632593 -0.00070396260250020395 0 0.00871604450253456 -0.00084184312217899738 0 0.0088960447770997878 -0.00092278908685457185 0 0.0099404426649591492 7.754263741219144e-05 0 0.010197106230880434 -0.00016362226201444978 0 0.01064037228337987 6.005142735579108e-05 0 0.010197106230880434 -0.00016362226201444978 0 0.010644187245898631 -0.00012306671346811872 0 0.01064037228337987 6.005142735579108e-05 0 0.010197106230880434 -0.00016362226201444978 0 0.010402888507629618 -0.00033999456547163998 0 0.010644187245898631 -0.00012306671346811872 0 0.010083759685058723 -0.00050002259046185164 0 0.010197106230880434 -0.00016362226201444978 0 0.010402888507629618 -0.00033999456547163998 0 0.010402888507629618 -0.00033999456547163998 0 0.010644187245898631 -0.00012306671346811872 0 0.010707003596207519 -0.00029879976046068551 0 0.010644187245898631 -0.00012306671346811872 0 0.010941068990643107 -0.0001135052188607756 0 0.010862448993660814 1.5471209388612373e-05 0 0.010644187245898631 -0.00012306671346811872 0 0.010707003596207519 -0.00029879976046068551 0 0.010941068990643107 -0.0001135052188607756 0 0.010903189071263152 -0.00034798329942462063 0 0.010707003596207519 -0.00029879976046068551 0 0.010941068990643107 -0.0001135052188607756 0 0.01083867657591649 -0.00027483193371039536 0 0.010980116952977065 -0.00017626542972878017 0 0.010903189071263152 -0.00034798329942462063 0 0.010941068990643107 -0.0001135052188607756 0 0.011041814726879564 -0.00014604657468312126 0 0.010941068990643107 -0.0001135052188607756 0 0.011088703796762987 6.3670955588988559e-05 0 0.011078782954419849 -3.2032149477184652e-05 0 0.010941068990643107 -0.0001135052188607756 0 0.011088703796762987 6.3670955588988559e-05 0 0.010862448993660814 1.5471209388612373e-05 0 0.011088703796762987 6.3670955588988559e-05 0 0.010964876072068537 0.00015061155517162445 0 0.011237489749684975 0.0002286040210358743 0 0.011088703796762987 6.3670955588988559e-05 0 0.010964876072068537 0.00015061155517162445 0 0.010862448993660814 1.5471209388612373e-05 0 0.010964876072068537 0.00015061155517162445 0 0.010862448993660814 1.5471209388612373e-05 0 0.01064037228337987 6.005142735579108e-05 0 0.010644187245898631 -0.00012306671346811872 0 0.010862448993660814 1.5471209388612373e-05 0 0.01064037228337987 6.005142735579108e-05 0 0.010964876072068537 0.00015061155517162445 0 0.01064037228337987 6.005142735579108e-05 0 0.010805219484498592 0.00022048733572003497 0 0.010514189599588018 0.00012985888142936147 0 0.01064037228337987 6.005142735579108e-05 0 0.010805219484498592 0.00022048733572003497 0 0.010514189599588018 0.00012985888142936147 0 0.010398958345193809 -0.00027733911394969168 0 0.01064037228337987 6.005142735579108e-05 0 0.010161172922954754 -0.00011584668770540941 0 0.010591643397898374 5.1054005309241995e-05 0 0.011186616453795898 3.8451179475356372e-05 0 0.011375003171816575 -3.070638034197766e-05 0 0.011270012956264555 9.8349902492824725e-05 0 0.011178396339163281 -6.5766621436352701e-05 0 0.011186616453795898 3.8451179475356372e-05 0 0.011375003171816575 -3.070638034197766e-05 0 0.011178396339163281 -6.5766621436352701e-05 0 0.011186616453795898 3.8451179475356372e-05 0 0.011038191392775572 -1.1837286016217104e-05 0 0.012068023301880827 -0.00013797336018507803 0 0.012103567628660489 -0.00011719995308829842 0 0.012061709504374961 -0.00012149131442734747 0 0.011443292216452624 0.00028121675011947547 0 0.011705886588819983 -9.073833750040742e-05 0 0.012033951279525786 -9.5343834660940337e-05 0 0.012023135560099775 -0.00012217155991161178 0 0.012061709504374961 -0.00012149131442734747 0 0.011443292216452624 0.00028121675011947547 0 0.011868763052485229 0.00010771106885847323 0 0.0089882896050531187 0.00010765338885815746 0 0.010763645707543916 0.0017165508439022661 0 0.010458768492469833 0.00028178191775970508 0 0.010763645707543916 0.0017165508439022661 0 0.010458768492469833 0.00028178191775970508 0 0.011803885074171462 -0.00028046595483571015 0 0.011107957482395753 -0.00029700383288839844 0 0.011178396339163281 -6.5766621436352701e-05 0 0.011375003171816575 -3.070638034197766e-05 0 0.010007107879537904 -2.2813740640069362e-06 0 0.011443292216452624 0.00028121675011947547 0 0.010597225007630639 -0.00031432588120492507 0 0.01097888202153654 -4.1257522344861783e-05 0 0.011107957482395753 -0.00029700383288839844 0 0.011178396339163281 -6.5766621436352701e-05 0 0.011038191392775572 -1.1837286016217104e-05 0 0.010202131962586087 -0.00030439814036643803 0 0.011107957482395753 -0.00029700383288839844 0 0.011038191392775572 -1.1837286016217104e-05 0 0.011049690623591171 -0.00027610042074611274 0 0.011041814726879564 -0.00014604657468312126 0 0.011038191392775572 -1.1837286016217104e-05 0 0.011049690623591171 -0.00027610042074611274 0 0.010604467764754299 -0.00025217416845227993 0 0.011041814726879564 -0.00014604657468312126 0 0.011041814726879564 -0.00014604657468312126 0 0.011078782954419849 -3.2032149477184652e-05 0 0.011038191392775572 -1.1837286016217104e-05 0 0.010941068990643107 -0.0001135052188607756 0 0.011041814726879564 -0.00014604657468312126 0 0.011078782954419849 -3.2032149477184652e-05 0 0.011078782954419849 -3.2032149477184652e-05 0 0.011038191392775572 -1.1837286016217104e-05 0 0.011196441331844095 6.5453391910271785e-05 0 0.011186616453795898 3.8451179475356372e-05 0 0.011038191392775572 -1.1837286016217104e-05 0 0.011196441331844095 6.5453391910271785e-05 0 0.011088703796762987 6.3670955588988559e-05 0 0.011078782954419849 -3.2032149477184652e-05 0 0.011196441331844095 6.5453391910271785e-05 0 0.011088703796762987 6.3670955588988559e-05 0 0.011196441331844095 6.5453391910271785e-05 0 0.011279989588089288 0.00016443871139647435 0 0.011088703796762987 6.3670955588988559e-05 0 0.011279989588089288 0.00016443871139647435 0 0.011237489749684975 0.0002286040210358743 0 0.011196441331844095 6.5453391910271785e-05 0 0.011279989588089288 0.00016443871139647435 0 0.011343747108512773 0.0001828163353907847 0 0.012030586559998344 -0.00011855258019494988 0 0.012134685365002767 4.5101664470071926e-06 0 0.011840100289331959 2.959594092369846e-05 0 0.011705886588819983 -9.073833750040742e-05 0 0.011576094206324321 0.00014766297546752868 0 0.011196441331844095 6.5453391910271785e-05 0 0.011270012956264555 9.8349902492824725e-05 0 0.011343747108512773 0.0001828163353907847 0 0.011186616453795898 3.8451179475356372e-05 0 0.011196441331844095 6.5453391910271785e-05 0 0.011270012956264555 9.8349902492824725e-05 0 0.012068023301880827 -0.00013797336018507803 0 0.012030586559998344 -0.00011855258019494988 0 0.012103567628660489 -0.00011719995308829842 0 0.012030586559998344 -0.00011855258019494988 0 0.012103567628660489 -0.00011719995308829842 0 0.012134685365002767 4.5101664470071926e-06 0 0.012134685365002767 4.5101664470071926e-06 0 0.01222702923918728 -6.7418393685291029e-05 0 0.012413175193311966 0.00018737856336472518 0 0.012321902513565818 0.00032847086044203791 0 0.012482258983691171 0.00047715446707882004 0 0.012103567628660489 -0.00011719995308829842 0 0.012134685365002767 4.5101664470071926e-06 0 0.01222702923918728 -6.7418393685291029e-05 0 0.012417814757173838 0.00072390795472754418 0 0.012629880096904404 0.000794497765960465 0 0.012613127470776754 0.00077446813969999837 0 0.012417814757173838 0.00072390795472754418 0 0.012629880096904404 0.000794497765960465 0 0.012539671215862953 0.0004838657706871823 0 0.012417814757173838 0.00072390795472754418 0 0.012237312693412584 0.00038240330286900642 0 0.012539671215862953 0.0004838657706871823 0 0.012321902513565818 0.00032847086044203791 0 0.012150040524793779 0.00012055328289242828 0 0.012103567628660489 -0.00011719995308829842 0 0.01222702923918728 -6.7418393685291029e-05 0 0.012059464948869485 -0.00011385594577921729 0 0.012629880096904404 0.000794497765960465 0 0.012465846622016944 0.00096154154898747126 0 0.012496391168007392 0.00087565875712100399 0 0.012629880096904404 0.000794497765960465 0 0.012496391168007392 0.00087565875712100399 0 0.012602635726628472 0.00078079826610123065 0 0.012574608438835799 0.00083781416022321099 0 0.012904911740983353 0.00064224128501039386 0 0.012629880096904404 0.000794497765960465 0 0.012853828156445162 0.00044102941816164714 0 0.012539671215862953 0.0004838657706871823 0 0.012629880096904404 0.000794497765960465 0 0.012552340177505061 0.001013429762660806 0 0.012465846622016944 0.00096154154898747126 0 0.012552340177505061 0.001013429762660806 0 0.012445504030484779 0.0010450875943978268 0 0.012465846622016944 0.00096154154898747126 0 0.012552340177505061 0.001013429762660806 0 0.01246774437988073 0.00113613172771437 0 0.012445504030484779 0.0010450875943978268 0 0.012853828156445162 0.00044102941816164714 0 0.012651460729445313 0.00028558025861068724 0 0.012767314263139571 6.144152534403429e-05 0 0.012651460729445313 0.00028558025861068724 0 0.012539671215862953 0.0004838657706871823 0 0.012436119914797305 0.00013741457651173498 0 0.012853828156445162 0.00044102941816164714 0 0.012651460729445313 0.00028558025861068724 0 0.012539671215862953 0.0004838657706871823 0 0.012651460729445313 0.00028558025861068724 0 0.012767314263139571 6.144152534403429e-05 0 0.012436119914797305 0.00013741457651173498 0 0.012767314263139571 6.144152534403429e-05 0 0.0130869925284122 -4.1134843566991497e-05 0 0.012584664637788517 -0.00027448117252121252 0 0.012767314263139571 6.144152534403429e-05 0 0.012436119914797305 0.00013741457651173498 0 0.012584664637788517 -0.00027448117252121252 0 0.012904911740983353 0.00064224128501039386 0 0.011470647594958595 0.00068159626541888579 0 0.012853828156445162 0.00044102941816164714 0 0.012767314263139571 6.144152534403429e-05 0 0.0130869925284122 -4.1134843566991497e-05 0 0.012059464948869485 -0.00011385594577921729 0 0.012023135560099775 -0.00012217155991161178 0 0.012061709504374961 -0.00012149131442734747 0 0.012059464948869485 -0.00011385594577921729 0 0.012023135560099775 -0.00012217155991161178 0 0.011967422631199928 -0.00015832010387503199 0 0.012103567628660489 -0.00011719995308829842 0 0.012059464948869485 -0.00011385594577921729 0 0.012061709504374961 -0.00012149131442734747 0 0.012237312693412584 0.00038240330286900642 0 0.012539671215862953 0.0004838657706871823 0 0.012436119914797305 0.00013741457651173498 0 0.012237312693412584 0.00038240330286900642 0 0.012436119914797305 0.00013741457651173498 0 0.012024058572544634 -0.00020122661184872974 0 0.012436119914797305 0.00013741457651173498 0 0.012024058572544634 -0.00020122661184872974 0 0.012584664637788517 -0.00027448117252121252 0 0.012059464948869485 -0.00011385594577921729 0 0.01195337825930088 -0.00018622727091167343 0 0.011967422631199928 -0.00015832010387503199 0 0.012150040524793779 0.00012055328289242828 0 0.012049374681786408 -0.0001908520950886331 0 0.012059464948869485 -0.00011385594577921729 0 0.01195337825930088 -0.00018622727091167343 0 0.012024058572544634 -0.00020122661184872974 0 0.012033951279525786 -9.5343834660940337e-05 0 0.011967422631199928 -0.00015832010387503199 0 0.011803885074171462 -0.00028046595483571015 0 0.011443292216452624 0.00028121675011947547 0 0.011758918172992357 -2.4162300571462183e-05 0 0.012033951279525786 -9.5343834660940337e-05 0 0.012023135560099775 -0.00012217155991161178 0 0.011967422631199928 -0.00015832010387503199 0 0.01195337825930088 -0.00018622727091167343 0 0.011967422631199928 -0.00015832010387503199 0 0.011803885074171462 -0.00028046595483571015 0 0.01195337825930088 -0.00018622727091167343 0 0.011803885074171462 -0.00028046595483571015 0 0.012024058572544634 -0.00020122661184872974 0 0.011803885074171462 -0.00028046595483571015 0 0.012024058572544634 -0.00020122661184872974 0 0.011653499201670654 -0.00077307563996925361 0 0.01099227589699619 -0.0003551802494919858 0 0.011803885074171462 -0.00028046595483571015 0 0.011653499201670654 -0.00077307563996925361 0 0.0078174242087049404 -8.6372265467016336e-05 0 0.0078787765433118925 -0.00024766839536158498 0 0.0077921493365601217 -0.00020243901862081109 0 0.0078174242087049404 -8.6372265467016336e-05 0 0.0078787765433118925 -0.00024766839536158498 0 0.0080396998702794015 -0.00011479051222693282 0 0.007763882766909507 -0.0002775330174628267 0 0.0078787765433118925 -0.00024766839536158498 0 0.0077921493365601217 -0.00020243901862081109 0 0.0080396998702794015 -0.00011479051222693282 0 0.0082727461998282521 -0.00010730088399388232 0 0.0079697170223291675 -0.00031724965535379063 0 0.0078787765433118925 -0.00024766839536158498 0 0.0080396998702794015 -0.00011479051222693282 0 0.0079697170223291675 -0.00031724965535379063 0 0.0080396998702794015 -0.00011479051222693282 0 0.008266911394448068 0.00017431080178379629 0 0.0082727461998282521 -0.00010730088399388232 0 0.012024058572544634 -0.00020122661184872974 0 0.011653499201670654 -0.00077307563996925361 0 0.012584664637788517 -0.00027448117252121252 0 0.0097591326951262519 -0.00041967319464823559 0 0.010312349791748044 -0.00014295448685477951 0 0.0078174242087049404 -8.6372265467016336e-05 0 0.0080396998702794015 -0.00011479051222693282 0 0.008266911394448068 0.00017431080178379629 0 0.0089734724679456715 0.0004270393345177883 0 0.008266911394448068 0.00017431080178379629 0 0.0085887277307054605 3.2942789177433062e-05 0 0.008266911394448068 0.00017431080178379629 0 0.0085887277307054605 3.2942789177433062e-05 0 0.0082727461998282521 -0.00010730088399388232 0 0.0089734724679456715 0.0004270393345177883 0 0.0085887277307054605 3.2942789177433062e-05 0 0.0088702470014725004 5.7909040392204808e-06 0 0.011470647594958595 0.00068159626541888579 0 0.010312349791748044 -0.00014295448685477951 0 0.008065211016612105 -0.00032370172593314099 0 0.0092476233761355237 -8.9021317605688426e-05 0 0.0088702470014725004 5.7909040392204808e-06 0 0.0085879669647779266 -0.00031025403105335481 0 0.0092424772460283182 -0.00021008222521623048 0 0.0085887277307054605 3.2942789177433062e-05 0 0.0088702470014725004 5.7909040392204808e-06 0 0.0085879669647779266 -0.00031025403105335481 0 0.008065211016612105 -0.00032370172593314099 0 0.0080626118532467397 -0.00030839563225601164 0 0.0082727461998282521 -0.00010730088399388232 0 0.0085879669647779266 -0.00031025403105335481 0 0.0079697170223291675 -0.00031724965535379063 0 0.0085887277307054605 3.2942789177433062e-05 0 0.0082727461998282521 -0.00010730088399388232 0 0.0085879669647779266 -0.00031025403105335481 0 0.0078719348995719383 -0.00029563819928498828 0 0.0078987942351855661 -0.00030843598751257071 0 0.0079697170223291675 -0.00031724965535379063 0 0.0078719348995719383 -0.00029563819928498828 0 0.0078987942351855661 -0.00030843598751257071 0 0.0078680071915865797 -0.00028286300888148453 0 0.0078987942351855661 -0.00030843598751257071 0 0.0078680071915865797 -0.00028286300888148453 0 0.0078713715955839991 -0.00030884417556976143 0 0.0078987942351855661 -0.00030843598751257071 0 0.0078582665944944546 -0.00037567869321325292 0 0.0079112171485669937 -0.00033097942974583963 0 0.0078719348995719383 -0.00029563819928498828 0 0.0078423794543519589 -0.0002459220342822367 0 0.0078018915720531887 -0.00017383438658617926 0 0.0078719348995719383 -0.00029563819928498828 0 0.0078423794543519589 -0.0002459220342822367 0 0.0078680071915865797 -0.00028286300888148453 0 0.0078423794543519589 -0.0002459220342822367 0 0.0078680071915865797 -0.00028286300888148453 0 0.0078612913256251235 -0.00028099895168615449 0 0.0078680071915865797 -0.00028286300888148453 0 0.0078612913256251235 -0.00028099895168615449 0 0.0078713715955839991 -0.00030884417556976143 0 0.0078423794543519589 -0.0002459220342822367 0 0.0078612913256251235 -0.00028099895168615449 0 0.0078674247262073612 -0.00029378534390348497 0 0.0078583498541247056 -0.0004093604472731778 0 0.0079115451621357621 -0.00034611190134481939 0 0.0078671493556537794 -0.00037254584693903914 0 0.0078612913256251235 -0.00028099895168615449 0 0.0078674247262073612 -0.00029378534390348497 0 0.0078713715955839991 -0.00030884417556976143 0 0.0079115451621357621 -0.00034611190134481939 0 0.0078713715955839991 -0.00030884417556976143 0 0.0078671493556537794 -0.00037254584693903914 0 0.0067666795267969006 8.9382496729354208e-06 0 0.0080846327694945423 -0.00045507931915888037 0 0.0078987942351855661 -0.00030843598751257071 0 0.0078713715955839991 -0.00030884417556976143 0 0.0078582665944944546 -0.00037567869321325292 0 0.0078713715955839991 -0.00030884417556976143 0 0.0078671493556537794 -0.00037254584693903914 0 0.0078582665944944546 -0.00037567869321325292 0 0.0078512339077037429 -0.00040392134546144771 0 0.0078671493556537794 -0.00037254584693903914 0 0.0078582665944944546 -0.00037567869321325292 0 0.0078510584885268624 -0.0004149090904440112 0 0.0078512339077037429 -0.00040392134546144771 0 0.0078582665944944546 -0.00037567869321325292 0 0.0078582665944944546 -0.00037567869321325292 0 0.0078564946199667293 -0.00045092464478936579 0 0.0078535733579216151 -0.0005482861051065574 0 0.007861229540461815 -0.00038993562915728275 0 0.007916114564008413 -0.00046069403686335605 0 0.0078510584885268624 -0.0004149090904440112 0 0.0078582665944944546 -0.00037567869321325292 0 0.0078564946199667293 -0.00045092464478936579 0 0.0078582665944944546 -0.00037567869321325292 0 0.0079112171485669937 -0.00033097942974583963 0 0.0079260343071749992 -0.00034534749172548436 0 0.0078564946199667293 -0.00045092464478936579 0 0.0078856627653663448 -0.0005056634007947515 0 0.0078535733579216151 -0.0005482861051065574 0 0.0078856627653663448 -0.0005056634007947515 0 0.0079325177206280573 -0.00049986749041066149 0 0.007924633351551854 -0.00056227806458160074 0 0.0078856627653663448 -0.0005056634007947515 0 0.007924633351551854 -0.00056227806458160074 0 0.0078535733579216151 -0.0005482861051065574 0 0.007763882766909507 -0.0002775330174628267 0 0.0078787765433118925 -0.00024766839536158498 0 0.0079260343071749992 -0.00034534749172548436 0 0.0078787765433118925 -0.00024766839536158498 0 0.0079697170223291675 -0.00031724965535379063 0 0.0079260343071749992 -0.00034534749172548436 0 0.0077648809035245833 -0.00044837982758877447 0 0.007916114564008413 -0.00046069403686335605 0 0.0079675146275424644 -0.00071850851176615026 0 0.007924633351551854 -0.00056227806458160074 0 0.0078535733579216151 -0.0005482861051065574 0 0.0078987942351855661 -0.00030843598751257071 0 0.0079697170223291675 -0.00031724965535379063 0 0.0079112171485669937 -0.00033097942974583963 0 0.0079697170223291675 -0.00031724965535379063 0 0.0079112171485669937 -0.00033097942974583963 0 0.0079260343071749992 -0.00034534749172548436 0 0.0074030157345636718 6.2459396855585957e-05 0 0.0073225155670411206 0.00016229793262478002 0 0.0074052154816945876 0.00019695398283563447 0 0.0074030157345636718 6.2459396855585957e-05 0 0.0074052154816945876 0.00019695398283563447 0 0.0075480919412721408 0.00010479398584886269 0 0.0074030157345636718 6.2459396855585957e-05 0 0.0073225155670411206 0.00016229793262478002 0 0.0073387121988945873 0.00017274593094654706 0 0.0073225155670411206 0.00016229793262478002 0 0.0073387121988945873 0.00017274593094654706 0 0.0073437197672012898 0.00019627589920351402 0 0.0073225155670411206 0.00016229793262478002 0 0.0072867378042663303 0.00022746268845637611 0 0.0074052154816945876 0.00019695398283563447 0 0.0073225155670411206 0.00016229793262478002 0 0.0072867378042663303 0.00022746268845637611 0 0.007276706131152561 0.00020116652972704035 0 0.0076223222274550192 0.00029574573717038678 0 0.0074052154816945876 0.00019695398283563447 0 0.0075480919412721408 0.00010479398584886269 0 0.0076223222274550192 0.00029574573717038678 0 0.0076976965340595687 0.00011338855648071984 0 0.0075480919412721408 0.00010479398584886269 0 0.0042983860096105497 0.00073608522428008608 0 0.0045809422544135538 0.0008136834825894383 0 0.0042697018044740047 0.00093768407166732143 0 0.0059573432656804563 0.00064572258459598246 0 0.0067666795267969006 8.9382496729354208e-06 0 0.0079132728696889414 0.00020900674903897426 0 0.0076976965340595687 0.00011338855648071984 0 0.0077524717668636988 4.2099857128635037e-06 0 0.0076223222274550192 0.00029574573717038678 0 0.0079132728696889414 0.00020900674903897426 0 0.0076976965340595687 0.00011338855648071984 0 0.0079132728696889414 0.00020900674903897426 0 0.0077524717668636988 4.2099857128635037e-06 0 0.0078018915720531887 -0.00017383438658617926 0 0.0078423794543519589 -0.0002459220342822367 0 0.0078674247262073612 -0.00029378534390348497 0 0.0078018915720531887 -0.00017383438658617926 0 0.0067666795267969006 8.9382496729354208e-06 0 0.0081102058556988144 -0.00011474928037576736 0 0.0076976965340595687 0.00011338855648071984 0 0.0077524717668636988 4.2099857128635037e-06 0 0.0076575554713411752 1.1218159629791338e-05 0 0.0077524717668636988 4.2099857128635037e-06 0 0.0077123600553517108 -0.00011385113662389771 0 0.0078018915720531887 -0.00017383438658617926 0 0.0077524717668636988 4.2099857128635037e-06 0 0.0077123600553517108 -0.00011385113662389771 0 0.0076575554713411752 1.1218159629791338e-05 0 0.0076976965340595687 0.00011338855648071984 0 0.0075480919412721408 0.00010479398584886269 0 0.0076575554713411752 1.1218159629791338e-05 0 0.0077123600553517108 -0.00011385113662389771 0 0.0076575554713411752 1.1218159629791338e-05 0 0.0075954881052382357 -5.2213012910502992e-05 0 0.0075480919412721408 0.00010479398584886269 0 0.0076575554713411752 1.1218159629791338e-05 0 0.0075954881052382357 -5.2213012910502992e-05 0 0.0074030157345636718 6.2459396855585957e-05 0 0.0075480919412721408 0.00010479398584886269 0 0.0075954881052382357 -5.2213012910502992e-05 0 0.011978970242356638 0.00069725262887944297 0 0.012100974927649062 0.00085188148289257778 0 0.012213138130678997 0.00076767400091415784 0 0.0075954881052382357 -5.2213012910502992e-05 0 0.0077585993741632496 -0.00018522746147358791 0 0.0074815194322478181 -0.00016616760801923804 0 0.0092476233761355237 -8.9021317605688426e-05 0 0.010191411720584024 0.00035605014835734031 0 0.0078719348995719383 -0.00029563819928498828 0 0.0077958666591249884 -0.00020707464659730152 0 0.0078018915720531887 -0.00017383438658617926 0 0.0077123600553517108 -0.00011385113662389771 0 0.0075954881052382357 -5.2213012910502992e-05 0 0.0077585993741632496 -0.00018522746147358791 0 0.0077123600553517108 -0.00011385113662389771 0 0.0077958666591249884 -0.00020707464659730152 0 0.0078018915720531887 -0.00017383438658617926 0 0.0084015122737848349 0.00014678903422757336 0 0.0092476233761355237 -8.9021317605688426e-05 0 0.0089734724679456715 0.0004270393345177883 0 0.0088702470014725004 5.7909040392204808e-06 0 0.0092424772460283182 -0.00021008222521623048 0 0.011978970242356638 0.00069725262887944297 0 0.012004322912043404 0.00087683436092544204 0 0.012100974927649062 0.00085188148289257778 0 0.011470647594958595 0.00068159626541888579 0 0.0092476233761355237 -8.9021317605688426e-05 0 0.011874994585208435 0.00095254276798563159 0 0.011978970242356638 0.00069725262887944297 0 0.012004322912043404 0.00087683436092544204 0 0.012004322912043404 0.00087683436092544204 0 0.012100974927649062 0.00085188148289257778 0 0.012061062079377124 0.0010031934671206018 0 0.012100974927649062 0.00085188148289257778 0 0.012229969271665319 0.00090920135720298746 0 0.012061062079377124 0.0010031934671206018 0 0.012100974927649062 0.00085188148289257778 0 0.012229969271665319 0.00090920135720298746 0 0.012213138130678997 0.00076767400091415784 0 0.012229969271665319 0.00090920135720298746 0 0.012297579627808461 0.00087598845754655735 0 0.012213138130678997 0.00076767400091415784 0 0.012297579627808461 0.00087598845754655735 0 0.012213138130678997 0.00076767400091415784 0 0.012348881761476473 0.00083746528952673312 0 0.012229969271665319 0.00090920135720298746 0 0.012297579627808461 0.00087598845754655735 0 0.012321356349713149 0.00095549187192325695 0 0.0074030157345636718 6.2459396855585957e-05 0 0.0074815194322478181 -0.00016616760801923804 0 0.0072258644085860194 -0.00019925776518915506 0 0.010191411720584024 0.00035605014835734031 0 0.0087154128394733316 0.00040901258170636867 0 0.0074030157345636718 6.2459396855585957e-05 0 0.0075954881052382357 -5.2213012910502992e-05 0 0.0074815194322478181 -0.00016616760801923804 0 0.0074030157345636718 6.2459396855585957e-05 0 0.0073387121988945873 0.00017274593094654706 0 0.0073243766201457183 0.00024735106527569065 0 0.0068742884286333615 -0.00018086522851623694 0 0.0087154128394733316 0.00040901258170636867 0 0.0073387121988945873 0.00017274593094654706 0 0.0073243766201457183 0.00024735106527569065 0 0.0073787624048582594 0.00023748910023606493 0 0.012297579627808461 0.00087598845754655735 0 0.012348881761476473 0.00083746528952673312 0 0.012350995116239624 0.00091065088240385738 0 0.012297579627808461 0.00087598845754655735 0 0.012350995116239624 0.00091065088240385738 0 0.012321356349713149 0.00095549187192325695 0 0.012348881761476473 0.00083746528952673312 0 0.012350995116239624 0.00091065088240385738 0 0.01239037676313217 0.00091443878172014896 0 0.012350995116239624 0.00091065088240385738 0 0.012373580559395761 0.00097110422004594629 0 0.01239037676313217 0.00091443878172014896 0 0.012373580559395761 0.00097110422004594629 0 0.012321356349713149 0.00095549187192325695 0 0.012336134871979279 0.0010083802866637892 0 0.012350995116239624 0.00091065088240385738 0 0.012373580559395761 0.00097110422004594629 0 0.012321356349713149 0.00095549187192325695 0 0.012229969271665319 0.00090920135720298746 0 0.012321356349713149 0.00095549187192325695 0 0.012280486015574842 0.0010318845486914712 0 0.012321356349713149 0.00095549187192325695 0 0.012280486015574842 0.0010318845486914712 0 0.012336134871979279 0.0010083802866637892 0 0.012280486015574842 0.0010318845486914712 0 0.012336134871979279 0.0010083802866637892 0 0.012342312512242246 0.0010178513285295419 0 0.012336134871979279 0.0010083802866637892 0 0.012342312512242246 0.0010178513285295419 0 0.012408844890826628 0.0010436297328891766 0 0.012373580559395761 0.00097110422004594629 0 0.012336134871979279 0.0010083802866637892 0 0.012408844890826628 0.0010436297328891766 0 0.011874994585208435 0.00095254276798563159 0 0.012004322912043404 0.00087683436092544204 0 0.012061062079377124 0.0010031934671206018 0 0.011470647594958595 0.00068159626541888579 0 0.012356771339027149 0.0010902594935038108 0 0.01246774437988073 0.00113613172771437 0 0.012379140682179327 0.001100689678626549 0 0.012445504030484779 0.0010450875943978268 0 0.012225409839317386 0.0010274013270256939 0 0.012356771339027149 0.0010902594935038108 0 0.012229969271665319 0.00090920135720298746 0 0.012280486015574842 0.0010318845486914712 0 0.012061062079377124 0.0010031934671206018 0 0.012280486015574842 0.0010318845486914712 0 0.012379140682179327 0.001100689678626549 0 0.012356979997565177 0.0010161291798657876 0 0.012280486015574842 0.0010318845486914712 0 0.012356979997565177 0.0010161291798657876 0 0.012342312512242246 0.0010178513285295419 0 0.012379140682179327 0.001100689678626549 0 0.012356979997565177 0.0010161291798657876 0 0.012445504030484779 0.0010450875943978268 0 0.012356979997565177 0.0010161291798657876 0 0.012445504030484779 0.0010450875943978268 0 0.012465846622016944 0.00096154154898747126 0 0.012356979997565177 0.0010161291798657876 0 0.012325383447516526 0.0010112144262003897 0 0.012342312512242246 0.0010178513285295419 0 0.012356979997565177 0.0010161291798657876 0 0.012465846622016944 0.00096154154898747126 0 0.012325383447516526 0.0010112144262003897 0 0.012325383447516526 0.0010112144262003897 0 0.012496391168007392 0.00087565875712100399 0 0.012410730100655866 0.00080576759326311527 0 0.012465846622016944 0.00096154154898747126 0 0.012325383447516526 0.0010112144262003897 0 0.012496391168007392 0.00087565875712100399 0 0.012342312512242246 0.0010178513285295419 0 0.012460300762336542 0.0011480826045413243 0 0.012408844890826628 0.0010436297328891766 0 0.012325383447516526 0.0010112144262003897 0 0.012342312512242246 0.0010178513285295419 0 0.012460300762336542 0.0011480826045413243 0 0.012252021730115295 0.0016559380690745961 0 0.012449395104696868 0.0019597431230290161 0 0.012252021730115295 0.0016559380690745961 0 0.01236818855259663 0.0015252078885313991 0 0.012460300762336542 0.0011480826045413243 0 0.012353882478977904 0.0015089497739501547 0 0.01225070516016703 0.0013332566466962919 0 0.012325383447516526 0.0010112144262003897 0 0.012460300762336542 0.0011480826045413243 0 0.01225070516016703 0.0013332566466962919 0 0.012162057727555624 0.0021749221615522786 0 0.012353882478977904 0.0015089497739501547 0 0.012025001223664889 0.0016428330490961002 0 0.012353882478977904 0.0015089497739501547 0 0.012025001223664889 0.0016428330490961002 0 0.012187195419902616 0.001361159451878365 0 0.012025001223664889 0.0016428330490961002 0 0.012187195419902616 0.001361159451878365 0 0.011824146962672737 0.0014332235684357045 0 0.012353882478977904 0.0015089497739501547 0 0.012187195419902616 0.001361159451878365 0 0.012322019164615158 0.0014007975000865569 0 0.012187195419902616 0.001361159451878365 0 0.012322019164615158 0.0014007975000865569 0 0.012346252813764327 0.001244711580873368 0 0.012998461239383302 0.0013393586420716703 0 0.012585175896433716 0.0018201720999235374 0 0.012187195419902616 0.001361159451878365 0 0.012056835802304992 0.0011436588333778772 0 0.011824146962672737 0.0014332235684357045 0 0.012187195419902616 0.001361159451878365 0 0.012346252813764327 0.001244711580873368 0 0.012056835802304992 0.0011436588333778772 0 0.013795670282659352 0.002148137113716021 0 0.013222237705318407 0.0020700132184169255 0 0.01329353616028797 0.0019428237406813817 0 0.012870165243536487 0.00082746950880425052 0 0.012735266089286532 0.00068880134567328075 0 0.012587814379118311 0.00067725352068633796 0 0.012637967488556166 0.00074449483883811188 0 0.01275086264035457 0.00072697829142198689 0 0.013064650485170321 0.00072034078272621303 0 0.013046507033575266 0.00084245815539574741 0 0.012897768497404191 0.00082008932487003016 0 0.013064650485170321 0.00072034078272621303 0 0.01275086264035457 0.00072697829142198689 0 0.012897768497404191 0.00082008932487003016 0 0.012870165243536487 0.00082746950880425052 0 0.013013992046908274 0.0007942666000352389 0 0.013177705672460053 0.00079189242857282544 0 0.013062607918511573 0.000767408736808378 0 0.013109653181568483 0.0008208517561413359 0 0.01291056635113812 0.001152049933154483 0 0.0127014853015002 0.001119364612005444 0 0.012735517030763911 0.00089201462102639904 0 0.013062607918511573 0.000767408736808378 0 0.013109653181568483 0.0008208517561413359 0 0.013046507033575266 0.00084245815539574741 0 0.012998461239383302 0.0013393586420716703 0 0.012870165243536487 0.00082746950880425052 0 0.012353882478977904 0.0015089497739501547 0 0.012322019164615158 0.0014007975000865569 0 0.012353729839404642 0.0014587731478543204 0 0.012322019164615158 0.0014007975000865569 0 0.012346252813764327 0.001244711580873368 0 0.012353729839404642 0.0014587731478543204 0 0.012998461239383302 0.0013393586420716703 0 0.012508511741692546 0.00094735232477115338 0 0.012870165243536487 0.00082746950880425052 0 0.012508511741692546 0.00094735232477115338 0 0.012587814379118311 0.00067725352068633796 0 0.012571724197914793 0.00074221184546056332 0 0.012637967488556166 0.00074449483883811188 0 0.012637967488556166 0.00074449483883811188 0 0.012551519886735946 0.00076366421592707738 0 0.012602635726628472 0.00078079826610123065 0 0.012508511741692546 0.00094735232477115338 0 0.012518671005751755 0.00068191555480371605 0 0.012571724197914793 0.00074221184546056332 0 0.012637967488556166 0.00074449483883811188 0 0.012551519886735946 0.00076366421592707738 0 0.012353882478977904 0.0015089497739501547 0 0.012353729839404642 0.0014587731478543204 0 0.01225070516016703 0.0013332566466962919 0 0.012454586786119775 0.00062243984132193358 0 0.012551519886735946 0.00076366421592707738 0 0.012410730100655866 0.00080576759326311527 0 0.012508511741692546 0.00094735232477115338 0 0.012324519674625594 0.0010866023969122297 0 0.012328675085931754 0.0010134094835884929 0 0.012324519674625594 0.0010866023969122297 0 0.012496391168007392 0.00087565875712100399 0 0.012551519886735946 0.00076366421592707738 0 0.012602635726628472 0.00078079826610123065 0 0.012496391168007392 0.00087565875712100399 0 0.012551519886735946 0.00076366421592707738 0 0.012410730100655866 0.00080576759326311527 0 0.012629880096904404 0.000794497765960465 0 0.012602635726628472 0.00078079826610123065 0 0.012613127470776754 0.00077446813969999837 0 0.01265031785381295 0.00074373688000178276 0 0.012613127470776754 0.00077446813969999837 0 0.012649344940335322 0.0007178236004068033 0 0.012602635726628472 0.00078079826610123065 0 0.01265031785381295 0.00074373688000178276 0 0.012613127470776754 0.00077446813969999837 0 0.012637967488556166 0.00074449483883811188 0 0.012602635726628472 0.00078079826610123065 0 0.01265031785381295 0.00074373688000178276 0 0.012417814757173838 0.00072390795472754418 0 0.012563371571183321 0.00074815125698973013 0 0.012613127470776754 0.00077446813969999837 0 0.012563371571183321 0.00074815125698973013 0 0.012613127470776754 0.00077446813969999837 0 0.012649344940335322 0.0007178236004068033 0 0.012413175193311966 0.00018737856336472518 0 0.012570511092328634 0.00065686834591461619 0 0.012116330117502397 0.00034900825407117967 0 0.012482258983691171 0.00047715446707882004 0 0.012554959342123796 0.00065470334681444443 0 0.012563371571183321 0.00074815125698973013 0 0.012570511092328634 0.00065686834591461619 0 0.012649344940335322 0.0007178236004068033 0 0.012570511092328634 0.00065686834591461619 0 0.012649344940335322 0.0007178236004068033 0 0.012721975296969584 0.00079097874687079504 0 0.012570511092328634 0.00065686834591461619 0 0.012661823632421547 0.00083900773847524906 0 0.012388323127512292 0.00077303360589655982 0 0.012661823632421547 0.00083900773847524906 0 0.012689272667434845 0.00098729530611466878 0 0.012388323127512292 0.00077303360589655982 0 0.012570511092328634 0.00065686834591461619 0 0.012721975296969584 0.00079097874687079504 0 0.012661823632421547 0.00083900773847524906 0 0.012637967488556166 0.00074449483883811188 0 0.01265031785381295 0.00074373688000178276 0 0.01275086264035457 0.00072697829142198689 0 0.01265031785381295 0.00074373688000178276 0 0.012649344940335322 0.0007178236004068033 0 0.01275086264035457 0.00072697829142198689 0 0.012649344940335322 0.0007178236004068033 0 0.012721975296969584 0.00079097874687079504 0 0.01275086264035457 0.00072697829142198689 0 0.012721975296969584 0.00079097874687079504 0 0.01275086264035457 0.00072697829142198689 0 0.012792813873899418 0.00085256131870391542 0 0.01275086264035457 0.00072697829142198689 0 0.012792813873899418 0.00085256131870391542 0 0.012897768497404191 0.00082008932487003016 0 0.012792813873899418 0.00085256131870391542 0 0.012914740287007056 0.0009026347729457079 0 0.012897768497404191 0.00082008932487003016 0 0.01299259621283585 0.00093310318044914815 0 0.012851327686188277 0.0009131464155005014 0 0.012792813873899418 0.00085256131870391542 0 0.012808955801724843 0.0009353919196906093 0 0.01282472182281161 0.00091784349992018923 0 0.012808955801724843 0.0009353919196906093 0 0.012914740287007056 0.0009026347729457079 0 0.012965605798216442 0.0010243909588904126 0 0.012792813873899418 0.00085256131870391542 0 0.012808955801724843 0.0009353919196906093 0 0.012914740287007056 0.0009026347729457079 0 0.012661823632421547 0.00083900773847524906 0 0.012689272667434845 0.00098729530611466878 0 0.01282472182281161 0.00091784349992018923 0 0.012721975296969584 0.00079097874687079504 0 0.012792813873899418 0.00085256131870391542 0 0.01282472182281161 0.00091784349992018923 0 0.012721975296969584 0.00079097874687079504 0 0.012661823632421547 0.00083900773847524906 0 0.01282472182281161 0.00091784349992018923 0 0.013170261036240975 0.00091348307174886009 0 0.01282472182281161 0.00091784349992018923 0 0.013065387143927706 0.0010655860258468794 0 0.012689272667434845 0.00098729530611466878 0 0.01282472182281161 0.00091784349992018923 0 0.012852696872103683 0.0010785542018890495 0 0.012852696872103683 0.0010785542018890495 0 0.01296451765125101 0.001224542912960697 0 0.012788920856689706 0.0012080439402368179 0 0.012852696872103683 0.0010785542018890495 0 0.013065387143927706 0.0010655860258468794 0 0.01296451765125101 0.001224542912960697 0 0.01282472182281161 0.00091784349992018923 0 0.012852696872103683 0.0010785542018890495 0 0.013065387143927706 0.0010655860258468794 0 0.013065387143927706 0.0010655860258468794 0 0.01296451765125101 0.001224542912960697 0 0.013102476092754087 0.0011468893021585147 0 0.01299259621283585 0.00093310318044914815 0 0.013163308410982429 0.00097955491143627291 0 0.013250698921513739 0.00099551752003053276 0 0.013397851642330059 0.00097466398034149566 0 0.013359856029631755 0.00094076255515492056 0 0.013170261036240975 0.00091348307174886009 0 0.013250698921513739 0.00099551752003053276 0 0.013359856029631755 0.00094076255515492056 0 0.013170261036240975 0.00091348307174886009 0 0.013065387143927706 0.0010655860258468794 0 0.013250698921513739 0.00099551752003053276 0 0.013065387143927706 0.0010655860258468794 0 0.013250698921513739 0.00099551752003053276 0 0.013285030780838347 0.0010406962217191517 0 0.013065387143927706 0.0010655860258468794 0 0.013285030780838347 0.0010406962217191517 0 0.013102476092754087 0.0011468893021585147 0 0.013250698921513739 0.00099551752003053276 0 0.013285030780838347 0.0010406962217191517 0 0.013397851642330059 0.00097466398034149566 0 0.013397851642330059 0.00097466398034149566 0 0.013424197057611989 0.00095582270192104272 0 0.013430021514989291 0.00090809834436250973 0 0.013397851642330059 0.00097466398034149566 0 0.013359856029631755 0.00094076255515492056 0 0.013424197057611989 0.00095582270192104272 0 0.012965605798216442 0.0010243909588904126 0 0.013089603811020763 0.00099374290523211923 0 0.013169122703687404 0.0010278085150674102 0 0.013163308410982429 0.00097955491143627291 0 0.01328700094761005 0.00098324920775166727 0 0.013169122703687404 0.0010278085150674102 0 0.013239997968864632 0.00099777928289877913 0 0.013152135295270453 0.00097097497385177417 0 0.013089603811020763 0.00099374290523211923 0 0.013169122703687404 0.0010278085150674102 0 0.013152135295270453 0.00097097497385177417 0 0.013424197057611989 0.00095582270192104272 0 0.013315779617134321 0.00092027034694077369 0 0.013430021514989291 0.00090809834436250973 0 0.01328700094761005 0.00098324920775166727 0 0.013301361038014409 0.00093081255455954178 0 0.013169122703687404 0.0010278085150674102 0 0.013315779617134321 0.00092027034694077369 0 0.013239997968864632 0.00099777928289877913 0 0.013315779617134321 0.00092027034694077369 0 0.013217800370170724 0.0008963425989801108 0 0.013327881492561054 0.00082288081861566398 0 0.013315779617134321 0.00092027034694077369 0 0.013217800370170724 0.0008963425989801108 0 0.013239997968864632 0.00099777928289877913 0 0.013217800370170724 0.0008963425989801108 0 0.013239997968864632 0.00099777928289877913 0 0.013155800422748149 0.0010430425453692119 0 0.013239997968864632 0.00099777928289877913 0 0.013200253271109316 0.00095495758576578233 0 0.013152135295270453 0.00097097497385177417 0 0.013239997968864632 0.00099777928289877913 0 0.013200253271109316 0.00095495758576578233 0 0.013245570086432344 0.00095280996767779888 0 0.013200253271109316 0.00095495758576578233 0 0.013245570086432344 0.00095280996767779888 0 0.013151767081403785 0.00088473214162748063 0 0.013432334653742486 0.0013350318829041014 0 0.013139086278290767 0.0010217432909346636 0 0.013239997968864632 0.00099777928289877913 0 0.013245570086432344 0.00095280996767779888 0 0.013155800422748149 0.0010430425453692119 0 0.013477203050238994 0.0016325736687762336 0 0.013177621259925599 0.0016408790883308559 0 0.013155800422748149 0.0010430425453692119 0 0.013477203050238994 0.0016325736687762336 0 0.013177621259925599 0.0016408790883308559 0 0.01329353616028797 0.0019428237406813817 0 0.013177621259925599 0.0016408790883308559 0 0.01329353616028797 0.0019428237406813817 0 0.012983668511989401 0.0018806328019321621 0 0.013214036878989529 0.002108738308425835 0 0.01329353616028797 0.0019428237406813817 0 0.012983668511989401 0.0018806328019321621 0 0.012585175896433716 0.0018201720999235374 0 0.012838327489109309 0.0018056344812206135 0 0.013177705672460053 0.00079189242857282544 0 0.013245570086432344 0.00095280996767779888 0 0.013151767081403785 0.00088473214162748063 0 0.013795670282659352 0.002148137113716021 0 0.013477203050238994 0.0016325736687762336 0 0.01329353616028797 0.0019428237406813817 0 0.012998461239383302 0.0013393586420716703 0 0.013432334653742486 0.0013350318829041014 0 0.013177705672460053 0.00079189242857282544 0 0.013109653181568483 0.0008208517561413359 0 0.013151767081403785 0.00088473214162748063 0 0.013151767081403785 0.00088473214162748063 0 0.013046507033575266 0.00084245815539574741 0 0.013050733074600099 0.00092658094465382194 0 0.013109653181568483 0.0008208517561413359 0 0.013151767081403785 0.00088473214162748063 0 0.013046507033575266 0.00084245815539574741 0 0.012914740287007056 0.0009026347729457079 0 0.013046507033575266 0.00084245815539574741 0 0.013050733074600099 0.00092658094465382194 0 0.012914740287007056 0.0009026347729457079 0 0.013046507033575266 0.00084245815539574741 0 0.012897768497404191 0.00082008932487003016 0 0.012914740287007056 0.0009026347729457079 0 0.012965605798216442 0.0010243909588904126 0 0.013050733074600099 0.00092658094465382194 0 0.012965605798216442 0.0010243909588904126 0 0.013089603811020763 0.00099374290523211923 0 0.013050733074600099 0.00092658094465382194 0 0.013200253271109316 0.00095495758576578233 0 0.013151767081403785 0.00088473214162748063 0 0.013152135295270453 0.00097097497385177417 0 0.013089603811020763 0.00099374290523211923 0 0.013050733074600099 0.00092658094465382194 0 0.013152135295270453 0.00097097497385177417 0 0.013151767081403785 0.00088473214162748063 0 0.013050733074600099 0.00092658094465382194 0 0.013152135295270453 0.00097097497385177417 0 0.010430796394936832 0.00050657183488565414 0 0.010832188962119427 0.00082214751111730643 0 0.011015281041487938 0.00046768312069730164 0 0.010430796394936832 0.00050657183488565414 0 0.011015281041487938 0.00046768312069730164 0 0.010604597985419561 0.0003109198189875027 0 0.010832188962119427 0.00082214751111730643 0 0.011015281041487938 0.00046768312069730164 0 0.011277700971260284 0.00080289958904986047 0 0.010514189599588018 0.00012985888142936147 0 0.010604597985419561 0.0003109198189875027 0 0.010805219484498592 0.00022048733572003497 0 0.011015281041487938 0.00046768312069730164 0 0.010805219484498592 0.00022048733572003497 0 0.011114024004183744 0.00028093409301334853 0 0.011015281041487938 0.00046768312069730164 0 0.010604597985419561 0.0003109198189875027 0 0.010805219484498592 0.00022048733572003497 0 0.011015281041487938 0.00046768312069730164 0 0.011114024004183744 0.00028093409301334853 0 0.011409059047745203 0.00040831884531401184 0 0.010964876072068537 0.00015061155517162445 0 0.011114024004183744 0.00028093409301334853 0 0.011237489749684975 0.0002286040210358743 0 0.010964876072068537 0.00015061155517162445 0 0.010805219484498592 0.00022048733572003497 0 0.011114024004183744 0.00028093409301334853 0 0.011114024004183744 0.00028093409301334853 0 0.011237489749684975 0.0002286040210358743 0 0.011409059047745203 0.00040831884531401184 0 0.011015281041487938 0.00046768312069730164 0 0.011409059047745203 0.00040831884531401184 0 0.011706335246481589 0.00069808413600325246 0 0.011015281041487938 0.00046768312069730164 0 0.011277700971260284 0.00080289958904986047 0 0.011706335246481589 0.00069808413600325246 0 0.011277700971260284 0.00080289958904986047 0 0.011706335246481589 0.00069808413600325246 0 0.011738035649891562 0.00097156201367661532 0 0.011706335246481589 0.00069808413600325246 0 0.012197230320047816 0.00057206679558937062 0 0.012338488468049953 0.0010854972171295747 0 0.011559799573797004 0.00064465621430393296 0 0.011926121528540591 0.00060298883971984308 0 0.012070209582692755 0.00093830376049819765 0 0.011878198041881196 0.00061878263542375616 0 0.012350012105236289 0.00088364084041089495 0 0.012197230320047816 0.00057206679558937062 0 0.012637166524146412 0.00086119460272014281 0 0.012338488468049953 0.0010854972171295747 0 0.011559799573797004 0.00064465621430393296 0 0.011535585186019152 0.00034830773407001887 0 0.011926121528540591 0.00060298883971984308 0 0.011409059047745203 0.00040831884531401184 0 0.011559799573797004 0.00064465621430393296 0 0.011535585186019152 0.00034830773407001887 0 0.011454045306675459 0.000420569849828358 0 0.011878198041881196 0.00061878263542375616 0 0.011409059047745203 0.00040831884531401184 0 0.011706335246481589 0.00069808413600325246 0 0.012197230320047816 0.00057206679558937062 0 0.011237489749684975 0.0002286040210358743 0 0.011409059047745203 0.00040831884531401184 0 0.011535585186019152 0.00034830773407001887 0 0.011279989588089288 0.00016443871139647435 0 0.011237489749684975 0.0002286040210358743 0 0.011535585186019152 0.00034830773407001887 0 0.011279989588089288 0.00016443871139647435 0 0.011343747108512773 0.0001828163353907847 0 0.011535585186019152 0.00034830773407001887 0 0.011576094206324321 0.00014766297546752868 0 0.011526734916343769 0.0003361271979542169 0 0.011840100289331959 2.959594092369846e-05 0 0.011535585186019152 0.00034830773407001887 0 0.012116330117502397 0.00034900825407117967 0 0.011535585186019152 0.00034830773407001887 0 0.012116330117502397 0.00034900825407117967 0 0.011926121528540591 0.00060298883971984308 0 0.012134685365002767 4.5101664470071926e-06 0 0.011840100289331959 2.959594092369846e-05 0 0.012116330117502397 0.00034900825407117967 0 0.012134685365002767 4.5101664470071926e-06 0 0.012413175193311966 0.00018737856336472518 0 0.012116330117502397 0.00034900825407117967 0 0.012116330117502397 0.00034900825407117967 0 0.011926121528540591 0.00060298883971984308 0 0.012388323127512292 0.00077303360589655982 0 0.012570511092328634 0.00065686834591461619 0 0.012116330117502397 0.00034900825407117967 0 0.012388323127512292 0.00077303360589655982 0 0.011926121528540591 0.00060298883971984308 0 0.012070209582692755 0.00093830376049819765 0 0.012388323127512292 0.00077303360589655982 0 0.012689272667434845 0.00098729530611466878 0 0.012070209582692755 0.00093830376049819765 0 0.012388323127512292 0.00077303360589655982 0 0.012689272667434845 0.00098729530611466878 0 0.012637166524146412 0.00086119460272014281 0 0.012720981243022867 0.0011015059427076114 0 0.012652272114953613 0.00098641872304266087 0 0.012350012105236289 0.00088364084041089495 0 0.012637166524146412 0.00086119460272014281 0 0.012579692940614092 0.0010883330842253655 0 0.012720981243022867 0.0011015059427076114 0 0.012579692940614092 0.0010883330842253655 0 0.012720981243022867 0.0011015059427076114 0 0.012636331984065776 0.0012817457271134924 0 0.012689272667434845 0.00098729530611466878 0 0.012852696872103683 0.0010785542018890495 0 0.012720981243022867 0.0011015059427076114 0 0.012852696872103683 0.0010785542018890495 0 0.012720981243022867 0.0011015059427076114 0 0.012788920856689706 0.0012080439402368179 0 0.01296451765125101 0.001224542912960697 0 0.012788920856689706 0.0012080439402368179 0 0.012769230742319787 0.0013777683447329992 0 0.012788920856689706 0.0012080439402368179 0 0.012636331984065776 0.0012817457271134924 0 0.012769230742319787 0.0013777683447329992 0 0.012636331984065776 0.0012817457271134924 0 0.012660864191493985 0.0014949240496426809 0 0.012769230742319787 0.0013777683447329992 0 0.012720981243022867 0.0011015059427076114 0 0.012788920856689706 0.0012080439402368179 0 0.012636331984065776 0.0012817457271134924 0 0.012636331984065776 0.0012817457271134924 0 0.012501841079227229 0.0014506959132408433 0 0.012338488468049953 0.0010854972171295747 0 0.012501841079227229 0.0014506959132408433 0 0.01262312477900328 0.0015839077825161372 0 0.012660864191493985 0.0014949240496426809 0 0.012636331984065776 0.0012817457271134924 0 0.012501841079227229 0.0014506959132408433 0 0.012660864191493985 0.0014949240496426809 0 0.012501841079227229 0.0014506959132408433 0 0.012349214413607878 0.0015945090979911302 0 0.01262312477900328 0.0015839077825161372 0 0.012501841079227229 0.0014506959132408433 0 0.012080543711921547 0.0012907949683679447 0 0.012349214413607878 0.0015945090979911302 0 0.012501841079227229 0.0014506959132408433 0 0.012338488468049953 0.0010854972171295747 0 0.012080543711921547 0.0012907949683679447 0 0.012579692940614092 0.0010883330842253655 0 0.012636331984065776 0.0012817457271134924 0 0.012338488468049953 0.0010854972171295747 0 0.012637166524146412 0.00086119460272014281 0 0.012579692940614092 0.0010883330842253655 0 0.012338488468049953 0.0010854972171295747 0 0.011706335246481589 0.00069808413600325246 0 0.012338488468049953 0.0010854972171295747 0 0.011738035649891562 0.00097156201367661532 0 0.011277700971260284 0.00080289958904986047 0 0.011738035649891562 0.00097156201367661532 0 0.01130237331143364 0.0011530190417064091 0 0.012080543711921547 0.0012907949683679447 0 0.011400521426029838 0.0016359105049935701 0 0.01130237331143364 0.0011530190417064091 0 0.011738035649891562 0.00097156201367661532 0 0.012080543711921547 0.0012907949683679447 0 0.01130237331143364 0.0011530190417064091 0 0.012338488468049953 0.0010854972171295747 0 0.011738035649891562 0.00097156201367661532 0 0.012080543711921547 0.0012907949683679447 0 0.012080543711921547 0.0012907949683679447 0 0.012349214413607878 0.0015945090979911302 0 0.011400521426029838 0.0016359105049935701 0 0.012349214413607878 0.0015945090979911302 0 0.012712884510645091 0.0016746785550530853 0 0.01262312477900328 0.0015839077825161372 0 0.012349214413607878 0.0015945090979911302 0 0.012287719632965795 0.0014182007183910878 0 0.012738245951171612 0.0018719226203653399 0 0.012300708890090283 0.0015905805634204818 0 0.01183475768609916 0.0015203484636774453 0 0.012287719632965795 0.0014182007183910878 0 0.011921454282062795 0.001816273515764864 0 0.011370572083766768 0.0012528049931127638 0 0.01183475768609916 0.0015203484636774453 0 0.011073601418424426 0.001387069146450672 0 0.011400521426029838 0.0016359105049935701 0 0.010770729116976126 0.0015005712393863768 0 0.01130237331143364 0.0011530190417064091 0 0.012287719632965795 0.0014182007183910878 0 0.011921454282062795 0.001816273515764864 0 0.012738245951171612 0.0018719226203653399 0 0.011921454282062795 0.001816273515764864 0 0.011370572083766768 0.0012528049931127638 0 0.011194763800368575 0.0020832335250881959 0 0.010770729116976126 0.0015005712393863768 0 0.010642833910262862 0.0011318736693425586 0 0.01130237331143364 0.0011530190417064091 0 0.010832188962119427 0.00082214751111730643 0 0.011277700971260284 0.00080289958904986047 0 0.01130237331143364 0.0011530190417064091 0 0.010832188962119427 0.00082214751111730643 0 0.010642833910262862 0.0011318736693425586 0 0.01130237331143364 0.0011530190417064091 0 0.014381970946096247 0.00064470417701788371 0 0.01406796213528486 0.00071451229615645054 0 0.014262234659804481 0.00093414699728952262 0 0.0145831934728204 0.00066633357544619944 0 0.014381970946096247 0.00064470417701788371 0 0.014262234659804481 0.00093414699728952262 0 0.014381970946096247 0.00064470417701788371 0 0.01406796213528486 0.00071451229615645054 0 0.01440818985917933 0.00044077835443287602 0 0.01406796213528486 0.00071451229615645054 0 0.013728673821428372 0.0012149449291312894 0 0.013585982802820563 0.00090422047055872075 0 0.01406796213528486 0.00071451229615645054 0 0.013585982802820563 0.00090422047055872075 0 0.013830302333538536 0.00056193461532533576 0 0.01406796213528486 0.00071451229615645054 0 0.013728673821428372 0.0012149449291312894 0 0.014262234659804481 0.00093414699728952262 0 0.014390857525382491 0.0014486103040965829 0 0.013728673821428372 0.0012149449291312894 0 0.014262234659804481 0.00093414699728952262 0 0.012822617476739328 0.0022225293356722339 0 0.01280514391489403 0.0020938586169579961 0 0.014390857525382491 0.0014486103040965829 0 0.013728673821428372 0.0012149449291312894 0 0.013737789326140323 0.0017584695349546343 0 0.011139190692933666 0.0028669442651989489 0 0.011194763800368575 0.0020832335250881959 0 0.011919314312424741 0.0025021747151778803 0 0.011921454282062795 0.001816273515764864 0 0.011194763800368575 0.0020832335250881959 0 0.011919314312424741 0.0025021747151778803 0 0.011921454282062795 0.001816273515764864 0 0.011919314312424741 0.0025021747151778803 0 0.012738245951171612 0.0018719226203653399 0 0.01280514391489403 0.0020938586169579961 0 0.012771486029528344 0.0019307440309983429 0 0.013728673821428372 0.0012149449291312894 0 0.013737789326140323 0.0017584695349546343 0 0.013105840406875192 0.0015056849751559477 0 0.013105840406875192 0.0015056849751559477 0 0.012738245951171612 0.0018719226203653399 0 0.012712884510645091 0.0016746785550530853 0 0.013737789326140323 0.0017584695349546343 0 0.013105840406875192 0.0015056849751559477 0 0.012738245951171612 0.0018719226203653399 0 0.012349214413607878 0.0015945090979911302 0 0.012738245951171612 0.0018719226203653399 0 0.012712884510645091 0.0016746785550530853 0 0.013105840406875192 0.0015056849751559477 0 0.012712884510645091 0.0016746785550530853 0 0.012940141290003553 0.0013818046408492382 0 0.012940141290003553 0.0013818046408492382 0 0.013252584097101651 0.0012151005451674023 0 0.013162896243671823 0.0010344374113147217 0 0.012940141290003553 0.0013818046408492382 0 0.013162896243671823 0.0010344374113147217 0 0.01289281612559379 0.0012805475931006792 0 0.013728673821428372 0.0012149449291312894 0 0.013252584097101651 0.0012151005451674023 0 0.013585982802820563 0.00090422047055872075 0 0.013728673821428372 0.0012149449291312894 0 0.013105840406875192 0.0015056849751559477 0 0.013252584097101651 0.0012151005451674023 0 0.013105840406875192 0.0015056849751559477 0 0.012940141290003553 0.0013818046408492382 0 0.013252584097101651 0.0012151005451674023 0 0.013585982802820563 0.00090422047055872075 0 0.013162896243671823 0.0010344374113147217 0 0.013461402016346342 0.00064453323172645072 0 0.013252584097101651 0.0012151005451674023 0 0.013585982802820563 0.00090422047055872075 0 0.013162896243671823 0.0010344374113147217 0 0.013162896243671823 0.0010344374113147217 0 0.012887950241591924 0.00087913656100278023 0 0.01289281612559379 0.0012805475931006792 0 0.013162896243671823 0.0010344374113147217 0 0.012887950241591924 0.00087913656100278023 0 0.013461402016346342 0.00064453323172645072 0 0.013407912990458888 0.0010477813200439601 0 0.01299417095318189 0.0013727764436313901 0 0.012887950241591924 0.00087913656100278023 0 0.012913211391532134 0.0014322522643953359 0 0.01289281612559379 0.0012805475931006792 0 0.013986845529500897 0.0011844351514688108 0 0.012913211391532134 0.0014322522643953359 0 0.013314886427246476 0.0010651221720824173 0 0.012913211391532134 0.0014322522643953359 0 0.012879560606878296 0.0012401864105433152 0 0.013314886427246476 0.0010651221720824173 0 0.012913211391532134 0.0014322522643953359 0 0.01289281612559379 0.0012805475931006792 0 0.012746606344838146 0.0015065070756716105 0 0.012940141290003553 0.0013818046408492382 0 0.01289281612559379 0.0012805475931006792 0 0.012746606344838146 0.0015065070756716105 0 0.012712884510645091 0.0016746785550530853 0 0.012940141290003553 0.0013818046408492382 0 0.012746606344838146 0.0015065070756716105 0 0.012712884510645091 0.0016746785550530853 0 0.012746606344838146 0.0015065070756716105 0 0.01262312477900328 0.0015839077825161372 0 0.012746606344838146 0.0015065070756716105 0 0.01262312477900328 0.0015839077825161372 0 0.012660864191493985 0.0014949240496426809 0 0.012746606344838146 0.0015065070756716105 0 0.012660864191493985 0.0014949240496426809 0 0.01275197334540955 0.0015156739539161092 0 0.012913211391532134 0.0014322522643953359 0 0.012746606344838146 0.0015065070756716105 0 0.01275197334540955 0.0015156739539161092 0 0.012660864191493985 0.0014949240496426809 0 0.01275197334540955 0.0015156739539161092 0 0.012769230742319787 0.0013777683447329992 0 0.01275197334540955 0.0015156739539161092 0 0.012769230742319787 0.0013777683447329992 0 0.012908292384807679 0.0015171461620014175 0 0.01296451765125101 0.001224542912960697 0 0.012769230742319787 0.0013777683447329992 0 0.012908292384807679 0.0015171461620014175 0 0.012584234746170606 0.0015908946167308021 0 0.013138886038692142 0.0012434674582942058 0 0.01275197334540955 0.0015156739539161092 0 0.01273988622128641 0.0014159109406127733 0 0.012599106834135513 0.0015202407095082848 0 0.013236150663647722 0.0011065592237273695 0 0.013138886038692142 0.0012434674582942058 0 0.01273988622128641 0.0014159109406127733 0 0.012589874502271265 0.0013376677608144653 0 0.012599106834135513 0.0015202407095082848 0 0.01273988622128641 0.0014159109406127733 0 0.012589874502271265 0.0013376677608144653 0 0.012708053615317518 0.0012363063507984549 0 0.012913211391532134 0.0014322522643953359 0 0.01273988622128641 0.0014159109406127733 0 0.012879560606878296 0.0012401864105433152 0 0.012913211391532134 0.0014322522643953359 0 0.01275197334540955 0.0015156739539161092 0 0.01273988622128641 0.0014159109406127733 0 0.01273988622128641 0.0014159109406127733 0 0.012879560606878296 0.0012401864105433152 0 0.012708053615317518 0.0012363063507984549 0 0.012879560606878296 0.0012401864105433152 0 0.012771655154864052 0.0010925827951634777 0 0.012708053615317518 0.0012363063507984549 0 0.012771655154864052 0.0010925827951634777 0 0.012708053615317518 0.0012363063507984549 0 0.012573223240083734 0.00093448020311156046 0 0.014002742629537129 0.0007834777521177242 0 0.01404092751194755 0.00057193409139808351 0 0.013909617322762998 0.00067644141495470825 0 0.013236150663647722 0.0011065592237273695 0 0.013991474150940457 0.00055272403716062136 0 0.012589874502271265 0.0013376677608144653 0 0.012708053615317518 0.0012363063507984549 0 0.012573223240083734 0.00093448020311156046 0 0.01497382403657002 5.6410434084676648e-05 0 0.014973270025804128 6.1302386778880886e-05 0 0.014994823565053206 1.7381905137825692e-05 0 0.014970753886447349 5.0868400949493565e-05 0 0.01497382403657002 5.6410434084676648e-05 0 0.01497840450372726 3.8354446019195006e-05 0 0.014970753886447349 5.0868400949493565e-05 0 0.014964707897832793 5.0584424332299437e-05 0 0.014967007974416803 5.6156529601037438e-05 0 0.014970753886447349 5.0868400949493565e-05 0 0.014964707897832793 5.0584424332299437e-05 0 0.014970895660267157 4.2339438788134891e-05 0 0.014967007974416803 5.6156529601037438e-05 0 0.014969896254681344 5.8302673087420881e-05 0 0.014961211031890272 6.5085147479160846e-05 0 0.014962934607680261 5.8105210377953156e-05 0 0.014967007974416803 5.6156529601037438e-05 0 0.014961211031890272 6.5085147479160846e-05 0 0.014964707897832793 5.0584424332299437e-05 0 0.014962934607680261 5.8105210377953156e-05 0 0.014967007974416803 5.6156529601037438e-05 0 0.014969896254681344 5.8302673087420881e-05 0 0.014973469416145505 6.2215755056308601e-05 0 0.014961211031890272 6.5085147479160846e-05 0 0.014970753886447349 5.0868400949493565e-05 0 0.014967007974416803 5.6156529601037438e-05 0 0.014969896254681344 5.8302673087420881e-05 0 0.014970753886447349 5.0868400949493565e-05 0 0.01497382403657002 5.6410434084676648e-05 0 0.014969896254681344 5.8302673087420881e-05 0 0.014050319039038851 0.00045162954457200381 0 0.013991474150940457 0.00055272403716062136 0 0.01497382403657002 5.6410434084676648e-05 0 0.014969896254681344 5.8302673087420881e-05 0 0.014973469416145505 6.2215755056308601e-05 0 0.012879560606878296 0.0012401864105433152 0 0.012937343132003754 0.00091464424783195704 0 0.013314886427246476 0.0010651221720824173 0 0.012771655154864052 0.0010925827951634777 0 0.012573223240083734 0.00093448020311156046 0 0.012937343132003754 0.00091464424783195704 0 0.012879560606878296 0.0012401864105433152 0 0.012771655154864052 0.0010925827951634777 0 0.012937343132003754 0.00091464424783195704 0 0.012573223240083734 0.00093448020311156046 0 0.012937343132003754 0.00091464424783195704 0 0.013038737896322303 0.00049583236173089825 0 0.014994823565053206 1.7381905137825692e-05 0 0.014981777980035475 2.7147905776531673e-05 0 0.01497840450372726 3.8354446019195006e-05 0 0.012937343132003754 0.00091464424783195704 0 0.013038737896322303 0.00049583236173089825 0 0.013444254742758587 0.00070975260733559438 0 0.013991474150940457 0.00055272403716062136 0 0.01398605335959191 0.0002628490589418874 0 0.014994823565053206 1.7381905137825692e-05 0 0.014981777980035475 2.7147905776531673e-05 0 0.014989678311642107 8.8012737468864354e-06 0 0.014981777980035475 2.7147905776531673e-05 0 0.014980530696893984 1.653223947216301e-05 0 0.014989678311642107 8.8012737468864354e-06 0 0.01497382403657002 5.6410434084676648e-05 0 0.014994823565053206 1.7381905137825692e-05 0 0.01497840450372726 3.8354446019195006e-05 0 0.014981777980035475 2.7147905776531673e-05 0 0.014975439619963341 2.7512182050267856e-05 0 0.014980530696893984 1.653223947216301e-05 0 0.014981777980035475 2.7147905776531673e-05 0 0.014974832208658532 3.4789909853982624e-05 0 0.014975439619963341 2.7512182050267856e-05 0 0.014981777980035475 2.7147905776531673e-05 0 0.01497840450372726 3.8354446019195006e-05 0 0.014974832208658532 3.4789909853982624e-05 0 0.014965540820552686 4.2328757832696158e-05 0 0.014970895660267157 4.2339438788134891e-05 0 0.014970571701272086 3.4696596452310564e-05 0 0.014964707897832793 5.0584424332299437e-05 0 0.014965540820552686 4.2328757832696158e-05 0 0.014970895660267157 4.2339438788134891e-05 0 0.014970753886447349 5.0868400949493565e-05 0 0.01497840450372726 3.8354446019195006e-05 0 0.014970895660267157 4.2339438788134891e-05 0 0.01497840450372726 3.8354446019195006e-05 0 0.014970895660267157 4.2339438788134891e-05 0 0.014974832208658532 3.4789909853982624e-05 0 0.014970895660267157 4.2339438788134891e-05 0 0.014974832208658532 3.4789909853982624e-05 0 0.014970571701272086 3.4696596452310564e-05 0 0.014974832208658532 3.4789909853982624e-05 0 0.014970571701272086 3.4696596452310564e-05 0 0.014975439619963341 2.7512182050267856e-05 0 0.014970571701272086 3.4696596452310564e-05 0 0.014968707996138675 2.9665398928420501e-05 0 0.014962648401636925 3.6290389566257914e-05 0 0.014965540820552686 4.2328757832696158e-05 0 0.014970571701272086 3.4696596452310564e-05 0 0.014962648401636925 3.6290389566257914e-05 0 0.014968707996138675 2.9665398928420501e-05 0 0.014975439619963341 2.7512182050267856e-05 0 0.014972544096018585 2.2303369218711011e-05 0 0.014970571701272086 3.4696596452310564e-05 0 0.014968707996138675 2.9665398928420501e-05 0 0.014975439619963341 2.7512182050267856e-05 0 0.014975439619963341 2.7512182050267856e-05 0 0.014972544096018585 2.2303369218711011e-05 0 0.014980530696893984 1.653223947216301e-05 0 0.014972544096018585 2.2303369218711011e-05 0 0.014976327218027679 1.5973851271142933e-05 0 0.014980530696893984 1.653223947216301e-05 0 0.014980530696893984 1.653223947216301e-05 0 0.014980660452143992 1.0985209922788902e-05 0 0.014986206019840098 7.0726971673173753e-06 0 0.014972544096018585 2.2303369218711011e-05 0 0.014976327218027679 1.5973851271142933e-05 0 0.014969552176969452 1.7972574001165812e-05 0 0.014976327218027679 1.5973851271142933e-05 0 0.014980530696893984 1.653223947216301e-05 0 0.014980660452143992 1.0985209922788902e-05 0 0.014976327218027679 1.5973851271142933e-05 0 0.014980660452143992 1.0985209922788902e-05 0 0.014977630597493716 1.0289996705991001e-05 0 0.014980530696893984 1.653223947216301e-05 0 0.014986206019840098 7.0726971673173753e-06 0 0.014989678311642107 8.8012737468864354e-06 0 0.014986206019840098 7.0726971673173753e-06 0 0.014987529599000488 3.2291885349243392e-06 0 0.0149933400976009 -1.4969252742824394e-07 0 0.014986206019840098 7.0726971673173753e-06 0 0.0149933400976009 -1.4969252742824394e-07 0 0.014989678311642107 8.8012737468864354e-06 0 0.014987529599000488 3.2291885349243392e-06 0 0.014981812817772118 5.8324363524134698e-06 0 0.014981306607408366 4.4988773812384188e-06 0 0.014982892935893151 7.3268397690786263e-06 0 0.014977630597493716 1.0289996705991001e-05 0 0.014981812817772118 5.8324363524134698e-06 0 0.014980660452143992 1.0985209922788902e-05 0 0.014982892935893151 7.3268397690786263e-06 0 0.014977630597493716 1.0289996705991001e-05 0 0.014980660452143992 1.0985209922788902e-05 0 0.014986206019840098 7.0726971673173753e-06 0 0.014982892935893151 7.3268397690786263e-06 0 0.014986206019840098 7.0726971673173753e-06 0 0.014982892935893151 7.3268397690786263e-06 0 0.014987529599000488 3.2291885349243392e-06 0 0.014982892935893151 7.3268397690786263e-06 0 0.014987529599000488 3.2291885349243392e-06 0 0.014981812817772118 5.8324363524134698e-06 0 0.014999976148233115 -3.4963607443353117e-08 0 0.01499560577647133 -2.2946889788235984e-06 0 0.014999976977322083 3.7309846330670542e-09 0 0.014994139563103746 -8.456763751716351e-07 0 0.014999976148233115 -3.4963607443353117e-08 0 0.01499560577647133 -2.2946889788235984e-06 0 0.014987529599000488 3.2291885349243392e-06 0 0.014994139563103746 -8.456763751716351e-07 0 0.014981306607408366 4.4988773812384188e-06 0 0.014994139563103746 -8.456763751716351e-07 0 0.01499560577647133 -2.2946889788235984e-06 0 0.014981306607408366 4.4988773812384188e-06 0 0.014994139563103746 -8.456763751716351e-07 0 0.0149933400976009 -1.4969252742824394e-07 0 0.014999976148233115 -3.4963607443353117e-08 0 0.014987529599000488 3.2291885349243392e-06 0 0.014994139563103746 -8.456763751716351e-07 0 0.0149933400976009 -1.4969252742824394e-07 0 0.0149933400976009 -1.4969252742824394e-07 0 0.014999976148233115 -3.4963607443353117e-08 0 0.014998119717424088 -7.0503774634937317e-06 0 0.014994823565053206 1.7381905137825692e-05 0 0.014998119717424088 -7.0503774634937317e-06 0 0.014989678311642107 8.8012737468864354e-06 0 0.0149933400976009 -1.4969252742824394e-07 0 0.014998119717424088 -7.0503774634937317e-06 0 0.014989678311642107 8.8012737468864354e-06 0 0.014994823565053206 1.7381905137825692e-05 0 0.014998119717424088 -7.0503774634937317e-06 0 0.014989246547611889 -2.7994828151504387e-05 0 0.01398605335959191 0.0002628490589418874 0 0.014412785610904682 4.1596215764386853e-05 0 0.014998119717424088 -7.0503774634937317e-06 0 0.015000073471416577 1.0749088466452949e-07 0 0.014989246547611889 -2.7994828151504387e-05 0 0.014999976148233115 -3.4963607443353117e-08 0 0.014998119717424088 -7.0503774634937317e-06 0 0.015000073471416577 1.0749088466452949e-07 0 0.015000073471416577 1.0749088466452949e-07 0 0.014989246547611889 -2.7994828151504387e-05 0 0.014874203964956799 -2.8303327648023106e-05 0 0.014412785610904682 4.1596215764386853e-05 0 0.014791567629408768 -3.2380399322534069e-05 0 0.015000073471416577 1.0749088466452949e-07 0 0.014874203964956799 -2.8303327648023106e-05 0 0.014999238832122114 -3.4705268506533718e-07 0 0.013821437649461366 5.4016294390745904e-05 0 0.014365417772867095 0.00020247104843225148 0 0.014874203964956799 -2.8303327648023106e-05 0 0.013821437649461366 5.4016294390745904e-05 0 0.014365417772867095 0.00020247104843225148 0 0.013952853910390525 0.0006233084197949379 0 0.014365417772867095 0.00020247104843225148 0 0.013952853910390525 0.0006233084197949379 0 0.014395919151900522 0.00045183969359263227 0 0.013821437649461366 5.4016294390745904e-05 0 0.013952853910390525 0.0006233084197949379 0 0.013444254742758587 0.00070975260733559438 0 0.013952853910390525 0.0006233084197949379 0 0.014244953951106974 0.0007473503879767019 0 0.014395919151900522 0.00045183969359263227 0 0.013038737896322303 0.00049583236173089825 0 0.013821437649461366 5.4016294390745904e-05 0 0.013444254742758587 0.00070975260733559438 0 0.012937343132003754 0.00091464424783195704 0 0.013444254742758587 0.00070975260733559438 0 0.013314886427246476 0.0010651221720824173 0 0.013952853910390525 0.0006233084197949379 0 0.013444254742758587 0.00070975260733559438 0 0.013314886427246476 0.0010651221720824173 0 0.013986845529500897 0.0011844351514688108 0 0.013952853910390525 0.0006233084197949379 0 0.013314886427246476 0.0010651221720824173 0 0.013986845529500897 0.0011844351514688108 0 0.013952853910390525 0.0006233084197949379 0 0.014244953951106974 0.0007473503879767019 0 0.013407912990458888 0.0010477813200439601 0 0.014281106550861835 0.00035383154636100655 0 0.012887950241591924 0.00087913656100278023 0 0.013461402016346342 0.00064453323172645072 0 0.013389968310218476 0.0003038469699730572 0 0.013986845529500897 0.0011844351514688108 0 0.014244953951106974 0.0007473503879767019 0 0.014653927486670229 0.00074142944925718391 0 0.013461402016346342 0.00064453323172645072 0 0.013709595568098015 0.00043914907411335825 0 0.013578901585512719 0.00017084793252244908 0 0.013461402016346342 0.00064453323172645072 0 0.013578901585512719 0.00017084793252244908 0 0.013389968310218476 0.0003038469699730572 0 0.013461402016346342 0.00064453323172645072 0 0.013830302333538536 0.00056193461532533576 0 0.013709595568098015 0.00043914907411335825 0 0.013585982802820563 0.00090422047055872075 0 0.013461402016346342 0.00064453323172645072 0 0.013830302333538536 0.00056193461532533576 0 0.013830302333538536 0.00056193461532533576 0 0.013709595568098015 0.00043914907411335825 0 0.013935444205870453 0.00034400272887007187 0 0.013709595568098015 0.00043914907411335825 0 0.013935444205870453 0.00034400272887007187 0 0.013578901585512719 0.00017084793252244908 0 0.013935444205870453 0.00034400272887007187 0 0.013578901585512719 0.00017084793252244908 0 0.014230303680163847 0.0001725644047808239 0 0.014962131709265778 -0.00031216281733373129 0 0.014968463417548455 -0.00020914153194391072 0 0.01488865954711413 -0.00011516839001148683 0 0.014338192014687492 4.7102732694160217e-05 0 0.014595463798473247 -9.9349638297789773e-05 0 0.014962131709265778 -0.00031216281733373129 0 0.014968463417548455 -0.00020914153194391072 0 0.015015262543756772 -0.00035886675185219921 0 0.014338192014687492 4.7102732694160217e-05 0 0.014281106550861835 0.00035383154636100655 0 0.014653927486670229 0.00074142944925718391 0 0.014395919151900522 0.00045183969359263227 0 0.014696600816125964 0.00012100972963952051 0 0.014968463417548455 -0.00020914153194391072 0 0.015015262543756772 -0.00035886675185219921 0 0.01501520474927946 -8.9550639536953717e-05 0 0.014281106550861835 0.00035383154636100655 0 0.01491586136774006 -2.4282209192093636e-05 0 0.014244953951106974 0.0007473503879767019 0 0.014653927486670229 0.00074142944925718391 0 0.014395919151900522 0.00045183969359263227 0 0.014365417772867095 0.00020247104843225148 0 0.014395919151900522 0.00045183969359263227 0 0.014696600816125964 0.00012100972963952051 0 0.014365417772867095 0.00020247104843225148 0 0.014696600816125964 0.00012100972963952051 0 0.014874203964956799 -2.8303327648023106e-05 0 0.01491586136774006 -2.4282209192093636e-05 0 0.014999912981546891 -2.9936133158163766e-08 0 0.014696600816125964 0.00012100972963952051 0 0.014874203964956799 -2.8303327648023106e-05 0 0.014999238832122114 -3.4705268506533718e-07 0 0.015000146843663653 2.8325237705173901e-08 0 0.014939978439069626 -2.0258797756285725e-05 0 0.014999588315700503 2.854159335785468e-10 0 0.01501520474927946 -8.9550639536953717e-05 0 0.015000146843663653 2.8325237705173901e-08 0 0.014939978439069626 -2.0258797756285725e-05 0 0.014962131709265778 -0.00031216281733373129 0 0.01488865954711413 -0.00011516839001148683 0 0.014673997719019225 -6.6559264491213542e-05 0 0.014939978439069626 -2.0258797756285725e-05 0 0.01488865954711413 -0.00011516839001148683 0 0.014673997719019225 -6.6559264491213542e-05 0 0.01501520474927946 -8.9550639536953717e-05 0 0.014939978439069626 -2.0258797756285725e-05 0 0.01488865954711413 -0.00011516839001148683 0 0.014968463417548455 -0.00020914153194391072 0 0.01501520474927946 -8.9550639536953717e-05 0 0.01488865954711413 -0.00011516839001148683 0 0.014673997719019225 -6.6559264491213542e-05 0 0.014999588315700503 2.854159335785468e-10 0 0.014813065790048712 -9.2117129786262357e-06 0 0.014939978439069626 -2.0258797756285725e-05 0 0.014673997719019225 -6.6559264491213542e-05 0 0.014999588315700503 2.854159335785468e-10 0 0.014999739058934614 -5.1444241678637194e-08 0 0.014999588315700503 2.854159335785468e-10 0 0.014813065790048712 -9.2117129786262357e-06 0 0.014746442856018444 0.00013091168135633989 0 0.014813065790048712 -9.2117129786262357e-06 0 0.014550452605576119 0.00015734979616501162 0 0.014673997719019225 -6.6559264491213542e-05 0 0.014813065790048712 -9.2117129786262357e-06 0 0.014550452605576119 0.00015734979616501162 0 0.014643913413458113 0.00030785056521336811 0 0.014550452605576119 0.00015734979616501162 0 0.01440818985917933 0.00044077835443287602 0 0.014643913413458113 0.00030785056521336811 0 0.014746442856018444 0.00013091168135633989 0 0.014550452605576119 0.00015734979616501162 0 0.013578901585512719 0.00017084793252244908 0 0.014673997719019225 -6.6559264491213542e-05 0 0.014230303680163847 0.0001725644047808239 0 0.014550452605576119 0.00015734979616501162 0 0.014230303680163847 0.0001725644047808239 0 0.014209795849470809 0.0003746716005611488 0 0.014673997719019225 -6.6559264491213542e-05 0 0.014550452605576119 0.00015734979616501162 0 0.014230303680163847 0.0001725644047808239 0 0.013935444205870453 0.00034400272887007187 0 0.014230303680163847 0.0001725644047808239 0 0.014209795849470809 0.0003746716005611488 0 0.01406796213528486 0.00071451229615645054 0 0.014209795849470809 0.0003746716005611488 0 0.01440818985917933 0.00044077835443287602 0 0.01406796213528486 0.00071451229615645054 0 0.013830302333538536 0.00056193461532533576 0 0.014209795849470809 0.0003746716005611488 0 0.013830302333538536 0.00056193461532533576 0 0.013935444205870453 0.00034400272887007187 0 0.014209795849470809 0.0003746716005611488 0 0.014550452605576119 0.00015734979616501162 0 0.014209795849470809 0.0003746716005611488 0 0.01440818985917933 0.00044077835443287602 0 0.014557121714238697 0.00049363517305727606 0 0.014381970946096247 0.00064470417701788371 0 0.01440818985917933 0.00044077835443287602 0 0.014643913413458113 0.00030785056521336811 0 0.014557121714238697 0.00049363517305727606 0 0.01440818985917933 0.00044077835443287602 0 0.013523758685542765 0.00072172547486861263 0 0.013572494075930882 0.00064842438561695177 0 0.013559878671389341 0.00065291823755118841 0 0.013572494075930882 0.00064842438561695177 0 0.013525132324477298 0.00070819265377593775 0 0.013568550494237937 0.00064575234936635332 0 0.013523758685542765 0.00072172547486861263 0 0.013572494075930882 0.00064842438561695177 0 0.013525132324477298 0.00070819265377593775 0 0.013523758685542765 0.00072172547486861263 0 0.013525132324477298 0.00070819265377593775 0 0.013481820561284713 0.00080192096403346018 0 0.013523758685542765 0.00072172547486861263 0 0.013531334929311863 0.00068939488278514757 0 0.013481852174393613 0.00083408385866798036 0 0.013531334929311863 0.00068939488278514757 0 0.013481852174393613 0.00083408385866798036 0 0.013526200555571886 0.00075346635026832969 0 0.013523758685542765 0.00072172547486861263 0 0.013481820561284713 0.00080192096403346018 0 0.013481852174393613 0.00083408385866798036 0 0.013523758685542765 0.00072172547486861263 0 0.013531334929311863 0.00068939488278514757 0 0.013559878671389341 0.00065291823755118841 0 0.013531334929311863 0.00068939488278514757 0 0.01357694859256388 0.00062500092052104645 0 0.013541326824375846 0.00065424184949623167 0 0.013531334929311863 0.00068939488278514757 0 0.013559878671389341 0.00065291823755118841 0 0.01357694859256388 0.00062500092052104645 0 0.013616957426427727 0.00060010907507336119 0 0.01357694859256388 0.00062500092052104645 0 0.013708001893984046 0.00053753816703391822 0 0.013559878671389341 0.00065291823755118841 0 0.013616957426427727 0.00060010907507336119 0 0.01357694859256388 0.00062500092052104645 0 0.013572494075930882 0.00064842438561695177 0 0.013559878671389341 0.00065291823755118841 0 0.013616957426427727 0.00060010907507336119 0 0.013572494075930882 0.00064842438561695177 0 0.013616957426427727 0.00060010907507336119 0 0.013648092841164191 0.00057616693364085866 0 0.013616957426427727 0.00060010907507336119 0 0.013648092841164191 0.00057616693364085866 0 0.013708001893984046 0.00053753816703391822 0 0.013753167990267282 0.00051506162526111223 0 0.013648092841164191 0.00057616693364085866 0 0.013708001893984046 0.00053753816703391822 0 0.013753167990267282 0.00051506162526111223 0 0.013917759633019978 0.00042841129421992296 0 0.013708001893984046 0.00053753816703391822 0 0.013753167990267282 0.00051506162526111223 0 0.013648092841164191 0.00057616693364085866 0 0.013632926735127013 0.00058690407344663448 0 0.013803934871440547 0.00047524282196238245 0 0.013686472921096123 0.00054121250578908283 0 0.013629583070913231 0.00054028836873292027 0 0.013803934871440547 0.00047524282196238245 0 0.013629583070913231 0.00054028836873292027 0 0.013750271524261127 0.00045647816672164047 0 0.013753167990267282 0.00051506162526111223 0 0.013803934871440547 0.00047524282196238245 0 0.013686472921096123 0.00054121250578908283 0 0.013753167990267282 0.00051506162526111223 0 0.013803934871440547 0.00047524282196238245 0 0.013917759633019978 0.00042841129421992296 0 0.013686472921096123 0.00054121250578908283 0 0.013548809253813368 0.00060671494276455442 0 0.013632926735127013 0.00058690407344663448 0 0.013753167990267282 0.00051506162526111223 0 0.013686472921096123 0.00054121250578908283 0 0.013632926735127013 0.00058690407344663448 0 0.013629583070913231 0.00054028836873292027 0 0.013548809253813368 0.00060671494276455442 0 0.013507143943082315 0.00059111797276912128 0 0.013686472921096123 0.00054121250578908283 0 0.013629583070913231 0.00054028836873292027 0 0.013548809253813368 0.00060671494276455442 0 0.013548809253813368 0.00060671494276455442 0 0.013518460185674486 0.00065810617582741458 0 0.013632926735127013 0.00058690407344663448 0 0.013548809253813368 0.00060671494276455442 0 0.013518460185674486 0.00065810617582741458 0 0.013425037184365963 0.00066951192149424356 0 0.013548809253813368 0.00060671494276455442 0 0.013425037184365963 0.00066951192149424356 0 0.01341331487134328 0.0006375024975037787 0 0.013572494075930882 0.00064842438561695177 0 0.013648092841164191 0.00057616693364085866 0 0.013568550494237937 0.00064575234936635332 0 0.013518460185674486 0.00065810617582741458 0 0.013568550494237937 0.00064575234936635332 0 0.013632926735127013 0.00058690407344663448 0 0.013648092841164191 0.00057616693364085866 0 0.013568550494237937 0.00064575234936635332 0 0.013632926735127013 0.00058690407344663448 0 0.013518460185674486 0.00065810617582741458 0 0.013568550494237937 0.00064575234936635332 0 0.013479511722611729 0.0007295232407129636 0 0.013525132324477298 0.00070819265377593775 0 0.013568550494237937 0.00064575234936635332 0 0.013479511722611729 0.0007295232407129636 0 0.013479511722611729 0.0007295232407129636 0 0.013391206019394621 0.00073915238795725299 0 0.013435511679709874 0.00081888029153239601 0 0.013518460185674486 0.00065810617582741458 0 0.013479511722611729 0.0007295232407129636 0 0.013391206019394621 0.00073915238795725299 0 0.013425037184365963 0.00066951192149424356 0 0.013391206019394621 0.00073915238795725299 0 0.01330152487677839 0.00070394833218714739 0 0.013518460185674486 0.00065810617582741458 0 0.013425037184365963 0.00066951192149424356 0 0.013391206019394621 0.00073915238795725299 0 0.013391206019394621 0.00073915238795725299 0 0.013247902511518216 0.00076934145344199553 0 0.01330152487677839 0.00070394833218714739 0 0.013217800370170724 0.0008963425989801108 0 0.013247902511518216 0.00076934145344199553 0 0.013327881492561054 0.00082288081861566398 0 0.013391206019394621 0.00073915238795725299 0 0.013247902511518216 0.00076934145344199553 0 0.013327881492561054 0.00082288081861566398 0 0.013315779617134321 0.00092027034694077369 0 0.013327881492561054 0.00082288081861566398 0 0.013435511679709874 0.00081888029153239601 0 0.013391206019394621 0.00073915238795725299 0 0.013327881492561054 0.00082288081861566398 0 0.013435511679709874 0.00081888029153239601 0 0.013315779617134321 0.00092027034694077369 0 0.013435511679709874 0.00081888029153239601 0 0.013430021514989291 0.00090809834436250973 0 0.013435511679709874 0.00081888029153239601 0 0.013430021514989291 0.00090809834436250973 0 0.01344889765832046 0.00090548409040864034 0 0.013479511722611729 0.0007295232407129636 0 0.013435511679709874 0.00081888029153239601 0 0.013481820561284713 0.00080192096403346018 0 0.013435511679709874 0.00081888029153239601 0 0.013481820561284713 0.00080192096403346018 0 0.01344889765832046 0.00090548409040864034 0 0.013525132324477298 0.00070819265377593775 0 0.013479511722611729 0.0007295232407129636 0 0.013481820561284713 0.00080192096403346018 0 0.013481820561284713 0.00080192096403346018 0 0.013481852174393613 0.00083408385866798036 0 0.01344889765832046 0.00090548409040864034 0 0.013481852174393613 0.00083408385866798036 0 0.01344889765832046 0.00090548409040864034 0 0.013426579665119447 0.00096485242296343726 0 0.013397851642330059 0.00097466398034149566 0 0.013430021514989291 0.00090809834436250973 0 0.01344889765832046 0.00090548409040864034 0 0.013397851642330059 0.00097466398034149566 0 0.01344889765832046 0.00090548409040864034 0 0.013426579665119447 0.00096485242296343726 0 0.013285030780838347 0.0010406962217191517 0 0.013397851642330059 0.00097466398034149566 0 0.013426579665119447 0.00096485242296343726 0 0.013285030780838347 0.0010406962217191517 0 0.013426579665119447 0.00096485242296343726 0 0.013457018692983177 0.00098621825028639499 0 0.013285030780838347 0.0010406962217191517 0 0.013457018692983177 0.00098621825028639499 0 0.013102476092754087 0.0011468893021585147 0 0.013457018692983177 0.00098621825028639499 0 0.013102476092754087 0.0011468893021585147 0 0.013154299288539919 0.0011879874852979723 0 0.013457018692983177 0.00098621825028639499 0 0.013754058518890848 0.00099091787738507715 0 0.013611259954217475 0.00084241687211896897 0 0.013409357095437564 0.0010092213104234227 0 0.01352580222383265 0.0010683264286104849 0 0.013481852174393613 0.00083408385866798036 0 0.013426579665119447 0.00096485242296343726 0 0.013457018692983177 0.00098621825028639499 0 0.012922921780888186 0.001286399557592182 0 0.013138886038692142 0.0012434674582942058 0 0.01296451765125101 0.001224542912960697 0 0.013102476092754087 0.0011468893021585147 0 0.013023816958132553 0.001219443141321222 0 0.013102476092754087 0.0011468893021585147 0 0.013154299288539919 0.0011879874852979723 0 0.013023816958132553 0.001219443141321222 0 0.013754058518890848 0.00099091787738507715 0 0.013961869522609095 0.001000986819083897 0 0.013877373492151183 0.00083760439424887035 0 0.01352580222383265 0.0010683264286104849 0 0.013138886038692142 0.0012434674582942058 0 0.014002742629537129 0.0007834777521177242 0 0.013961869522609095 0.001000986819083897 0 0.013877373492151183 0.00083760439424887035 0 0.013754058518890848 0.00099091787738507715 0 0.013877373492151183 0.00083760439424887035 0 0.013738740895742757 0.00079680948231335179 0 0.013754058518890848 0.00099091787738507715 0 0.013738740895742757 0.00079680948231335179 0 0.013611259954217475 0.00084241687211896897 0 0.013877373492151183 0.00083760439424887035 0 0.013738740895742757 0.00079680948231335179 0 0.013825009768759959 0.00075506696519173143 0 0.013738740895742757 0.00079680948231335179 0 0.013777914041189179 0.00069227156185455469 0 0.013704855074416593 0.00071094191321945945 0 0.013777914041189179 0.00069227156185455469 0 0.013704855074416593 0.00071094191321945945 0 0.013715358707130592 0.00063288248851145934 0 0.013777914041189179 0.00069227156185455469 0 0.013776088267668515 0.00063126801285509453 0 0.013715358707130592 0.00063288248851145934 0 0.013777914041189179 0.00069227156185455469 0 0.013837282506577621 0.0006843847129589419 0 0.013825009768759959 0.00075506696519173143 0 0.013777914041189179 0.00069227156185455469 0 0.013813278556958717 0.00064586731240025058 0 0.013837282506577621 0.0006843847129589419 0 0.013777914041189179 0.00069227156185455469 0 0.013813278556958717 0.00064586731240025058 0 0.013776088267668515 0.00063126801285509453 0 0.013813278556958717 0.00064586731240025058 0 0.013837282506577621 0.0006843847129589419 0 0.01385762588206947 0.00063433817110853893 0 0.013738740895742757 0.00079680948231335179 0 0.013777914041189179 0.00069227156185455469 0 0.013825009768759959 0.00075506696519173143 0 0.013877373492151183 0.00083760439424887035 0 0.013825009768759959 0.00075506696519173143 0 0.013883125173768629 0.00069674406829757171 0 0.013837282506577621 0.0006843847129589419 0 0.013825009768759959 0.00075506696519173143 0 0.013883125173768629 0.00069674406829757171 0 0.013837282506577621 0.0006843847129589419 0 0.01387209134572088 0.00067232844900946972 0 0.013883125173768629 0.00069674406829757171 0 0.013837282506577621 0.0006843847129589419 0 0.01387209134572088 0.00067232844900946972 0 0.01385762588206947 0.00063433817110853893 0 0.01387209134572088 0.00067232844900946972 0 0.013911012287205876 0.00067489343228661208 0 0.01385762588206947 0.00063433817110853893 0 0.01387209134572088 0.00067232844900946972 0 0.013911012287205876 0.00067489343228661208 0 0.013883125173768629 0.00069674406829757171 0 0.014454877766377133 0.00047073929062848636 0 0.014242652379013201 0.00060671857789046618 0 0.014002742629537129 0.0007834777521177242 0 0.013877373492151183 0.00083760439424887035 0 0.013883125173768629 0.00069674406829757171 0 0.014002742629537129 0.0007834777521177242 0 0.013909617322762998 0.00067644141495470825 0 0.013883125173768629 0.00069674406829757171 0 0.013481852174393613 0.00083408385866798036 0 0.013457018692983177 0.00098621825028639499 0 0.013526200555571886 0.00075346635026832969 0 0.013457018692983177 0.00098621825028639499 0 0.013526200555571886 0.00075346635026832969 0 0.013611259954217475 0.00084241687211896897 0 0.013738740895742757 0.00079680948231335179 0 0.013611259954217475 0.00084241687211896897 0 0.013620390240233295 0.00073426290905198295 0 0.013526200555571886 0.00075346635026832969 0 0.013611259954217475 0.00084241687211896897 0 0.013620390240233295 0.00073426290905198295 0 0.013738740895742757 0.00079680948231335179 0 0.013620390240233295 0.00073426290905198295 0 0.013704855074416593 0.00071094191321945945 0 0.013704855074416593 0.00071094191321945945 0 0.013649479056139632 0.00066656626209413822 0 0.013715358707130592 0.00063288248851145934 0 0.013620390240233295 0.00073426290905198295 0 0.013704855074416593 0.00071094191321945945 0 0.013649479056139632 0.00066656626209413822 0 0.013620390240233295 0.00073426290905198295 0 0.013649479056139632 0.00066656626209413822 0 0.013559075861537611 0.00065201328905336588 0 0.013526200555571886 0.00075346635026832969 0 0.013559075861537611 0.00065201328905336588 0 0.013541326824375846 0.00065424184949623167 0 0.013526200555571886 0.00075346635026832969 0 0.013620390240233295 0.00073426290905198295 0 0.013559075861537611 0.00065201328905336588 0 0.013531334929311863 0.00068939488278514757 0 0.013526200555571886 0.00075346635026832969 0 0.013541326824375846 0.00065424184949623167 0 0.013771826441868158 0.00061166898607431476 0 0.013490363833950927 0.00069462864288637421 0 0.013544469276963437 0.00066364041318824995 0 0.013536266552949511 0.0006639466877692554 0 0.013541326824375846 0.00065424184949623167 0 0.013544469276963437 0.00066364041318824995 0 0.013536266552949511 0.0006639466877692554 0 0.013535040811911427 0.00066906275634945941 0 0.013771826441868158 0.00061166898607431476 0 0.01360772782389622 0.00064529724323158079 0 0.01356282693601726 0.00063287434282180205 0 0.013559075861537611 0.00065201328905336588 0 0.013541326824375846 0.00065424184949623167 0 0.0135641065282093 0.00054142860543627733 0 0.013559075861537611 0.00065201328905336588 0 0.013633975110550934 0.0006018277471407208 0 0.013649479056139632 0.00066656626209413822 0 0.013559075861537611 0.00065201328905336588 0 0.013633975110550934 0.0006018277471407208 0 0.013633975110550934 0.0006018277471407208 0 0.01370154909298322 0.00054709001521580851 0 0.013715358707130592 0.00063288248851145934 0 0.013649479056139632 0.00066656626209413822 0 0.013633975110550934 0.0006018277471407208 0 0.013715358707130592 0.00063288248851145934 0 0.01370154909298322 0.00054709001521580851 0 0.013629311938316978 0.00053934826693929894 0 0.013630682830178638 0.00047092422970604738 0 0.013633975110550934 0.0006018277471407208 0 0.01370154909298322 0.00054709001521580851 0 0.013629311938316978 0.00053934826693929894 0 0.0135641065282093 0.00054142860543627733 0 0.013633975110550934 0.0006018277471407208 0 0.013629311938316978 0.00053934826693929894 0 0.0135641065282093 0.00054142860543627733 0 0.013629311938316978 0.00053934826693929894 0 0.013630682830178638 0.00047092422970604738 0 0.014000578652695772 0.00046896729568521837 0 0.014176429171619065 0.00030155501396152292 0 0.014022252178774277 0.00031182073631440087 0 0.013771826441868158 0.00061166898607431476 0 0.014094544886767061 0.00033588221446392543 0 0.014094544886767061 0.00033588221446392543 0 0.01466955867381242 6.0288301436512696e-05 0 0.014968284097199934 9.8288912518266887e-05 0 0.014947370728118151 0.00010022699242400655 0 0.014966162117566968 4.0262384153564064e-05 0 0.014094544886767061 0.00033588221446392543 0 0.014393657975991965 0.00025996298872454481 0 0.014094544886767061 0.00033588221446392543 0 0.013616022305982758 0.00045782268245445908 0 0.01370154909298322 0.00054709001521580851 0 0.013630682830178638 0.00047092422970604738 0 0.013765789834293853 0.00045729268688908764 0 0.015054202974607482 0.00014991371933057774 0 0.015012434504307219 9.8553142357413797e-05 0 0.01497836017618197 0.00018596906695126682 0 0.013544469276963437 0.00066364041318824995 0 0.013535040811911427 0.00066906275634945941 0 0.013563191068415057 0.000677899788806154 0 0.014393657975991965 0.00025996298872454481 0 0.014248450187246665 0.00044624696196408843 0 0.014393657975991965 0.00025996298872454481 0 0.015047184015814187 1.8805028070182907e-05 0 0.013771826441868158 0.00061166898607431476 0 0.014393657975991965 0.00025996298872454481 0 0.013911012287205876 0.00067489343228661208 0 0.01385762588206947 0.00063433817110853893 0 0.013856247342152638 0.00049149330367197208 0 0.014454877766377133 0.00047073929062848636 0 0.014369953063081973 0.00025937298547031674 0 0.014943265628646285 8.7687229518477712e-05 0 0.014949187465272728 5.7440028761974402e-05 0 0.014940334831652835 4.4711291753337993e-05 0 0.014964707897832793 5.0584424332299437e-05 0 0.014957886092269839 4.890579971916158e-05 0 0.0149594133503355 5.6340550207393039e-05 0 0.014964707897832793 5.0584424332299437e-05 0 0.014965540820552686 4.2328757832696158e-05 0 0.014957886092269839 4.890579971916158e-05 0 0.014957886092269839 4.890579971916158e-05 0 0.014953605318031958 5.9983177862491911e-05 0 0.0149594133503355 5.6340550207393039e-05 0 0.014957886092269839 4.890579971916158e-05 0 0.014953605318031958 5.9983177862491911e-05 0 0.014949187465272728 5.7440028761974402e-05 0 0.014957886092269839 4.890579971916158e-05 0 0.014949187465272728 5.7440028761974402e-05 0 0.014953058200452195 4.4076043037287299e-05 0 0.014953605318031958 5.9983177862491911e-05 0 0.014952340227389973 6.8921357728235177e-05 0 0.014949187465272728 5.7440028761974402e-05 0 0.014953605318031958 5.9983177862491911e-05 0 0.014957852479804594 6.2857586249989497e-05 0 0.0149594133503355 5.6340550207393039e-05 0 0.014962934607680261 5.8105210377953156e-05 0 0.014957852479804594 6.2857586249989497e-05 0 0.0149594133503355 5.6340550207393039e-05 0 0.014964707897832793 5.0584424332299437e-05 0 0.014962934607680261 5.8105210377953156e-05 0 0.0149594133503355 5.6340550207393039e-05 0 0.014962934607680261 5.8105210377953156e-05 0 0.014961211031890272 6.5085147479160846e-05 0 0.014957852479804594 6.2857586249989497e-05 0 0.014961211031890272 6.5085147479160846e-05 0 0.014943265628646285 8.7687229518477712e-05 0 0.014952340227389973 6.8921357728235177e-05 0 0.014961211031890272 6.5085147479160846e-05 0 0.014957852479804594 6.2857586249989497e-05 0 0.014952340227389973 6.8921357728235177e-05 0 0.014943265628646285 8.7687229518477712e-05 0 0.014952340227389973 6.8921357728235177e-05 0 0.014949187465272728 5.7440028761974402e-05 0 0.014973469416145505 6.2215755056308601e-05 0 0.014961211031890272 6.5085147479160846e-05 0 0.014943265628646285 8.7687229518477712e-05 0 0.013991474150940457 0.00055272403716062136 0 0.014454877766377133 0.00047073929062848636 0 0.014953605318031958 5.9983177862491911e-05 0 0.014957852479804594 6.2857586249989497e-05 0 0.014952340227389973 6.8921357728235177e-05 0 0.014949187465272728 5.7440028761974402e-05 0 0.014940334831652835 4.4711291753337993e-05 0 0.014953058200452195 4.4076043037287299e-05 0 0.01385762588206947 0.00063433817110853893 0 0.013808433561016367 0.00058836315878643556 0 0.013856247342152638 0.00049149330367197208 0 0.013808433561016367 0.00058836315878643556 0 0.013776466206398994 0.00053339060437279119 0 0.013856247342152638 0.00049149330367197208 0 0.013813278556958717 0.00064586731240025058 0 0.01385762588206947 0.00063433817110853893 0 0.013808433561016367 0.00058836315878643556 0 0.013813278556958717 0.00064586731240025058 0 0.013808433561016367 0.00058836315878643556 0 0.013776088267668515 0.00063126801285509453 0 0.01370154909298322 0.00054709001521580851 0 0.01375538667789832 0.00058655871952309046 0 0.013715358707130592 0.00063288248851145934 0 0.013808433561016367 0.00058836315878643556 0 0.01375538667789832 0.00058655871952309046 0 0.013776088267668515 0.00063126801285509453 0 0.01375538667789832 0.00058655871952309046 0 0.013776088267668515 0.00063126801285509453 0 0.013715358707130592 0.00063288248851145934 0 0.01370154909298322 0.00054709001521580851 0 0.013776466206398994 0.00053339060437279119 0 0.013765789834293853 0.00045729268688908764 0 0.01370154909298322 0.00054709001521580851 0 0.01375538667789832 0.00058655871952309046 0 0.013776466206398994 0.00053339060437279119 0 0.013808433561016367 0.00058836315878643556 0 0.01375538667789832 0.00058655871952309046 0 0.013776466206398994 0.00053339060437279119 0 0.013765789834293853 0.00045729268688908764 0 0.013856247342152638 0.00049149330367197208 0 0.013803749016799378 0.00031747856474702475 0 0.013651481683793348 0.0004643369233919692 0 0.013765789834293853 0.00045729268688908764 0 0.013803749016799378 0.00031747856474702475 0 0.014940334831652835 4.4711291753337993e-05 0 0.014955581767254521 2.2377371712308611e-05 0 0.014939339498082784 1.0020165057950818e-05 0 0.014369953063081973 0.00025937298547031674 0 0.01466955867381242 6.0288301436512696e-05 0 0.013776466206398994 0.00053339060437279119 0 0.013765789834293853 0.00045729268688908764 0 0.013856247342152638 0.00049149330367197208 0 0.014940334831652835 4.4711291753337993e-05 0 0.014954752633530098 3.4057599427753103e-05 0 0.014953058200452195 4.4076043037287299e-05 0 0.014940334831652835 4.4711291753337993e-05 0 0.014955581767254521 2.2377371712308611e-05 0 0.014954752633530098 3.4057599427753103e-05 0 0.014955581767254521 2.2377371712308611e-05 0 0.014954752633530098 3.4057599427753103e-05 0 0.014963974143425618 2.6839290097636463e-05 0 0.014954752633530098 3.4057599427753103e-05 0 0.014963974143425618 2.6839290097636463e-05 0 0.014962648401636925 3.6290389566257914e-05 0 0.014955581767254521 2.2377371712308611e-05 0 0.014963974143425618 2.6839290097636463e-05 0 0.014969552176969452 1.7972574001165812e-05 0 0.014972544096018585 2.2303369218711011e-05 0 0.014963974143425618 2.6839290097636463e-05 0 0.014969552176969452 1.7972574001165812e-05 0 0.014968707996138675 2.9665398928420501e-05 0 0.014972544096018585 2.2303369218711011e-05 0 0.014963974143425618 2.6839290097636463e-05 0 0.014968707996138675 2.9665398928420501e-05 0 0.014963974143425618 2.6839290097636463e-05 0 0.014962648401636925 3.6290389566257914e-05 0 0.014954752633530098 3.4057599427753103e-05 0 0.014962648401636925 3.6290389566257914e-05 0 0.014953058200452195 4.4076043037287299e-05 0 0.014957886092269839 4.890579971916158e-05 0 0.014962648401636925 3.6290389566257914e-05 0 0.014953058200452195 4.4076043037287299e-05 0 0.014965540820552686 4.2328757832696158e-05 0 0.014957886092269839 4.890579971916158e-05 0 0.014962648401636925 3.6290389566257914e-05 0 0.014955581767254521 2.2377371712308611e-05 0 0.014969547202296384 1.1658710657788356e-05 0 0.014939339498082784 1.0020165057950818e-05 0 0.014969547202296384 1.1658710657788356e-05 0 0.014939339498082784 1.0020165057950818e-05 0 0.014981306607408366 4.4988773812384188e-06 0 0.014981812817772118 5.8324363524134698e-06 0 0.014969547202296384 1.1658710657788356e-05 0 0.014981306607408366 4.4988773812384188e-06 0 0.014977630597493716 1.0289996705991001e-05 0 0.014981812817772118 5.8324363524134698e-06 0 0.014969547202296384 1.1658710657788356e-05 0 0.014976327218027679 1.5973851271142933e-05 0 0.014977630597493716 1.0289996705991001e-05 0 0.014969552176969452 1.7972574001165812e-05 0 0.014977630597493716 1.0289996705991001e-05 0 0.014969547202296384 1.1658710657788356e-05 0 0.014969552176969452 1.7972574001165812e-05 0 0.014955581767254521 2.2377371712308611e-05 0 0.014969547202296384 1.1658710657788356e-05 0 0.014969552176969452 1.7972574001165812e-05 0 0.015000009034549178 -3.3957553933402705e-09 0 0.014999033951002322 -8.4431139884080022e-07 0 0.014999976977322083 3.7309846330670542e-09 0 0.015020033958677103 4.6628708544966997e-05 0 0.015000048179072224 8.8995577867980673e-10 0 0.014992614473038022 1.9632573139985952e-05 0 0.01466955867381242 6.0288301436512696e-05 0 0.015000176114144092 5.9486277631109882e-08 0 0.014998611696899552 -1.9889722916403437e-06 0 0.015000009034549178 -3.3957553933402705e-09 0 0.014999033951002322 -8.4431139884080022e-07 0 0.014939339498082784 1.0020165057950818e-05 0 0.01499560577647133 -2.2946889788235984e-06 0 0.014981306607408366 4.4988773812384188e-06 0 0.014998611696899552 -1.9889722916403437e-06 0 0.014999033951002322 -8.4431139884080022e-07 0 0.01499560577647133 -2.2946889788235984e-06 0 0.01466955867381242 6.0288301436512696e-05 0 0.015103205990159855 -4.6097283377381405e-05 0 0.014999033951002322 -8.4431139884080022e-07 0 0.01499560577647133 -2.2946889788235984e-06 0 0.014999976977322083 3.7309846330670542e-09 0 0.015054202974607482 0.00014991371933057774 0 0.015012434504307219 9.8553142357413797e-05 0 0.015045860164183368 5.8690966973814641e-05 0 0.015012434504307219 9.8553142357413797e-05 0 0.015045860164183368 5.8690966973814641e-05 0 0.015007812241435187 3.4469964085621975e-05 0 0.015020033958677103 4.6628708544966997e-05 0 0.014966162117566968 4.0262384153564064e-05 0 0.014992614473038022 1.9632573139985952e-05 0 0.014968284097199934 9.8288912518266887e-05 0 0.015020033958677103 4.6628708544966997e-05 0 0.014966162117566968 4.0262384153564064e-05 0 0.015047184015814187 1.8805028070182907e-05 0 0.014999987056566603 7.3134002980146708e-08 0 0.014966162117566968 4.0262384153564064e-05 0 0.014992614473038022 1.9632573139985952e-05 0 0.014999933544013763 5.5483812173261005e-09 0 0.015000048179072224 8.8995577867980673e-10 0 0.014992614473038022 1.9632573139985952e-05 0 0.014999933544013763 5.5483812173261005e-09 0 0.015045860164183368 5.8690966973814641e-05 0 0.015000095223384984 7.8224475520789035e-09 0 0.015007812241435187 3.4469964085621975e-05 0 0.015000095223384984 7.8224475520789035e-09 0 0.015007812241435187 3.4469964085621975e-05 0 0.014999998644932728 4.8363479097564502e-08 0 0.015007812241435187 3.4469964085621975e-05 0 0.014999998644932728 4.8363479097564502e-08 0 0.014950709107005583 5.77988940935087e-05 0 0.014999998644932728 4.8363479097564502e-08 0 0.014950709107005583 5.77988940935087e-05 0 0.014999743432390644 -5.2921421683930718e-08 0 0.014950709107005583 5.77988940935087e-05 0 0.014843685346938596 0.00025831430845897445 0 0.014787801023878274 7.0091926319498188e-05 0 0.015012434504307219 9.8553142357413797e-05 0 0.015007812241435187 3.4469964085621975e-05 0 0.014950709107005583 5.77988940935087e-05 0 0.015012434504307219 9.8553142357413797e-05 0 0.014950709107005583 5.77988940935087e-05 0 0.01497836017618197 0.00018596906695126682 0 0.014248450187246665 0.00044624696196408843 0 0.014261447593083842 0.00043911642440518377 0 0.014950709107005583 5.77988940935087e-05 0 0.01497836017618197 0.00018596906695126682 0 0.014843685346938596 0.00025831430845897445 0 0.01369556379475686 0.0006530994524958949 0 0.01357694859256388 0.00062500092052104645 0 0.013708001893984046 0.00053753816703391822 0 0.013563191068415057 0.000677899788806154 0 0.01369556379475686 0.0006530994524958949 0 0.01357694859256388 0.00062500092052104645 0 0.013544469276963437 0.00066364041318824995 0 0.013563191068415057 0.000677899788806154 0 0.01357694859256388 0.00062500092052104645 0 0.013544469276963437 0.00066364041318824995 0 0.01357694859256388 0.00062500092052104645 0 0.013541326824375846 0.00065424184949623167 0 0.013964704586155639 0.00038462553491345531 0 0.013917759633019978 0.00042841129421992296 0 0.014250384939897895 0.00035733047047713961 0 0.014118489825559577 0.00027009418313707985 0 0.013964704586155639 0.00038462553491345531 0 0.014250384939897895 0.00035733047047713961 0 0.013803934871440547 0.00047524282196238245 0 0.013964704586155639 0.00038462553491345531 0 0.013750271524261127 0.00045647816672164047 0 0.014118489825559577 0.00027009418313707985 0 0.013964704586155639 0.00038462553491345531 0 0.013829886980026983 0.0003832823390585862 0 0.013964704586155639 0.00038462553491345531 0 0.013829886980026983 0.0003832823390585862 0 0.013750271524261127 0.00045647816672164047 0 0.013803934871440547 0.00047524282196238245 0 0.013964704586155639 0.00038462553491345531 0 0.013917759633019978 0.00042841129421992296 0 0.01369556379475686 0.0006530994524958949 0 0.013917759633019978 0.00042841129421992296 0 0.013708001893984046 0.00053753816703391822 0 0.01369556379475686 0.0006530994524958949 0 0.013917759633019978 0.00042841129421992296 0 0.014250384939897895 0.00035733047047713961 0 0.014843685346938596 0.00025831430845897445 0 0.014537584617251039 0.00014590927579236819 0 0.014787801023878274 7.0091926319498188e-05 0 0.014261447593083842 0.00043911642440518377 0 0.014230882363304153 0.0003840596491057827 0 0.014843685346938596 0.00025831430845897445 0 0.014537584617251039 0.00014590927579236819 0 0.014250384939897895 0.00035733047047713961 0 0.014118489825559577 0.00027009418313707985 0 0.014250384939897895 0.00035733047047713961 0 0.014364995548545015 0.00021843039202901996 0 0.014537584617251039 0.00014590927579236819 0 0.014250384939897895 0.00035733047047713961 0 0.014364995548545015 0.00021843039202901996 0 0.014537584617251039 0.00014590927579236819 0 0.014364995548545015 0.00021843039202901996 0 0.014529479318894884 0.00015950765420043086 0 0.014537584617251039 0.00014590927579236819 0 0.014759362519583093 7.6144525034539819e-05 0 0.014529479318894884 0.00015950765420043086 0 0.014537584617251039 0.00014590927579236819 0 0.014759362519583093 7.6144525034539819e-05 0 0.014787801023878274 7.0091926319498188e-05 0 0.014950709107005583 5.77988940935087e-05 0 0.014787801023878274 7.0091926319498188e-05 0 0.014999743432390644 -5.2921421683930718e-08 0 0.014759362519583093 7.6144525034539819e-05 0 0.014787801023878274 7.0091926319498188e-05 0 0.014999743432390644 -5.2921421683930718e-08 0 0.014759362519583093 7.6144525034539819e-05 0 0.014999743432390644 -5.2921421683930718e-08 0 0.014999639700371383 1.1814591418240727e-07 0 0.014759362519583093 7.6144525034539819e-05 0 0.014999639700371383 1.1814591418240727e-07 0 0.014865924232565842 7.1731133789797798e-05 0 0.014999639700371383 1.1814591418240727e-07 0 0.014865924232565842 7.1731133789797798e-05 0 0.014999922217296431 5.5393718964253998e-08 0 0.014865924232565842 7.1731133789797798e-05 0 0.014999922217296431 5.5393718964253998e-08 0 0.01492910968098515 4.4552803679753508e-05 0 0.014865924232565842 7.1731133789797798e-05 0 0.014833596605381147 6.6992054061360882e-05 0 0.01492910968098515 4.4552803679753508e-05 0 0.014865924232565842 7.1731133789797798e-05 0 0.014833596605381147 6.6992054061360882e-05 0 0.014725082359800475 0.00011345919504298954 0 0.014759362519583093 7.6144525034539819e-05 0 0.014865924232565842 7.1731133789797798e-05 0 0.014725082359800475 0.00011345919504298954 0 0.014759362519583093 7.6144525034539819e-05 0 0.014725082359800475 0.00011345919504298954 0 0.014529479318894884 0.00015950765420043086 0 0.014999922217296431 5.5393718964253998e-08 0 0.014975752845203156 2.2496549532179492e-05 0 0.014999985094315955 1.1937286203544024e-08 0 0.014989000627923989 1.1785021548174437e-05 0 0.014975752845203156 2.2496549532179492e-05 0 0.014999985094315955 1.1937286203544024e-08 0 0.014989000627923989 1.1785021548174437e-05 0 0.014975752845203156 2.2496549532179492e-05 0 0.014977395196559641 1.9535163179222086e-05 0 0.014999922217296431 5.5393718964253998e-08 0 0.014975752845203156 2.2496549532179492e-05 0 0.01492910968098515 4.4552803679753508e-05 0 0.014946692417503227 2.0321941540343782e-05 0 0.014980941839449041 9.9608249735775658e-06 0 0.014913119105592256 1.4134728234525026e-05 0 0.014833596605381147 6.6992054061360882e-05 0 0.01492910968098515 4.4552803679753508e-05 0 0.014913119105592256 1.4134728234525026e-05 0 0.01492910968098515 4.4552803679753508e-05 0 0.014946692417503227 2.0321941540343782e-05 0 0.014913119105592256 1.4134728234525026e-05 0 0.014975752845203156 2.2496549532179492e-05 0 0.01492910968098515 4.4552803679753508e-05 0 0.014966314808137229 2.4226711409557604e-05 0 0.01492910968098515 4.4552803679753508e-05 0 0.014946692417503227 2.0321941540343782e-05 0 0.014966314808137229 2.4226711409557604e-05 0 0.014979156459608057 1.4816389690281211e-05 0 0.014978903443969294 1.3907692126481784e-05 0 0.014993765518772659 9.4461792145806323e-06 0 0.014975752845203156 2.2496549532179492e-05 0 0.014977395196559641 1.9535163179222086e-05 0 0.014966314808137229 2.4226711409557604e-05 0 0.014977395196559641 1.9535163179222086e-05 0 0.014966314808137229 2.4226711409557604e-05 0 0.014979156459608057 1.4816389690281211e-05 0 0.014946692417503227 2.0321941540343782e-05 0 0.01496833152187625 1.7765172169093252e-05 0 0.014980941839449041 9.9608249735775658e-06 0 0.014946692417503227 2.0321941540343782e-05 0 0.014966314808137229 2.4226711409557604e-05 0 0.01496833152187625 1.7765172169093252e-05 0 0.01496833152187625 1.7765172169093252e-05 0 0.014979156459608057 1.4816389690281211e-05 0 0.014980941839449041 9.9608249735775658e-06 0 0.014966314808137229 2.4226711409557604e-05 0 0.01496833152187625 1.7765172169093252e-05 0 0.014979156459608057 1.4816389690281211e-05 0 0.014415767620949694 0.00010712177901458577 0 0.014390947390439963 0.00013074973803478269 0 0.014989000627923989 1.1785021548174437e-05 0 0.014977395196559641 1.9535163179222086e-05 0 0.014979156459608057 1.4816389690281211e-05 0 0.014014156798423261 7.699394843233061e-05 0 0.013104021125522813 0.00010946042530725617 0 0.013353950933097413 0.00010295297340939457 0 0.013305041593141049 0.00011054386588502907 0 0.013325864162028623 0.00011353965705621824 0 0.014823949015778682 -2.2001995168994091e-05 0 0.014828900660960207 -8.5312221287677648e-05 0 0.014873552729162047 -4.9664548472286601e-05 0 0.014390947390439963 0.00013074973803478269 0 0.014014156798423261 7.699394843233061e-05 0 0.013350890455514831 0.00014065661442610024 0 0.013353950933097413 0.00010295297340939457 0 0.013325864162028623 0.00011353965705621824 0 0.013104021125522813 0.00010946042530725617 0 0.01337545885248162 0.00016052418506270859 0 0.013116658872421172 0.00016587089802463418 0 0.013171841950443981 0.00021630670348959369 0 0.013348580499260772 0.0001478558686298317 0 0.014390947390439963 0.00013074973803478269 0 0.014069332621083895 4.330782862872811e-05 0 0.013305041593141049 0.00011054386588502907 0 0.013302578229921843 0.00010306459842649996 0 0.013348580499260772 0.0001478558686298317 0 0.013107838223591024 0.0001853535438574621 0 0.013116658872421172 0.00016587089802463418 0 0.013104062514858583 0.00018626839665327426 0 0.013350890455514831 0.00014065661442610024 0 0.013325864162028623 0.00011353965705621824 0 0.013302578229921843 0.00010306459842649996 0 0.013116658872421172 0.00016587089802463418 0 0.013171841950443981 0.00021630670348959369 0 0.013104062514858583 0.00018626839665327426 0 0.013305041593141049 0.00011054386588502907 0 0.013325864162028623 0.00011353965705621824 0 0.013302578229921843 0.00010306459842649996 0 0.013196968826779967 0.00036579669739998557 0 0.013104062514858583 0.00018626839665327426 0 0.01303933283999727 0.00050511897812305969 0 0.013107594794487525 0.00019806022690841809 0 0.013058266659922066 0.00033776810645149845 0 0.013231828506029809 0.00025246268316433907 0 0.013171841950443981 0.00021630670348959369 0 0.013196968826779967 0.00036579669739998557 0 0.013171841950443981 0.00021630670348959369 0 0.013196968826779967 0.00036579669739998557 0 0.013104062514858583 0.00018626839665327426 0 0.014014156798423261 7.699394843233061e-05 0 0.01383642128204131 1.745784890247524e-05 0 0.013104062514858583 0.00018626839665327426 0 0.013120785150676396 0.00018149456436383809 0 0.013119959068463092 0.00018152997931159074 0 0.013107838223591024 0.0001853535438574621 0 0.013104062514858583 0.00018626839665327426 0 0.013120785150676396 0.00018149456436383809 0 0.014592077014168892 4.8200423754089563e-05 0 0.014613443780826588 -0.00012259259433528903 0 0.014678418857687657 -2.674940564700414e-05 0 0.014364995548545015 0.00021843039202901996 0 0.014529479318894884 0.00015950765420043086 0 0.014721745396184149 3.3717801998596659e-05 0 0.014118489825559577 0.00027009418313707985 0 0.014364995548545015 0.00021843039202901996 0 0.014721745396184149 3.3717801998596659e-05 0 0.014725082359800475 0.00011345919504298954 0 0.014529479318894884 0.00015950765420043086 0 0.014721745396184149 3.3717801998596659e-05 0 0.014833596605381147 6.6992054061360882e-05 0 0.014725082359800475 0.00011345919504298954 0 0.014721745396184149 3.3717801998596659e-05 0 0.014833596605381147 6.6992054061360882e-05 0 0.014913119105592256 1.4134728234525026e-05 0 0.014721745396184149 3.3717801998596659e-05 0 0.013302578229921843 0.00010306459842649996 0 0.013429080854143079 6.4967033705710508e-05 0 0.013348580499260772 0.0001478558686298317 0 0.014069332621083895 4.330782862872811e-05 0 0.014101304260232865 8.8180832416582915e-05 0 0.013348580499260772 0.0001478558686298317 0 0.013293535161081947 0.00030241345458099233 0 0.013403470633783852 0.00033996612454858746 0 0.013429080854143079 6.4967033705710508e-05 0 0.013459516772454973 0.0002405754374275529 0 0.013348580499260772 0.0001478558686298317 0 0.013459516772454973 0.0002405754374275529 0 0.013348580499260772 0.0001478558686298317 0 0.013403470633783852 0.00033996612454858746 0 0.013231828506029809 0.00025246268316433907 0 0.013171841950443981 0.00021630670348959369 0 0.013348580499260772 0.0001478558686298317 0 0.013231828506029809 0.00025246268316433907 0 0.013348580499260772 0.0001478558686298317 0 0.013293535161081947 0.00030241345458099233 0 0.013231828506029809 0.00025246268316433907 0 0.013196968826779967 0.00036579669739998557 0 0.013293535161081947 0.00030241345458099233 0 0.013196968826779967 0.00036579669739998557 0 0.013293535161081947 0.00030241345458099233 0 0.013304169167131353 0.00036947991774269269 0 0.013293535161081947 0.00030241345458099233 0 0.013304169167131353 0.00036947991774269269 0 0.013403470633783852 0.00033996612454858746 0 0.013304169167131353 0.00036947991774269269 0 0.013403470633783852 0.00033996612454858746 0 0.01333154671840589 0.00046525381216356833 0 0.013459516772454973 0.0002405754374275529 0 0.013403470633783852 0.00033996612454858746 0 0.013523458305318104 0.00035807876940113233 0 0.014118489825559577 0.00027009418313707985 0 0.013429080854143079 6.4967033705710508e-05 0 0.013648761307097359 0.00030508352289874329 0 0.013403470633783852 0.00033996612454858746 0 0.013523458305318104 0.00035807876940113233 0 0.01348260758554772 0.00044817363708789801 0 0.014153354164010569 0.00022904608952428683 0 0.014101304260232865 8.8180832416582915e-05 0 0.013523458305318104 0.00035807876940113233 0 0.013628473007740748 0.00042335260247270914 0 0.01348260758554772 0.00044817363708789801 0 0.013523458305318104 0.00035807876940113233 0 0.013648761307097359 0.00030508352289874329 0 0.013628473007740748 0.00042335260247270914 0 0.013459516772454973 0.0002405754374275529 0 0.013523458305318104 0.00035807876940113233 0 0.013648761307097359 0.00030508352289874329 0 0.013429080854143079 6.4967033705710508e-05 0 0.013459516772454973 0.0002405754374275529 0 0.013648761307097359 0.00030508352289874329 0 0.014118489825559577 0.00027009418313707985 0 0.013648761307097359 0.00030508352289874329 0 0.013829886980026983 0.0003832823390585862 0 0.013648761307097359 0.00030508352289874329 0 0.013829886980026983 0.0003832823390585862 0 0.013628473007740748 0.00042335260247270914 0 0.013829886980026983 0.0003832823390585862 0 0.013628473007740748 0.00042335260247270914 0 0.013750271524261127 0.00045647816672164047 0 0.013629583070913231 0.00054028836873292027 0 0.013750271524261127 0.00045647816672164047 0 0.013579645402214149 0.00049838349661377205 0 0.013628473007740748 0.00042335260247270914 0 0.013750271524261127 0.00045647816672164047 0 0.013579645402214149 0.00049838349661377205 0 0.013579645402214149 0.00049838349661377205 0 0.01348260758554772 0.00044817363708789801 0 0.013433274115185329 0.00053481749489420031 0 0.013628473007740748 0.00042335260247270914 0 0.013579645402214149 0.00049838349661377205 0 0.01348260758554772 0.00044817363708789801 0 0.013433274115185329 0.00053481749489420031 0 0.013419363979701662 0.00059870665644013127 0 0.013340464619923793 0.00058931508205942987 0 0.013433274115185329 0.00053481749489420031 0 0.013518286957292822 0.00055662562299623375 0 0.013419363979701662 0.00059870665644013127 0 0.013579645402214149 0.00049838349661377205 0 0.013433274115185329 0.00053481749489420031 0 0.013518286957292822 0.00055662562299623375 0 0.013629583070913231 0.00054028836873292027 0 0.013579645402214149 0.00049838349661377205 0 0.013518286957292822 0.00055662562299623375 0 0.013629583070913231 0.00054028836873292027 0 0.013518286957292822 0.00055662562299623375 0 0.013507143943082315 0.00059111797276912128 0 0.013548809253813368 0.00060671494276455442 0 0.013507143943082315 0.00059111797276912128 0 0.01341331487134328 0.0006375024975037787 0 0.013507143943082315 0.00059111797276912128 0 0.013419363979701662 0.00059870665644013127 0 0.01341331487134328 0.0006375024975037787 0 0.013518286957292822 0.00055662562299623375 0 0.013507143943082315 0.00059111797276912128 0 0.013419363979701662 0.00059870665644013127 0 0.013419363979701662 0.00059870665644013127 0 0.013318041491229783 0.00063402901473154209 0 0.01341331487134328 0.0006375024975037787 0 0.013419363979701662 0.00059870665644013127 0 0.013318041491229783 0.00063402901473154209 0 0.013340464619923793 0.00058931508205942987 0 0.013318041491229783 0.00063402901473154209 0 0.01329556714948024 0.0006673598386834176 0 0.01341331487134328 0.0006375024975037787 0 0.013425037184365963 0.00066951192149424356 0 0.01341331487134328 0.0006375024975037787 0 0.013347983183364675 0.00067317774366923173 0 0.01329556714948024 0.0006673598386834176 0 0.01341331487134328 0.0006375024975037787 0 0.013347983183364675 0.00067317774366923173 0 0.013188546823891638 0.00066104929567450423 0 0.013256472605494569 0.00061107840494318655 0 0.013162129682050888 0.000618897071431035 0 0.013188546823891638 0.00066104929567450423 0 0.013240738186328406 0.00066078236125642067 0 0.013256472605494569 0.00061107840494318655 0 0.013318041491229783 0.00063402901473154209 0 0.01329556714948024 0.0006673598386834176 0 0.013240738186328406 0.00066078236125642067 0 0.01329556714948024 0.0006673598386834176 0 0.013240738186328406 0.00066078236125642067 0 0.013234788216645111 0.00068157475512766288 0 0.013318041491229783 0.00063402901473154209 0 0.013240738186328406 0.00066078236125642067 0 0.013256472605494569 0.00061107840494318655 0 0.013188546823891638 0.00066104929567450423 0 0.013240738186328406 0.00066078236125642067 0 0.013192304634707021 0.00068591211288006998 0 0.013318041491229783 0.00063402901473154209 0 0.013340464619923793 0.00058931508205942987 0 0.013256472605494569 0.00061107840494318655 0 0.013340464619923793 0.00058931508205942987 0 0.013256472605494569 0.00061107840494318655 0 0.013317379208551467 0.00054587555965072293 0 0.013256472605494569 0.00061107840494318655 0 0.0132220013224774 0.00053274581651138395 0 0.013162129682050888 0.000618897071431035 0 0.0132220013224774 0.00053274581651138395 0 0.013317379208551467 0.00054587555965072293 0 0.01333154671840589 0.00046525381216356833 0 0.013256472605494569 0.00061107840494318655 0 0.0132220013224774 0.00053274581651138395 0 0.013317379208551467 0.00054587555965072293 0 0.013433274115185329 0.00053481749489420031 0 0.013317379208551467 0.00054587555965072293 0 0.01333154671840589 0.00046525381216356833 0 0.013433274115185329 0.00053481749489420031 0 0.013340464619923793 0.00058931508205942987 0 0.013317379208551467 0.00054587555965072293 0 0.013403470633783852 0.00033996612454858746 0 0.01348260758554772 0.00044817363708789801 0 0.01333154671840589 0.00046525381216356833 0 0.01348260758554772 0.00044817363708789801 0 0.013433274115185329 0.00053481749489420031 0 0.01333154671840589 0.00046525381216356833 0 0.013196968826779967 0.00036579669739998557 0 0.013304169167131353 0.00036947991774269269 0 0.01333154671840589 0.00046525381216356833 0 0.013196968826779967 0.00036579669739998557 0 0.0132220013224774 0.00053274581651138395 0 0.01333154671840589 0.00046525381216356833 0 0.013196968826779967 0.00036579669739998557 0 0.0132220013224774 0.00053274581651138395 0 0.013146442124826553 0.00049196620803782453 0 0.013196968826779967 0.00036579669739998557 0 0.013146442124826553 0.00049196620803782453 0 0.01303933283999727 0.00050511897812305969 0 0.013146442124826553 0.00049196620803782453 0 0.01313055541383731 0.0005574506528180671 0 0.01303933283999727 0.00050511897812305969 0 0.0132220013224774 0.00053274581651138395 0 0.013146442124826553 0.00049196620803782453 0 0.01313055541383731 0.0005574506528180671 0 0.01383642128204131 1.745784890247524e-05 0 0.014044410266020532 6.36050701328208e-05 0 0.013120785150676396 0.00018149456436383809 0 0.013119959068463092 0.00018152997931159074 0 0.013127360009049502 0.00018293356655642174 0 0.013119959068463092 0.00018152997931159074 0 0.013127360009049502 0.00018293356655642174 0 0.013128469065263588 0.00018505172516461031 0 0.01303933283999727 0.00050511897812305969 0 0.013100545147253378 0.00062895967831242522 0 0.013034410049721879 0.00069197627422537783 0 0.013058266659922066 0.00033776810645149845 0 0.013299166351725998 0.00046646922479901248 0 0.014044410266020532 6.36050701328208e-05 0 0.013299166351725998 0.00046646922479901248 0 0.013715827009535497 0.00027007753758035531 0 0.013768625209120226 0.00033961274891028246 0 0.013820897604105924 0.0003712561830002716 0 0.014044410266020532 6.36050701328208e-05 0 0.01390363667756664 0.00027137974779161214 0 0.013715827009535497 0.00027007753758035531 0 0.013768625209120226 0.00033961274891028246 0 0.013704788508262384 0.0003719086540821115 0 0.01313055541383731 0.0005574506528180671 0 0.013162129682050888 0.000618897071431035 0 0.013100545147253378 0.00062895967831242522 0 0.0132220013224774 0.00053274581651138395 0 0.01313055541383731 0.0005574506528180671 0 0.013162129682050888 0.000618897071431035 0 0.01313055541383731 0.0005574506528180671 0 0.01303933283999727 0.00050511897812305969 0 0.013100545147253378 0.00062895967831242522 0 0.013100545147253378 0.00062895967831242522 0 0.013094667353729756 0.00069258913153559683 0 0.013034410049721879 0.00069197627422537783 0 0.013100545147253378 0.00062895967831242522 0 0.013135194685066309 0.00067136202744113205 0 0.013094667353729756 0.00069258913153559683 0 0.013188546823891638 0.00066104929567450423 0 0.013162129682050888 0.000618897071431035 0 0.013135194685066309 0.00067136202744113205 0 0.013162129682050888 0.000618897071431035 0 0.013100545147253378 0.00062895967831242522 0 0.013135194685066309 0.00067136202744113205 0 0.013135194685066309 0.00067136202744113205 0 0.013114751502601659 0.0007067307096664219 0 0.013147240404814953 0.00069376920375019988 0 0.013135194685066309 0.00067136202744113205 0 0.013114751502601659 0.0007067307096664219 0 0.013094667353729756 0.00069258913153559683 0 0.013114751502601659 0.0007067307096664219 0 0.013147240404814953 0.00069376920375019988 0 0.013117333280667247 0.00071352545659748065 0 0.013094667353729756 0.00069258913153559683 0 0.0131099268235028 0.00073296184449152669 0 0.013034410049721879 0.00069197627422537783 0 0.01309134836665452 0.00067600759669842131 0 0.013299166351725998 0.00046646922479901248 0 0.013114751502601659 0.0007067307096664219 0 0.0131099268235028 0.00073296184449152669 0 0.013113864926981262 0.00072393357795637065 0 0.013114751502601659 0.0007067307096664219 0 0.013094667353729756 0.00069258913153559683 0 0.0131099268235028 0.00073296184449152669 0 0.013126466124410893 0.00071304822871963132 0 0.013113864926981262 0.00072393357795637065 0 0.013086864347379658 0.00071600509217590463 0 0.01309134836665452 0.00067600759669842131 0 0.013090787683980414 0.00068146600509482 0 0.013086864347379658 0.00071600509217590463 0 0.013108926250279635 0.00071922012172345772 0 0.013117333280667247 0.00071352545659748065 0 0.013113864926981262 0.00072393357795637065 0 0.013086864347379658 0.00071600509217590463 0 0.013108926250279635 0.00071922012172345772 0 0.013114751502601659 0.0007067307096664219 0 0.013108926250279635 0.00071922012172345772 0 0.013117333280667247 0.00071352545659748065 0 0.013114751502601659 0.0007067307096664219 0 0.013113864926981262 0.00072393357795637065 0 0.013108926250279635 0.00071922012172345772 0 0.013820897604105924 0.0003712561830002716 0 0.013750110890080691 0.00044400234686992616 0 0.013783670607243125 0.0005615519148228803 0 0.013750110890080691 0.00044400234686992616 0 0.013678297329281131 0.00057259002283044391 0 0.013700115210136785 0.00037434664903073205 0 0.013299166351725998 0.00046646922479901248 0 0.01352522564040644 0.00057394440449617587 0 0.01331520076262107 0.00062254003237045396 0 0.013276516167160555 0.00058495649444236615 0 0.013268068821438344 0.00063206940765694918 0 0.013768625209120226 0.00033961274891028246 0 0.013820897604105924 0.0003712561830002716 0 0.013750110890080691 0.00044400234686992616 0 0.013768625209120226 0.00033961274891028246 0 0.013750110890080691 0.00044400234686992616 0 0.013700115210136785 0.00037434664903073205 0 0.013777615200939839 0.0003354427549352515 0 0.01390363667756664 0.00027137974779161214 0 0.013783670607243125 0.0005615519148228803 0 0.013678297329281131 0.00057259002283044391 0 0.013745161203778267 0.00074604320267099939 0 0.01331520076262107 0.00062254003237045396 0 0.013268068821438344 0.00063206940765694918 0 0.013259946306357106 0.00067924062051218537 0 0.01352522564040644 0.00057394440449617587 0 0.013341961990523709 0.00078391853178752589 0 0.01309134836665452 0.00067600759669842131 0 0.013341961990523709 0.00078391853178752589 0 0.013750110890080691 0.00044400234686992616 0 0.013783670607243125 0.0005615519148228803 0 0.013678297329281131 0.00057259002283044391 0 0.012997943216960385 0.00065958882057271407 0 0.012982117046432148 0.00070414806029076211 0 0.012919716457743835 0.00071166773064660108 0 0.012997943216960385 0.00065958882057271407 0 0.013018767694655459 0.00069281011090971953 0 0.012982117046432148 0.00070414806029076211 0 0.013126466124410893 0.00071304822871963132 0 0.013086864347379658 0.00071600509217590463 0 0.013018767694655459 0.00069281011090971953 0 0.01309134836665452 0.00067600759669842131 0 0.013038399850987389 0.00068213608371044056 0 0.013018767694655459 0.00069281011090971953 0 0.012966455957975546 0.00068057075520702856 0 0.013007694361597032 0.00072925029549477857 0 0.013018767694655459 0.00069281011090971953 0 0.013043667198630506 0.00070728898308849183 0 0.012966455957975546 0.00068057075520702856 0 0.013086864347379658 0.00071600509217590463 0 0.013018767694655459 0.00069281011090971953 0 0.013060834597041297 0.0007085585057055744 0 0.013018767694655459 0.00069281011090971953 0 0.013060834597041297 0.0007085585057055744 0 0.013043667198630506 0.00070728898308849183 0 0.013060834597041297 0.0007085585057055744 0 0.013043667198630506 0.00070728898308849183 0 0.013095734756075403 0.00071317941836244124 0 0.013086864347379658 0.00071600509217590463 0 0.013060834597041297 0.0007085585057055744 0 0.013095734756075403 0.00071317941836244124 0 0.013043667198630506 0.00070728898308849183 0 0.013113960357129681 0.00071601678202804831 0 0.013126535978852978 0.00070969746867546488 0 0.013043667198630506 0.00070728898308849183 0 0.013095734756075403 0.00071317941836244124 0 0.013126535978852978 0.00070969746867546488 0 0.013043667198630506 0.00070728898308849183 0 0.013047493359019021 0.00071513864473335322 0 0.013113960357129681 0.00071601678202804831 0 0.012966455957975546 0.00068057075520702856 0 0.013047493359019021 0.00071513864473335322 0 0.012898658304121211 0.00077235498095555935 0 0.013043667198630506 0.00070728898308849183 0 0.012966455957975546 0.00068057075520702856 0 0.013047493359019021 0.00071513864473335322 0 0.013217800370170724 0.0008963425989801108 0 0.013247902511518216 0.00076934145344199553 0 0.013101509907094138 0.00077498119242823676 0 0.013101509907094138 0.00077498119242823676 0 0.013047493359019021 0.00071513864473335322 0 0.013171847104502888 0.00073365860711023588 0 0.013101509907094138 0.00077498119242823676 0 0.013047493359019021 0.00071513864473335322 0 0.012898658304121211 0.00077235498095555935 0 0.013247902511518216 0.00076934145344199553 0 0.013101509907094138 0.00077498119242823676 0 0.013171847104502888 0.00073365860711023588 0 0.013247902511518216 0.00076934145344199553 0 0.013171847104502888 0.00073365860711023588 0 0.01330152487677839 0.00070394833218714739 0 0.013047493359019021 0.00071513864473335322 0 0.013171847104502888 0.00073365860711023588 0 0.013113960357129681 0.00071601678202804831 0 0.013171847104502888 0.00073365860711023588 0 0.013113960357129681 0.00071601678202804831 0 0.013208394054187925 0.00070845346312511373 0 0.013113960357129681 0.00071601678202804831 0 0.013208394054187925 0.00070845346312511373 0 0.013126535978852978 0.00070969746867546488 0 0.013208394054187925 0.00070845346312511373 0 0.01330152487677839 0.00070394833218714739 0 0.013256977494234623 0.00069053213268826835 0 0.013208394054187925 0.00070845346312511373 0 0.013256977494234623 0.00069053213268826835 0 0.013191410168340809 0.00069764322456283346 0 0.013171847104502888 0.00073365860711023588 0 0.013208394054187925 0.00070845346312511373 0 0.01330152487677839 0.00070394833218714739 0 0.01330152487677839 0.00070394833218714739 0 0.013347983183364675 0.00067317774366923173 0 0.013256977494234623 0.00069053213268826835 0 0.013425037184365963 0.00066951192149424356 0 0.01330152487677839 0.00070394833218714739 0 0.013347983183364675 0.00067317774366923173 0 0.013256977494234623 0.00069053213268826835 0 0.013234788216645111 0.00068157475512766288 0 0.013191410168340809 0.00069764322456283346 0 0.01329556714948024 0.0006673598386834176 0 0.013347983183364675 0.00067317774366923173 0 0.013256977494234623 0.00069053213268826835 0 0.01329556714948024 0.0006673598386834176 0 0.013256977494234623 0.00069053213268826835 0 0.013234788216645111 0.00068157475512766288 0 0.013234788216645111 0.00068157475512766288 0 0.013191410168340809 0.00069764322456283346 0 0.013192304634707021 0.00068591211288006998 0 0.013191410168340809 0.00069764322456283346 0 0.013192304634707021 0.00068591211288006998 0 0.013143932392404398 0.00070519533893688023 0 0.013240738186328406 0.00066078236125642067 0 0.013234788216645111 0.00068157475512766288 0 0.013192304634707021 0.00068591211288006998 0 0.013188546823891638 0.00066104929567450423 0 0.013192304634707021 0.00068591211288006998 0 0.013147240404814953 0.00069376920375019988 0 0.013188546823891638 0.00066104929567450423 0 0.013135194685066309 0.00067136202744113205 0 0.013147240404814953 0.00069376920375019988 0 0.013147240404814953 0.00069376920375019988 0 0.013143932392404398 0.00070519533893688023 0 0.013117333280667247 0.00071352545659748065 0 0.013192304634707021 0.00068591211288006998 0 0.013147240404814953 0.00069376920375019988 0 0.013143932392404398 0.00070519533893688023 0 0.013143932392404398 0.00070519533893688023 0 0.013117333280667247 0.00071352545659748065 0 0.013095734756075403 0.00071317941836244124 0 0.013086864347379658 0.00071600509217590463 0 0.013117333280667247 0.00071352545659748065 0 0.013095734756075403 0.00071317941836244124 0 0.013143932392404398 0.00070519533893688023 0 0.013095734756075403 0.00071317941836244124 0 0.013126535978852978 0.00070969746867546488 0 0.013208394054187925 0.00070845346312511373 0 0.013191410168340809 0.00069764322456283346 0 0.013126535978852978 0.00070969746867546488 0 0.013191410168340809 0.00069764322456283346 0 0.013143932392404398 0.00070519533893688023 0 0.013126535978852978 0.00070969746867546488 0 0.01450619623147777 9.0233167912754489e-05 0 0.014494863694528858 0.00011769540057852516 0 0.014519451598509835 0.00013071932676982087 0 0.014481313206283573 0.00031168570023723297 0 0.014622003521097772 0.00036871606125382547 0 0.01458768249191467 0.00015500039838673834 0 0.013950912858479363 0.00044947989267264145 0 0.014610675081727498 0.00010762128007326007 0 0.014481313206283573 0.00031168570023723297 0 0.014553206908184253 0.00016167760307661365 0 0.01458768249191467 0.00015500039838673834 0 0.014481313206283573 0.00031168570023723297 0 0.014553206908184253 0.00016167760307661365 0 0.01431549873678576 0.00023298639175426357 0 0.014548956121171562 0.00016077157847698849 0 0.01445621577642869 0.00019841617975448024 0 0.014481313206283573 0.00031168570023723297 0 0.014622003521097772 0.00036871606125382547 0 0.014433739713157078 0.00048122816717024108 0 0.014481313206283573 0.00031168570023723297 0 0.014257621138262924 0.00040968784350655242 0 0.014433739713157078 0.00048122816717024108 0 0.013950912858479363 0.00044947989267264145 0 0.013838022195256349 0.00067476960968549781 0 0.013950912858479363 0.00044947989267264145 0 0.013329962297868326 0.00087699742057866837 0 0.013352243119255813 0.00077203898584590487 0 0.01335485967949411 0.00088673687490151848 0 0.013222492184703463 0.00084300786632722578 0 0.01332293409082538 0.0005808778971261307 0 0.013440511593884884 0.00066062959608427236 0 0.013511684415594844 0.00048172847637602181 0 0.013950912858479363 0.00044947989267264145 0 0.014021397164325836 0.00027571309914226121 0 0.013440511593884884 0.00066062959608427236 0 0.013553824743581468 0.00060277923694371943 0 0.013511684415594844 0.00048172847637602181 0 0.01332293409082538 0.0005808778971261307 0 0.013440511593884884 0.00066062959608427236 0 0.013338510631886867 0.00079296003951012325 0 0.013440511593884884 0.00066062959608427236 0 0.013553824743581468 0.00060277923694371943 0 0.013556246835250722 0.00074959723653945671 0 0.013636171417614484 0.00067302531904966836 0 0.013553824743581468 0.00060277923694371943 0 0.013678297329281131 0.00057259002283044391 0 0.013636171417614484 0.00067302531904966836 0 0.013678297329281131 0.00057259002283044391 0 0.013745161203778267 0.00074604320267099939 0 0.013636171417614484 0.00067302531904966836 0 0.013553824743581468 0.00060277923694371943 0 0.013556246835250722 0.00074959723653945671 0 0.013553824743581468 0.00060277923694371943 0 0.013678297329281131 0.00057259002283044391 0 0.013511684415594844 0.00048172847637602181 0 0.013677135729666574 0.0005930491154405664 0 0.01390363667756664 0.00027137974779161214 0 0.01390363667756664 0.00027137974779161214 0 0.014021397164325836 0.00027571309914226121 0 0.014436481421479592 0.00011884742042083787 0 0.01447619898160748 0.00010282231738023109 0 0.014470643117468891 0.00013163209906797701 0 0.013678297329281131 0.00057259002283044391 0 0.013703248229777618 0.00038229124792490775 0 0.013511684415594844 0.00048172847637602181 0 0.01450619623147777 9.0233167912754489e-05 0 0.01447619898160748 0.00010282231738023109 0 0.014494863694528858 0.00011769540057852516 0 0.01447619898160748 0.00010282231738023109 0 0.014494863694528858 0.00011769540057852516 0 0.014470643117468891 0.00013163209906797701 0 0.014497414815266682 0.00013708216985550473 0 0.014470643117468891 0.00013163209906797701 0 0.014481286552721143 0.00017401723212235606 0 0.014497414815266682 0.00013708216985550473 0 0.014481286552721143 0.00017401723212235606 0 0.014511835809166223 0.00015722813266530499 0 0.014494863694528858 0.00011769540057852516 0 0.014497414815266682 0.00013708216985550473 0 0.014519451598509835 0.00013071932676982087 0 0.014494863694528858 0.00011769540057852516 0 0.014497414815266682 0.00013708216985550473 0 0.014470643117468891 0.00013163209906797701 0 0.014497414815266682 0.00013708216985550473 0 0.014511835809166223 0.00015722813266530499 0 0.014519451598509835 0.00013071932676982087 0 0.014044410266020532 6.36050701328208e-05 0 0.014686506540807972 1.1760599066959895e-05 0 0.014434419528657651 0.00013827606269727302 0 0.014470643117468891 0.00013163209906797701 0 0.014481286552721143 0.00017401723212235606 0 0.014434419528657651 0.00013827606269727302 0 0.014436481421479592 0.00011884742042083787 0 0.014470643117468891 0.00013163209906797701 0 0.014628249007606542 -0.00028842593205358988 0 0.01469723245359043 -0.00012457476594140261 0 0.014767917583579839 -0.00016975986164222942 0 0.014613443780826588 -0.00012259259433528903 0 0.014628249007606542 -0.00028842593205358988 0 0.01469723245359043 -0.00012457476594140261 0 0.014481286552721143 0.00017401723212235606 0 0.014511835809166223 0.00015722813266530499 0 0.014541847604134 0.00018151971580571239 0 0.014481286552721143 0.00017401723212235606 0 0.014541847604134 0.00018151971580571239 0 0.014535163455902042 0.00021175599651537125 0 0.014534715912115304 0.00019714980103984327 0 0.014610675081727498 0.00010762128007326007 0 0.014541847604134 0.00018151971580571239 0 0.01458768249191467 0.00015500039838673834 0 0.014566056989077812 0.00016194208896833521 0 0.014511835809166223 0.00015722813266530499 0 0.014541847604134 0.00018151971580571239 0 0.014519451598509835 0.00013071932676982087 0 0.014541847604134 0.00018151971580571239 0 0.014566056989077812 0.00016194208896833521 0 0.014557377601263681 0.00019143119207567195 0 0.014553206908184253 0.00016167760307661365 0 0.01458768249191467 0.00015500039838673834 0 0.014566056989077812 0.00016194208896833521 0 0.014553206908184253 0.00016167760307661365 0 0.014585263991364832 0.00015314363716407943 0 0.014603341598644133 0.00014703243748249959 0 0.014553206908184253 0.00016167760307661365 0 0.014585263991364832 0.00015314363716407943 0 0.014566056989077812 0.00016194208896833521 0 0.014585263991364832 0.00015314363716407943 0 0.014566056989077812 0.00016194208896833521 0 0.014619072021893701 0.00014665488206007184 0 0.014566056989077812 0.00016194208896833521 0 0.014586700782635161 0.00021057424846418683 0 0.014619072021893701 0.00014665488206007184 0 0.014566056989077812 0.00016194208896833521 0 0.014557377601263681 0.00019143119207567195 0 0.014586700782635161 0.00021057424846418683 0 0.014989661382369594 3.2746695768757341e-05 0 0.014960680675920136 2.3128842188825463e-05 0 0.014969715148743965 3.0225688892162715e-05 0 0.014778167290565657 0.00013593292852956718 0 0.014790801702996594 1.8728924895912256e-05 0 0.014989661382369594 3.2746695768757341e-05 0 0.014969715148743965 3.0225688892162715e-05 0 0.014992509905310954 4.0154467779284277e-05 0 0.014557377601263681 0.00019143119207567195 0 0.014586700782635161 0.00021057424846418683 0 0.014535163455902042 0.00021175599651537125 0 0.014541847604134 0.00018151971580571239 0 0.014557377601263681 0.00019143119207567195 0 0.014535163455902042 0.00021175599651537125 0 0.014790801702996594 1.8728924895912256e-05 0 0.0149688573407017 4.9504238528011774e-05 0 0.014922482048736797 4.3165290794637655e-05 0 0.014869400468224341 8.9484599321013362e-05 0 0.014964205238948196 6.8332949978449037e-05 0 0.014911907187559272 -4.4035777155158689e-05 0 0.014969715148743965 3.0225688892162715e-05 0 0.014922482048736797 4.3165290794637655e-05 0 0.014911907187559272 -4.4035777155158689e-05 0 0.014922482048736797 4.3165290794637655e-05 0 0.014861826943362773 1.7813033147825797e-05 0 0.014922482048736797 4.3165290794637655e-05 0 0.014861826943362773 1.7813033147825797e-05 0 0.014869400468224341 8.9484599321013362e-05 0 0.014969715148743965 3.0225688892162715e-05 0 0.014922482048736797 4.3165290794637655e-05 0 0.014964205238948196 6.8332949978449037e-05 0 0.014969715148743965 3.0225688892162715e-05 0 0.014992294130491071 4.8602538855462902e-05 0 0.014964205238948196 6.8332949978449037e-05 0 0.014969715148743965 3.0225688892162715e-05 0 0.014992294130491071 4.8602538855462902e-05 0 0.014992509905310954 4.0154467779284277e-05 0 0.01469723245359043 -0.00012457476594140261 0 0.014767917583579839 -0.00016975986164222942 0 0.014774787558241577 -2.6758166288151645e-05 0 0.014613443780826588 -0.00012259259433528903 0 0.01469723245359043 -0.00012457476594140261 0 0.014678418857687657 -2.674940564700414e-05 0 0.01469723245359043 -0.00012457476594140261 0 0.014678418857687657 -2.674940564700414e-05 0 0.014774787558241577 -2.6758166288151645e-05 0 0.014678418857687657 -2.674940564700414e-05 0 0.014774787558241577 -2.6758166288151645e-05 0 0.014727842690275061 1.8570100620762583e-05 0 0.014790801702996594 1.8728924895912256e-05 0 0.014830105276548867 -3.7667781393458019e-05 0 0.014767917583579839 -0.00016975986164222942 0 0.014899729159745448 -4.9867445096994596e-05 0 0.014774787558241577 -2.6758166288151645e-05 0 0.014686506540807972 1.1760599066959895e-05 0 0.014790801702996594 1.8728924895912256e-05 0 0.014911907187559272 -4.4035777155158689e-05 0 0.014774787558241577 -2.6758166288151645e-05 0 0.014861826943362773 1.7813033147825797e-05 0 0.0149067479435299 4.4329262318500907e-05 0 0.014974560083288336 2.1668124215958144e-05 0 0.014939162088776957 6.7575602843827622e-05 0 0.014913637623727858 6.3104960610785996e-05 0 0.014951280398554232 7.4862128356503217e-05 0 0.014869400468224341 8.9484599321013362e-05 0 0.014795472268318255 3.5445057093858921e-05 0 0.014743665410691718 7.8261200837085706e-05 0 0.014891565103676849 7.222836361842198e-05 0 0.0149067479435299 4.4329262318500907e-05 0 0.014861826943362773 1.7813033147825797e-05 0 0.014869400468224341 8.9484599321013362e-05 0 0.014795472268318255 3.5445057093858921e-05 0 0.014774787558241577 -2.6758166288151645e-05 0 0.014795472268318255 3.5445057093858921e-05 0 0.014727842690275061 1.8570100620762583e-05 0 0.014774787558241577 -2.6758166288151645e-05 0 0.014861826943362773 1.7813033147825797e-05 0 0.014795472268318255 3.5445057093858921e-05 0 0.014014156798423261 7.699394843233061e-05 0 0.0149067479435299 4.4329262318500907e-05 0 0.014592077014168892 4.8200423754089563e-05 0 0.014741370173790881 7.9328215252627744e-05 0 0.014667195984314985 5.2962023958111589e-05 0 0.014828900660960207 -8.5312221287677648e-05 0 0.014927863576089238 -6.0785265335352378e-05 0 0.014873552729162047 -4.9664548472286601e-05 0 0.014727842690275061 1.8570100620762583e-05 0 0.014743665410691718 7.8261200837085706e-05 0 0.014667195984314985 5.2962023958111589e-05 0 0.014795472268318255 3.5445057093858921e-05 0 0.014727842690275061 1.8570100620762583e-05 0 0.014743665410691718 7.8261200837085706e-05 0 0.0149067479435299 4.4329262318500907e-05 0 0.014684791933041945 2.2103301757964077e-05 0 0.014927863576089238 -6.0785265335352378e-05 0 0.014873552729162047 -4.9664548472286601e-05 0 0.014905197290615313 -3.0562569852020548e-05 0 0.014678418857687657 -2.674940564700414e-05 0 0.014727842690275061 1.8570100620762583e-05 0 0.014667195984314985 5.2962023958111589e-05 0 0.014592077014168892 4.8200423754089563e-05 0 0.014678418857687657 -2.674940564700414e-05 0 0.014667195984314985 5.2962023958111589e-05 0 0.014823949015778682 -2.2001995168994091e-05 0 0.014905197290615313 -3.0562569852020548e-05 0 0.014922108783938313 3.4410698087995704e-06 0 0.014989000627923989 1.1785021548174437e-05 0 0.014979156459608057 1.4816389690281211e-05 0 0.014993765518772659 9.4461792145806323e-06 0 0.014823949015778682 -2.2001995168994091e-05 0 0.014873552729162047 -4.9664548472286601e-05 0 0.014905197290615313 -3.0562569852020548e-05 0 0.014390947390439963 0.00013074973803478269 0 0.015043487385245113 2.1521644862095556e-05 0 0.014927863576089238 -6.0785265335352378e-05 0 0.014905197290615313 -3.0562569852020548e-05 0 0.014952274466965681 -2.4023863167550125e-05 0 0.014905197290615313 -3.0562569852020548e-05 0 0.014922108783938313 3.4410698087995704e-06 0 0.014952274466965681 -2.4023863167550125e-05 0 0.015043487385245113 2.1521644862095556e-05 0 0.014956846691045305 -3.8033419188659962e-06 0 0.014922108783938313 3.4410698087995704e-06 0 0.014986395542648913 -9.1555764804279755e-06 0 0.014992863240261159 4.261517896579741e-06 0 0.014952274466965681 -2.4023863167550125e-05 0 0.014986395542648913 -9.1555764804279755e-06 0 0.014999765527873419 -1.8197278645998926e-05 0 0.014927863576089238 -6.0785265335352378e-05 0 0.014952274466965681 -2.4023863167550125e-05 0 0.014999765527873419 -1.8197278645998926e-05 0 0.014922108783938313 3.4410698087995704e-06 0 0.014952274466965681 -2.4023863167550125e-05 0 0.014986395542648913 -9.1555764804279755e-06 0 0.014992863240261159 4.261517896579741e-06 0 0.014999985094315955 1.1937286203544024e-08 0 0.014999982458850904 3.6750514983624939e-09 0 0.014993765518772659 9.4461792145806323e-06 0 0.014992863240261159 4.261517896579741e-06 0 0.014999985094315955 1.1937286203544024e-08 0 0.014989000627923989 1.1785021548174437e-05 0 0.014993765518772659 9.4461792145806323e-06 0 0.014999985094315955 1.1937286203544024e-08 0 0.014995030962709986 2.725271027651715e-05 0 0.014974560083288336 2.1668124215958144e-05 0 0.014992294130491071 4.8602538855462902e-05 0 0.014992785581075503 5.6475886235841688e-05 0 0.014964205238948196 6.8332949978449037e-05 0 0.01500294495373931 1.223394601584533e-06 0 0.014999765527873419 -1.8197278645998926e-05 0 0.015000971107606592 -5.1024225170676562e-07 0 0.014992785581075503 5.6475886235841688e-05 0 0.014964205238948196 6.8332949978449037e-05 0 0.014951280398554232 7.4862128356503217e-05 0 0.014939162088776957 6.7575602843827622e-05 0 0.014964205238948196 6.8332949978449037e-05 0 0.014951280398554232 7.4862128356503217e-05 0 0.014891565103676849 7.222836361842198e-05 0 0.014956102482987241 7.4887355047431061e-05 0 0.014986395542648913 -9.1555764804279755e-06 0 0.014999765527873419 -1.8197278645998926e-05 0 0.015000971107606592 -5.1024225170676562e-07 0 0.014986395542648913 -9.1555764804279755e-06 0 0.014992863240261159 4.261517896579741e-06 0 0.015000971107606592 -5.1024225170676562e-07 0 0.014992863240261159 4.261517896579741e-06 0 0.015000971107606592 -5.1024225170676562e-07 0 0.014999982458850904 3.6750514983624939e-09 0 0.01500294495373931 1.223394601584533e-06 0 0.015000971107606592 -5.1024225170676562e-07 0 0.015000019519184064 5.909104944292346e-09 0 0.015000971107606592 -5.1024225170676562e-07 0 0.014999982458850904 3.6750514983624939e-09 0 0.015000019519184064 5.909104944292346e-09 0 0.014995030962709986 2.725271027651715e-05 0 0.014997986676164901 1.5888731603305624e-05 0 0.01500294495373931 1.223394601584533e-06 0 0.015000019519184064 5.909104944292346e-09 0 0.015001449716678855 1.3805656973454331e-05 0 0.014992785581075503 5.6475886235841688e-05 0 0.014999338520278301 4.1616473854798508e-05 0 0.015001449716678855 1.3805656973454331e-05 0 0.014992294130491071 4.8602538855462902e-05 0 0.014992785581075503 5.6475886235841688e-05 0 0.014999338520278301 4.1616473854798508e-05 0 0.01499781975887865 3.4606364542020255e-05 0 0.015001449716678855 1.3805656973454331e-05 0 0.014998000197209914 1.5589385673068527e-05 0 0.014999338520278301 4.1616473854798508e-05 0 0.01499781975887865 3.4606364542020255e-05 0 0.015001449716678855 1.3805656973454331e-05 0 0.014999338520278301 4.1616473854798508e-05 0 0.01499781975887865 3.4606364542020255e-05 0 0.014998934527190437 4.361309638078108e-05 0 0.015000019519184064 5.909104944292346e-09 0 0.015001449716678855 1.3805656973454331e-05 0 0.014999987697011184 1.9846099698732721e-08 0 0.015001449716678855 1.3805656973454331e-05 0 0.014999987697011184 1.9846099698732721e-08 0 0.014998000197209914 1.5589385673068527e-05 0 0.014999987697011184 1.9846099698732721e-08 0 0.014998431280480706 1.3750219494036487e-05 0 0.014998000197209914 1.5589385673068527e-05 0 0.014999987697011184 1.9846099698732721e-08 0 0.014998431280480706 1.3750219494036487e-05 0 0.015000020114546037 3.1366123793574138e-08 0 0.014998431280480706 1.3750219494036487e-05 0 0.014998000197209914 1.5589385673068527e-05 0 0.014993529154830831 2.5142124697947712e-05 0 0.014998431280480706 1.3750219494036487e-05 0 0.015000020114546037 3.1366123793574138e-08 0 0.015003491100825838 2.5464803042892815e-05 0 0.014998431280480706 1.3750219494036487e-05 0 0.015003491100825838 2.5464803042892815e-05 0 0.014993529154830831 2.5142124697947712e-05 0 0.015003491100825838 2.5464803042892815e-05 0 0.014993529154830831 2.5142124697947712e-05 0 0.014983326134621932 4.0280265780246424e-05 0 0.015003491100825838 2.5464803042892815e-05 0 0.014983326134621932 4.0280265780246424e-05 0 0.014953718846043105 5.8684347437086739e-05 0 0.01499781975887865 3.4606364542020255e-05 0 0.014998000197209914 1.5589385673068527e-05 0 0.014993529154830831 2.5142124697947712e-05 0 0.014993529154830831 2.5142124697947712e-05 0 0.014989547472497403 4.2406618788089474e-05 0 0.014983326134621932 4.0280265780246424e-05 0 0.01499781975887865 3.4606364542020255e-05 0 0.014993529154830831 2.5142124697947712e-05 0 0.014989547472497403 4.2406618788089474e-05 0 0.014989547472497403 4.2406618788089474e-05 0 0.014981843450882465 6.0421069053997752e-05 0 0.014995583507416629 4.8972078793770931e-05 0 0.014989547472497403 4.2406618788089474e-05 0 0.014969504721134237 6.1579893428545109e-05 0 0.014981843450882465 6.0421069053997752e-05 0 0.014983326134621932 4.0280265780246424e-05 0 0.014969504721134237 6.1579893428545109e-05 0 0.014953718846043105 5.8684347437086739e-05 0 0.014989547472497403 4.2406618788089474e-05 0 0.014983326134621932 4.0280265780246424e-05 0 0.014969504721134237 6.1579893428545109e-05 0 0.014969504721134237 6.1579893428545109e-05 0 0.014981843450882465 6.0421069053997752e-05 0 0.014947347278640357 0.00010168399401376597 0 0.014969504721134237 6.1579893428545109e-05 0 0.014955279007545111 8.1402501559925229e-05 0 0.014947347278640357 0.00010168399401376597 0 0.014981843450882465 6.0421069053997752e-05 0 0.014999189291930842 6.4478944956358498e-05 0 0.014947347278640357 0.00010168399401376597 0 0.014981843450882465 6.0421069053997752e-05 0 0.014995583507416629 4.8972078793770931e-05 0 0.014999189291930842 6.4478944956358498e-05 0 0.014997449373096317 4.5996050101414003e-05 0 0.014995583507416629 4.8972078793770931e-05 0 0.014999189291930842 6.4478944956358498e-05 0 0.014778167290565657 0.00013593292852956718 0 0.014876542906110431 0.00012556363452702546 0 0.014989661382369594 3.2746695768757341e-05 0 0.014997449373096317 4.5996050101414003e-05 0 0.014999189291930842 6.4478944956358498e-05 0 0.014989661382369594 3.2746695768757341e-05 0 0.014997449373096317 4.5996050101414003e-05 0 0.014992509905310954 4.0154467779284277e-05 0 0.014997449373096317 4.5996050101414003e-05 0 0.014992509905310954 4.0154467779284277e-05 0 0.014998934527190437 4.361309638078108e-05 0 0.014992294130491071 4.8602538855462902e-05 0 0.014992509905310954 4.0154467779284277e-05 0 0.014998934527190437 4.361309638078108e-05 0 0.014992294130491071 4.8602538855462902e-05 0 0.014999338520278301 4.1616473854798508e-05 0 0.014998934527190437 4.361309638078108e-05 0 0.01499781975887865 3.4606364542020255e-05 0 0.014989547472497403 4.2406618788089474e-05 0 0.014995583507416629 4.8972078793770931e-05 0 0.01499781975887865 3.4606364542020255e-05 0 0.014998934527190437 4.361309638078108e-05 0 0.014995583507416629 4.8972078793770931e-05 0 0.014997449373096317 4.5996050101414003e-05 0 0.014998934527190437 4.361309638078108e-05 0 0.014995583507416629 4.8972078793770931e-05 0 0.014968979282803975 5.8861241116659751e-05 0 0.015000037757769008 5.4805089586765721e-08 0 0.014894806008838425 4.0079882246765078e-05 0 0.014968979282803975 5.8861241116659751e-05 0 0.015000037757769008 5.4805089586765721e-08 0 0.014999991206378164 1.6567170795035626e-08 0 0.014968979282803975 5.8861241116659751e-05 0 0.015015362672750847 5.07693677928222e-05 0 0.014999991206378164 1.6567170795035626e-08 0 0.014968979282803975 5.8861241116659751e-05 0 0.015015362672750847 5.07693677928222e-05 0 0.01501788562951583 0.00014602246636378685 0 0.015000020114546037 3.1366123793574138e-08 0 0.015003491100825838 2.5464803042892815e-05 0 0.015015362672750847 5.07693677928222e-05 0 0.015000020114546037 3.1366123793574138e-08 0 0.015015362672750847 5.07693677928222e-05 0 0.014999991206378164 1.6567170795035626e-08 0 0.015005306272922205 4.4637747326679679e-05 0 0.014984361873802001 6.1501282248937919e-05 0 0.015003491100825838 2.5464803042892815e-05 0 0.015015362672750847 5.07693677928222e-05 0 0.015042908973097234 0.00011544129572001393 0 0.014969504721134237 6.1579893428545109e-05 0 0.014953718846043105 5.8684347437086739e-05 0 0.014955279007545111 8.1402501559925229e-05 0 0.014953718846043105 5.8684347437086739e-05 0 0.014955279007545111 8.1402501559925229e-05 0 0.014958141739380169 8.4761200020330808e-05 0 0.014984361873802001 6.1501282248937919e-05 0 0.015108868292053119 0.00025480331632435425 0 0.015024747668801923 0.00016180823501616692 0 0.015108868292053119 0.00025480331632435425 0 0.015042908973097234 0.00011544129572001393 0 0.01501788562951583 0.00014602246636378685 0 0.015032951240562652 0.00016151199485916879 0 0.01501788562951583 0.00014602246636378685 0 0.014982732410062146 0.000419370193274905 0 0.015181806236290786 0.00039862012472594526 0 0.015015362672750847 5.07693677928222e-05 0 0.015042908973097234 0.00011544129572001393 0 0.01501788562951583 0.00014602246636378685 0 0.014968979282803975 5.8861241116659751e-05 0 0.01501788562951583 0.00014602246636378685 0 0.014917148005750161 0.00015715391742260822 0 0.01501788562951583 0.00014602246636378685 0 0.014894608396307832 0.00028914145110254326 0 0.014917148005750161 0.00015715391742260822 0 0.01501788562951583 0.00014602246636378685 0 0.014894608396307832 0.00028914145110254326 0 0.014982732410062146 0.000419370193274905 0 0.014894608396307832 0.00028914145110254326 0 0.014808453761705009 0.00043254035853281165 0 0.01477897919439906 0.000300451119477669 0 0.014894608396307832 0.00028914145110254326 0 0.014917148005750161 0.00015715391742260822 0 0.01477897919439906 0.000300451119477669 0 0.014968979282803975 5.8861241116659751e-05 0 0.014917148005750161 0.00015715391742260822 0 0.014835017904200854 0.0001503283544827602 0 0.01487766201771063 0.00055928452021109898 0 0.014808453761705009 0.00043254035853281165 0 0.014677428477376903 0.00064033030686059243 0 0.01487766201771063 0.00055928452021109898 0 0.014819159367678631 0.00074091834136021768 0 0.014677428477376903 0.00064033030686059243 0 0.01487766201771063 0.00055928452021109898 0 0.014940135761692274 0.0006749581110673075 0 0.014819159367678631 0.00074091834136021768 0 0.01487766201771063 0.00055928452021109898 0 0.014808453761705009 0.00043254035853281165 0 0.014982732410062146 0.000419370193274905 0 0.014894608396307832 0.00028914145110254326 0 0.014808453761705009 0.00043254035853281165 0 0.014982732410062146 0.000419370193274905 0 0.014982732410062146 0.000419370193274905 0 0.014997528814656999 0.00058545184495358731 0 0.015123722978987673 0.00055081265154156378 0 0.01487766201771063 0.00055928452021109898 0 0.014982732410062146 0.000419370193274905 0 0.014997528814656999 0.00058545184495358731 0 0.01487766201771063 0.00055928452021109898 0 0.014997528814656999 0.00058545184495358731 0 0.014940135761692274 0.0006749581110673075 0 0.014997528814656999 0.00058545184495358731 0 0.015058897225241188 0.00071245827679838338 0 0.014940135761692274 0.0006749581110673075 0 0.014997528814656999 0.00058545184495358731 0 0.015123722978987673 0.00055081265154156378 0 0.015058897225241188 0.00071245827679838338 0 0.015114597832794783 0.00056859862711360705 0 0.015308966811350985 0.0006702478148305533 0 0.015161624738047294 0.00068493474475288425 0 0.015114597832794783 0.00056859862711360705 0 0.015170752156430352 0.0004254672869985952 0 0.015308966811350985 0.0006702478148305533 0 0.015114597832794783 0.00056859862711360705 0 0.015161624738047294 0.00068493474475288425 0 0.015058897225241188 0.00071245827679838338 0 0.015107234518181908 0.00058006169044296819 0 0.015068833444604246 0.00068595447842060523 0 0.014982732410062146 0.000419370193274905 0 0.015123722978987673 0.00055081265154156378 0 0.015181806236290786 0.00039862012472594526 0 0.015107234518181908 0.00058006169044296819 0 0.015108868292053119 0.00025480331632435425 0 0.014955279007545111 8.1402501559925229e-05 0 0.014958141739380169 8.4761200020330808e-05 0 0.014954419136805296 7.8053455098694156e-05 0 0.014958141739380169 8.4761200020330808e-05 0 0.014954419136805296 7.8053455098694156e-05 0 0.014958775842520476 5.4270335065426794e-05 0 0.015108868292053119 0.00025480331632435425 0 0.014834576089177699 0.00043440784194117763 0 0.014834576089177699 0.00043440784194117763 0 0.014547847031760713 0.00061607016878904603 0 0.014271734342968917 0.0010976594391802767 0 0.014228996621490764 0.0011612960190651995 0 0.014259545697858074 0.0011516071613007868 0 0.014228996621490764 0.0011612960190651995 0 0.014259545697858074 0.0011516071613007868 0 0.014238377340730964 0.0011910328280982467 0 0.014259545697858074 0.0011516071613007868 0 0.014238377340730964 0.0011910328280982467 0 0.014305299958513883 0.0011519853889965666 0 0.014271734342968917 0.0010976594391802767 0 0.014259545697858074 0.0011516071613007868 0 0.014305299958513883 0.0011519853889965666 0 0.014254738842625517 0.0011518305861320747 0 0.014209810502082761 0.0011579545771253595 0 0.014270456411873781 0.0011115861162142684 0 0.014254738842625517 0.0011518305861320747 0 0.014226391093657996 0.001180796028003102 0 0.014209810502082761 0.0011579545771253595 0 0.014254738842625517 0.0011518305861320747 0 0.014226391093657996 0.001180796028003102 0 0.014295208254794625 0.0011567112333763453 0 0.014154011674902345 0.0012061751801998332 0 0.014547847031760713 0.00061607016878904603 0 0.014162661708090916 0.0011838301572249877 0 0.01423808382790862 0.00073580325348079152 0 0.014162661708090916 0.0011838301572249877 0 0.014187783181007179 0.0011914176363874598 0 0.014226391093657996 0.001180796028003102 0 0.014209810502082761 0.0011579545771253595 0 0.014179433042321546 0.0011968890774555637 0 0.014238377340730964 0.0011910328280982467 0 0.014195354137262089 0.0011900973374995472 0 0.01419936797357093 0.0011839907623207404 0 0.014228996621490764 0.0011612960190651995 0 0.014238377340730964 0.0011910328280982467 0 0.01419936797357093 0.0011839907623207404 0 0.014154011674902345 0.0012061751801998332 0 0.014210718214417292 0.0011792690545116774 0 0.014238377340730964 0.0011910328280982467 0 0.014195354137262089 0.0011900973374995472 0 0.01418124961143208 0.0011963322585008267 0 0.014209810502082761 0.0011579545771253595 0 0.01418124961143208 0.0011963322585008267 0 0.014179433042321546 0.0011968890774555637 0 0.014195354137262089 0.0011900973374995472 0 0.01418124961143208 0.0011963322585008267 0 0.014185497487724482 0.0011937086331653545 0 0.014195354137262089 0.0011900973374995472 0 0.01419936797357093 0.0011839907623207404 0 0.014185497487724482 0.0011937086331653545 0 0.01419936797357093 0.0011839907623207404 0 0.014180807571932841 0.0011795114420496014 0 0.014185497487724482 0.0011937086331653545 0 0.014271734342968917 0.0010976594391802767 0 0.014228996621490764 0.0011612960190651995 0 0.014180807571932841 0.0011795114420496014 0 0.014834576089177699 0.00043440784194117763 0 0.014607686789176793 0.0010664768051823134 0 0.015308966811350985 0.0006702478148305533 0 0.015083152480437362 0.00081088507524516601 0 0.015161624738047294 0.00068493474475288425 0 0.014228996621490764 0.0011612960190651995 0 0.01419936797357093 0.0011839907623207404 0 0.014180807571932841 0.0011795114420496014 0 0.015083152480437362 0.00081088507524516601 0 0.015161624738047294 0.00068493474475288425 0 0.015058897225241188 0.00071245827679838338 0 0.015058897225241188 0.00071245827679838338 0 0.014940135761692274 0.0006749581110673075 0 0.014947634352597924 0.00078466109542110827 0 0.014940135761692274 0.0006749581110673075 0 0.014947634352597924 0.00078466109542110827 0 0.014819159367678631 0.00074091834136021768 0 0.015083152480437362 0.00081088507524516601 0 0.015058897225241188 0.00071245827679838338 0 0.014947634352597924 0.00078466109542110827 0 0.014607686789176793 0.0010664768051823134 0 0.014519114768184811 0.0010819241039336108 0 0.014185497487724482 0.0011937086331653545 0 0.014222138793300971 0.0012176858589036993 0 0.014188745258160362 0.0011961030921253891 0 0.015083152480437362 0.00081088507524516601 0 0.014947634352597924 0.00078466109542110827 0 0.014804917073792641 0.00098527696032819283 0 0.014180807571932841 0.0011795114420496014 0 0.014185497487724482 0.0011937086331653545 0 0.014222138793300971 0.0012176858589036993 0 0.01418124961143208 0.0011963322585008267 0 0.014185497487724482 0.0011937086331653545 0 0.014188745258160362 0.0011961030921253891 0 0.014804917073792641 0.00098527696032819283 0 0.014819159367678631 0.00074091834136021768 0 0.014624809607667476 0.00085062561270394512 0 0.014947634352597924 0.00078466109542110827 0 0.014804917073792641 0.00098527696032819283 0 0.014819159367678631 0.00074091834136021768 0 0.014666628886236309 0.00010797283981476892 0 0.014629784634047436 0.00013570240008911117 0 0.014585263991364832 0.00015314363716407943 0 0.014619072021893701 0.00014665488206007184 0 0.014603341598644133 0.00014703243748249959 0 0.014597509875826305 0.00014339691595580877 0 0.014619072021893701 0.00014665488206007184 0 0.014603341598644133 0.00014703243748249959 0 0.014586700782635161 0.00021057424846418683 0 0.014619072021893701 0.00014665488206007184 0 0.014753792379729964 0.00019815906906076863 0 0.014769298280027118 4.1399881234867394e-05 0 0.014753792379729964 0.00019815906906076863 0 0.014867201039403729 6.9920831507530712e-05 0 0.014769298280027118 4.1399881234867394e-05 0 0.014619072021893701 0.00014665488206007184 0 0.014753792379729964 0.00019815906906076863 0 0.014876542906110431 0.00012556363452702546 0 0.014938056694311613 0.00010769100976645755 0 0.014947347278640357 0.00010168399401376597 0 0.014928602935741166 4.9727345005139929e-05 0 0.014867201039403729 6.9920831507530712e-05 0 0.014753792379729964 0.00019815906906076863 0 0.014947347278640357 0.00010168399401376597 0 0.014867201039403729 6.9920831507530712e-05 0 0.014954419136805296 7.8053455098694156e-05 0 0.014947347278640357 0.00010168399401376597 0 0.014928602935741166 4.9727345005139929e-05 0 0.014955279007545111 8.1402501559925229e-05 0 0.014954419136805296 7.8053455098694156e-05 0 0.014947347278640357 0.00010168399401376597 0 0.014986840196343141 1.1903692194623774e-05 0 0.014928602935741166 4.9727345005139929e-05 0 0.014943622868333667 7.4588017219216585e-06 0 0.014834576089177699 0.00043440784194117763 0 0.015022053316949877 -2.0398895160524692e-05 0 0.014954419136805296 7.8053455098694156e-05 0 0.014958775842520476 5.4270335065426794e-05 0 0.014928602935741166 4.9727345005139929e-05 0 0.014928602935741166 4.9727345005139929e-05 0 0.014891387811986819 -1.4353794584347702e-06 0 0.014943622868333667 7.4588017219216585e-06 0 0.014769298280027118 4.1399881234867394e-05 0 0.014867201039403729 6.9920831507530712e-05 0 0.014891387811986819 -1.4353794584347702e-06 0 0.014928602935741166 4.9727345005139929e-05 0 0.014867201039403729 6.9920831507530712e-05 0 0.014891387811986819 -1.4353794584347702e-06 0 0.014666628886236309 0.00010797283981476892 0 0.014793385482751605 1.1510043648013596e-05 0 0.014597509875826305 0.00014339691595580877 0 0.014587016417551158 0.00016956291367683455 0 0.014569243899294237 0.00015376124646112842 0 0.014587016417551158 0.00016956291367683455 0 0.014569243899294237 0.00015376124646112842 0 0.014555493837635963 0.00017446975220874474 0 0.014891387811986819 -1.4353794584347702e-06 0 0.014943622868333667 7.4588017219216585e-06 0 0.014962879704986408 -2.8203532991604008e-05 0 0.014569243899294237 0.00015376124646112842 0 0.014555493837635963 0.00017446975220874474 0 0.014530253228104532 0.00017741966788113996 0 0.014793385482751605 1.1510043648013596e-05 0 0.014547847031760713 0.00061607016878904603 0 0.014986840196343141 1.1903692194623774e-05 0 0.014943622868333667 7.4588017219216585e-06 0 0.014962879704986408 -2.8203532991604008e-05 0 0.014555493837635963 0.00017446975220874474 0 0.014530253228104532 0.00017741966788113996 0 0.014541576029559373 0.00019834681891131979 0 0.013859656229766424 0.00040332187578937385 0 0.013993299900603667 0.00045202319645653211 0 0.013940810486540419 0.00055107106506125335 0 0.014142790303180499 0.0011959107110005157 0 0.014145759317243541 0.0011913159429474229 0 0.014136155315462889 0.0011854903169474028 0 0.01423808382790862 0.00073580325348079152 0 0.014034860551078407 0.00086109195656389897 0 0.014547847031760713 0.00061607016878904603 0 0.01423808382790862 0.00073580325348079152 0 0.014254738842625517 0.0011518305861320747 0 0.014270456411873781 0.0011115861162142684 0 0.014295208254794625 0.0011567112333763453 0 0.014153177867431203 0.001197483345172902 0 0.014142790303180499 0.0011959107110005157 0 0.014145759317243541 0.0011913159429474229 0 0.014587016417551158 0.00016956291367683455 0 0.014555493837635963 0.00017446975220874474 0 0.014541576029559373 0.00019834681891131979 0 0.014341555885860191 0.00019122184928531592 0 0.01423808382790862 0.00073580325348079152 0 0.014084475074715433 0.00031819835738651828 0 0.013859656229766424 0.00040332187578937385 0 0.013993299900603667 0.00045202319645653211 0 0.014084475074715433 0.00031819835738651828 0 0.013993299900603667 0.00045202319645653211 0 0.014089227948820709 0.00053541782799195923 0 0.014084475074715433 0.00031819835738651828 0 0.014257621138262924 0.00040968784350655242 0 0.014089227948820709 0.00053541782799195923 0 0.014084475074715433 0.00031819835738651828 0 0.01431549873678576 0.00023298639175426357 0 0.014257621138262924 0.00040968784350655242 0 0.014341555885860191 0.00019122184928531592 0 0.01445621577642869 0.00019841617975448024 0 0.014597509875826305 0.00014339691595580877 0 0.014587016417551158 0.00016956291367683455 0 0.014603341598644133 0.00014703243748249959 0 0.014481313206283573 0.00031168570023723297 0 0.01431549873678576 0.00023298639175426357 0 0.014257621138262924 0.00040968784350655242 0 0.013104548440512108 0.0009147088806532416 0 0.013222492184703463 0.00084300786632722578 0 0.013196357990883981 0.00098436364823676703 0 0.014257621138262924 0.00040968784350655242 0 0.014226451641364397 0.00059455877546922304 0 0.014433739713157078 0.00048122816717024108 0 0.013614137451685595 0.00074060068004132491 0 0.013838022195256349 0.00067476960968549781 0 0.013109981537134323 0.0010176545599905637 0 0.013104548440512108 0.0009147088806532416 0 0.013196357990883981 0.00098436364823676703 0 0.013109981537134323 0.0010176545599905637 0 0.012997484782177106 0.00097799322228918979 0 0.013043861667979556 0.0010709928199564491 0 0.013109981537134323 0.0010176545599905637 0 0.013104548440512108 0.0009147088806532416 0 0.012997484782177106 0.00097799322228918979 0 0.013614137451685595 0.00074060068004132491 0 0.013835952225558305 0.0010585216405628733 0 0.014089227948820709 0.00053541782799195923 0 0.014226451641364397 0.00059455877546922304 0 0.014022337151380558 0.00070243543670100463 0 0.014257621138262924 0.00040968784350655242 0 0.014089227948820709 0.00053541782799195923 0 0.014226451641364397 0.00059455877546922304 0 0.014034860551078407 0.00086109195656389897 0 0.013835952225558305 0.0010585216405628733 0 0.014089227948820709 0.00053541782799195923 0 0.013940810486540419 0.00055107106506125335 0 0.014022337151380558 0.00070243543670100463 0 0.013993299900603667 0.00045202319645653211 0 0.014089227948820709 0.00053541782799195923 0 0.013940810486540419 0.00055107106506125335 0 0.014145759317243541 0.0011913159429474229 0 0.014136155315462889 0.0011854903169474028 0 0.014144738063238127 0.001185083249755208 0 0.014145759317243541 0.0011913159429474229 0 0.014144738063238127 0.001185083249755208 0 0.014151269960281368 0.0011881989506146108 0 0.014136155315462889 0.0011854903169474028 0 0.014144738063238127 0.001185083249755208 0 0.014140641698427469 0.0011782857685381997 0 0.014144738063238127 0.001185083249755208 0 0.014140641698427469 0.0011782857685381997 0 0.014149198003940145 0.0011800226510565682 0 0.014140641698427469 0.0011782857685381997 0 0.014145082892034713 0.0011709609983606881 0 0.014149198003940145 0.0011800226510565682 0 0.014140641698427469 0.0011782857685381997 0 0.014128705928489161 0.0011743605996156641 0 0.014145082892034713 0.0011709609983606881 0 0.014136155315462889 0.0011854903169474028 0 0.014140641698427469 0.0011782857685381997 0 0.014128705928489161 0.0011743605996156641 0 0.013835952225558305 0.0010585216405628733 0 0.014128000672884843 0.001202052721552768 0 0.013835952225558305 0.0010585216405628733 0 0.013207397740657541 0.0012869234820263684 0 0.014052298582068076 0.001232703212150122 0 0.014050807323552007 0.0012454299721247233 0 0.014058141647440445 0.0012438114249658722 0 0.014052298582068076 0.001232703212150122 0 0.014050807323552007 0.0012454299721247233 0 0.014043747185750046 0.0012384588302933514 0 0.014050807323552007 0.0012454299721247233 0 0.014043747185750046 0.0012384588302933514 0 0.014040646649622113 0.0012502657101580519 0 0.014050807323552007 0.0012454299721247233 0 0.014040646649622113 0.0012502657101580519 0 0.01406061264560291 0.0012707011636224541 0 0.013207397740657541 0.0012869234820263684 0 0.013511164218541857 0.0013698756181624485 0 0.014050807323552007 0.0012454299721247233 0 0.014058141647440445 0.0012438114249658722 0 0.01406061264560291 0.0012707011636224541 0 0.012747139567672152 0.0015684013421737903 0 0.012759153525188853 0.0013978886404135058 0 0.01289910900428538 0.0014229500294468626 0 0.012747139567672152 0.0015684013421737903 0 0.012782428836453462 0.0016264787159074774 0 0.01289910900428538 0.0014229500294468626 0 0.012947864060951164 0.0013114901317136042 0 0.012931883715040915 0.0012865857209724395 0 0.013064383661603583 0.0011120180489853841 0 0.013131192710640572 0.0012383125463425867 0 0.013192495794476424 0.0010996376064871265 0 0.013109981537134323 0.0010176545599905637 0 0.013064383661603583 0.0011120180489853841 0 0.013192495794476424 0.0010996376064871265 0 0.013109981537134323 0.0010176545599905637 0 0.013196357990883981 0.00098436364823676703 0 0.013192495794476424 0.0010996376064871265 0 0.013109981537134323 0.0010176545599905637 0 0.013064383661603583 0.0011120180489853841 0 0.013043861667979556 0.0010709928199564491 0 0.012947864060951164 0.0013114901317136042 0 0.013207397740657541 0.0012869234820263684 0 0.014246843606185821 0.0011578201798238966 0 0.014172434703329838 0.0011762779306090899 0 0.014212530360025228 0.0011716349964494062 0 0.014222138793300971 0.0012176858589036993 0 0.014246843606185821 0.0011578201798238966 0 0.014191685715996811 0.0011840926677474039 0 0.014222138793300971 0.0012176858589036993 0 0.014191685715996811 0.0011840926677474039 0 0.014188745258160362 0.0011961030921253891 0 0.014191685715996811 0.0011840926677474039 0 0.014179982318084388 0.0011904301060445654 0 0.014188745258160362 0.0011961030921253891 0 0.01418124961143208 0.0011963322585008267 0 0.014179982318084388 0.0011904301060445654 0 0.014188745258160362 0.0011961030921253891 0 0.014191685715996811 0.0011840926677474039 0 0.014179982318084388 0.0011904301060445654 0 0.014169621186468242 0.0011822408690338804 0 0.014172434703329838 0.0011762779306090899 0 0.014154081647815715 0.0011762103060616695 0 0.014169621186468242 0.0011822408690338804 0 0.014246843606185821 0.0011578201798238966 0 0.014191685715996811 0.0011840926677474039 0 0.014172434703329838 0.0011762779306090899 0 0.014191685715996811 0.0011840926677474039 0 0.014172434703329838 0.0011762779306090899 0 0.014169621186468242 0.0011822408690338804 0 0.014172434703329838 0.0011762779306090899 0 0.014154081647815715 0.0011762103060616695 0 0.014139964638396358 0.0011793024810990442 0 0.014154081647815715 0.0011762103060616695 0 0.014140291282733029 0.0011721899028885854 0 0.014139964638396358 0.0011793024810990442 0 0.014154081647815715 0.0011762103060616695 0 0.014155359053606185 0.0011763111874617011 0 0.014140291282733029 0.0011721899028885854 0 0.014155359053606185 0.0011763111874617011 0 0.014151766044341983 0.0011729517820301878 0 0.014140291282733029 0.0011721899028885854 0 0.014155359053606185 0.0011763111874617011 0 0.01415626299023157 0.0011785653331005989 0 0.014151766044341983 0.0011729517820301878 0 0.014155359053606185 0.0011763111874617011 0 0.014164173036638366 0.0011830570775833524 0 0.01415626299023157 0.0011785653331005989 0 0.014154081647815715 0.0011762103060616695 0 0.014155359053606185 0.0011763111874617011 0 0.014169621186468242 0.0011822408690338804 0 0.014155359053606185 0.0011763111874617011 0 0.014169621186468242 0.0011822408690338804 0 0.014164173036638366 0.0011830570775833524 0 0.014179982318084388 0.0011904301060445654 0 0.014169621186468242 0.0011822408690338804 0 0.014174788676764345 0.0011905905811626556 0 0.014169621186468242 0.0011822408690338804 0 0.014174788676764345 0.0011905905811626556 0 0.014164173036638366 0.0011830570775833524 0 0.01418124961143208 0.0011963322585008267 0 0.014179982318084388 0.0011904301060445654 0 0.014174788676764345 0.0011905905811626556 0 0.01418124961143208 0.0011963322585008267 0 0.014174788676764345 0.0011905905811626556 0 0.014179433042321546 0.0011968890774555637 0 0.014179433042321546 0.0011968890774555637 0 0.014168465892829907 0.0011886737748598951 0 0.014161383377858713 0.0011901993902170059 0 0.014174788676764345 0.0011905905811626556 0 0.014179433042321546 0.0011968890774555637 0 0.014168465892829907 0.0011886737748598951 0 0.014168465892829907 0.0011886737748598951 0 0.014161686259495414 0.0011843726720831987 0 0.014161383377858713 0.0011901993902170059 0 0.014168465892829907 0.0011886737748598951 0 0.014161686259495414 0.0011843726720831987 0 0.014164173036638366 0.0011830570775833524 0 0.014174788676764345 0.0011905905811626556 0 0.014168465892829907 0.0011886737748598951 0 0.014164173036638366 0.0011830570775833524 0 0.014161686259495414 0.0011843726720831987 0 0.014164173036638366 0.0011830570775833524 0 0.01415626299023157 0.0011785653331005989 0 0.014156324053924719 0.00118440983740615 0 0.014149198003940145 0.0011800226510565682 0 0.01415626299023157 0.0011785653331005989 0 0.014161686259495414 0.0011843726720831987 0 0.014156324053924719 0.00118440983740615 0 0.01415626299023157 0.0011785653331005989 0 0.014161686259495414 0.0011843726720831987 0 0.014156324053924719 0.00118440983740615 0 0.014161383377858713 0.0011901993902170059 0 0.014153177867431203 0.001197483345172902 0 0.014179433042321546 0.0011968890774555637 0 0.014161383377858713 0.0011901993902170059 0 0.014156324053924719 0.00118440983740615 0 0.014161383377858713 0.0011901993902170059 0 0.014151269960281368 0.0011881989506146108 0 0.014153177867431203 0.001197483345172902 0 0.014161383377858713 0.0011901993902170059 0 0.014151269960281368 0.0011881989506146108 0 0.014153177867431203 0.001197483345172902 0 0.014145759317243541 0.0011913159429474229 0 0.014151269960281368 0.0011881989506146108 0 0.014156324053924719 0.00118440983740615 0 0.014151269960281368 0.0011881989506146108 0 0.014149198003940145 0.0011800226510565682 0 0.014144738063238127 0.001185083249755208 0 0.014151269960281368 0.0011881989506146108 0 0.014149198003940145 0.0011800226510565682 0 0.014151766044341983 0.0011729517820301878 0 0.014152334876850246 0.0011746640982610859 0 0.014159680165216544 0.0011773075271616542 0 0.014145082892034713 0.0011709609983606881 0 0.014149198003940145 0.0011800226510565682 0 0.014152334876850246 0.0011746640982610859 0 0.014149198003940145 0.0011800226510565682 0 0.01415626299023157 0.0011785653331005989 0 0.014152334876850246 0.0011746640982610859 0 0.01415626299023157 0.0011785653331005989 0 0.014151766044341983 0.0011729517820301878 0 0.014152334876850246 0.0011746640982610859 0 0.014043747185750046 0.0012384588302933514 0 0.014040646649622113 0.0012502657101580519 0 0.014033084040492791 0.0012445382486311488 0 0.014128000672884843 0.001202052721552768 0 0.014086609193509285 0.0012124540033651905 0 0.014145082892034713 0.0011709609983606881 0 0.014152334876850246 0.0011746640982610859 0 0.014159680165216544 0.0011773075271616542 0 0.014040646649622113 0.0012502657101580519 0 0.014030291856944493 0.0012459484628826096 0 0.014031570390179479 0.0012770899107264343 0 0.014040646649622113 0.0012502657101580519 0 0.014033084040492791 0.0012445382486311488 0 0.014030291856944493 0.0012459484628826096 0 0.014030291856944493 0.0012459484628826096 0 0.014054366852364521 0.0012204173236161036 0 0.013991888854886428 0.001276170360388406 0 0.014033084040492791 0.0012445382486311488 0 0.014030291856944493 0.0012459484628826096 0 0.014054366852364521 0.0012204173236161036 0 0.014086609193509285 0.0012124540033651905 0 0.01406185768122096 0.001220125425701964 0 0.014159680165216544 0.0011773075271616542 0 0.014054366852364521 0.0012204173236161036 0 0.01409987679671479 0.0011807144576466966 0 0.014159680165216544 0.0011773075271616542 0 0.01409987679671479 0.0011807144576466966 0 0.014140291282733029 0.0011721899028885854 0 0.014151766044341983 0.0011729517820301878 0 0.014159680165216544 0.0011773075271616542 0 0.014140291282733029 0.0011721899028885854 0 0.01409987679671479 0.0011807144576466966 0 0.014140291282733029 0.0011721899028885854 0 0.014139964638396358 0.0011793024810990442 0 0.014172434703329838 0.0011762779306090899 0 0.014173203658190603 0.001174965125029047 0 0.014212530360025228 0.0011716349964494062 0 0.014172434703329838 0.0011762779306090899 0 0.014139964638396358 0.0011793024810990442 0 0.014173203658190603 0.001174965125029047 0 0.01409987679671479 0.0011807144576466966 0 0.014139964638396358 0.0011793024810990442 0 0.014173203658190603 0.001174965125029047 0 0.01409987679671479 0.0011807144576466966 0 0.014173203658190603 0.001174965125029047 0 0.014193567445404148 0.0011558278293874822 0 0.014054366852364521 0.0012204173236161036 0 0.01409987679671479 0.0011807144576466966 0 0.013916614337660314 0.0012824695007689426 0 0.014091187518967365 0.0011869279112049552 0 0.01405730063253084 0.0012231897218872765 0 0.014054366852364521 0.0012204173236161036 0 0.013916614337660314 0.0012824695007689426 0 0.013991888854886428 0.001276170360388406 0 0.01419830881372036 0.0011668017022808765 0 0.014191342015075053 0.0011725690254128849 0 0.014193567445404148 0.0011558278293874822 0 0.014173203658190603 0.001174965125029047 0 0.01419830881372036 0.0011668017022808765 0 0.014193567445404148 0.0011558278293874822 0 0.01419830881372036 0.0011668017022808765 0 0.014212530360025228 0.0011716349964494062 0 0.01420287959953603 0.0011752095118584068 0 0.01419830881372036 0.0011668017022808765 0 0.014191342015075053 0.0011725690254128849 0 0.01420287959953603 0.0011752095118584068 0 0.014173203658190603 0.001174965125029047 0 0.01419830881372036 0.0011668017022808765 0 0.014212530360025228 0.0011716349964494062 0 0.013916614337660314 0.0012824695007689426 0 0.013879208578054017 0.0013279565406312263 0 0.013945986908532227 0.0013241588797113183 0 0.013879208578054017 0.0013279565406312263 0 0.013955522174016159 0.0012119437973142114 0 0.013945986908532227 0.0013241588797113183 0 0.01405730063253084 0.0012231897218872765 0 0.014064821945358562 0.0012529540260474456 0 0.014191342015075053 0.0011725690254128849 0 0.014193567445404148 0.0011558278293874822 0 0.014180678000968682 0.0011972980612134823 0 0.013916614337660314 0.0012824695007689426 0 0.013879208578054017 0.0013279565406312263 0 0.013991888854886428 0.001276170360388406 0 0.013879208578054017 0.0013279565406312263 0 0.013992941654614894 0.0013153810767880198 0 0.013963055899700455 0.0013762224340103735 0 0.013879208578054017 0.0013279565406312263 0 0.013992941654614894 0.0013153810767880198 0 0.013991888854886428 0.001276170360388406 0 0.013992941654614894 0.0013153810767880198 0 0.013991888854886428 0.001276170360388406 0 0.014031570390179479 0.0012770899107264343 0 0.014030291856944493 0.0012459484628826096 0 0.013991888854886428 0.001276170360388406 0 0.014031570390179479 0.0012770899107264343 0 0.013992941654614894 0.0013153810767880198 0 0.014031570390179479 0.0012770899107264343 0 0.014050305280973565 0.0013324861017855697 0 0.013525730498502031 0.001114742722845853 0 0.013535564408127431 0.001285093431627632 0 0.013992941654614894 0.0013153810767880198 0 0.013963055899700455 0.0013762224340103735 0 0.014050305280973565 0.0013324861017855697 0 0.014005807013314768 0.0014137369583352294 0 0.013963055899700455 0.0013762224340103735 0 0.014050305280973565 0.0013324861017855697 0 0.013374472773579602 0.0010782832014406836 0 0.013589557491640923 0.0010639184965619752 0 0.013412833969725514 0.00097638115766454376 0 0.013525730498502031 0.001114742722845853 0 0.013459167909109703 0.00104783749062238 0 0.013589557491640923 0.0010639184965619752 0 0.013627004258286227 0.0012319169723388193 0 0.013798718782431102 0.0011245119509689537 0 0.013525730498502031 0.001114742722845853 0 0.013825914434725323 0.0013284904461971902 0 0.013374472773579602 0.0010782832014406836 0 0.013589557491640923 0.0010639184965619752 0 0.013627004258286227 0.0012319169723388193 0 0.013879208578054017 0.0013279565406312263 0 0.013627004258286227 0.0012319169723388193 0 0.013798718782431102 0.0011245119509689537 0 0.013850352716048267 0.0013140779010336187 0 0.013825914434725323 0.0013284904461971902 0 0.013798718782431102 0.0011245119509689537 0 0.013942812583035358 0.0010549070944077842 0 0.013682775098791112 0.00092864249280633516 0 0.013589557491640923 0.0010639184965619752 0 0.013798718782431102 0.0011245119509689537 0 0.013682775098791112 0.00092864249280633516 0 0.013798718782431102 0.0011245119509689537 0 0.013942812583035358 0.0010549070944077842 0 0.013955522174016159 0.0012119437973142114 0 0.013879208578054017 0.0013279565406312263 0 0.013798718782431102 0.0011245119509689537 0 0.013955522174016159 0.0012119437973142114 0 0.012767757517571796 0.0012245252342255627 0 0.012623222156131699 0.0013719636298769259 0 0.012642420246995438 0.001165800064644638 0 0.012767757517571796 0.0012245252342255627 0 0.012623222156131699 0.0013719636298769259 0 0.012759153525188853 0.0013978886404135058 0 0.012623222156131699 0.0013719636298769259 0 0.012642420246995438 0.001165800064644638 0 0.01249741902819149 0.0011685934064953566 0 0.012931883715040915 0.0012865857209724395 0 0.012418154726406252 0.0014504995523422898 0 0.012747139567672152 0.0015684013421737903 0 0.012623222156131699 0.0013719636298769259 0 0.012759153525188853 0.0013978886404135058 0 0.012767757517571796 0.0012245252342255627 0 0.012759153525188853 0.0013978886404135058 0 0.01289910900428538 0.0014229500294468626 0 0.014040646649622113 0.0012502657101580519 0 0.014031570390179479 0.0012770899107264343 0 0.01406061264560291 0.0012707011636224541 0 0.014031570390179479 0.0012770899107264343 0 0.01406061264560291 0.0012707011636224541 0 0.014050305280973565 0.0013324861017855697 0 0.013511164218541857 0.0013698756181624485 0 0.013535564408127431 0.001285093431627632 0 0.012767757517571796 0.0012245252342255627 0 0.01289910900428538 0.0014229500294468626 0 0.013019823186658497 0.0012131271025121629 0 0.012767757517571796 0.0012245252342255627 0 0.013019823186658497 0.0012131271025121629 0 0.012883195175819815 0.0010524387729587425 0 0.012767757517571796 0.0012245252342255627 0 0.012883195175819815 0.0010524387729587425 0 0.012747178398280353 0.0010397970412357187 0 0.013019823186658497 0.0012131271025121629 0 0.013011900165291189 0.0010134886189613293 0 0.012883195175819815 0.0010524387729587425 0 0.013150087448157308 0.00098985935071024996 0 0.013019823186658497 0.0012131271025121629 0 0.013011900165291189 0.0010134886189613293 0 0.013011900165291189 0.0010134886189613293 0 0.012883195175819815 0.0010524387729587425 0 0.012917492539850478 0.0009606409616630977 0 0.013011900165291189 0.0010134886189613293 0 0.012978461757856616 0.00093942105015562744 0 0.012917492539850478 0.0009606409616630977 0 0.013150087448157308 0.00098985935071024996 0 0.013011900165291189 0.0010134886189613293 0 0.013038872160037284 0.00088208867770592583 0 0.013011900165291189 0.0010134886189613293 0 0.012978461757856616 0.00093942105015562744 0 0.013038872160037284 0.00088208867770592583 0 0.012883195175819815 0.0010524387729587425 0 0.012824989395041919 0.00096384188344895841 0 0.012747178398280353 0.0010397970412357187 0 0.012883195175819815 0.0010524387729587425 0 0.012917492539850478 0.0009606409616630977 0 0.012824989395041919 0.00096384188344895841 0 0.012824989395041919 0.00096384188344895841 0 0.012743199463436746 0.00096702369776303422 0 0.012747178398280353 0.0010397970412357187 0 0.012743199463436746 0.00096702369776303422 0 0.012747178398280353 0.0010397970412357187 0 0.012617566909984263 0.0010331662406925441 0 0.012824989395041919 0.00096384188344895841 0 0.012743199463436746 0.00096702369776303422 0 0.012799915504401869 0.00090564871767120914 0 0.011742145048100051 0.0016900693985124763 0 0.011749934205529378 0.0016544405541118084 0 0.011775337563048714 0.0016336096349587623 0 0.012743199463436746 0.00096702369776303422 0 0.012617566909984263 0.0010331662406925441 0 0.012733423902659417 0.00089067872704489315 0 0.012122013222600182 0.0013894714002232705 0 0.012372158662742709 0.0011983298394992201 0 0.012767757517571796 0.0012245252342255627 0 0.012747178398280353 0.0010397970412357187 0 0.012642420246995438 0.001165800064644638 0 0.012747178398280353 0.0010397970412357187 0 0.012642420246995438 0.001165800064644638 0 0.012617566909984263 0.0010331662406925441 0 0.012122013222600182 0.0013894714002232705 0 0.012418154726406252 0.0014504995523422898 0 0.012642420246995438 0.001165800064644638 0 0.012617566909984263 0.0010331662406925441 0 0.01249741902819149 0.0011685934064953566 0 0.011276930492823259 0.0020036518285772541 0 0.011626529292864923 0.0016975418586986858 0 0.011749934205529378 0.0016544405541118084 0 0.011276930492823259 0.0020036518285772541 0 0.011346126559485088 0.0017239528635288103 0 0.011626529292864923 0.0016975418586986858 0 0.011510164285446109 0.0018434441267214962 0 0.011740171942310904 0.0016671737800011428 0 0.011742145048100051 0.0016900693985124763 0 0.01173916070863636 0.0016979224495002731 0 0.011749934205529378 0.0016544405541118084 0 0.011101867370643224 0.001789012900498503 0 0.011276930492823259 0.0020036518285772541 0 0.011346126559485088 0.0017239528635288103 0 0.011101867370643224 0.001789012900498503 0 0.011276930492823259 0.0020036518285772541 0 0.010997141467645794 0.0020144453244096169 0 0.011101867370643224 0.001789012900498503 0 0.010835806577865134 0.0018930935855604148 0 0.010826761432367988 0.0015807513796165607 0 0.011101867370643224 0.001789012900498503 0 0.010835806577865134 0.0018930935855604148 0 0.010997141467645794 0.0020144453244096169 0 0.010835806577865134 0.0018930935855604148 0 0.010997141467645794 0.0020144453244096169 0 0.010832876678517929 0.002072074489822918 0 0.010835806577865134 0.0018930935855604148 0 0.010832876678517929 0.002072074489822918 0 0.010644329875266105 0.0020649187637402093 0 0.011276930492823259 0.0020036518285772541 0 0.010997141467645794 0.0020144453244096169 0 0.010777909390002161 0.002322206947344631 0 0.010997141467645794 0.0020144453244096169 0 0.010832876678517929 0.002072074489822918 0 0.010777909390002161 0.002322206947344631 0 0.011510164285446109 0.0018434441267214962 0 0.011308605404630176 0.0020047974806387979 0 0.010832876678517929 0.002072074489822918 0 0.010777909390002161 0.002322206947344631 0 0.010644329875266105 0.0020649187637402093 0 0.01173916070863636 0.0016979224495002731 0 0.011819236321243671 0.0016627488138385629 0 0.011754563463822941 0.0016833231868281142 0 0.011742145048100051 0.0016900693985124763 0 0.01173916070863636 0.0016979224495002731 0 0.011746098637036096 0.00167939761125001 0 0.011819236321243671 0.0016627488138385629 0 0.011754563463822941 0.0016833231868281142 0 0.011744817323030853 0.00166553220716465 0 0.01173916070863636 0.0016979224495002731 0 0.011754563463822941 0.0016833231868281142 0 0.011746098637036096 0.00167939761125001 0 0.012151040017185631 0.0014790997625096288 0 0.012418154726406252 0.0014504995523422898 0 0.013131192710640572 0.0012383125463425867 0 0.013279211563868361 0.0012662271629105813 0 0.013256711772393537 0.0011779360146264588 0 0.012418154726406252 0.0014504995523422898 0 0.012537984594465203 0.0014443681426249753 0 0.013131192710640572 0.0012383125463425867 0 0.013189830141656006 0.0013582357289870048 0 0.013279211563868361 0.0012662271629105813 0 0.011819236321243671 0.0016627488138385629 0 0.011805240733919163 0.0015984927285166901 0 0.011866920096769094 0.0015788010033887633 0 0.011819236321243671 0.0016627488138385629 0 0.011744817323030853 0.00166553220716465 0 0.011805240733919163 0.0015984927285166901 0 0.013279211563868361 0.0012662271629105813 0 0.013256711772393537 0.0011779360146264588 0 0.013351096397242728 0.0011742240210579967 0 0.011908395246637723 0.001547623437871819 0 0.011928288574138482 0.0015991096981765813 0 0.011958002989744884 0.0015039421893287795 0 0.011171960089737283 0.0019690522794024931 0 0.011080322428308045 0.0020325074645381499 0 0.01113105897292057 0.0018512638120021451 0 0.011082285990154723 0.0020044925817275659 0 0.011531978473170959 0.0016863178549244334 0 0.011099243208821321 0.0019939511985942212 0 0.011082285990154723 0.0020044925817275659 0 0.011171960089737283 0.0019690522794024931 0 0.010874586154667092 0.0020246538004578896 0 0.011088381028870425 0.0020723781872781584 0 0.011908395246637723 0.001547623437871819 0 0.011883134599935197 0.0015055784347562699 0 0.011958002989744884 0.0015039421893287795 0 0.011908395246637723 0.001547623437871819 0 0.011866920096769094 0.0015788010033887633 0 0.011883134599935197 0.0015055784347562699 0 0.011805240733919163 0.0015984927285166901 0 0.011866920096769094 0.0015788010033887633 0 0.011883134599935197 0.0015055784347562699 0 0.012537984594465203 0.0014443681426249753 0 0.012667333071425453 0.0013248179059015986 0 0.011908395246637723 0.001547623437871819 0 0.011866920096769094 0.0015788010033887633 0 0.011928288574138482 0.0015991096981765813 0 0.011308605404630176 0.0020047974806387979 0 0.011082285990154723 0.0020044925817275659 0 0.011819236321243671 0.0016627488138385629 0 0.011866920096769094 0.0015788010033887633 0 0.011928288574138482 0.0015991096981765813 0 0.010777909390002161 0.002322206947344631 0 0.010357437599999759 0.0025980017500787027 0 0.010419553465742606 0.0022270437718339602 0 0.010874586154667092 0.0020246538004578896 0 0.01091472740846243 0.002227306568064451 0 0.010647270167422973 0.002390907226583249 0 0.011082285990154723 0.0020044925817275659 0 0.01048744292939955 0.0023821409833023849 0 0.010874586154667092 0.0020246538004578896 0 0.011088381028870425 0.0020723781872781584 0 0.01091472740846243 0.002227306568064451 0 0.010647270167422973 0.002390907226583249 0 0.010713414055266168 0.0023861613487734987 0 0.010367802933951953 0.0022296272068198964 0 0.01091472740846243 0.002227306568064451 0 0.010713414055266168 0.0023861613487734987 0 0.01108711627477027 0.0023047177375942079 0 0.01091472740846243 0.002227306568064451 0 0.010647270167422973 0.002390907226583249 0 0.010713414055266168 0.0023861613487734987 0 0.010777909390002161 0.002322206947344631 0 0.010419553465742606 0.0022270437718339602 0 0.010644329875266105 0.0020649187637402093 0 0.010835806577865134 0.0018930935855604148 0 0.010464830864764267 0.0018235404252917192 0 0.010826761432367988 0.0015807513796165607 0 0.010419553465742606 0.0022270437718339602 0 0.010644329875266105 0.0020649187637402093 0 0.010464830864764267 0.0018235404252917192 0 0.01048744292939955 0.0023821409833023849 0 0.010490045343998961 0.0019453541832189964 0 0.010835806577865134 0.0018930935855604148 0 0.010644329875266105 0.0020649187637402093 0 0.010464830864764267 0.0018235404252917192 0 0.010632969915711948 0.0023226810736634552 0 0.01055137637963879 0.0023379988265614959 0 0.010713414055266168 0.0023861613487734987 0 0.010367802933951953 0.0022296272068198964 0 0.0098963147760694637 0.0021417166925865173 0 0.010647270167422973 0.002390907226583249 0 0.010503766670660497 0.0021161698096880811 0 0.010367802933951953 0.0022296272068198964 0 0.010503766670660497 0.0021161698096880811 0 0.010367802933951953 0.0022296272068198964 0 0.010135986703941023 0.0016976078059176797 0 0.010367802933951953 0.0022296272068198964 0 0.0098963147760694637 0.0021417166925865173 0 0.009936325046056833 0.0018887986690326718 0 0.011132154152942983 0.0025554394690526176 0 0.011205983173680736 0.0024434956098599741 0 0.011256683772993848 0.0025338103130901454 0 0.010713414055266168 0.0023861613487734987 0 0.011132154152942983 0.0025554394690526176 0 0.011039186106824481 0.0024334805977046011 0 0.011132154152942983 0.0025554394690526176 0 0.011205983173680736 0.0024434956098599741 0 0.011039186106824481 0.0024334805977046011 0 0.011205983173680736 0.0024434956098599741 0 0.011389572292411814 0.0024473844905558342 0 0.011256683772993848 0.0025338103130901454 0 0.011389572292411814 0.0024473844905558342 0 0.011597956308949064 0.0022213276588252621 0 0.01136677655978514 0.0022256291791822617 0 0.011205983173680736 0.0024434956098599741 0 0.011389572292411814 0.0024473844905558342 0 0.01136677655978514 0.0022256291791822617 0 0.011205983173680736 0.0024434956098599741 0 0.01108711627477027 0.0023047177375942079 0 0.01136677655978514 0.0022256291791822617 0 0.010713414055266168 0.0023861613487734987 0 0.01108711627477027 0.0023047177375942079 0 0.011039186106824481 0.0024334805977046011 0 0.011205983173680736 0.0024434956098599741 0 0.01108711627477027 0.0023047177375942079 0 0.011039186106824481 0.0024334805977046011 0 0.012162057727555624 0.0021749221615522786 0 0.01153498802895698 0.0019017299593443839 0 0.011672773098701553 0.0023650601517385423 0 0.012162057727555624 0.0021749221615522786 0 0.012025001223664889 0.0016428330490961002 0 0.01153498802895698 0.0019017299593443839 0 0.011389572292411814 0.0024473844905558342 0 0.011586333163821573 0.002412924995074246 0 0.011342376221700975 0.002504966123485363 0 0.011573541123890958 0.0021565037949546543 0 0.011361601355881787 0.0024736126063427777 0 0.011389572292411814 0.0024473844905558342 0 0.011586333163821573 0.002412924995074246 0 0.011597956308949064 0.0022213276588252621 0 0.011586333163821573 0.002412924995074246 0 0.011597956308949064 0.0022213276588252621 0 0.01180191379141347 0.0021346382489661874 0 0.011573541123890958 0.0021565037949546543 0 0.011735100024452341 0.0017590216882727241 0 0.012025001223664889 0.0016428330490961002 0 0.01153498802895698 0.0019017299593443839 0 0.011824146962672737 0.0014332235684357045 0 0.011597956308949064 0.0022213276588252621 0 0.01180191379141347 0.0021346382489661874 0 0.011640824053066365 0.0020319656431194585 0 0.01180191379141347 0.0021346382489661874 0 0.011640824053066365 0.0020319656431194585 0 0.011748529793225959 0.0019236308291235803 0 0.011640824053066365 0.0020319656431194585 0 0.011766293325829 0.001894021742682412 0 0.011748529793225959 0.0019236308291235803 0 0.012585175896433716 0.0018201720999235374 0 0.011735100024452341 0.0017590216882727241 0 0.011918836622946448 0.0019457933057422578 0 0.01180191379141347 0.0021346382489661874 0 0.011748529793225959 0.0019236308291235803 0 0.011161216294543534 0.0021713981354191765 0 0.01136677655978514 0.0022256291791822617 0 0.011387840689857032 0.0020263457673900137 0 0.011088381028870425 0.0020723781872781584 0 0.011161216294543534 0.0021713981354191765 0 0.011387840689857032 0.0020263457673900137 0 0.01091472740846243 0.002227306568064451 0 0.01108711627477027 0.0023047177375942079 0 0.011161216294543534 0.0021713981354191765 0 0.011088381028870425 0.0020723781872781584 0 0.01091472740846243 0.002227306568064451 0 0.011161216294543534 0.0021713981354191765 0 0.01108711627477027 0.0023047177375942079 0 0.011161216294543534 0.0021713981354191765 0 0.01136677655978514 0.0022256291791822617 0 0.011640824053066365 0.0020319656431194585 0 0.01136677655978514 0.0022256291791822617 0 0.011387840689857032 0.0020263457673900137 0 0.011597956308949064 0.0022213276588252621 0 0.011640824053066365 0.0020319656431194585 0 0.01136677655978514 0.0022256291791822617 0 0.011640824053066365 0.0020319656431194585 0 0.011387840689857032 0.0020263457673900137 0 0.011766293325829 0.001894021742682412 0 0.011171960089737283 0.0019690522794024931 0 0.011423868649959206 0.0018591240356546528 0 0.01113105897292057 0.0018512638120021451 0 0.011387840689857032 0.0020263457673900137 0 0.011423868649959206 0.0018591240356546528 0 0.011766293325829 0.001894021742682412 0 0.011171960089737283 0.0019690522794024931 0 0.011387840689857032 0.0020263457673900137 0 0.011423868649959206 0.0018591240356546528 0 0.011171960089737283 0.0019690522794024931 0 0.011088381028870425 0.0020723781872781584 0 0.011387840689857032 0.0020263457673900137 0 0.011423868649959206 0.0018591240356546528 0 0.011744634516043706 0.0014940579913911515 0 0.011230651940045444 0.0014926027210995473 0 0.011423868649959206 0.0018591240356546528 0 0.011766293325829 0.001894021742682412 0 0.011744634516043706 0.0014940579913911515 0 0.011744634516043706 0.0014940579913911515 0 0.012435796035658848 0.0013699035098091944 0 0.012173630795127947 0.0011388198213628548 0 0.011766293325829 0.001894021742682412 0 0.011744634516043706 0.0014940579913911515 0 0.012435796035658848 0.0013699035098091944 0 0.011744634516043706 0.0014940579913911515 0 0.011655896661102866 0.0011114004039710348 0 0.011230651940045444 0.0014926027210995473 0 0.012262549313798991 0.00099809071417962525 0 0.012378192752123363 0.0012436453435320475 0 0.013214036878989529 0.002108738308425835 0 0.012983668511989401 0.0018806328019321621 0 0.012602411551549399 0.002049300852569953 0 0.012585175896433716 0.0018201720999235374 0 0.01216803284289073 0.0019918465501149625 0 0.013177621259925599 0.0016408790883308559 0 0.012983668511989401 0.0018806328019321621 0 0.012880216573780939 0.0016021229143485035 0 0.012983668511989401 0.0018806328019321621 0 0.012602411551549399 0.002049300852569953 0 0.012880216573780939 0.0016021229143485035 0 0.012602411551549399 0.002049300852569953 0 0.012435796035658848 0.0013699035098091944 0 0.012880216573780939 0.0016021229143485035 0 0.011766293325829 0.001894021742682412 0 0.012602411551549399 0.002049300852569953 0 0.012435796035658848 0.0013699035098091944 0 0.011799456264518015 0.0019059625945562547 0 0.01216803284289073 0.0019918465501149625 0 0.012435796035658848 0.0013699035098091944 0 0.012880216573780939 0.0016021229143485035 0 0.013155800422748149 0.0010430425453692119 0 0.013177621259925599 0.0016408790883308559 0 0.012880216573780939 0.0016021229143485035 0 0.013155800422748149 0.0010430425453692119 0 0.013155800422748149 0.0010430425453692119 0 0.012699198412684101 0.00097234465250980214 0 0.013042758481761028 0.00086776722885001834 0 0.012435796035658848 0.0013699035098091944 0 0.013155800422748149 0.0010430425453692119 0 0.012699198412684101 0.00097234465250980214 0 0.012699198412684101 0.00097234465250980214 0 0.012173630795127947 0.0011388198213628548 0 0.012280394008430964 0.00077134243035946351 0 0.012435796035658848 0.0013699035098091944 0 0.012699198412684101 0.00097234465250980214 0 0.012173630795127947 0.0011388198213628548 0 0.012699198412684101 0.00097234465250980214 0 0.012898658304121211 0.00077235498095555935 0 0.012280394008430964 0.00077134243035946351 0 0.012966455957975546 0.00068057075520702856 0 0.012898658304121211 0.00077235498095555935 0 0.012280394008430964 0.00077134243035946351 0 0.012892524749557054 0.00068813874952757274 0 0.012644143376337486 0.00077112584722072446 0 0.012699198412684101 0.00097234465250980214 0 0.012898658304121211 0.00077235498095555935 0 0.013042758481761028 0.00086776722885001834 0 0.013217800370170724 0.0008963425989801108 0 0.013155800422748149 0.0010430425453692119 0 0.013042758481761028 0.00086776722885001834 0 0.013101509907094138 0.00077498119242823676 0 0.012898658304121211 0.00077235498095555935 0 0.013042758481761028 0.00086776722885001834 0 0.013217800370170724 0.0008963425989801108 0 0.013101509907094138 0.00077498119242823676 0 0.013042758481761028 0.00086776722885001834 0 0.012881174607839283 0.00080508930306629714 0 0.01294618170291926 0.00082508400580337353 0 0.012849175768430797 0.00093464724443877265 0 0.012881174607839283 0.00080508930306629714 0 0.01294618170291926 0.00082508400580337353 0 0.012950889890527999 0.00074974216131919516 0 0.011655896661102866 0.0011114004039710348 0 0.012173630795127947 0.0011388198213628548 0 0.012280394008430964 0.00077134243035946351 0 0.011744634516043706 0.0014940579913911515 0 0.011655896661102866 0.0011114004039710348 0 0.012173630795127947 0.0011388198213628548 0 0.012262549313798991 0.00099809071417962525 0 0.012644143376337486 0.00077112584722072446 0 0.01294618170291926 0.00082508400580337353 0 0.013007694361597032 0.00072925029549477857 0 0.012950889890527999 0.00074974216131919516 0 0.013018767694655459 0.00069281011090971953 0 0.013007694361597032 0.00072925029549477857 0 0.012982117046432148 0.00070414806029076211 0 0.013007694361597032 0.00072925029549477857 0 0.012982117046432148 0.00070414806029076211 0 0.012950889890527999 0.00074974216131919516 0 0.012982117046432148 0.00070414806029076211 0 0.012950889890527999 0.00074974216131919516 0 0.012919716457743835 0.00071166773064660108 0 0.013169960499577409 0.00088807281808817517 0 0.013341961990523709 0.00078391853178752589 0 0.012881174607839283 0.00080508930306629714 0 0.012950889890527999 0.00074974216131919516 0 0.012919716457743835 0.00071166773064660108 0 0.013341961990523709 0.00078391853178752589 0 0.013474165136009939 0.0010128943799667298 0 0.013745161203778267 0.00074604320267099939 0 0.013556246835250722 0.00074959723653945671 0 0.013508144358864839 0.00096356463650354082 0 0.013636171417614484 0.00067302531904966836 0 0.013745161203778267 0.00074604320267099939 0 0.013556246835250722 0.00074959723653945671 0 0.013407505720595955 0.0010521529698295379 0 0.013358917716970018 0.0010576573589880821 0 0.013395839071892308 0.0011089281058953068 0 0.013407505720595955 0.0010521529698295379 0 0.013417484198201653 0.00099201580927702664 0 0.013358917716970018 0.0010576573589880821 0 0.013452229789088051 0.0008407376972167245 0 0.013338510631886867 0.00079296003951012325 0 0.013361358830837874 0.00099079966907383962 0 0.013508144358864839 0.00096356463650354082 0 0.013452229789088051 0.0008407376972167245 0 0.013361358830837874 0.00099079966907383962 0 0.013556246835250722 0.00074959723653945671 0 0.013508144358864839 0.00096356463650354082 0 0.013452229789088051 0.0008407376972167245 0 0.013440511593884884 0.00066062959608427236 0 0.013556246835250722 0.00074959723653945671 0 0.013452229789088051 0.0008407376972167245 0 0.013440511593884884 0.00066062959608427236 0 0.013452229789088051 0.0008407376972167245 0 0.013338510631886867 0.00079296003951012325 0 0.01335485967949411 0.00088673687490151848 0 0.013222492184703463 0.00084300786632722578 0 0.013282647219969409 0.00094880057388126333 0 0.013222492184703463 0.00084300786632722578 0 0.013196357990883981 0.00098436364823676703 0 0.013282647219969409 0.00094880057388126333 0 0.013196357990883981 0.00098436364823676703 0 0.013282647219969409 0.00094880057388126333 0 0.013263299658048192 0.0010285351672946594 0 0.013329962297868326 0.00087699742057866837 0 0.013359721068094932 0.00096316415038806384 0 0.01335485967949411 0.00088673687490151848 0 0.013282647219969409 0.00094880057388126333 0 0.013361358830837874 0.00099079966907383962 0 0.013282647219969409 0.00094880057388126333 0 0.013361358830837874 0.00099079966907383962 0 0.013263299658048192 0.0010285351672946594 0 0.013361358830837874 0.00099079966907383962 0 0.013304664299348276 0.0011098353693940069 0 0.013263299658048192 0.0010285351672946594 0 0.013304664299348276 0.0011098353693940069 0 0.013263299658048192 0.0010285351672946594 0 0.013192495794476424 0.0010996376064871265 0 0.013196357990883981 0.00098436364823676703 0 0.013263299658048192 0.0010285351672946594 0 0.013192495794476424 0.0010996376064871265 0 0.013304664299348276 0.0011098353693940069 0 0.013192495794476424 0.0010996376064871265 0 0.013256711772393537 0.0011779360146264588 0 0.013131192710640572 0.0012383125463425867 0 0.013192495794476424 0.0010996376064871265 0 0.013256711772393537 0.0011779360146264588 0 0.013304664299348276 0.0011098353693940069 0 0.013256711772393537 0.0011779360146264588 0 0.013351096397242728 0.0011742240210579967 0 0.013304664299348276 0.0011098353693940069 0 0.013351096397242728 0.0011742240210579967 0 0.013352761228750771 0.0011111351521636979 0 0.011883134599935197 0.0015055784347562699 0 0.011958002989744884 0.0015039421893287795 0 0.011982604912905041 0.0013962901404854418 0 0.011423868649959206 0.0018591240356546528 0 0.01113105897292057 0.0018512638120021451 0 0.011230651940045444 0.0014926027210995473 0 0.013351096397242728 0.0011742240210579967 0 0.013395839071892308 0.0011089281058953068 0 0.013352761228750771 0.0011111351521636979 0 0.012667333071425453 0.0013248179059015986 0 0.012378192752123363 0.0012436453435320475 0 0.011531978473170959 0.0016863178549244334 0 0.012378192752123363 0.0012436453435320475 0 0.013358917716970018 0.0010576573589880821 0 0.013395839071892308 0.0011089281058953068 0 0.013352761228750771 0.0011111351521636979 0 0.013169960499577409 0.00088807281808817517 0 0.012378192752123363 0.0012436453435320475 0 0.013508144358864839 0.00096356463650354082 0 0.013361358830837874 0.00099079966907383962 0 0.013304664299348276 0.0011098353693940069 0 0.013358917716970018 0.0010576573589880821 0 0.013304664299348276 0.0011098353693940069 0 0.013352761228750771 0.0011111351521636979 0 0.013474165136009939 0.0010128943799667298 0 0.013299169002263368 0.0011079690433779222 0 0.013954774614165973 0.00067608248633186177 0 0.013895279558931814 0.00068746400143236143 0 0.014023002244560628 0.00064255535163857921 0 0.014071045532058931 0.00073040535677510007 0 0.014031844880908098 0.00065974350907484994 0 0.013954774614165973 0.00067608248633186177 0 0.013962317392445016 0.00069307289917746879 0 0.013924613951611107 0.00065998705071382161 0 0.013954774614165973 0.00067608248633186177 0 0.013924613951611107 0.00065998705071382161 0 0.013895279558931814 0.00068746400143236143 0 0.013954774614165973 0.00067608248633186177 0 0.013962317392445016 0.00069307289917746879 0 0.014023002244560628 0.00064255535163857921 0 0.011867161779610034 -4.096050636764626e-05 0 0.011686870541413538 -2.0773765258837501e-07 0 0.012372729821766669 3.7985931605055391e-07 0 0.011867161779610034 -4.096050636764626e-05 0 0.011686870541413538 -2.0773765258837501e-07 0 0.011188123460196096 -8.4703739787219748e-07 0 0.011686870541413538 -2.0773765258837501e-07 0 0.011188123460196096 -8.4703739787219748e-07 0 0.010999780368896504 6.8008887712200109e-08 0 0.012846244945471706 0.00033505162527215789 0 0.01255719060456013 0.00026289371895664833 0 0.013962317392445016 0.00069307289917746879 0 0.013924613951611107 0.00065998705071382161 0 0.013928700800137988 0.00059995663058378464 0 0.013924613951611107 0.00065998705071382161 0 0.013870317790069158 0.00062917215029058889 0 0.013928700800137988 0.00059995663058378464 0 0.013924613951611107 0.00065998705071382161 0 0.013870317790069158 0.00062917215029058889 0 0.013895279558931814 0.00068746400143236143 0 0.013870317790069158 0.00062917215029058889 0 0.013798857346032853 0.00062869234085878025 0 0.013895279558931814 0.00068746400143236143 0 0.013870317790069158 0.00062917215029058889 0 0.013798857346032853 0.00062869234085878025 0 0.013850126101801905 0.0005690897102054133 0 0.014266424343256093 0.00078961026860165226 0 0.014071045532058931 0.00073040535677510007 0 0.01431915870207673 0.00076918283008258219 0 0.014369817058093004 0.00079665206783682038 0 0.014344960133890125 0.00080726540997066304 0 0.014369817058093004 0.00079665206783682038 0 0.014344960133890125 0.00080726540997066304 0 0.014369580483791227 0.00082273234185370567 0 0.01431915870207673 0.00076918283008258219 0 0.014344960133890125 0.00080726540997066304 0 0.014315013823657257 0.00080414051138764442 0 0.014341423507968461 0.00083652197589511831 0 0.014369580483791227 0.00082273234185370567 0 0.014392750463822636 0.00080569576412846031 0 0.014388307010135066 0.00080965078559274892 0 0.014597700129821395 0.00080365203651821182 0 0.014341423507968461 0.00083652197589511831 0 0.014392750463822636 0.00080569576412846031 0 0.01434017059252749 0.00084435855475428279 0 0.014344960133890125 0.00080726540997066304 0 0.014341423507968461 0.00083652197589511831 0 0.014369580483791227 0.00082273234185370567 0 0.014344960133890125 0.00080726540997066304 0 0.014341423507968461 0.00083652197589511831 0 0.014315013823657257 0.00080414051138764442 0 0.014369817058093004 0.00079665206783682038 0 0.014369580483791227 0.00082273234185370567 0 0.014328518662518122 0.00085763837504792011 0 0.014369580483791227 0.00082273234185370567 0 0.014328518662518122 0.00085763837504792011 0 0.014392750463822636 0.00080569576412846031 0 0.014328518662518122 0.00085763837504792011 0 0.014392750463822636 0.00080569576412846031 0 0.014278130136658981 0.00069100776810855212 0 0.014392750463822636 0.00080569576412846031 0 0.014278130136658981 0.00069100776810855212 0 0.014428191935686967 0.00064446539802627621 0 0.014392750463822636 0.00080569576412846031 0 0.014428191935686967 0.00064446539802627621 0 0.014593149604118016 0.0006488657025746908 0 0.014428191935686967 0.00064446539802627621 0 0.014595722368642901 0.00047283608534740956 0 0.014347444204181681 0.00051661148189246955 0 0.014278130136658981 0.00069100776810855212 0 0.014428191935686967 0.00064446539802627621 0 0.014347444204181681 0.00051661148189246955 0 0.014392750463822636 0.00080569576412846031 0 0.014593149604118016 0.0006488657025746908 0 0.014790567505572604 0.00077128579183713625 0 0.014593149604118016 0.0006488657025746908 0 0.014757562160584171 0.00061487535079570994 0 0.014790567505572604 0.00077128579183713625 0 0.014428191935686967 0.00064446539802627621 0 0.014593149604118016 0.0006488657025746908 0 0.014595722368642901 0.00047283608534740956 0 0.014593149604118016 0.0006488657025746908 0 0.014595722368642901 0.00047283608534740956 0 0.014757562160584171 0.00061487535079570994 0 0.014595722368642901 0.00047283608534740956 0 0.014881117868669315 0.00049825959636804872 0 0.014757562160584171 0.00061487535079570994 0 0.014595722368642901 0.00047283608534740956 0 0.014459428502735591 0.00035946700216669231 0 0.014605340727462859 0.00023358037045636084 0 0.014595722368642901 0.00047283608534740956 0 0.014605340727462859 0.00023358037045636084 0 0.014803170664331806 0.00033652624799202451 0 0.014347444204181681 0.00051661148189246955 0 0.014459428502735591 0.00035946700216669231 0 0.014283021449872898 0.00021173575612165504 0 0.014595722368642901 0.00047283608534740956 0 0.014347444204181681 0.00051661148189246955 0 0.014459428502735591 0.00035946700216669231 0 0.012374457766686595 6.916449606592723e-08 0 0.012764876784389232 7.6528485554170188e-06 0 0.013442862260636349 -7.2719947168073028e-06 0 0.014169232398345232 0.00052421220592378608 0 0.013942644078889151 0.00055490572661892037 0 0.014283021449872898 0.00021173575612165504 0 0.013585297572130013 0.00016263036849081244 0 0.014787280640353052 0.00010631135686943345 0 0.014347444204181681 0.00051661148189246955 0 0.014169232398345232 0.00052421220592378608 0 0.014283021449872898 0.00021173575612165504 0 0.014278130136658981 0.00069100776810855212 0 0.014169232398345232 0.00052421220592378608 0 0.014023002244560628 0.00064255535163857921 0 0.014328518662518122 0.00085763837504792011 0 0.014278130136658981 0.00069100776810855212 0 0.014023002244560628 0.00064255535163857921 0 0.014278130136658981 0.00069100776810855212 0 0.014347444204181681 0.00051661148189246955 0 0.014169232398345232 0.00052421220592378608 0 0.014169232398345232 0.00052421220592378608 0 0.014023002244560628 0.00064255535163857921 0 0.013942644078889151 0.00055490572661892037 0 0.013962317392445016 0.00069307289917746879 0 0.014023002244560628 0.00064255535163857921 0 0.013942644078889151 0.00055490572661892037 0 0.011867161779610034 -4.096050636764626e-05 0 0.012372729821766669 3.7985931605055391e-07 0 0.01222125366505618 0.00017173542045211988 0 0.012846244945471706 0.00033505162527215789 0 0.013585297572130013 0.00016263036849081244 0 0.012373672256652859 4.5599504072429291e-07 0 0.013585297572130013 0.00016263036849081244 0 0.013585297572130013 0.00016263036849081244 0 0.01423059231491141 -6.400229074646842e-05 0 0.012374457766686595 6.916449606592723e-08 0 0.013442862260636349 -7.2719947168073028e-06 0 0.013916558841715772 -5.8224801657974796e-08 0 0.014941742054895431 5.0049968744174188e-05 0 0.014957252523223365 8.9475077063507725e-06 0 0.014983972559321485 1.498160789349855e-05 0 0.014957252523223365 8.9475077063507725e-06 0 0.014983972559321485 1.498160789349855e-05 0 0.014984760993242665 -4.3587417740245288e-06 0 0.01423059231491141 -6.400229074646842e-05 0 0.014584865596169871 -4.0730358017084584e-05 0 0.013442862260636349 -7.2719947168073028e-06 0 0.013916558841715772 -5.8224801657974796e-08 0 0.014197494561102489 1.9477375671536505e-06 0 0.014957252523223365 8.9475077063507725e-06 0 0.014984760993242665 -4.3587417740245288e-06 0 0.014982659522460169 -7.3707097562917527e-06 0 0.013916558841715772 -5.8224801657974796e-08 0 0.014197494561102489 1.9477375671536505e-06 0 0.015000042215315843 3.0394403641018712e-08 0 0.014982659522460169 -7.3707097562917527e-06 0 0.015000001361254674 -1.1227056765730958e-08 0 0.014992080334550226 -7.8667797688611488e-06 0 0.014984760993242665 -4.3587417740245288e-06 0 0.014982659522460169 -7.3707097562917527e-06 0 0.014992080334550226 -7.8667797688611488e-06 0 0.014982659522460169 -7.3707097562917527e-06 0 0.015000001361254674 -1.1227056765730958e-08 0 0.014999977986643638 -1.3577981557570124e-10 0 0.014197494561102489 1.9477375671536505e-06 0 0.014999720794182261 -1.4176459229392548e-08 0 0.015000042215315843 3.0394403641018712e-08 0 0.014584865596169871 -4.0730358017084584e-05 0 0.014999833063699921 -1.3076871353673615e-07 0 0.015000001361254674 -1.1227056765730958e-08 0 0.014999960033280435 -6.3742258667096242e-10 0 0.014992330509738382 -1.0826756102164012e-05 0 0.014999960033280435 -6.3742258667096242e-10 0 0.014992330509738382 -1.0826756102164012e-05 0 0.014955195543065567 -2.4440138477894746e-05 0 0.015000001361254674 -1.1227056765730958e-08 0 0.014992080334550226 -7.8667797688611488e-06 0 0.014992330509738382 -1.0826756102164012e-05 0 0.014984760993242665 -4.3587417740245288e-06 0 0.014992080334550226 -7.8667797688611488e-06 0 0.01499568841291569 -1.1838326893898268e-05 0 0.014992080334550226 -7.8667797688611488e-06 0 0.014992330509738382 -1.0826756102164012e-05 0 0.01499568841291569 -1.1838326893898268e-05 0 0.014992330509738382 -1.0826756102164012e-05 0 0.01499568841291569 -1.1838326893898268e-05 0 0.014955195543065567 -2.4440138477894746e-05 0 0.014805560860478984 4.7726246397598563e-06 0 0.014949732558238296 -2.9368269531589326e-05 0 0.014983972559321485 1.498160789349855e-05 0 0.014984760993242665 -4.3587417740245288e-06 0 0.01499568841291569 -1.1838326893898268e-05 0 0.014787280640353052 0.00010631135686943345 0 0.014805560860478984 4.7726246397598563e-06 0 0.014459428502735591 0.00035946700216669231 0 0.014283021449872898 0.00021173575612165504 0 0.014605340727462859 0.00023358037045636084 0 0.014283021449872898 0.00021173575612165504 0 0.014687651603205131 -1.6560849612404184e-05 0 0.014605340727462859 0.00023358037045636084 0 0.014605340727462859 0.00023358037045636084 0 0.014832955685596417 0.00011083919386305645 0 0.014803170664331806 0.00033652624799202451 0 0.014687651603205131 -1.6560849612404184e-05 0 0.014605340727462859 0.00023358037045636084 0 0.014832955685596417 0.00011083919386305645 0 0.014824580285290136 0.00010613775694421044 0 0.015060027914123772 0.00023490826104285471 0 0.014832955685596417 0.00011083919386305645 0 0.015091020641136346 0.00037672695855428903 0 0.014803170664331806 0.00033652624799202451 0 0.014933977234967378 6.7848276989995466e-05 0 0.014947519199465078 6.3506063678280691e-05 0 0.014942228971300488 9.6788239155607219e-05 0 0.014832955685596417 0.00011083919386305645 0 0.014933977234967378 6.7848276989995466e-05 0 0.014942228971300488 9.6788239155607219e-05 0 0.014933977234967378 6.7848276989995466e-05 0 0.014935856831483057 2.0085633565271334e-05 0 0.01497127304363567 1.7711327473307972e-05 0 0.014687651603205131 -1.6560849612404184e-05 0 0.014832955685596417 0.00011083919386305645 0 0.014935856831483057 2.0085633565271334e-05 0 0.014832955685596417 0.00011083919386305645 0 0.014933977234967378 6.7848276989995466e-05 0 0.014935856831483057 2.0085633565271334e-05 0 0.014687651603205131 -1.6560849612404184e-05 0 0.014935856831483057 2.0085633565271334e-05 0 0.014955195543065567 -2.4440138477894746e-05 0 0.014935856831483057 2.0085633565271334e-05 0 0.014978018342759504 -1.7267281826535186e-06 0 0.01497127304363567 1.7711327473307972e-05 0 0.014935856831483057 2.0085633565271334e-05 0 0.014978018342759504 -1.7267281826535186e-06 0 0.014955195543065567 -2.4440138477894746e-05 0 0.014978018342759504 -1.7267281826535186e-06 0 0.014999923979985865 -2.1449356805545217e-08 0 0.014955195543065567 -2.4440138477894746e-05 0 0.014999960033280435 -6.3742258667096242e-10 0 0.014999923979985865 -2.1449356805545217e-08 0 0.014955195543065567 -2.4440138477894746e-05 0 0.014978018342759504 -1.7267281826535186e-06 0 0.014999923979985865 -2.1449356805545217e-08 0 0.014999985464750652 -5.7788746987037391e-09 0 0.014978018342759504 -1.7267281826535186e-06 0 0.014999985464750652 -5.7788746987037391e-09 0 0.01497127304363567 1.7711327473307972e-05 0 0.014999985464750652 -5.7788746987037391e-09 0 0.01497127304363567 1.7711327473307972e-05 0 0.014990360614080427 9.8382301936634807e-06 0 0.01497127304363567 1.7711327473307972e-05 0 0.014990360614080427 9.8382301936634807e-06 0 0.014974882932051336 3.3078690351931488e-05 0 0.014990360614080427 9.8382301936634807e-06 0 0.014974882932051336 3.3078690351931488e-05 0 0.014986214721257864 4.7973500475527472e-05 0 0.014933977234967378 6.7848276989995466e-05 0 0.01497127304363567 1.7711327473307972e-05 0 0.014947519199465078 6.3506063678280691e-05 0 0.01497127304363567 1.7711327473307972e-05 0 0.014974882932051336 3.3078690351931488e-05 0 0.014947519199465078 6.3506063678280691e-05 0 0.014947519199465078 6.3506063678280691e-05 0 0.014986214721257864 4.7973500475527472e-05 0 0.01491299524086206 7.1385469211098708e-05 0 0.01485740589849018 9.7989089989533633e-05 0 0.014912846585492698 6.9604470723034004e-05 0 0.014974882932051336 3.3078690351931488e-05 0 0.014947519199465078 6.3506063678280691e-05 0 0.014986214721257864 4.7973500475527472e-05 0 0.01475987114155255 7.7550126419611217e-05 0 0.014839072296613277 3.9284194625739548e-05 0 0.01491299524086206 7.1385469211098708e-05 0 0.014725927485517499 0.00016165495442504568 0 0.01475987114155255 7.7550126419611217e-05 0 0.01491299524086206 7.1385469211098708e-05 0 0.01475987114155255 7.7550126419611217e-05 0 0.014839072296613277 3.9284194625739548e-05 0 0.014768244216678893 1.3809463736609998e-05 0 0.014553244730712922 0.00016833329905679726 0 0.014569280831234791 0.00016585831387825686 0 0.014619708047477861 9.3275091699026387e-05 0 0.014665789431724037 6.3811056951864817e-05 0 0.014825287879990944 0.00039139324354954818 0 0.01456868360949469 0.00010500544620682838 0 0.01453958185015912 0.00017320222084663478 0 0.014619708047477861 9.3275091699026387e-05 0 0.014839072296613277 3.9284194625739548e-05 0 0.014768244216678893 1.3809463736609998e-05 0 0.014898110576740656 8.9713143415456538e-08 0 0.014149672913057649 0.00038987186014052166 0 0.014734440865897667 8.4111939929000232e-07 0 0.01456868360949469 0.00010500544620682838 0 0.01453958185015912 0.00017320222084663478 0 0.014473254766526117 0.00014592754857155172 0 0.014506579989907238 0.00017660831591850942 0 0.01453958185015912 0.00017320222084663478 0 0.014473254766526117 0.00014592754857155172 0 0.014008804089649168 0.00053864485490885412 0 0.013919607337270915 0.00054485225517338749 0 0.013949484959056945 0.00048474599225725663 0 0.014213888130029056 0.00056154238482866053 0 0.014149672913057649 0.00038987186014052166 0 0.014213888130029056 0.00056154238482866053 0 0.013749382477954118 0.0006129504015277104 0 0.014149672913057649 0.00038987186014052166 0 0.013749382477954118 0.0006129504015277104 0 0.013854662212169896 0.00046604147259506621 0 0.013749382477954118 0.0006129504015277104 0 0.013912755333360271 0.00041094007461072346 0 0.01400130201320527 0.00040385932396894944 0 0.013859425309369481 0.00051854378553683881 0 0.014149672913057649 0.00038987186014052166 0 0.013854662212169896 0.00046604147259506621 0 0.01449764501453712 0.00062496111257307504 0 0.014514419826275464 0.00064025397573867359 0 0.014565846118073114 0.00062377323820683131 0 0.014213888130029056 0.00056154238482866053 0 0.014551188064016382 0.00078459750606542518 0 0.014825287879990944 0.00039139324354954818 0 0.014551188064016382 0.00078459750606542518 0 0.014213888130029056 0.00056154238482866053 0 0.014825287879990944 0.00039139324354954818 0 0.014947519199465078 6.3506063678280691e-05 0 0.01491299524086206 7.1385469211098708e-05 0 0.014942228971300488 9.6788239155607219e-05 0 0.014898110576740656 8.9713143415456538e-08 0 0.01491299524086206 7.1385469211098708e-05 0 0.014942228971300488 9.6788239155607219e-05 0 0.014825287879990944 0.00039139324354954818 0 0.015060027914123772 0.00023490826104285471 0 0.014839072296613277 3.9284194625739548e-05 0 0.014898110576740656 8.9713143415456538e-08 0 0.01491299524086206 7.1385469211098708e-05 0 0.015352526099101531 0.00062838265744104857 0 0.015091020641136346 0.00037672695855428903 0 0.015074742866724252 0.00057292559151587931 0 0.015091020641136346 0.00037672695855428903 0 0.014881117868669315 0.00049825959636804872 0 0.015074742866724252 0.00057292559151587931 0 0.014595722368642901 0.00047283608534740956 0 0.014803170664331806 0.00033652624799202451 0 0.014881117868669315 0.00049825959636804872 0 0.015091020641136346 0.00037672695855428903 0 0.014803170664331806 0.00033652624799202451 0 0.014881117868669315 0.00049825959636804872 0 0.014928152728776838 0.00063313344544328959 0 0.015110891063668259 0.00072671564461021531 0 0.014790567505572604 0.00077128579183713625 0 0.014551188064016382 0.00078459750606542518 0 0.014597700129821395 0.00080365203651821182 0 0.014881117868669315 0.00049825959636804872 0 0.014757562160584171 0.00061487535079570994 0 0.014928152728776838 0.00063313344544328959 0 0.014881117868669315 0.00049825959636804872 0 0.014928152728776838 0.00063313344544328959 0 0.015074742866724252 0.00057292559151587931 0 0.014757562160584171 0.00061487535079570994 0 0.014928152728776838 0.00063313344544328959 0 0.014790567505572604 0.00077128579183713625 0 0.015352526099101531 0.00062838265744104857 0 0.015074742866724252 0.00057292559151587931 0 0.015110891063668259 0.00072671564461021531 0 0.014928152728776838 0.00063313344544328959 0 0.015074742866724252 0.00057292559151587931 0 0.015110891063668259 0.00072671564461021531 0 0.014200217891975057 0.00090159726139361343 0 0.014223204095367162 0.00083105790760441898 0 0.014158630580305531 0.00086703142388040949 0 0.014223204095367162 0.00083105790760441898 0 0.014153534770311864 0.00081500809474406772 0 0.014138539374482513 0.0008260076373776754 0 0.014223204095367162 0.00083105790760441898 0 0.014158630580305531 0.00086703142388040949 0 0.014138539374482513 0.0008260076373776754 0 0.014341423507968461 0.00083652197589511831 0 0.014200217891975057 0.00090159726139361343 0 0.014223204095367162 0.00083105790760441898 0 0.014341423507968461 0.00083652197589511831 0 0.014335021676483326 0.00084635809560603846 0 0.01434017059252749 0.00084435855475428279 0 0.014216488778177341 0.0008808228482150175 0 0.014551188064016382 0.00078459750606542518 0 0.014341423507968461 0.00083652197589511831 0 0.014223204095367162 0.00083105790760441898 0 0.014268713588589102 0.00079935807955940086 0 0.014341423507968461 0.00083652197589511831 0 0.014315013823657257 0.00080414051138764442 0 0.014268713588589102 0.00079935807955940086 0 0.014315013823657257 0.00080414051138764442 0 0.014272682526547413 0.0007656683813494782 0 0.014288964942164108 0.000696373335779909 0 0.014436791600634389 0.00080920280304497239 0 0.013416961531826527 0.0007672982752736097 0 0.01431915870207673 0.00076918283008258219 0 0.014315013823657257 0.00080414051138764442 0 0.014287741331863038 0.00073434104432955403 0 0.014315013823657257 0.00080414051138764442 0 0.014268713588589102 0.00079935807955940086 0 0.014272682526547413 0.0007656683813494782 0 0.014268713588589102 0.00079935807955940086 0 0.014272682526547413 0.0007656683813494782 0 0.014218789015727198 0.00076223489370066478 0 0.014272682526547413 0.0007656683813494782 0 0.014218789015727198 0.00076223489370066478 0 0.014288964942164108 0.000696373335779909 0 0.014223204095367162 0.00083105790760441898 0 0.014218789015727198 0.00076223489370066478 0 0.014153534770311864 0.00081500809474406772 0 0.012901960384025172 0.00093288282362240639 0 0.013040530964764123 0.00090854900763582744 0 0.013029110149818895 0.00080432340969218265 0 0.013568374755234687 0.0008506134925318667 0 0.01358448312134301 0.00082685499724914581 0 0.014223204095367162 0.00083105790760441898 0 0.014268713588589102 0.00079935807955940086 0 0.014218789015727198 0.00076223489370066478 0 0.012901960384025172 0.00093288282362240639 0 0.013040530964764123 0.00090854900763582744 0 0.012990004137385314 0.0010014759250110842 0 0.013040530964764123 0.00090854900763582744 0 0.013103555911068281 0.00098934305178877569 0 0.012990004137385314 0.0010014759250110842 0 0.013040530964764123 0.00090854900763582744 0 0.013106750259894181 0.00083526744273779998 0 0.013029110149818895 0.00080432340969218265 0 0.013040530964764123 0.00090854900763582744 0 0.013106750259894181 0.00083526744273779998 0 0.013146254692625923 0.00088969483866486868 0 0.013172266085943169 0.00082366423158001807 0 0.013106750259894181 0.00083526744273779998 0 0.013148314306313186 0.00076246147953131275 0 0.013172266085943169 0.00082366423158001807 0 0.013106750259894181 0.00083526744273779998 0 0.013146254692625923 0.00088969483866486868 0 0.013040530964764123 0.00090854900763582744 0 0.013146254692625923 0.00088969483866486868 0 0.013103555911068281 0.00098934305178877569 0 0.013146254692625923 0.00088969483866486868 0 0.013237127779160737 0.0010061456404666809 0 0.013103555911068281 0.00098934305178877569 0 0.013262250758820931 0.00086768230593497759 0 0.013538682736841929 0.00087056607141902317 0 0.013237127779160737 0.0010061456404666809 0 0.013146254692625923 0.00088969483866486868 0 0.013262250758820931 0.00086768230593497759 0 0.013237127779160737 0.0010061456404666809 0 0.013172266085943169 0.00082366423158001807 0 0.013146254692625923 0.00088969483866486868 0 0.013262250758820931 0.00086768230593497759 0 0.013172266085943169 0.00082366423158001807 0 0.013262250758820931 0.00086768230593497759 0 0.013201174428790386 0.00076274291174134676 0 0.013262250758820931 0.00086768230593497759 0 0.01325663650408377 0.00060755112734662111 0 0.013538682736841929 0.00087056607141902317 0 0.013435074585969075 0.00065338457170141398 0 0.013393284532752932 0.00068711009906245149 0 0.013538682736841929 0.00087056607141902317 0 0.013262250758820931 0.00086768230593497759 0 0.013201174428790386 0.00076274291174134676 0 0.01325663650408377 0.00060755112734662111 0 0.013201174428790386 0.00076274291174134676 0 0.01325663650408377 0.00060755112734662111 0 0.013148314306313186 0.00076246147953131275 0 0.01325663650408377 0.00060755112734662111 0 0.013061072097016754 0.0007759078943230176 0 0.013148314306313186 0.00076246147953131275 0 0.014072205037724793 0.00090774640717556049 0 0.014158630580305531 0.00086703142388040949 0 0.014138539374482513 0.0008260076373776754 0 0.014072205037724793 0.00090774640717556049 0 0.014200217891975057 0.00090159726139361343 0 0.014158630580305531 0.00086703142388040949 0 0.014072205037724793 0.00090774640717556049 0 0.01405224585955628 0.00088983732902880842 0 0.014138539374482513 0.0008260076373776754 0 0.013749382477954118 0.0006129504015277104 0 0.013572825732947396 0.00083151484207309506 0 0.013029110149818895 0.00080432340969218265 0 0.013061072097016754 0.0007759078943230176 0 0.013148314306313186 0.00076246147953131275 0 0.01358448312134301 0.00082685499724914581 0 0.013572825732947396 0.00083151484207309506 0 0.013106750259894181 0.00083526744273779998 0 0.013029110149818895 0.00080432340969218265 0 0.013148314306313186 0.00076246147953131275 0 0.013172266085943169 0.00082366423158001807 0 0.013201174428790386 0.00076274291174134676 0 0.013148314306313186 0.00076246147953131275 0 0.013764129234403464 0.00078866137048643425 0 0.013892391858974121 0.00066714113568968215 0 0.013699661988432223 0.00064023499319716031 0 0.013764129234403464 0.00078866137048643425 0 0.013538682736841929 0.00087056607141902317 0 0.013699661988432223 0.00064023499319716031 0 0.013749382477954118 0.0006129504015277104 0 0.013383211470416476 0.00083706879886104432 0 0.013435074585969075 0.00065338457170141398 0 0.013538682736841929 0.00087056607141902317 0 0.013699661988432223 0.00064023499319716031 0 0.013538682736841929 0.00087056607141902317 0 0.013434184304153924 0.0010819851700264356 0 0.013237127779160737 0.0010061456404666809 0 0.013764129234403464 0.00078866137048643425 0 0.013538682736841929 0.00087056607141902317 0 0.013713848742486504 0.00098402985352511732 0 0.013538682736841929 0.00087056607141902317 0 0.013713848742486504 0.00098402985352511732 0 0.013434184304153924 0.0010819851700264356 0 0.013764129234403464 0.00078866137048643425 0 0.013713848742486504 0.00098402985352511732 0 0.013957437090579018 0.00077461708241259141 0 0.013713848742486504 0.00098402985352511732 0 0.013957437090579018 0.00077461708241259141 0 0.01391658752622018 0.0010001491579724122 0 0.013957437090579018 0.00077461708241259141 0 0.014117748152149978 0.00080433478664823199 0 0.01391658752622018 0.0010001491579724122 0 0.013957437090579018 0.00077461708241259141 0 0.014145098935239431 0.00063192784905555623 0 0.014117748152149978 0.00080433478664823199 0 0.013764129234403464 0.00078866137048643425 0 0.013957437090579018 0.00077461708241259141 0 0.013892391858974121 0.00066714113568968215 0 0.013892391858974121 0.00066714113568968215 0 0.014059575556206334 0.00058891401271866201 0 0.01389893710295558 0.00055454564437533004 0 0.014059575556206334 0.00058891401271866201 0 0.014128226685033539 0.00046754133791205161 0 0.01389893710295558 0.00055454564437533004 0 0.013957437090579018 0.00077461708241259141 0 0.013892391858974121 0.00066714113568968215 0 0.014059575556206334 0.00058891401271866201 0 0.013957437090579018 0.00077461708241259141 0 0.014059575556206334 0.00058891401271866201 0 0.014145098935239431 0.00063192784905555623 0 0.014059575556206334 0.00058891401271866201 0 0.014145098935239431 0.00063192784905555623 0 0.014162184673844986 0.0004866281874073111 0 0.014162184673844986 0.0004866281874073111 0 0.014128226685033539 0.00046754133791205161 0 0.014162017727096521 0.00035163208528695794 0 0.014059575556206334 0.00058891401271866201 0 0.014162184673844986 0.0004866281874073111 0 0.014128226685033539 0.00046754133791205161 0 0.014128226685033539 0.00046754133791205161 0 0.014052108861235157 0.00041488818811701576 0 0.014507129270766412 0.00016257895836557109 0 0.014128226685033539 0.00046754133791205161 0 0.014052108861235157 0.00041488818811701576 0 0.01389893710295558 0.00055454564437533004 0 0.014222345753565912 0.00023754954304261474 0 0.014454051654868436 0.00017028950397925986 0 0.014052108861235157 0.00041488818811701576 0 0.013696420891809606 0.00042607315289810771 0 0.014507129270766412 0.00016257895836557109 0 0.014052108861235157 0.00041488818811701576 0 0.013696420891809606 0.00042607315289810771 0 0.01389893710295558 0.00055454564437533004 0 0.013696420891809606 0.00042607315289810771 0 0.01389893710295558 0.00055454564437533004 0 0.013699661988432223 0.00064023499319716031 0 0.013892391858974121 0.00066714113568968215 0 0.01389893710295558 0.00055454564437533004 0 0.013699661988432223 0.00064023499319716031 0 0.013854662212169896 0.00046604147259506621 0 0.014222345753565912 0.00023754954304261474 0 0.014569280831234791 0.00016585831387825686 0 0.014671367585709402 5.4994980335462374e-05 0 0.014619708047477861 9.3275091699026387e-05 0 0.013418803894344907 0.0006588088947867552 0 0.013696420891809606 0.00042607315289810771 0 0.013699661988432223 0.00064023499319716031 0 0.013854662212169896 0.00046604147259506621 0 0.013506743753713406 0.00068107079956531823 0 0.014665789431724037 6.3811056951864817e-05 0 0.014661079615787481 6.1677749225781147e-05 0 0.01475987114155255 7.7550126419611217e-05 0 0.014768244216678893 1.3809463736609998e-05 0 0.014657322250287633 6.2833735348533407e-05 0 0.01456868360949469 0.00010500544620682838 0 0.014619708047477861 9.3275091699026387e-05 0 0.014657322250287633 6.2833735348533407e-05 0 0.01475987114155255 7.7550126419611217e-05 0 0.014657322250287633 6.2833735348533407e-05 0 0.014683903349040286 0.00010479975820293675 0 0.014671367585709402 5.4994980335462374e-05 0 0.014619708047477861 9.3275091699026387e-05 0 0.014657322250287633 6.2833735348533407e-05 0 0.014671367585709402 5.4994980335462374e-05 0 0.014657322250287633 6.2833735348533407e-05 0 0.014683903349040286 0.00010479975820293675 0 0.014725927485517499 0.00016165495442504568 0 0.014683903349040286 0.00010479975820293675 0 0.014655553347065481 0.00014813915604852644 0 0.014725927485517499 0.00016165495442504568 0 0.01475987114155255 7.7550126419611217e-05 0 0.014683903349040286 0.00010479975820293675 0 0.014671367585709402 5.4994980335462374e-05 0 0.014683903349040286 0.00010479975820293675 0 0.014655553347065481 0.00014813915604852644 0 0.014671367585709402 5.4994980335462374e-05 0 0.014655553347065481 0.00014813915604852644 0 0.014507129270766412 0.00016257895836557109 0 0.014655553347065481 0.00014813915604852644 0 0.01464628301699154 0.00012134915237679795 0 0.014649916363446886 0.0001493328737979204 0 0.01485740589849018 9.7989089989533633e-05 0 0.014828677203225797 6.6567965388169688e-05 0 0.014990360614080427 9.8382301936634807e-06 0 0.014986214721257864 4.7973500475527472e-05 0 0.014996104136180473 1.8240218917121344e-06 0 0.014725927485517499 0.00016165495442504568 0 0.014655553347065481 0.00014813915604852644 0 0.01464628301699154 0.00012134915237679795 0 0.014990360614080427 9.8382301936634807e-06 0 0.014996104136180473 1.8240218917121344e-06 0 0.015000027475711752 2.1257735200205524e-08 0 0.014828677203225797 6.6567965388169688e-05 0 0.014927122761352439 1.6416373810643477e-06 0 0.014996104136180473 1.8240218917121344e-06 0 0.015000027475711752 2.1257735200205524e-08 0 0.014944610949467658 -3.8268795206727051e-06 0 0.014999985464750652 -5.7788746987037391e-09 0 0.014990360614080427 9.8382301936634807e-06 0 0.015000027475711752 2.1257735200205524e-08 0 0.014958318263486011 2.0661227665877445e-06 0 0.014999766584861829 -1.3687758156354937e-08 0 0.014999975251472395 -7.730420125384375e-09 0 0.014958318263486011 2.0661227665877445e-06 0 0.014999766584861829 -1.3687758156354937e-08 0 0.014944610949467658 -3.8268795206727051e-06 0 0.015000027475711752 2.1257735200205524e-08 0 0.014999766584861829 -1.3687758156354937e-08 0 0.014944610949467658 -3.8268795206727051e-06 0 0.014958318263486011 2.0661227665877445e-06 0 0.014944610949467658 -3.8268795206727051e-06 0 0.014874774332584967 3.6658958294738722e-05 0 0.01464628301699154 0.00012134915237679795 0 0.014944610949467658 -3.8268795206727051e-06 0 0.014874774332584967 3.6658958294738722e-05 0 0.01464628301699154 0.00012134915237679795 0 0.014874774332584967 3.6658958294738722e-05 0 0.014769073996670108 9.1741327897342065e-05 0 0.014881686012326544 4.968535530454531e-05 0 0.014942765508683899 8.5379853706410696e-05 0 0.01494913769139764 1.8664214921820009e-05 0 0.014874774332584967 3.6658958294738722e-05 0 0.014881686012326544 4.968535530454531e-05 0 0.014769073996670108 9.1741327897342065e-05 0 0.014958318263486011 2.0661227665877445e-06 0 0.014874774332584967 3.6658958294738722e-05 0 0.01494913769139764 1.8664214921820009e-05 0 0.014874774332584967 3.6658958294738722e-05 0 0.014881686012326544 4.968535530454531e-05 0 0.01494913769139764 1.8664214921820009e-05 0 0.014457471879432051 0.00026566033339402064 0 0.014650504254369432 0.00012631155787018236 0 0.014814375567954258 9.6114059075565615e-05 0 0.014682228996497055 0.00012067295325098657 0 0.014770992839851785 0.00019721414308158561 0 0.014814375567954258 9.6114059075565615e-05 0 0.014770992839851785 0.00019721414308158561 0 0.014942765508683899 8.5379853706410696e-05 0 0.014881686012326544 4.968535530454531e-05 0 0.014814375567954258 9.6114059075565615e-05 0 0.014942765508683899 8.5379853706410696e-05 0 0.014881686012326544 4.968535530454531e-05 0 0.014814375567954258 9.6114059075565615e-05 0 0.014769073996670108 9.1741327897342065e-05 0 0.014814375567954258 9.6114059075565615e-05 0 0.014769073996670108 9.1741327897342065e-05 0 0.014682228996497055 0.00012067295325098657 0 0.01464628301699154 0.00012134915237679795 0 0.014769073996670108 9.1741327897342065e-05 0 0.014649916363446886 0.0001493328737979204 0 0.014769073996670108 9.1741327897342065e-05 0 0.014682228996497055 0.00012067295325098657 0 0.014649916363446886 0.0001493328737979204 0 0.014682228996497055 0.00012067295325098657 0 0.014649916363446886 0.0001493328737979204 0 0.014507129270766412 0.00016257895836557109 0 0.014128226685033539 0.00046754133791205161 0 0.014507129270766412 0.00016257895836557109 0 0.014770992839851785 0.00019721414308158561 0 0.014655553347065481 0.00014813915604852644 0 0.014649916363446886 0.0001493328737979204 0 0.014507129270766412 0.00016257895836557109 0 0.014183226735509936 0.00044945861818092032 0 0.014457471879432051 0.00026566033339402064 0 0.014682228996497055 0.00012067295325098657 0 0.014507129270766412 0.00016257895836557109 0 0.014770992839851785 0.00019721414308158561 0 0.014162184673844986 0.0004866281874073111 0 0.014162017727096521 0.00035163208528695794 0 0.014315398621834579 0.00036491449454614713 0 0.014162017727096521 0.00035163208528695794 0 0.014315398621834579 0.00036491449454614713 0 0.014355541209361129 0.00016095521756556651 0 0.014435551248395401 0.00039397016596004876 0 0.014521629630417133 0.00023081613007119205 0 0.014645709645379574 0.00029562855261304656 0 0.014315398621834579 0.00036491449454614713 0 0.014435551248395401 0.00039397016596004876 0 0.014521629630417133 0.00023081613007119205 0 0.014521629630417133 0.00023081613007119205 0 0.014642581780173086 2.0241086042043297e-05 0 0.014711812577734852 0.00014801304092425043 0 0.014521629630417133 0.00023081613007119205 0 0.014355541209361129 0.00016095521756556651 0 0.014642581780173086 2.0241086042043297e-05 0 0.014315398621834579 0.00036491449454614713 0 0.014521629630417133 0.00023081613007119205 0 0.014355541209361129 0.00016095521756556651 0 0.014942765508683899 8.5379853706410696e-05 0 0.01494913769139764 1.8664214921820009e-05 0 0.015001786504893335 1.7305736215626817e-05 0 0.014650504254369432 0.00012631155787018236 0 0.014816034677127226 3.5048756939172543e-05 0 0.014816034677127226 3.5048756939172543e-05 0 0.014999910985751165 1.9878963034062729e-08 0 0.015001786504893335 1.7305736215626817e-05 0 0.014999975251472395 -7.730420125384375e-09 0 0.015000026343483507 1.2817087276030519e-08 0 0.014958318263486011 2.0661227665877445e-06 0 0.01494913769139764 1.8664214921820009e-05 0 0.014999975251472395 -7.730420125384375e-09 0 0.01494913769139764 1.8664214921820009e-05 0 0.015001786504893335 1.7305736215626817e-05 0 0.014999975251472395 -7.730420125384375e-09 0 0.015000037757769008 5.4805089586765721e-08 0 0.014999332919842604 -1.4762316888704456e-07 0 0.014894806008838425 4.0079882246765078e-05 0 0.014642581780173086 2.0241086042043297e-05 0 0.014999332919842604 -1.4762316888704456e-07 0 0.014894806008838425 4.0079882246765078e-05 0 0.014642581780173086 2.0241086042043297e-05 0 0.014894806008838425 4.0079882246765078e-05 0 0.014711812577734852 0.00014801304092425043 0 0.014894806008838425 4.0079882246765078e-05 0 0.014835017904200854 0.0001503283544827602 0 0.014711812577734852 0.00014801304092425043 0 0.014968979282803975 5.8861241116659751e-05 0 0.014894806008838425 4.0079882246765078e-05 0 0.014835017904200854 0.0001503283544827602 0 0.014917148005750161 0.00015715391742260822 0 0.014835017904200854 0.0001503283544827602 0 0.01477897919439906 0.000300451119477669 0 0.014835017904200854 0.0001503283544827602 0 0.014711812577734852 0.00014801304092425043 0 0.014645709645379574 0.00029562855261304656 0 0.014521629630417133 0.00023081613007119205 0 0.014711812577734852 0.00014801304092425043 0 0.014645709645379574 0.00029562855261304656 0 0.014835017904200854 0.0001503283544827602 0 0.014645709645379574 0.00029562855261304656 0 0.01477897919439906 0.000300451119477669 0 0.014645709645379574 0.00029562855261304656 0 0.01477897919439906 0.000300451119477669 0 0.014657370079323748 0.0004602669420049257 0 0.014808453761705009 0.00043254035853281165 0 0.01477897919439906 0.000300451119477669 0 0.014657370079323748 0.0004602669420049257 0 0.014657370079323748 0.0004602669420049257 0 0.014677428477376903 0.00064033030686059243 0 0.014548077399186839 0.00060014315739605271 0 0.014808453761705009 0.00043254035853281165 0 0.014657370079323748 0.0004602669420049257 0 0.014677428477376903 0.00064033030686059243 0 0.014657370079323748 0.0004602669420049257 0 0.014548077399186839 0.00060014315739605271 0 0.01446889206142766 0.00052295019313137775 0 0.014548077399186839 0.00060014315739605271 0 0.01446889206142766 0.00052295019313137775 0 0.014405257541317443 0.00067371947057933432 0 0.014645709645379574 0.00029562855261304656 0 0.014657370079323748 0.0004602669420049257 0 0.01446889206142766 0.00052295019313137775 0 0.014435551248395401 0.00039397016596004876 0 0.014645709645379574 0.00029562855261304656 0 0.01446889206142766 0.00052295019313137775 0 0.014435551248395401 0.00039397016596004876 0 0.01446889206142766 0.00052295019313137775 0 0.01429755729560004 0.0005008785434388426 0 0.014162184673844986 0.0004866281874073111 0 0.014315398621834579 0.00036491449454614713 0 0.01429755729560004 0.0005008785434388426 0 0.014315398621834579 0.00036491449454614713 0 0.014435551248395401 0.00039397016596004876 0 0.01429755729560004 0.0005008785434388426 0 0.014145098935239431 0.00063192784905555623 0 0.014162184673844986 0.0004866281874073111 0 0.01429755729560004 0.0005008785434388426 0 0.014145098935239431 0.00063192784905555623 0 0.01429755729560004 0.0005008785434388426 0 0.014279968854430268 0.00064207974881113543 0 0.01446889206142766 0.00052295019313137775 0 0.014279968854430268 0.00064207974881113543 0 0.014405257541317443 0.00067371947057933432 0 0.01446889206142766 0.00052295019313137775 0 0.01429755729560004 0.0005008785434388426 0 0.014279968854430268 0.00064207974881113543 0 0.014279968854430268 0.00064207974881113543 0 0.014405257541317443 0.00067371947057933432 0 0.014277453813359696 0.00080683331690909387 0 0.014405257541317443 0.00067371947057933432 0 0.014277453813359696 0.00080683331690909387 0 0.014457064125225178 0.00080346675296021595 0 0.014145098935239431 0.00063192784905555623 0 0.014279968854430268 0.00064207974881113543 0 0.014117748152149978 0.00080433478664823199 0 0.014279968854430268 0.00064207974881113543 0 0.014277453813359696 0.00080683331690909387 0 0.014117748152149978 0.00080433478664823199 0 0.014117748152149978 0.00080433478664823199 0 0.014116334587697019 0.00098215169958276792 0 0.01391658752622018 0.0010001491579724122 0 0.014277453813359696 0.00080683331690909387 0 0.014117748152149978 0.00080433478664823199 0 0.014116334587697019 0.00098215169958276792 0 0.014277453813359696 0.00080683331690909387 0 0.014116334587697019 0.00098215169958276792 0 0.014273596275148098 0.0010004807554948739 0 0.014277453813359696 0.00080683331690909387 0 0.014273596275148098 0.0010004807554948739 0 0.014457064125225178 0.00080346675296021595 0 0.014273596275148098 0.0010004807554948739 0 0.014457064125225178 0.00080346675296021595 0 0.014357517113463945 0.0011364491432392977 0 0.014804917073792641 0.00098527696032819283 0 0.014624809607667476 0.00085062561270394512 0 0.014357517113463945 0.0011364491432392977 0 0.014624809607667476 0.00085062561270394512 0 0.014457064125225178 0.00080346675296021595 0 0.014357517113463945 0.0011364491432392977 0 0.014819159367678631 0.00074091834136021768 0 0.014677428477376903 0.00064033030686059243 0 0.014624809607667476 0.00085062561270394512 0 0.014677428477376903 0.00064033030686059243 0 0.014624809607667476 0.00085062561270394512 0 0.014457064125225178 0.00080346675296021595 0 0.014548077399186839 0.00060014315739605271 0 0.014405257541317443 0.00067371947057933432 0 0.014457064125225178 0.00080346675296021595 0 0.014677428477376903 0.00064033030686059243 0 0.014548077399186839 0.00060014315739605271 0 0.014457064125225178 0.00080346675296021595 0 0.014357517113463945 0.0011364491432392977 0 0.014146751726157071 0.0011875066902760172 0 0.014236168352583808 0.0011824583439913948 0 0.014246843606185821 0.0011578201798238966 0 0.014357517113463945 0.0011364491432392977 0 0.014236168352583808 0.0011824583439913948 0 0.014246843606185821 0.0011578201798238966 0 0.014212530360025228 0.0011716349964494062 0 0.014236168352583808 0.0011824583439913948 0 0.014519114768184811 0.0010819241039336108 0 0.014367937651889968 0.0011431933506733751 0 0.014222138793300971 0.0012176858589036993 0 0.014246843606185821 0.0011578201798238966 0 0.014357517113463945 0.0011364491432392977 0 0.014273596275148098 0.0010004807554948739 0 0.014357517113463945 0.0011364491432392977 0 0.014146751726157071 0.0011875066902760172 0 0.014116334587697019 0.00098215169958276792 0 0.014273596275148098 0.0010004807554948739 0 0.014146751726157071 0.0011875066902760172 0 0.014116334587697019 0.00098215169958276792 0 0.014146751726157071 0.0011875066902760172 0 0.013888208242212045 0.0012161645400153968 0 0.014139473291778362 0.0011772570755345815 0 0.014017194862393315 0.0013497451457033813 0 0.014146751726157071 0.0011875066902760172 0 0.014162426442042686 0.0012000925223769809 0 0.014236168352583808 0.0011824583439913948 0 0.013919276406023104 0.0014882077134712318 0 0.0136834407904678 0.001416167152311386 0 0.013888208242212045 0.0012161645400153968 0 0.014146751726157071 0.0011875066902760172 0 0.013919276406023104 0.0014882077134712318 0 0.013888208242212045 0.0012161645400153968 0 0.013919276406023104 0.0014882077134712318 0 0.01360917655135668 0.0015602277477621252 0 0.0136834407904678 0.001416167152311386 0 0.014236168352583808 0.0011824583439913948 0 0.01420287959953603 0.0011752095118584068 0 0.014173088576741903 0.0011960607752384926 0 0.014162426442042686 0.0012000925223769809 0 0.014236168352583808 0.0011824583439913948 0 0.014173088576741903 0.0011960607752384926 0 0.014212530360025228 0.0011716349964494062 0 0.014236168352583808 0.0011824583439913948 0 0.01420287959953603 0.0011752095118584068 0 0.014191342015075053 0.0011725690254128849 0 0.01420287959953603 0.0011752095118584068 0 0.014179154795989503 0.001185474009742215 0 0.01420287959953603 0.0011752095118584068 0 0.014179154795989503 0.001185474009742215 0 0.014173088576741903 0.0011960607752384926 0 0.014191342015075053 0.0011725690254128849 0 0.014179154795989503 0.001185474009742215 0 0.014180678000968682 0.0011972980612134823 0 0.014179154795989503 0.001185474009742215 0 0.014173088576741903 0.0011960607752384926 0 0.014155630893342113 0.0011974903184588362 0 0.014173088576741903 0.0011960607752384926 0 0.014155630893342113 0.0011974903184588362 0 0.01414817677836947 0.0012039969195779727 0 0.014155630893342113 0.0011974903184588362 0 0.014136554981721536 0.001202866175602086 0 0.01414817677836947 0.0012039969195779727 0 0.014179154795989503 0.001185474009742215 0 0.014155630893342113 0.0011974903184588362 0 0.014180678000968682 0.0011972980612134823 0 0.014155630893342113 0.0011974903184588362 0 0.014136554981721536 0.001202866175602086 0 0.014180678000968682 0.0011972980612134823 0 0.014064821945358562 0.0012529540260474456 0 0.014108750419019845 0.0012019373798869205 0 0.013955522174016159 0.0012119437973142114 0 0.013945986908532227 0.0013241588797113183 0 0.014107459604485853 0.0012006840582333999 0 0.014136554981721536 0.001202866175602086 0 0.014180678000968682 0.0011972980612134823 0 0.014107459604485853 0.0012006840582333999 0 0.014107459604485853 0.0012006840582333999 0 0.014126731252202002 0.0011587727247407476 0 0.014139671119921985 0.0011980984140633488 0 0.014136554981721536 0.001202866175602086 0 0.014107459604485853 0.0012006840582333999 0 0.014139671119921985 0.0011980984140633488 0 0.014136554981721536 0.001202866175602086 0 0.014139671119921985 0.0011980984140633488 0 0.01414817677836947 0.0012039969195779727 0 0.013942812583035358 0.0010549070944077842 0 0.014107459604485853 0.0012006840582333999 0 0.014126731252202002 0.0011587727247407476 0 0.013942812583035358 0.0010549070944077842 0 0.013955522174016159 0.0012119437973142114 0 0.014107459604485853 0.0012006840582333999 0 0.011614966832870388 0.0015963871613513818 0 0.012113988403373285 0.0017445797895644312 0 0.0092990450413210721 0.0021282908089759324 0 0.010061776963597896 0.0024219920064205524 0 0.0098321752430817616 0.0018554201618410167 0 0.010627554746385545 0.002247651111952762 0 0.011012551931791775 0.0027574273603987623 0 0.011131223161672687 0.0019370329179432154 0 0.012459165956674402 0.0023221465681547439 0 0.01090921317237631 0.0021459077135604879 0 0.011308477014558074 0.0026371817527501267 0 0.01200968187371446 0.0022604446514761498 0 0.011131223161672687 0.0019370329179432154 0 0.010061776963597896 0.0024219920064205524 0 0.010627554746385545 0.002247651111952762 0 0.011012551931791775 0.0027574273603987623 0 0.010061776963597896 0.0024219920064205524 0 0.010627554746385545 0.002247651111952762 0 0.010345816741313163 0.0018432794250269823 0 0.012113988403373285 0.0017445797895644312 0 0.012459165956674402 0.0023221465681547439 0 0.014126731252202002 0.0011587727247407476 0 0.014139671119921985 0.0011980984140633488 0 0.014141817063935252 0.0012046255496148148 0 0.014139671119921985 0.0011980984140633488 0 0.014141817063935252 0.0012046255496148148 0 0.01414817677836947 0.0012039969195779727 0 0.012459165956674402 0.0023221465681547439 0 0.014156974486864801 0.0014810463841544673 0 0.013757431235457366 0.0018601323286561143 0 0.013379621961629156 0.0017771834529745347 0 0.013180459970245981 0.0022362160574570028 0 0.013692399592985812 0.0030143949391742554 0 0.013757431235457366 0.0018601323286561143 0 0.013180459970245981 0.0022362160574570028 0 0.014173088576741903 0.0011960607752384926 0 0.01414991966288434 0.0012058460775860047 0 0.01414817677836947 0.0012039969195779727 0 0.014141817063935252 0.0012046255496148148 0 0.01414991966288434 0.0012058460775860047 0 0.01414817677836947 0.0012039969195779727 0 0.014162426442042686 0.0012000925223769809 0 0.014173088576741903 0.0011960607752384926 0 0.01414991966288434 0.0012058460775860047 0 0.013757431235457366 0.0018601323286561143 0 0.013379621961629156 0.0017771834529745347 0 0.01360917655135668 0.0015602277477621252 0 0.014017194862393315 0.0013497451457033813 0 0.014156974486864801 0.0014810463841544673 0 0.013919276406023104 0.0014882077134712318 0 0.013757431235457366 0.0018601323286561143 0 0.01360917655135668 0.0015602277477621252 0 0.013372025037019074 0.0017768397852979949 0 0.013094924959087904 0.0016849124884191938 0 0.013379621961629156 0.0017771834529745347 0 0.012633815129131361 0.0017204287077577983 0 0.01267080231446906 0.0021530622663999835 0 0.013379621961629156 0.0017771834529745347 0 0.013515315669017708 0.0016307620943626616 0 0.01360917655135668 0.0015602277477621252 0 0.013515315669017708 0.0016307620943626616 0 0.01350681906828808 0.0015677822168033068 0 0.013514185490413277 0.0015536967863538796 0 0.013094924959087904 0.0016849124884191938 0 0.012969698639961891 0.0016140470579165754 0 0.012633815129131361 0.0017204287077577983 0 0.012404984057652694 0.0020476765329736396 0 0.012262916060429596 0.0016901539095363423 0 0.012633815129131361 0.0017204287077577983 0 0.012404984057652694 0.0020476765329736396 0 0.01267080231446906 0.0021530622663999835 0 0.01267080231446906 0.0021530622663999835 0 0.012388540975839061 0.0023449143258205429 0 0.012402289797866601 0.0026228484110566198 0 0.012404984057652694 0.0020476765329736396 0 0.01267080231446906 0.0021530622663999835 0 0.012388540975839061 0.0023449143258205429 0 0.01267080231446906 0.0021530622663999835 0 0.013180459970245981 0.0022362160574570028 0 0.012402289797866601 0.0026228484110566198 0 0.013379621961629156 0.0017771834529745347 0 0.01267080231446906 0.0021530622663999835 0 0.013180459970245981 0.0022362160574570028 0 0.012459165956674402 0.0023221465681547439 0 0.012424379389133251 0.0027725841695671856 0 0.013692399592985812 0.0030143949391742554 0 0.013180459970245981 0.0022362160574570028 0 0.012402289797866601 0.0026228484110566198 0 0.012388540975839061 0.0023449143258205429 0 0.012402289797866601 0.0026228484110566198 0 0.012389069614709036 0.0024307892033742715 0 0.012402289797866601 0.0026228484110566198 0 0.01200968187371446 0.0022604446514761498 0 0.012389069614709036 0.0024307892033742715 0 0.01200968187371446 0.0022604446514761498 0 0.012389069614709036 0.0024307892033742715 0 0.012402577808932115 0.0021383001554815297 0 0.011308477014558074 0.0026371817527501267 0 0.012402289797866601 0.0026228484110566198 0 0.01200968187371446 0.0022604446514761498 0 0.010377648548664378 0.00096790741681757443 0 0.01161514809446519 0.0014975651254150889 0 0.010684265129447526 0.00095869297371961452 0 0.01062893623025532 0.0011247979574851861 0 0.010561584288192784 0.00087487645147111528 0 0.010086444677323969 0.00099269405961476898 0 0.010116090188025138 0.00093825024851666434 0 0.010056355786192886 0.00093993090078117497 0 0.012389069614709036 0.0024307892033742715 0 0.012354091439789551 0.0024190488228344655 0 0.012402577808932115 0.0021383001554815297 0 0.01161514809446519 0.0014975651254150889 0 0.011381527627078745 0.0015638124257690935 0 0.01062893623025532 0.0011247979574851861 0 0.010561584288192784 0.00087487645147111528 0 0.010414439979849317 0.0009219514705431696 0 0.012389069614709036 0.0024307892033742715 0 0.012354091439789551 0.0024190488228344655 0 0.012216830650858879 0.0022379095642400528 0 0.012388540975839061 0.0023449143258205429 0 0.012389069614709036 0.0024307892033742715 0 0.012216830650858879 0.0022379095642400528 0 0.010116090188025138 0.00093825024851666434 0 0.010055127495291249 0.00088994963366232607 0 0.010056355786192886 0.00093993090078117497 0 0.012948345078163356 0.0014330417784020331 0 0.012958070872256445 0.0014380100275385734 0 0.012954132467704441 0.0014459543704087941 0 0.01161514809446519 0.0014975651254150889 0 0.011367435831343697 0.0010687003108979321 0 0.01161514809446519 0.0014975651254150889 0 0.012646385816464789 0.001868566844754622 0 0.012948345078163356 0.0014330417784020331 0 0.012958070872256445 0.0014380100275385734 0 0.012953170349677539 0.0014411948063534465 0 0.012958070872256445 0.0014380100275385734 0 0.012953170349677539 0.0014411948063534465 0 0.012963848134672636 0.001450022077636303 0 0.012958070872256445 0.0014380100275385734 0 0.012970247170260836 0.0014333225456520007 0 0.012954132467704441 0.0014459543704087941 0 0.012958070872256445 0.0014380100275385734 0 0.012963848134672636 0.001450022077636303 0 0.012970247170260836 0.0014333225456520007 0 0.012404984057652694 0.0020476765329736396 0 0.012388540975839061 0.0023449143258205429 0 0.012216830650858879 0.0022379095642400528 0 0.012404984057652694 0.0020476765329736396 0 0.012216830650858879 0.0022379095642400528 0 0.012262916060429596 0.0016901539095363423 0 0.012646385816464789 0.001868566844754622 0 0.012969698639961891 0.0016140470579165754 0 0.012953170349677539 0.0014411948063534465 0 0.012943864477405587 0.0014613105506019167 0 0.012963848134672636 0.001450022077636303 0 0.012963848134672636 0.001450022077636303 0 0.012981782625022177 0.0014724461031536537 0 0.012985145516496576 0.0014533198308671665 0 0.012943864477405587 0.0014613105506019167 0 0.012963848134672636 0.001450022077636303 0 0.012981782625022177 0.0014724461031536537 0 0.012963848134672636 0.001450022077636303 0 0.012985145516496576 0.0014533198308671665 0 0.012970247170260836 0.0014333225456520007 0 0.013339991004543108 0.0015363247124808601 0 0.013494563944703022 0.0013544071356459304 0 0.013311590170764762 0.0012935243578660821 0 0.013494563944703022 0.0013544071356459304 0 0.013488960380349429 0.0014941966720373454 0 0.013573597650081957 0.001434366090225164 0 0.012969698639961891 0.0016140470579165754 0 0.013207608786208158 0.0014993510047349946 0 0.013339991004543108 0.0015363247124808601 0 0.013494563944703022 0.0013544071356459304 0 0.013488960380349429 0.0014941966720373454 0 0.013488960380349429 0.0014941966720373454 0 0.013514185490413277 0.0015536967863538796 0 0.013573597650081957 0.001434366090225164 0 0.013509421755211061 0.0015825198177936732 0 0.013339991004543108 0.0015363247124808601 0 0.013488960380349429 0.0014941966720373454 0 0.013509421755211061 0.0015825198177936732 0 0.013488960380349429 0.0014941966720373454 0 0.013514185490413277 0.0015536967863538796 0 0.012969698639961891 0.0016140470579165754 0 0.013095868382244059 0.0015266228733046227 0 0.013515315669017708 0.0016307620943626616 0 0.013514185490413277 0.0015536967863538796 0 0.013578456761533108 0.0015259845541106295 0 0.013578456761533108 0.0015259845541106295 0 0.0136834407904678 0.001416167152311386 0 0.013573597650081957 0.001434366090225164 0 0.013514185490413277 0.0015536967863538796 0 0.013578456761533108 0.0015259845541106295 0 0.013573597650081957 0.001434366090225164 0 0.013515315669017708 0.0016307620943626616 0 0.013578456761533108 0.0015259845541106295 0 0.01360917655135668 0.0015602277477621252 0 0.013578456761533108 0.0015259845541106295 0 0.01360917655135668 0.0015602277477621252 0 0.0136834407904678 0.001416167152311386 0 0.0136834407904678 0.001416167152311386 0 0.013573597650081957 0.001434366090225164 0 0.013704380138498149 0.0012007758897899848 0 0.013494563944703022 0.0013544071356459304 0 0.013573597650081957 0.001434366090225164 0 0.013704380138498149 0.0012007758897899848 0 0.0136834407904678 0.001416167152311386 0 0.013704380138498149 0.0012007758897899848 0 0.013888208242212045 0.0012161645400153968 0 0.014116334587697019 0.00098215169958276792 0 0.013888208242212045 0.0012161645400153968 0 0.01391658752622018 0.0010001491579724122 0 0.013704380138498149 0.0012007758897899848 0 0.013888208242212045 0.0012161645400153968 0 0.01391658752622018 0.0010001491579724122 0 0.013713848742486504 0.00098402985352511732 0 0.013704380138498149 0.0012007758897899848 0 0.01391658752622018 0.0010001491579724122 0 0.013713848742486504 0.00098402985352511732 0 0.013704380138498149 0.0012007758897899848 0 0.013546332574691471 0.0011918418556891794 0 0.013713848742486504 0.00098402985352511732 0 0.013434184304153924 0.0010819851700264356 0 0.013546332574691471 0.0011918418556891794 0 0.013494563944703022 0.0013544071356459304 0 0.013311590170764762 0.0012935243578660821 0 0.013546332574691471 0.0011918418556891794 0 0.013434184304153924 0.0010819851700264356 0 0.013311590170764762 0.0012935243578660821 0 0.013546332574691471 0.0011918418556891794 0 0.013494563944703022 0.0013544071356459304 0 0.013704380138498149 0.0012007758897899848 0 0.013546332574691471 0.0011918418556891794 0 0.013051125562394865 0.0012658440169002595 0 0.013034753850815149 0.00110244534914753 0 0.012949480197458426 0.0011856153844906551 0 0.013051125562394865 0.0012658440169002595 0 0.013193206724260442 0.0011328091174837925 0 0.013034753850815149 0.00110244534914753 0 0.013434184304153924 0.0010819851700264356 0 0.013311590170764762 0.0012935243578660821 0 0.013193206724260442 0.0011328091174837925 0 0.013311590170764762 0.0012935243578660821 0 0.013051125562394865 0.0012658440169002595 0 0.013193206724260442 0.0011328091174837925 0 0.013434184304153924 0.0010819851700264356 0 0.013193206724260442 0.0011328091174837925 0 0.013237127779160737 0.0010061456404666809 0 0.013193206724260442 0.0011328091174837925 0 0.013237127779160737 0.0010061456404666809 0 0.013103555911068281 0.00098934305178877569 0 0.013193206724260442 0.0011328091174837925 0 0.013103555911068281 0.00098934305178877569 0 0.013034753850815149 0.00110244534914753 0 0.013103555911068281 0.00098934305178877569 0 0.013034753850815149 0.00110244534914753 0 0.012990004137385314 0.0010014759250110842 0 0.012901960384025172 0.00093288282362240639 0 0.012990004137385314 0.0010014759250110842 0 0.012901353833733193 0.0010864737332706024 0 0.012901960384025172 0.00093288282362240639 0 0.012901353833733193 0.0010864737332706024 0 0.012757864079445727 0.0010686583119451612 0 0.013034753850815149 0.00110244534914753 0 0.012990004137385314 0.0010014759250110842 0 0.012901353833733193 0.0010864737332706024 0 0.013034753850815149 0.00110244534914753 0 0.012901353833733193 0.0010864737332706024 0 0.012949480197458426 0.0011856153844906551 0 0.01431915870207673 0.00076918283008258219 0 0.014287741331863038 0.00073434104432955403 0 0.014303251003214282 0.00072415573059492026 0 0.013568374755234687 0.0008506134925318667 0 0.013416961531826527 0.0007672982752736097 0 0.012901353833733193 0.0010864737332706024 0 0.012757864079445727 0.0010686583119451612 0 0.012768593583740467 0.0011419196559727862 0 0.013416961531826527 0.0007672982752736097 0 0.012661562741712012 0.00071212963371129864 0 0.012661562741712012 0.00071212963371129864 0 0.01256010785228027 0.0007778553127154418 0 0.013416961531826527 0.0007672982752736097 0 0.01256010785228027 0.0007778553127154418 0 0.012891276352170083 0.00091064619036983197 0 0.013005318435820257 0.00085615904473649001 0 0.012858634316386943 0.00070047124613442375 0 0.012783548397477241 0.0011580879301730863 0 0.012897745677551236 0.0012792184712683129 0 0.012826362670327079 0.0013770898146325803 0 0.011190042234489602 0.00043267000067647777 0 0.011111605893717597 0.00054885095249504728 0 0.011130015746767776 0.00047727434414727516 0 0.01256010785228027 0.0007778553127154418 0 0.012185439015761258 0.0010508910725597316 0 0.011157923788721607 0.00039971552319345523 0 0.011190042234489602 0.00043267000067647777 0 0.011130015746767776 0.00047727434414727516 0 0.01256010785228027 0.0007778553127154418 0 0.012987586835033448 0.0013881708455612824 0 0.013051125562394865 0.0012658440169002595 0 0.012949480197458426 0.0011856153844906551 0 0.012897745677551236 0.0012792184712683129 0 0.012768593583740467 0.0011419196559727862 0 0.012949480197458426 0.0011856153844906551 0 0.012897745677551236 0.0012792184712683129 0 0.012901353833733193 0.0010864737332706024 0 0.012768593583740467 0.0011419196559727862 0 0.012949480197458426 0.0011856153844906551 0 0.012897745677551236 0.0012792184712683129 0 0.012957362926260716 0.0013828208353074854 0 0.012826362670327079 0.0013770898146325803 0 0.013051125562394865 0.0012658440169002595 0 0.012897745677551236 0.0012792184712683129 0 0.012957362926260716 0.0013828208353074854 0 0.011190042234489602 0.00043267000067647777 0 0.011206579009165883 0.00060617920838767494 0 0.011111605893717597 0.00054885095249504728 0 0.011206579009165883 0.00060617920838767494 0 0.011075946503270305 0.00066867542959693222 0 0.011111605893717597 0.00054885095249504728 0 0.011206579009165883 0.00060617920838767494 0 0.011233468235589846 0.00084693052851283188 0 0.011075946503270305 0.00066867542959693222 0 0.012185439015761258 0.0010508910725597316 0 0.010189534013812096 0.0010125538871297568 0 0.012826362670327079 0.0013770898146325803 0 0.012906346186461694 0.001452979624359228 0 0.012848644615913778 0.0015506891781348513 0 0.012957362926260716 0.0013828208353074854 0 0.012826362670327079 0.0013770898146325803 0 0.012906346186461694 0.001452979624359228 0 0.012957362926260716 0.0013828208353074854 0 0.012906346186461694 0.001452979624359228 0 0.01300466378427626 0.0014502559814383556 0 0.012906346186461694 0.001452979624359228 0 0.012973336870514291 0.0014771397289486438 0 0.01300466378427626 0.0014502559814383556 0 0.012906346186461694 0.001452979624359228 0 0.012973336870514291 0.0014771397289486438 0 0.01291202938819545 0.0015129644418766111 0 0.012957362926260716 0.0013828208353074854 0 0.013067860159899636 0.0014462040170266307 0 0.01300466378427626 0.0014502559814383556 0 0.012973336870514291 0.0014771397289486438 0 0.01300466378427626 0.0014502559814383556 0 0.012998679298304446 0.0014678322391453579 0 0.01300466378427626 0.0014502559814383556 0 0.013022966511703572 0.0014601270994827481 0 0.012998679298304446 0.0014678322391453579 0 0.013067860159899636 0.0014462040170266307 0 0.01300466378427626 0.0014502559814383556 0 0.013022966511703572 0.0014601270994827481 0 0.013051125562394865 0.0012658440169002595 0 0.012957362926260716 0.0013828208353074854 0 0.013067860159899636 0.0014462040170266307 0 0.013311590170764762 0.0012935243578660821 0 0.013051125562394865 0.0012658440169002595 0 0.013067860159899636 0.0014462040170266307 0 0.013339991004543108 0.0015363247124808601 0 0.013311590170764762 0.0012935243578660821 0 0.013067860159899636 0.0014462040170266307 0 0.012981782625022177 0.0014724461031536537 0 0.013067860159899636 0.0014462040170266307 0 0.013022966511703572 0.0014601270994827481 0 0.013207608786208158 0.0014993510047349946 0 0.013050634941208065 0.0014493970840312495 0 0.012999816512706576 0.0014553276607082351 0 0.013007553659741393 0.0014593339832656897 0 0.012970247170260836 0.0014333225456520007 0 0.012981782625022177 0.0014724461031536537 0 0.012985145516496576 0.0014533198308671665 0 0.013022966511703572 0.0014601270994827481 0 0.012985145516496576 0.0014533198308671665 0 0.013022966511703572 0.0014601270994827481 0 0.012999816512706576 0.0014553276607082351 0 0.012985145516496576 0.0014533198308671665 0 0.012999816512706576 0.0014553276607082351 0 0.012970247170260836 0.0014333225456520007 0 0.012973336870514291 0.0014771397289486438 0 0.012998679298304446 0.0014678322391453579 0 0.012985976649702406 0.0014679769699157486 0 0.012998679298304446 0.0014678322391453579 0 0.013005970823600154 0.001464553767162478 0 0.012985976649702406 0.0014679769699157486 0 0.013022966511703572 0.0014601270994827481 0 0.012999816512706576 0.0014553276607082351 0 0.013005970823600154 0.001464553767162478 0 0.013022966511703572 0.0014601270994827481 0 0.012998679298304446 0.0014678322391453579 0 0.013005970823600154 0.001464553767162478 0 0.012999816512706576 0.0014553276607082351 0 0.013005970823600154 0.001464553767162478 0 0.013007553659741393 0.0014593339832656897 0 0.013005970823600154 0.001464553767162478 0 0.013007553659741393 0.0014593339832656897 0 0.012985976649702406 0.0014679769699157486 0 0.012956602421724948 0.0014431347784896573 0 0.012985976649702406 0.0014679769699157486 0 0.012993392830289312 0.0014604755700312947 0 0.012147045016418142 0.0012119496453921483 0 0.011318040246566744 0.00117895250794729 0 0.012147045016418142 0.0012119496453921483 0 0.012899568343088341 0.0016117677594367184 0 0.010010414478842907 0.00085185244911502149 0 0.0099964327718488274 0.00089051671118039642 0 0.0099805581097303676 0.00084483018704797084 0 0.010010414478842907 0.00085185244911502149 0 0.0099964327718488274 0.00089051671118039642 0 0.010055127495291249 0.00088994963366232607 0 0.0099964327718488274 0.00089051671118039642 0 0.0099462852047440091 0.0009091592513171008 0 0.0099805581097303676 0.00084483018704797084 0 0.012890940044138544 0.0014102386583544773 0 0.012970247170260836 0.0014333225456520007 0 0.012954132467704441 0.0014459543704087941 0 0.012147045016418142 0.0012119496453921483 0 0.013278628585852246 0.0015095654454910469 0 0.012147045016418142 0.0012119496453921483 0 0.011367435831343697 0.0010687003108979321 0 0.010055127495291249 0.00088994963366232607 0 0.010056355786192886 0.00093993090078117497 0 0.010021368568610278 0.00091785850691882584 0 0.0099964327718488274 0.00089051671118039642 0 0.010055127495291249 0.00088994963366232607 0 0.010021368568610278 0.00091785850691882584 0 0.010056355786192886 0.00093993090078117497 0 0.010021368568610278 0.00091785850691882584 0 0.010005941177744487 0.0009515111898729541 0 0.0099964327718488274 0.00089051671118039642 0 0.0099730531224857515 0.00093936526236174469 0 0.0099462852047440091 0.0009091592513171008 0 0.0099964327718488274 0.00089051671118039642 0 0.010021368568610278 0.00091785850691882584 0 0.0099730531224857515 0.00093936526236174469 0 0.010021368568610278 0.00091785850691882584 0 0.0099730531224857515 0.00093936526236174469 0 0.010005941177744487 0.0009515111898729541 0 0.0099730531224857515 0.00093936526236174469 0 0.010005941177744487 0.0009515111898729541 0 0.0099521370182258373 0.00097535664180390671 0 0.010005941177744487 0.0009515111898729541 0 0.0099521370182258373 0.00097535664180390671 0 0.010026678823185316 0.00099167103582595935 0 0.0099730531224857515 0.00093936526236174469 0 0.0099521370182258373 0.00097535664180390671 0 0.0099157176793670688 0.00099487675970549643 0 0.010086444677323969 0.00099269405961476898 0 0.010056355786192886 0.00093993090078117497 0 0.010026678823185316 0.00099167103582595935 0 0.010056355786192886 0.00093993090078117497 0 0.010005941177744487 0.0009515111898729541 0 0.010026678823185316 0.00099167103582595935 0 0.0071049327184853376 0.0006770565817229002 0 0.0070650512323372 0.00064883906455074215 0 0.0070727137143788421 0.00072409324296459569 0 0.0071049327184853376 0.0006770565817229002 0 0.0071002085766571545 0.00068311846476758241 0 0.0070650512323372 0.00064883906455074215 0 0.0084086752102751159 0.00078155437142113967 0 0.008078346683299072 0.00073116027369016744 0 0.0099730531224857515 0.00093936526236174469 0 0.0099157176793670688 0.00099487675970549643 0 0.0099462852047440091 0.0009091592513171008 0 0.0084086752102751159 0.00078155437142113967 0 0.0096866927722216774 0.0008618073641283848 0 0.0094661748973867924 0.00073864280215206663 0 0.0095217800149433231 0.00088143180550209581 0 0.009482767481562791 0.00087291867121453651 0 0.0071049327184853376 0.0006770565817229002 0 0.0070882477576992156 0.00070108023531859889 0 0.0071002085766571545 0.00068311846476758241 0 0.0070882477576992156 0.00070108023531859889 0 0.0071002085766571545 0.00068311846476758241 0 0.0071285326024131913 0.0007477688177852603 0 0.0070882477576992156 0.00070108023531859889 0 0.0071285326024131913 0.0007477688177852603 0 0.007110448089343805 0.00080168202619899714 0 0.0095217800149433231 0.00088143180550209581 0 0.009486864481201349 0.001014624509442153 0 0.0095649297697615633 0.0010323370834382922 0 0.0095217800149433231 0.00088143180550209581 0 0.009482767481562791 0.00087291867121453651 0 0.009486864481201349 0.001014624509442153 0 0.0096866927722216774 0.0008618073641283848 0 0.011318040246566744 0.00117895250794729 0 0.008078346683299072 0.00073116027369016744 0 0.010189534013812096 0.0010125538871297568 0 0.012906346186461694 0.001452979624359228 0 0.01291202938819545 0.0015129644418766111 0 0.012848644615913778 0.0015506891781348513 0 0.011318040246566744 0.00117895250794729 0 0.010189534013812096 0.0010125538871297568 0 0.012941938744922827 0.0015745224476996552 0 0.01291202938819545 0.0015129644418766111 0 0.012848644615913778 0.0015506891781348513 0 0.012973336870514291 0.0014771397289486438 0 0.012985976649702406 0.0014679769699157486 0 0.012993392830289312 0.0014604755700312947 0 0.012668788413763728 0.0014746204263526015 0 0.011318040246566744 0.00117895250794729 0 0.012973336870514291 0.0014771397289486438 0 0.012941938744922827 0.0015745224476996552 0 0.01291202938819545 0.0015129644418766111 0 0.010189534013812096 0.0010125538871297568 0 0.0088327736560515138 0.00076636433957091052 0 0.011233468235589846 0.00084693052851283188 0 0.011054446725640175 0.00081503324669180029 0 0.011075946503270305 0.00066867542959693222 0 0.0071285326024131913 0.0007477688177852603 0 0.007110448089343805 0.00080168202619899714 0 0.0071788919948920053 0.00082548213612764171 0 0.0088327736560515138 0.00076636433957091052 0 0.0095506591770759611 0.00077324122568799383 0 0.0071788919948920053 0.00082548213612764171 0 0.0072671782849825887 0.00084837811717529638 0 0.0072537585232719968 0.00077530248896968328 0 0.0072671782849825887 0.00084837811717529638 0 0.0072537585232719968 0.00077530248896968328 0 0.0073456241823528787 0.00080997215318730882 0 0.0072537585232719968 0.00077530248896968328 0 0.0071750025335394121 0.00073606830083714088 0 0.0072375287411592121 0.00069985219355751848 0 0.0072537585232719968 0.00077530248896968328 0 0.0072375287411592121 0.00069985219355751848 0 0.0073272549464819424 0.00072390873589592741 0 0.0071285326024131913 0.0007477688177852603 0 0.0071788919948920053 0.00082548213612764171 0 0.0071750025335394121 0.00073606830083714088 0 0.0071002085766571545 0.00068311846476758241 0 0.0071285326024131913 0.0007477688177852603 0 0.0071750025335394121 0.00073606830083714088 0 0.0071788919948920053 0.00082548213612764171 0 0.0072537585232719968 0.00077530248896968328 0 0.0071750025335394121 0.00073606830083714088 0 0.0071002085766571545 0.00068311846476758241 0 0.0071750025335394121 0.00073606830083714088 0 0.0071521174424094237 0.00068093745851809649 0 0.0071002085766571545 0.00068311846476758241 0 0.0071521174424094237 0.00068093745851809649 0 0.0070650512323372 0.00064883906455074215 0 0.0071750025335394121 0.00073606830083714088 0 0.0071521174424094237 0.00068093745851809649 0 0.0072375287411592121 0.00069985219355751848 0 0.0071521174424094237 0.00068093745851809649 0 0.0072375287411592121 0.00069985219355751848 0 0.0072125653085783024 0.00061920748290043848 0 0.006975870813720979 0.00062411253685301334 0 0.0074739350752622835 0.00033612735948023673 0 0.0072375287411592121 0.00069985219355751848 0 0.0072125653085783024 0.00061920748290043848 0 0.0073161777598804911 0.00062518738058413834 0 0.006975870813720979 0.00062411253685301334 0 0.0070950651922926568 0.00064264675360449313 0 0.0071521174424094237 0.00068093745851809649 0 0.0072125653085783024 0.00061920748290043848 0 0.0070650512323372 0.00064883906455074215 0 0.006893482208742481 0.00061588790591482706 0 0.0070650512323372 0.00064883906455074215 0 0.006942025459567327 0.00076256024054267239 0 0.0079097036632931883 1.4482928219531428e-07 0 0.0073670916214259186 6.418554115600237e-05 0 0.0074407546625433682 -6.0042220617296281e-05 0 0.0079111785508145776 1.1611325700756856e-08 0 0.0074739350752622835 0.00033612735948023673 0 0.0073670916214259186 6.418554115600237e-05 0 0.0073824339179033539 -4.1442871208265137e-05 0 0.0074407546625433682 -6.0042220617296281e-05 0 0.0074739350752622835 0.00033612735948023673 0 0.0071313521060414903 0.00018999372793458 0 0.006893482208742481 0.00061588790591482706 0 0.0067678652816761586 0.00059677232864790368 0 0.0067706228788636316 0.00071825892370277653 0 0.0074739350752622835 0.00033612735948023673 0 0.0078364446291073666 0.00032715021131773123 0 0.0072375287411592121 0.00069985219355751848 0 0.0073161777598804911 0.00062518738058413834 0 0.0073272549464819424 0.00072390873589592741 0 0.007912808061703247 -2.284273521154894e-08 0 0.0083279573325193632 0.00012998446558434306 0 0.0083792899626018678 -0.0001137891833406072 0 0.007912808061703247 -2.284273521154894e-08 0 0.0088123406859411512 3.4887486123004757e-08 0 0.0083792899626018678 -0.0001137891833406072 0 0.0088123406859411512 3.4887486123004757e-08 0 0.0083792899626018678 -0.0001137891833406072 0 0.0084366151256398108 0.0002221896889038886 0 0.0078364446291073666 0.00032715021131773123 0 0.0085115644353615134 0.00046741908708450964 0 0.0072537585232719968 0.00077530248896968328 0 0.0073272549464819424 0.00072390873589592741 0 0.0073456241823528787 0.00080997215318730882 0 0.0094734896319411468 0.00052423834092794246 0 0.0093611522647600084 0.00057644274982507793 0 0.0093587508141154564 0.00049723078321773414 0 0.0095506591770759611 0.00077324122568799383 0 0.0085115644353615134 0.00046741908708450964 0 0.0085115644353615134 0.00046741908708450964 0 0.010135275483320792 0.00041228694318371119 0 0.0088155853625248876 7.5208234816094224e-09 0 0.0092599555445673724 1.5542816911011975e-05 0 0.0092006896479029307 -3.3553762330743516e-05 0 0.0088155853625248876 7.5208234816094224e-09 0 0.0092006896479029307 -3.3553762330743516e-05 0 0.0094037117227157817 -2.2206277066414185e-06 0 0.0088149137467867875 -2.2820027175749047e-07 0 0.0085115644353615134 0.00046741908708450964 0 0.0088155853625248876 7.5208234816094224e-09 0 0.0094037117227157817 -2.2206277066414185e-06 0 0.0096248122141682092 6.2461639906539612e-09 0 0.0092599555445673724 1.5542816911011975e-05 0 0.0092006896479029307 -3.3553762330743516e-05 0 0.0092015762963240932 -2.5991464008728869e-06 0 0.0092006896479029307 -3.3553762330743516e-05 0 0.0094037117227157817 -2.2206277066414185e-06 0 0.0092632184586623825 6.1197024408412795e-05 0 0.0095530166295449432 0.00017798222647725094 0 0.0097861095678901597 0.00025458701518151866 0 0.0097861095678901597 0.00025458701518151866 0 0.009626032786327442 2.397301452862174e-07 0 0.0094037117227157817 -2.2206277066414185e-06 0 0.0094925521221586248 6.4560693496393333e-06 0 0.0096248122141682092 6.2461639906539612e-09 0 0.0097861095678901597 0.00025458701518151866 0 0.010135275483320792 0.00041228694318371119 0 0.0092006896479029307 -3.3553762330743516e-05 0 0.0092632184586623825 6.1197024408412795e-05 0 0.0092015762963240932 -2.5991464008728869e-06 0 0.0099758371668593974 0.00012031604949481194 0 0.010091039841968952 -1.1972778473931978e-05 0 0.010175548586408886 3.3176275747627486e-05 0 0.0097861095678901597 0.00025458701518151866 0 0.01153013539834183 0.00043996047901529313 0 0.010296428034253277 0.00046803049251250829 0 0.010622881087563128 0.00021262816871538221 0 0.010645893649939167 0.00054620227710145514 0 0.0099758371668593974 0.00012031604949481194 0 0.0096268891649906561 4.8925575741469086e-07 0 0.010091039841968952 -1.1972778473931978e-05 0 0.0096268891649906561 4.8925575741469086e-07 0 0.010091039841968952 -1.1972778473931978e-05 0 0.010312892647474229 -2.8402548869817159e-07 0 0.010091039841968952 -1.1972778473931978e-05 0 0.010534054012969977 -3.8063217741803467e-05 0 0.010312892647474229 -2.8402548869817159e-07 0 0.010091039841968952 -1.1972778473931978e-05 0 0.010175548586408886 3.3176275747627486e-05 0 0.010534054012969977 -3.8063217741803467e-05 0 0.01153013539834183 0.00043996047901529313 0 0.012266618425862118 0.00018087213736882915 0 0.01384819581709985 0.00046659096617574544 0 0.013829457094183477 0.00049291753104482579 0 0.013883861197487449 0.00052058567451617225 0 0.01153013539834183 0.00043996047901529313 0 0.012483917476781655 0.00047962915138488702 0 0.010914142762281928 0.00064992263608418114 0 0.010840049184187387 0.0006308742117216089 0 0.010935183397470473 0.00055781281633329695 0 0.010958278300993243 0.00071765839578652132 0 0.010914142762281928 0.00064992263608418114 0 0.010840245881937063 0.00068806923651355649 0 0.0095506591770759611 0.00077324122568799383 0 0.010135275483320792 0.00041228694318371119 0 0.01153013539834183 0.00043996047901529313 0 0.010135275483320792 0.00041228694318371119 0 0.010914142762281928 0.00064992263608418114 0 0.010840049184187387 0.0006308742117216089 0 0.010840245881937063 0.00068806923651355649 0 0.010958278300993243 0.00071765839578652132 0 0.010914142762281928 0.00064992263608418114 0 0.011012391940358279 0.00060399964809611131 0 0.010958278300993243 0.00071765839578652132 0 0.011075946503270305 0.00066867542959693222 0 0.011012391940358279 0.00060399964809611131 0 0.0095506591770759611 0.00077324122568799383 0 0.011529969897400794 0.000541004574409656 0 0.011054446725640175 0.00081503324669180029 0 0.010806358772167237 0.00077141881515135782 0 0.011075946503270305 0.00066867542959693222 0 0.011075946503270305 0.00066867542959693222 0 0.011111605893717597 0.00054885095249504728 0 0.011012391940358279 0.00060399964809611131 0 0.011054313374432686 0.00054220000752020685 0 0.011111605893717597 0.00054885095249504728 0 0.011012391940358279 0.00060399964809611131 0 0.011054313374432686 0.00054220000752020685 0 0.011111605893717597 0.00054885095249504728 0 0.011096218727899294 0.00051149996679386361 0 0.011054313374432686 0.00054220000752020685 0 0.010935183397470473 0.00055781281633329695 0 0.011053849782876478 0.00048991447024689984 0 0.011054313374432686 0.00054220000752020685 0 0.011012391940358279 0.00060399964809611131 0 0.010935183397470473 0.00055781281633329695 0 0.010914142762281928 0.00064992263608418114 0 0.011012391940358279 0.00060399964809611131 0 0.010935183397470473 0.00055781281633329695 0 0.013829457094183477 0.00049291753104482579 0 0.013787111888230001 0.00052575598511477061 0 0.013850126101801905 0.0005690897102054133 0 0.010935183397470473 0.00055781281633329695 0 0.011053849782876478 0.00048991447024689984 0 0.011057630188903832 0.00045005487549793427 0 0.012483917476781655 0.00047962915138488702 0 0.012413675292473492 0.00048209253176735464 0 0.011157923788721607 0.00039971552319345523 0 0.011103656507380722 0.00047679215891719573 0 0.011053849782876478 0.00048991447024689984 0 0.011376541658574886 0.00029071213690358508 0 0.011053849782876478 0.00048991447024689984 0 0.011057630188903832 0.00045005487549793427 0 0.012661562741712012 0.00071212963371129864 0 0.010743540651993247 0.00054936356731946146 0 0.012661562741712012 0.00071212963371129864 0 0.012413675292473492 0.00048209253176735464 0 0.011111605893717597 0.00054885095249504728 0 0.011130015746767776 0.00047727434414727516 0 0.011096218727899294 0.00051149996679386361 0 0.011096218727899294 0.00051149996679386361 0 0.011103656507380722 0.00047679215891719573 0 0.011075898617086161 0.00050287160684757176 0 0.011130015746767776 0.00047727434414727516 0 0.011096218727899294 0.00051149996679386361 0 0.011103656507380722 0.00047679215891719573 0 0.011103656507380722 0.00047679215891719573 0 0.011075898617086161 0.00050287160684757176 0 0.011053849782876478 0.00048991447024689984 0 0.011054313374432686 0.00054220000752020685 0 0.011096218727899294 0.00051149996679386361 0 0.011075898617086161 0.00050287160684757176 0 0.011054313374432686 0.00054220000752020685 0 0.011075898617086161 0.00050287160684757176 0 0.011053849782876478 0.00048991447024689984 0 0.011157923788721607 0.00039971552319345523 0 0.011130015746767776 0.00047727434414727516 0 0.011103656507380722 0.00047679215891719573 0 0.013724391489538775 0.00056861582196931679 0 0.013787111888230001 0.00052575598511477061 0 0.01379101682403385 0.00057254977265319207 0 0.014266424343256093 0.00078961026860165226 0 0.012661562741712012 0.00071212963371129864 0 0.01431915870207673 0.00076918283008258219 0 0.014369817058093004 0.00079665206783682038 0 0.014303251003214282 0.00072415573059492026 0 0.013798857346032853 0.00062869234085878025 0 0.013724391489538775 0.00056861582196931679 0 0.01379101682403385 0.00057254977265319207 0 0.013787111888230001 0.00052575598511477061 0 0.01379101682403385 0.00057254977265319207 0 0.013850126101801905 0.0005690897102054133 0 0.013798857346032853 0.00062869234085878025 0 0.01379101682403385 0.00057254977265319207 0 0.013850126101801905 0.0005690897102054133 0 0.013870317790069158 0.00062917215029058889 0 0.013850126101801905 0.0005690897102054133 0 0.013928700800137988 0.00059995663058378464 0 0.013850126101801905 0.0005690897102054133 0 0.013928700800137988 0.00059995663058378464 0 0.013883861197487449 0.00052058567451617225 0 0.01255719060456013 0.00026289371895664833 0 0.012266618425862118 0.00018087213736882915 0 0.011188123460196096 -8.4703739787219748e-07 0 0.010999780368896504 6.8008887712200109e-08 0 0.010534054012969977 -3.8063217741803467e-05 0 0.010999780368896504 6.8008887712200109e-08 0 0.010534054012969977 -3.8063217741803467e-05 0 0.010312892647474229 -2.8402548869817159e-07 0 0.013829457094183477 0.00049291753104482579 0 0.013850126101801905 0.0005690897102054133 0 0.013883861197487449 0.00052058567451617225 0 0.00098356441628133636 0.0016459491290740931 0 0.0013856384707628267 0.0015733798428260949 0 0.0010063237748976579 0.0012802874771276579 0 0.0046517247970724396 6.0966941940981524e-09 0 0.0045534402004734284 1.8195496511096697e-06 0 0.0038370204609916411 1.5463423430552687e-08 0 0.0013856384707628267 0.0015733798428260949 0 0.0013948301730133299 0.0010940742172999983 0 0.0010063237748976579 0.0012802874771276579 0 0.0029691925651445998 0.00074611010802632001 0 0.002569276860622932 0.00051528837375153745 0 0.0045534402004734284 1.8195496511096697e-06 0 0.0038370204609916411 1.5463423430552687e-08 0 0.0037572806942544369 1.2371789360991039e-06 0 0.0013948301730133299 0.0010940742172999983 0 0.0010063237748976579 0.0012802874771276579 0 0.0010765272965015545 0.00092960073018211187 0 0.0010063237748976579 0.0012802874771276579 0 0.00052457711644626976 0.0014012276236923336 0 0.00058115234042948574 0.00097471655194697633 0 0.00052457711644626976 0.0014012276236923336 0 0.00017346113493178167 0.0010577709621609559 0 0.00058115234042948574 0.00097471655194697633 0 0.00052457711644626976 0.0014012276236923336 0 0.00064804759354043773 0.0018509243591967011 0 0.00024860386553612722 0.0017434557870754409 0 0.00098356441628133636 0.0016459491290740931 0 0.0010063237748976579 0.0012802874771276579 0 0.00052457711644626976 0.0014012276236923336 0 0.00098356441628133636 0.0016459491290740931 0 0.00052457711644626976 0.0014012276236923336 0 0.00064804759354043773 0.0018509243591967011 0 0.00098356441628133636 0.0016459491290740931 0 0.00064804759354043773 0.0018509243591967011 0 0.0010226709961516575 0.0021201059212982635 0 0.00064804759354043773 0.0018509243591967011 0 0.00041016454142336824 0.0020718766656358306 0 0.00024860386553612722 0.0017434557870754409 0 0.00064804759354043773 0.0018509243591967011 0 0.00041016454142336824 0.0020718766656358306 0 0.00068521851108798251 0.0021587822854772371 0 0.00052243381988648703 0.0023060242627602344 0 0.00068521851108798251 0.0021587822854772371 0 0.0007728231304181258 0.002401941477427253 0 0.00041016454142336824 0.0020718766656358306 0 0.00052243381988648703 0.0023060242627602344 0 0.00068521851108798251 0.0021587822854772371 0 0.00041016454142336824 0.0020718766656358306 0 0.00052243381988648703 0.0023060242627602344 0 0.00035989151666652888 0.0022649338418361722 0 0.00064804759354043773 0.0018509243591967011 0 0.00068521851108798251 0.0021587822854772371 0 0.0010226709961516575 0.0021201059212982635 0 0.00068521851108798251 0.0021587822854772371 0 0.0010226709961516575 0.0021201059212982635 0 0.0007728231304181258 0.002401941477427253 0 0.0011357835838380081 0.0018951749096236831 0 0.0012132296574051753 0.0017655679272755556 0 0.0013586373759276024 0.0018958071302679301 0 0.0011357835838380081 0.0018951749096236831 0 0.0013586373759276024 0.0018958071302679301 0 0.0012790706283917702 0.0019868719805515188 0 0.00098356441628133636 0.0016459491290740931 0 0.0011357835838380081 0.0018951749096236831 0 0.0012132296574051753 0.0017655679272755556 0 0.00099820673890445126 0.0016799521028604445 0 0.0010927189583234457 0.0019551347047172306 0 0.00098356441628133636 0.0016459491290740931 0 0.0013856384707628267 0.0015733798428260949 0 0.0012132296574051753 0.0017655679272755556 0 0.0046517247970724396 6.0966941940981524e-09 0 0.0054665306055655125 8.7943180626227998e-09 0 0.0053496185934427043 2.4771251870760063e-06 0 0.0013856384707628267 0.0015733798428260949 0 0.0012132296574051753 0.0017655679272755556 0 0.0013586373759276024 0.0018958071302679301 0 0.0046517247970724396 6.0966941940981524e-09 0 0.0045534402004734284 1.8195496511096697e-06 0 0.0053496185934427043 2.4771251870760063e-06 0 0.0029691925651445998 0.00074611010802632001 0 0.0033646418874261471 0.00091318042769130791 0 0.0033646418874261471 0.00091318042769130791 0 0.0036968063493165977 0.00099075655925025263 0 0.0013586373759276024 0.0018958071302679301 0 0.0012790706283917702 0.0019868719805515188 0 0.0013788294962563169 0.0020770944239525409 0 0.0054665306055655125 8.7943180626227998e-09 0 0.0053496185934427043 2.4771251870760063e-06 0 0.006143977889889689 1.482204469754535e-06 0 0.0054665306055655125 8.7943180626227998e-09 0 0.0062811345596424329 1.104080463388523e-08 0 0.006143977889889689 1.482204469754535e-06 0 0.0012340980987026109 0.0020582993817316688 0 0.0012790706283917702 0.0019868719805515188 0 0.0013788294962563169 0.0020770944239525409 0 0.0011357835838380081 0.0018951749096236831 0 0.0012340980987026109 0.0020582993817316688 0 0.0012790706283917702 0.0019868719805515188 0 0.0010927189583234457 0.0019551347047172306 0 0.00091429458485134635 0.0024831159813834083 0 0.0012340980987026109 0.0020582993817316688 0 0.0013788294962563169 0.0020770944239525409 0 0.0012924411853037364 0.0021935271983847641 0 0.00091429458485134635 0.0024831159813834083 0 0.0040533641167004213 0.0015305980937854265 0 0.0062811345596424329 1.104080463388523e-08 0 0.006143977889889689 1.482204469754535e-06 0 0.006873426281626579 1.0707025975890102e-05 0 0.0036968063493165977 0.00099075655925025263 0 0.0046717139587590904 0.0011600236649037773 0 0.0072542290661639051 7.3829663981445957e-05 0 0.0074005230971697557 0.00011432042446186086 0 0.0073341461207456216 3.2764928042959944e-06 0 0.0062811345596424329 1.104080463388523e-08 0 0.0070095384031572472 1.1707885388550943e-05 0 0.0070963694706594038 -5.5607677984719401e-08 0 0.0013788294962563169 0.0020770944239525409 0 0.0014183318928065426 0.0022325315896621219 0 0.0012924411853037364 0.0021935271983847641 0 0.0062811345596424329 1.104080463388523e-08 0 0.006873426281626579 1.0707025975890102e-05 0 0.0070095384031572472 1.1707885388550943e-05 0 0.0046717139587590904 0.0011600236649037773 0 0.0060139508501792427 0.0011403874692191378 0 0.0072480091684329444 0.00013485784390811063 0 0.0072513381362345119 5.8587808453144023e-05 0 0.0070095384031572472 1.1707885388550943e-05 0 0.0046717139587590904 0.0011600236649037773 0 0.0047423138657530506 0.0010456431474758128 0 0.0072542290661639051 7.3829663981445957e-05 0 0.0072513381362345119 5.8587808453144023e-05 0 0.0073341461207456216 3.2764928042959944e-06 0 0.0040533641167004213 0.0015305980937854265 0 0.0071313521060414903 0.00018999372793458 0 0.0046717139587590904 0.0011600236649037773 0 0.0040533641167004213 0.0015305980937854265 0 0.0074005230971697557 0.00011432042446186086 0 0.0073824339179033539 -4.1442871208265137e-05 0 0.0073341461207456216 3.2764928042959944e-06 0 0.0067679659978814718 0.00083338858610895348 0 0.0067706228788636316 0.00071825892370277653 0 0.0068448138012006969 0.00077308704998742977 0 0.0079097036632931883 1.4482928219531428e-07 0 0.0074407546625433682 -6.0042220617296281e-05 0 0.0070963694706594038 -5.5607677984719401e-08 0 0.0074407546625433682 -6.0042220617296281e-05 0 0.0070963694706594038 -5.5607677984719401e-08 0 0.0072378403205258738 -7.6838833454059645e-06 0 0.0070095384031572472 1.1707885388550943e-05 0 0.0070963694706594038 -5.5607677984719401e-08 0 0.0072378403205258738 -7.6838833454059645e-06 0 0.0072513381362345119 5.8587808453144023e-05 0 0.0070095384031572472 1.1707885388550943e-05 0 0.0072378403205258738 -7.6838833454059645e-06 0 0.0073824339179033539 -4.1442871208265137e-05 0 0.0074407546625433682 -6.0042220617296281e-05 0 0.0073341461207456216 3.2764928042959944e-06 0 0.0072513381362345119 5.8587808453144023e-05 0 0.0072378403205258738 -7.6838833454059645e-06 0 0.0073341461207456216 3.2764928042959944e-06 0 0.0074407546625433682 -6.0042220617296281e-05 0 0.0072378403205258738 -7.6838833454059645e-06 0 0.0073341461207456216 3.2764928042959944e-06 0 0.0070650512323372 0.00064883906455074215 0 0.006942025459567327 0.00076256024054267239 0 0.0070137258974653574 0.00075504117489296504 0 0.006893482208742481 0.00061588790591482706 0 0.0067706228788636316 0.00071825892370277653 0 0.0068448138012006969 0.00077308704998742977 0 0.006893482208742481 0.00061588790591482706 0 0.006942025459567327 0.00076256024054267239 0 0.0068448138012006969 0.00077308704998742977 0 0.006942025459567327 0.00076256024054267239 0 0.0068448138012006969 0.00077308704998742977 0 0.0069031067021091963 0.00087300290471146839 0 0.0040533641167004213 0.0015305980937854265 0 0.0038284339853173434 0.0018621875941200509 0 0.0067679659978814718 0.00083338858610895348 0 0.0068448138012006969 0.00077308704998742977 0 0.0069031067021091963 0.00087300290471146839 0 0.006942025459567327 0.00076256024054267239 0 0.0069662440703062226 0.0008306040518790748 0 0.0069031067021091963 0.00087300290471146839 0 0.006942025459567327 0.00076256024054267239 0 0.0069662440703062226 0.0008306040518790748 0 0.0070137258974653574 0.00075504117489296504 0 0.0069662440703062226 0.0008306040518790748 0 0.0069031067021091963 0.00087300290471146839 0 0.0069715810207194072 0.0008661225542679205 0 0.0038284339853173434 0.0018621875941200509 0 0.0034530411503276093 0.0016544080243173095 0 0.00068339369373482547 0.0027609356986669662 0 0.0005008134950948447 0.0025033988999046595 0 0.000332841809861622 0.0025145540428174558 0 0.0010621227638629783 0.0025326346021951806 0 0.0011250332613180123 0.0029398533420419374 0 0.00068339369373482547 0.0027609356986669662 0 0.0010226709961516575 0.0021201059212982635 0 0.0010621227638629783 0.0025326346021951806 0 0.0007728231304181258 0.002401941477427253 0 0.0010621227638629783 0.0025326346021951806 0 0.00068339369373482547 0.0027609356986669662 0 0.0007728231304181258 0.002401941477427253 0 0.00068339369373482547 0.0027609356986669662 0 0.0007728231304181258 0.002401941477427253 0 0.0005008134950948447 0.0025033988999046595 0 0.00052243381988648703 0.0023060242627602344 0 0.0007728231304181258 0.002401941477427253 0 0.0005008134950948447 0.0025033988999046595 0 0.00052243381988648703 0.0023060242627602344 0 0.0005008134950948447 0.0025033988999046595 0 0.00040354315129903734 0.0024067712953607296 0 0.00052243381988648703 0.0023060242627602344 0 0.00040354315129903734 0.0024067712953607296 0 0.00035989151666652888 0.0022649338418361722 0 0.00040354315129903734 0.0024067712953607296 0 0.00027382976657904391 0.0023414730402445045 0 0.00035989151666652888 0.0022649338418361722 0 0.00040354315129903734 0.0024067712953607296 0 0.00027382976657904391 0.0023414730402445045 0 0.00032098015260880971 0.0025582891725857717 0 0.00032098015260880971 0.0025582891725857717 0 0.00097059408475442459 0.0026825856329033299 0 0.000332841809861622 0.0025145540428174558 0 0.00027382976657904391 0.0023414730402445045 0 0.00032098015260880971 0.0025582891725857717 0 5.342880593197442e-05 0.0022898632571365027 0 0.0005008134950948447 0.0025033988999046595 0 0.00032098015260880971 0.0025582891725857717 0 0.000332841809861622 0.0025145540428174558 0 0.0005008134950948447 0.0025033988999046595 0 0.00040354315129903734 0.0024067712953607296 0 0.00032098015260880971 0.0025582891725857717 0 0.00097059408475442459 0.0026825856329033299 0 0.0010630176830101589 0.0026836111213560439 0 0.000332841809861622 0.0025145540428174558 0 1.0567598266279299e-05 0.0026196201299043139 0 0.00120813898774209 0.0022264251835265344 0 0.00032098015260880971 0.0025582891725857717 0 0.00094231713521464582 0.0027403704589571642 0 0.0011106509715945118 0.0028767367613209082 0 0.0050941608653479976 0.0016000573721536477 0 0.0072047836190336648 0.0009303372080310293 0 0.00032098015260880971 0.0025582891725857717 0 0.00097059408475442459 0.0026825856329033299 0 0.00094231713521464582 0.0027403704589571642 0 0.0069169742322717038 0.00084448545929394117 0 0.006967408120897676 0.00086519784718259432 0 0.0069715810207194072 0.0008661225542679205 0 0.00032098015260880971 0.0025582891725857717 0 -0.00032345899351045781 0.0023252656390783293 0 5.342880593197442e-05 0.0022898632571365027 0 0.0050941608653479976 0.0016000573721536477 0 0.0034530411503276093 0.0016544080243173095 0 0.0039861952370878655 0.001537391902063145 0 0.0050941608653479976 0.0016000573721536477 0 0.00097059408475442459 0.0026825856329033299 0 0.0010320182672145703 0.0027409976148228192 0 0.00094231713521464582 0.0027403704589571642 0 0.00097059408475442459 0.0026825856329033299 0 0.0010320182672145703 0.0027409976148228192 0 0.0010632404970831368 0.0026978446376124156 0 0.0010320182672145703 0.0027409976148228192 0 0.0010632404970831368 0.0026978446376124156 0 0.0010905550373155899 0.0027441538639313809 0 0.0010320182672145703 0.0027409976148228192 0 0.00094231713521464582 0.0027403704589571642 0 0.0011106509715945118 0.0028767367613209082 0 0.0050941608653479976 0.0016000573721536477 0 0.0090270874485171449 0.00078085876050891046 0 0.0071814182582409375 0.0011209320771945839 0 0.0071103453255538821 0.00096202978313435531 0 0.0071842172482648858 0.00086072716445682841 0 0.0069662440703062226 0.0008306040518790748 0 0.0069715810207194072 0.0008661225542679205 0 0.0069869782021933268 0.00084592649742682704 0 0.006967408120897676 0.00086519784718259432 0 0.0069715810207194072 0.0008661225542679205 0 0.0069869782021933268 0.00084592649742682704 0 0.0072047836190336648 0.0009303372080310293 0 0.0069872324869899314 0.00079101989774676984 0 0.0069662440703062226 0.0008306040518790748 0 0.0069869782021933268 0.00084592649742682704 0 0.0070277302938054438 0.00080829446933977341 0 0.006967408120897676 0.00086519784718259432 0 0.0069869782021933268 0.00084592649742682704 0 0.0070277302938054438 0.00080829446933977341 0 0.0069662440703062226 0.0008306040518790748 0 0.0070277302938054438 0.00080829446933977341 0 0.0070137258974653574 0.00075504117489296504 0 0.0070277302938054438 0.00080829446933977341 0 0.0071215295714729503 0.00079794224062877239 0 0.0070727137143788421 0.00072409324296459569 0 0.0071103453255538821 0.00096202978313435531 0 0.0071842172482648858 0.00086072716445682841 0 0.0071215295714729503 0.00079794224062877239 0 0.0071103453255538821 0.00096202978313435531 0 0.0070277302938054438 0.00080829446933977341 0 0.0071215295714729503 0.00079794224062877239 0 0.0084086752102751159 0.00078155437142113967 0 0.0090270874485171449 0.00078085876050891046 0 0.0099157176793670688 0.00099487675970549643 0 0.0098555596176957156 0.00090564528576884159 0 0.0098926841003691389 0.00097651106504583428 0 0.0084086752102751159 0.00078155437142113967 0 0.0069154869481184962 0.0007695096449556524 0 0.0071799980197726609 0.0005894994716296179 0 0.0071842172482648858 0.00086072716445682841 0 0.0071215295714729503 0.00079794224062877239 0 0.0071049327184853376 0.0006770565817229002 0 0.0071215295714729503 0.00079794224062877239 0 0.0070727137143788421 0.00072409324296459569 0 0.0099521370182258373 0.00097535664180390671 0 0.0099157176793670688 0.00099487675970549643 0 0.0098926841003691389 0.00097651106504583428 0 0.0070650512323372 0.00064883906455074215 0 0.0070137258974653574 0.00075504117489296504 0 0.0070727137143788421 0.00072409324296459569 0 0.0070277302938054438 0.00080829446933977341 0 0.0070137258974653574 0.00075504117489296504 0 0.0070727137143788421 0.00072409324296459569 0 0.0098691423641324993 0.00098484664380626735 0 0.010120950007339645 0.00086078760446576901 0 0.010086444677323969 0.00099269405961476898 0 0.010026678823185316 0.00099167103582595935 0 0.010058862480150496 0.001055108001031525 0 0.010026678823185316 0.00099167103582595935 0 0.0099863723777981646 0.0010340168589495207 0 0.010058862480150496 0.001055108001031525 0 0.0098555596176957156 0.00090564528576884159 0 0.0098926841003691389 0.00097651106504583428 0 0.0098061040866221708 0.00095799224211280275 0 0.0099521370182258373 0.00097535664180390671 0 0.010026678823185316 0.00099167103582595935 0 0.0099863723777981646 0.0010340168589495207 0 0.0099037641009177939 0.00098574475924780415 0 0.0098691423641324993 0.00098484664380626735 0 0.0099521370182258373 0.00097535664180390671 0 0.0098926841003691389 0.00097651106504583428 0 0.0099863723777981646 0.0010340168589495207 0 0.0098555596176957156 0.00090564528576884159 0 0.0098061040866221708 0.00095799224211280275 0 0.0098051169228762051 0.00090788725868263165 0 0.0098061040866221708 0.00095799224211280275 0 0.0098051169228762051 0.00090788725868263165 0 0.0097523743641080539 0.0009405293972692809 0 0.0098051169228762051 0.00090788725868263165 0 0.0097523743641080539 0.0009405293972692809 0 0.0097745275858927821 0.00087448312606822737 0 0.0099229123066728823 0.00056282010247732167 0 0.0098604088849446343 0.00069268044155546612 0 0.0099832290435247304 0.00068477350629805509 0 0.010120950007339645 0.00086078760446576901 0 0.0097950156620801969 0.00077741706078818219 0 0.0098604088849446343 0.00069268044155546612 0 0.0099053641290370326 0.00077003388184879651 0 0.0099832290435247304 0.00068477350629805509 0 0.0098555596176957156 0.00090564528576884159 0 0.0098051169228762051 0.00090788725868263165 0 0.0097960673810979556 0.00085950396795249383 0 0.0097687899289718126 0.00083897844164290691 0 0.0098555596176957156 0.00090564528576884159 0 0.0097960673810979556 0.00085950396795249383 0 0.0097745275858927821 0.00087448312606822737 0 0.0097960673810979556 0.00085950396795249383 0 0.0098038582774486079 0.00083946677451255541 0 0.0098051169228762051 0.00090788725868263165 0 0.0097745275858927821 0.00087448312606822737 0 0.0097960673810979556 0.00085950396795249383 0 0.0054226676334180705 0.0014994461960091952 0 0.0085182553521533141 0.0011377221793946318 0 0.0098038582774486079 0.00083946677451255541 0 0.0097634155096431204 0.00083991485907482287 0 0.0098571535599481872 0.00085081914756070546 0 0.0054226676334180705 0.0014994461960091952 0 0.0045591688696028625 0.0017608283514727106 0 0.0097687899289718126 0.00083897844164290691 0 0.0097960673810979556 0.00085950396795249383 0 0.0097634155096431204 0.00083991485907482287 0 0.0097960673810979556 0.00085950396795249383 0 0.0098038582774486079 0.00083946677451255541 0 0.0097634155096431204 0.00083991485907482287 0 0.0027541182794075516 0.0022802204740241926 0 0.0022891534165356891 0.001540367673578407 0 0.0026655066254423275 0.0017111744258772152 0 0.0010320182672145703 0.0027409976148228192 0 0.0010905550373155899 0.0027441538639313809 0 0.0011106509715945118 0.0028767367613209082 0 0.0039528867767532607 0.001913307711980112 0 0.0014830546144392717 0.002189425245625301 0 0.0039528867767532607 0.001913307711980112 0 0.00120813898774209 0.0022264251835265344 0 0.0033354332712909576 0.002177539422660794 0 0.0033219612824798108 0.0021844122004786408 0 0.0033030527210181869 0.0021343726105173704 0 0.0050941608653479976 0.0016000573721536477 0 0.0054226676334180705 0.0014994461960091952 0 0.0048280107664396997 0.0013542027482251516 0 0.0045985856249971691 0.00098428311612459396 0 0.0041568517845094752 0.0012166202002783365 0 0.0050941608653479976 0.0016000573721536477 0 0.0039528867767532607 0.001913307711980112 0 0.0039528867767532607 0.001913307711980112 0 0.0054226676334180705 0.0014994461960091952 0 0.0098604088849446343 0.00069268044155546612 0 0.0098038582774486079 0.00083946677451255541 0 0.0099053641290370326 0.00077003388184879651 0 0.0097950156620801969 0.00077741706078818219 0 0.0098071289540980558 0.00083680745281194914 0 0.0098038582774486079 0.00083946677451255541 0 0.0099053641290370326 0.00077003388184879651 0 0.0098571535599481872 0.00085081914756070546 0 0.0056387306608375164 0.0011938029047806578 0 0.006456649454194976 0.0013346156707973059 0 0.006395860928720274 0.0014964433075137621 0 0.0099053641290370326 0.00077003388184879651 0 0.0098571535599481872 0.00085081914756070546 0 0.0099711979312555876 0.0008077984285970439 0 0.0031710442369541577 0.0021232430364853758 0 0.0031675403073836454 0.0020820093157476348 0 0.0033030527210181869 0.0021343726105173704 0 0.0031710442369541577 0.0021232430364853758 0 0.0031675403073836454 0.0020820093157476348 0 0.0030499165581114925 0.0020726077883690868 0 0.006456649454194976 0.0013346156707973059 0 0.006395860928720274 0.0014964433075137621 0 0.007135989453203726 0.0018094476824080346 0 -0.00074606914829821998 0.0021864305232497131 0 -0.00036628220022688607 0.0021254064740454095 0 -0.00081012236347598914 0.0019036443904622638 0 -0.00058900192154619148 0.0025049685080997227 0 -0.00074606914829821998 0.0021864305232497131 0 -0.0011956901822654231 0.002206842359987045 0 -0.00067245716538236612 0.0019671814270334925 0 -0.00076405503258446218 0.001584302820069675 0 -0.00036628220022688607 0.0021254064740454095 0 -0.00081012236347598914 0.0019036443904622638 0 -0.00083868639175077879 0.0015177628505849297 0 -0.00058900192154619148 0.0025049685080997227 0 -0.00074606914829821998 0.0021864305232497131 0 -0.00036628220022688607 0.0021254064740454095 0 -0.00063095089785884751 0.0018790220228210969 0 -0.00069747059785353149 0.0016040224054468921 0 -0.0005874042871966814 0.0015945313148360927 0 -0.00063095089785884751 0.0018790220228210969 0 -0.00039847738025094672 0.0018015333669866278 0 -0.00035845162676523935 0.0022928559311567766 0 -0.00063095089785884751 0.0018790220228210969 0 -0.00039847738025094672 0.0018015333669866278 0 -0.0005874042871966814 0.0015945313148360927 0 -0.00041071308771540107 0.0018121108357738197 0 -0.00032345899351045781 0.0023252656390783293 0 -0.00017930427567353833 0.0020318422955604358 0 -0.00067245716538236612 0.0019671814270334925 0 0.0014830546144392717 0.002189425245625301 0 0.0012574338782335038 0.0022659664005735825 0 0.0014830546144392717 0.002189425245625301 0 -0.00039847738025094672 0.0018015333669866278 0 -0.00035845162676523935 0.0022928559311567766 0 -0.00028999396264403138 0.0023226347146691941 0 -0.00058900192154619148 0.0025049685080997227 0 -0.00036628220022688607 0.0021254064740454095 0 9.0238444721253054e-05 0.0028050993241777629 0 -0.00056845760290643742 0.0017985572545563958 0 0.00120813898774209 0.0022264251835265344 0 0.0033219612824798108 0.0021844122004786408 0 0.0031710442369541577 0.0021232430364853758 0 0.0033030527210181869 0.0021343726105173704 0 0.0014830546144392717 0.002189425245625301 0 0.00120813898774209 0.0022264251835265344 0 -0.00032345899351045781 0.0023252656390783293 0 -0.00010690664209635664 0.0021856088408346666 0 -0.00017930427567353833 0.0020318422955604358 0 -0.00032345899351045781 0.0023252656390783293 0 -0.00010690664209635664 0.0021856088408346666 0 5.342880593197442e-05 0.0022898632571365027 0 -0.00010690664209635664 0.0021856088408346666 0 5.342880593197442e-05 0.0022898632571365027 0 1.6160494260513269e-05 0.0021008867303544203 0 -0.00010690664209635664 0.0021856088408346666 0 1.6160494260513269e-05 0.0021008867303544203 0 -0.00017930427567353833 0.0020318422955604358 0 1.6160494260513269e-05 0.0021008867303544203 0 -0.00017930427567353833 0.0020318422955604358 0 -3.3964148253015688e-06 0.0018904170547078348 0 0.00041016454142336824 0.0020718766656358306 0 0.00035989151666652888 0.0022649338418361722 0 0.00020891272196708573 0.0021698617823389769 0 0.00027382976657904391 0.0023414730402445045 0 0.00035989151666652888 0.0022649338418361722 0 0.00020891272196708573 0.0021698617823389769 0 0.00027382976657904391 0.0023414730402445045 0 5.342880593197442e-05 0.0022898632571365027 0 0.00020891272196708573 0.0021698617823389769 0 5.342880593197442e-05 0.0022898632571365027 0 1.6160494260513269e-05 0.0021008867303544203 0 0.00020891272196708573 0.0021698617823389769 0 1.6160494260513269e-05 0.0021008867303544203 0 0.00020891272196708573 0.0021698617823389769 0 0.00016966354279449494 0.0019806541818919942 0 0.00041016454142336824 0.0020718766656358306 0 0.00020891272196708573 0.0021698617823389769 0 0.00016966354279449494 0.0019806541818919942 0 0.00041016454142336824 0.0020718766656358306 0 0.00016966354279449494 0.0019806541818919942 0 0.00024860386553612722 0.0017434557870754409 0 0.00016966354279449494 0.0019806541818919942 0 0.00024860386553612722 0.0017434557870754409 0 -3.3964148253015688e-06 0.0018904170547078348 0 1.6160494260513269e-05 0.0021008867303544203 0 0.00016966354279449494 0.0019806541818919942 0 -3.3964148253015688e-06 0.0018904170547078348 0 0.00024860386553612722 0.0017434557870754409 0 -3.3964148253015688e-06 0.0018904170547078348 0 -6.6418466113474098e-05 0.0016488618119227308 0 -0.00041071308771540107 0.0018121108357738197 0 -0.00017930427567353833 0.0020318422955604358 0 -0.00019154537725327679 0.0018041542322595275 0 -0.00017930427567353833 0.0020318422955604358 0 -3.3964148253015688e-06 0.0018904170547078348 0 -0.00019154537725327679 0.0018041542322595275 0 -3.3964148253015688e-06 0.0018904170547078348 0 -0.00019154537725327679 0.0018041542322595275 0 -6.6418466113474098e-05 0.0016488618119227308 0 -0.00041071308771540107 0.0018121108357738197 0 -0.00019154537725327679 0.0018041542322595275 0 -0.00027676774050416957 0.0016035223930199645 0 -0.00019154537725327679 0.0018041542322595275 0 -0.00027676774050416957 0.0016035223930199645 0 -6.6418466113474098e-05 0.0016488618119227308 0 -0.00027676774050416957 0.0016035223930199645 0 -0.0001984095367495799 0.0014198760303663893 0 -0.00050993775179427974 0.0013402391460748313 0 -0.00027676774050416957 0.0016035223930199645 0 -6.6418466113474098e-05 0.0016488618119227308 0 -0.0001984095367495799 0.0014198760303663893 0 -6.6418466113474098e-05 0.0016488618119227308 0 -0.0001984095367495799 0.0014198760303663893 0 8.836434335762053e-05 0.0013910496751773974 0 0.00024860386553612722 0.0017434557870754409 0 -6.6418466113474098e-05 0.0016488618119227308 0 8.836434335762053e-05 0.0013910496751773974 0 0.00052457711644626976 0.0014012276236923336 0 0.00024860386553612722 0.0017434557870754409 0 8.836434335762053e-05 0.0013910496751773974 0 8.836434335762053e-05 0.0013910496751773974 0 -0.00018799637361677259 0.001131783248831229 0 0.00017346113493178167 0.0010577709621609559 0 0.00052457711644626976 0.0014012276236923336 0 8.836434335762053e-05 0.0013910496751773974 0 0.00017346113493178167 0.0010577709621609559 0 -0.0001984095367495799 0.0014198760303663893 0 -0.00018799637361677259 0.001131783248831229 0 -0.00050993775179427974 0.0013402391460748313 0 -0.0001984095367495799 0.0014198760303663893 0 8.836434335762053e-05 0.0013910496751773974 0 -0.00018799637361677259 0.001131783248831229 0 -0.00018799637361677259 0.001131783248831229 0 -0.00050993775179427974 0.0013402391460748313 0 -0.00046783087318334705 0.00090159067642613653 0 -0.00050993775179427974 0.0013402391460748313 0 -0.00083004229397126131 0.0010605834653843169 0 -0.00046783087318334705 0.00090159067642613653 0 -0.00050993775179427974 0.0013402391460748313 0 -0.00073551112056212441 0.0014244305836541118 0 -0.00083004229397126131 0.0010605834653843169 0 -0.00073551112056212441 0.0014244305836541118 0 -0.00095122102657551992 0.0014859613553503547 0 -0.00083004229397126131 0.0010605834653843169 0 -0.0013384997536712876 0.0015160761538767229 0 -0.00090505587624155912 0.0011171365922515771 0 -0.00063095089785884751 0.0018790220228210969 0 -0.00083868639175077879 0.0015177628505849297 0 -0.00069747059785353149 0.0016040224054468921 0 -0.00073551112056212441 0.0014244305836541118 0 -0.00083868639175077879 0.0015177628505849297 0 -0.00069747059785353149 0.0016040224054468921 0 -0.00073551112056212441 0.0014244305836541118 0 -0.00083868639175077879 0.0015177628505849297 0 -0.00095122102657551992 0.0014859613553503547 0 -0.00081012236347598914 0.0019036443904622638 0 -0.00083868639175077879 0.0015177628505849297 0 -0.00095122102657551992 0.0014859613553503547 0 -0.00073551112056212441 0.0014244305836541118 0 -0.00069747059785353149 0.0016040224054468921 0 -0.0005874042871966814 0.0015945313148360927 0 -0.00041071308771540107 0.0018121108357738197 0 -0.00027676774050416957 0.0016035223930199645 0 -0.00050993775179427974 0.0013402391460748313 0 -0.00056845760290643742 0.0017985572545563958 0 -0.00046424352992665782 0.0013757229043864926 0 -0.00039847738025094672 0.0018015333669866278 0 -0.00050993775179427974 0.0013402391460748313 0 -0.0005874042871966814 0.0015945313148360927 0 -0.00050993775179427974 0.0013402391460748313 0 -0.00073551112056212441 0.0014244305836541118 0 -0.0005874042871966814 0.0015945313148360927 0 -0.0015413071342736575 0.0015535389372111977 0 -0.0016790800216329848 0.0015593292425170851 0 -0.0016050741804687202 0.0016434589503223935 0 -0.0015413071342736575 0.0015535389372111977 0 -0.0015072580820660335 0.001679065198332769 0 -0.0013819142077942026 0.0015916017557906883 0 -0.0015413071342736575 0.0015535389372111977 0 -0.0015072580820660335 0.001679065198332769 0 -0.0016050741804687202 0.0016434589503223935 0 -0.0015072580820660335 0.001679065198332769 0 -0.0016050741804687202 0.0016434589503223935 0 -0.0015324560742051067 0.0018105066646000299 0 -0.0015072580820660335 0.001679065198332769 0 -0.0014088150638046763 0.0017340344602271441 0 -0.0013819142077942026 0.0015916017557906883 0 -0.0013293188635285127 0.0017133660092922909 0 -0.0014088150638046763 0.0017340344602271441 0 -0.0013819142077942026 0.0015916017557906883 0 -0.0013293188635285127 0.0017133660092922909 0 -0.0012053745136706775 0.0016017901483075323 0 -0.0013819142077942026 0.0015916017557906883 0 -0.0012053745136706775 0.0016017901483075323 0 -0.0013819142077942026 0.0015916017557906883 0 -0.0013791560624466638 0.0013678666096630389 0 -0.0012053745136706775 0.0016017901483075323 0 -0.0013791560624466638 0.0013678666096630389 0 -0.0010346088390046542 0.0011885051843808223 0 -0.0015413071342736575 0.0015535389372111977 0 -0.0013791560624466638 0.0013678666096630389 0 -0.0016948450139547828 0.0012008484096098198 0 -0.0015413071342736575 0.0015535389372111977 0 -0.0013819142077942026 0.0015916017557906883 0 -0.0013791560624466638 0.0013678666096630389 0 -0.0015413071342736575 0.0015535389372111977 0 -0.0020499637310835914 0.0012916018671436916 0 -0.0016948450139547828 0.0012008484096098198 0 -0.0015644257759304205 0.001540264342484416 0 -0.0018774366252579269 0.001353637764115866 0 -0.0015413071342736575 0.0015535389372111977 0 -0.0017221764039700711 0.0014191009362588755 0 -0.0016790800216329848 0.0015593292425170851 0 -0.0017221764039700711 0.0014191009362588755 0 -0.0018079289185120918 0.0015369159046451275 0 -0.0016790800216329848 0.0015593292425170851 0 -0.0018079289185120918 0.0015369159046451275 0 -0.0019515204129925442 0.0015372103439645051 0 -0.001965328789103586 0.0012136121840295054 0 -0.0017221764039700711 0.0014191009362588755 0 -0.0018079289185120918 0.0015369159046451275 0 -0.001965328789103586 0.0012136121840295054 0 -0.00012207847150799901 0.0022897894115456101 0 0.00066276983421561489 0.0024888462808842207 0 -0.00081642252750006004 0.0018554940729410222 0 -4.9906379959544228e-05 0.0022950551884285499 0 0.0013181420022804504 0.00287061902503934 0 -0.00012207847150799901 0.0022897894115456101 0 0.00098023427469000465 0.0027119185166577229 0 0.00066276983421561489 0.0024888462808842207 0 -0.00066835175373612719 0.0020158876428642888 0 -0.0013620632878906405 0.001720556819314143 0 -0.0018079289185120918 0.0015369159046451275 0 -0.0017368970426435665 0.0016503930773487979 0 -0.0019515204129925442 0.0015372103439645051 0 -0.00012207847150799901 0.0022897894115456101 0 0.0012401231273215479 0.0028254324573627147 0 -0.00057978042648678318 0.0027026641931550579 0 -0.00012207847150799901 0.0022897894115456101 0 -0.00057978042648678318 0.0027026641931550579 0 -0.00081642252750006004 0.0018554940729410222 0 0.00098023427469000465 0.0027119185166577229 0 0.00066276983421561489 0.0024888462808842207 0 0.0020368486738560686 0.0031490007455178921 0 -0.0017368970426435665 0.0016503930773487979 0 -0.0016050741804687202 0.0016434589503223935 0 -0.0015324560742051067 0.0018105066646000299 0 -0.0016790800216329848 0.0015593292425170851 0 -0.0017368970426435665 0.0016503930773487979 0 -0.0016050741804687202 0.0016434589503223935 0 -0.0018079289185120918 0.0015369159046451275 0 -0.0016790800216329848 0.0015593292425170851 0 -0.0017368970426435665 0.0016503930773487979 0 -0.00066835175373612719 0.0020158876428642888 0 0.00092388361269726707 0.0027267256981814976 0 0.0012401231273215479 0.0028254324573627147 0 0.0015225655508849484 0.0035492506978455633 0 0.0025381235416168822 0.003382146325206007 0 0.0013181420022804504 0.00287061902503934 0 0.00092388361269726707 0.0027267256981814976 0 0.010086470000469446 0.00073256528652993489 0 0.010106333923133162 0.00064126116371996343 0 0.010091982823761727 0.00067906871242341465 0 0.010086470000469446 0.00073256528652993489 0 0.010091982823761727 0.00067906871242341465 0 0.0099652858107236713 0.00065410347477752877 0 0.010086470000469446 0.00073256528652993489 0 0.010106333923133162 0.00064126116371996343 0 0.010075303674228481 0.00041699246688049708 0 0.0060566001830941853 0.002234963097288177 0 0.0046586065558429177 0.0015265515645739732 0 0.0012401231273215479 0.0028254324573627147 0 0.0015225655508849484 0.0035492506978455633 0 -0.00057978042648678318 0.0027026641931550579 0 0.010106333923133162 0.00064126116371996343 0 0.010060220480815514 0.00065498197506412288 0 0.010075303674228481 0.00041699246688049708 0 0.010106333923133162 0.00064126116371996343 0 0.01014173156419378 0.00070397786230273047 0 0.010091982823761727 0.00067906871242341465 0 0.010106333923133162 0.00064126116371996343 0 0.01014173156419378 0.00070397786230273047 0 0.010060220480815514 0.00065498197506412288 0 0.01014173156419378 0.00070397786230273047 0 0.01014040336877617 0.00075479956502092947 0 0.010060220480815514 0.00065498197506412288 0 0.01014173156419378 0.00070397786230273047 0 0.010171868771105151 0.00076983156052220396 0 0.01014040336877617 0.00075479956502092947 0 0.01014173156419378 0.00070397786230273047 0 0.010145207537221161 0.00078937047840729865 0 0.010171868771105151 0.00076983156052220396 0 0.010074941908993601 0.00068713511458909284 0 0.010204566820357669 0.00070943411400433234 0 0.01014173156419378 0.00070397786230273047 0 0.010091982823761727 0.00067906871242341465 0 0.010010575813502409 0.00057251293180944824 0 0.010091982823761727 0.00067906871242341465 0 0.010010575813502409 0.00057251293180944824 0 0.0099652858107236713 0.00065410347477752877 0 0.010204566820357669 0.00070943411400433234 0 0.0090703000495900576 0.00069863053980240709 0 0.010010575813502409 0.00057251293180944824 0 0.00971957099177574 0.00050644095765322271 0 0.0098459992885477996 0.00060811662031328188 0 0.010145207537221161 0.00078937047840729865 0 0.010069375028744772 0.0008104427092736591 0 0.010126610355147869 0.00078058137558515187 0 0.0098459992885477996 0.00060811662031328188 0 0.0099652858107236713 0.00065410347477752877 0 0.0096641779613893652 0.00067056492828242273 0 0.00971957099177574 0.00050644095765322271 0 0.0098459992885477996 0.00060811662031328188 0 0.0096641779613893652 0.00067056492828242273 0 0.010010575813502409 0.00057251293180944824 0 0.0098459992885477996 0.00060811662031328188 0 0.0099652858107236713 0.00065410347477752877 0 0.0015225655508849484 0.0035492506978455633 0 0.0025381235416168822 0.003382146325206007 0 0.0035462525339836587 0.0043677838261286786 0 0.0060566001830941853 0.002234963097288177 0 0.0054175018130535194 0.0020608218466880083 0 0.010086470000469446 0.00073256528652993489 0 0.0099652858107236713 0.00065410347477752877 0 0.0096641779613893652 0.00067056492828242273 0 0.0025381235416168822 0.003382146325206007 0 0.0037093937529297017 0.0038891880337562595 0 0.0035462525339836587 0.0043677838261286786 0 0.00092388361269726707 0.0027267256981814976 0 0.0012739770986899422 0.0026767279819805141 0 -0.0015072580820660335 0.001679065198332769 0 -0.0014088150638046763 0.0017340344602271441 0 -0.0015324560742051067 0.0018105066646000299 0 -0.0014088150638046763 0.0017340344602271441 0 -0.0015324560742051067 0.0018105066646000299 0 -0.0013219017377906462 0.0019269470353545474 0 -0.0013293188635285127 0.0017133660092922909 0 -0.0012053745136706775 0.0016017901483075323 0 -0.0013219017377906462 0.0019269470353545474 0 -0.0013384997536712876 0.0015160761538767229 0 0.0012739770986899422 0.0026767279819805141 0 -0.00081012236347598914 0.0019036443904622638 0 -0.00095122102657551992 0.0014859613553503547 0 -0.0011956901822654231 0.002206842359987045 0 -0.0013293188635285127 0.0017133660092922909 0 -0.0014088150638046763 0.0017340344602271441 0 -0.0013219017377906462 0.0019269470353545474 0 0.0012739770986899422 0.0026767279819805141 0 0.0054175018130535194 0.0020608218466880083 0 -0.00074606914829821998 0.0021864305232497131 0 -0.00081012236347598914 0.0019036443904622638 0 -0.0011956901822654231 0.002206842359987045 0 0.0012574338782335038 0.0022659664005735825 0 0.0012739770986899422 0.0026767279819805141 0 0.0085182553521533141 0.0011377221793946318 0 0.0090703000495900576 0.00069863053980240709 0 0.0031675403073836454 0.0020820093157476348 0 0.0030575950160400406 0.0020382915397706377 0 0.0030499165581114925 0.0020726077883690868 0 0.006456649454194976 0.0013346156707973059 0 0.0072583106006642801 0.001486381644090116 0 0.007135989453203726 0.0018094476824080346 0 0.0045591688696028625 0.0017608283514727106 0 0.0054175018130535194 0.0020608218466880083 0 0.0090703000495900576 0.00069863053980240709 0 0.0054175018130535194 0.0020608218466880083 0 0.0098571535599481872 0.00085081914756070546 0 0.010035329755669639 0.00088488391456309078 0 0.0099711979312555876 0.0008077984285970439 0 0.010035329755669639 0.00088488391456309078 0 0.0099711979312555876 0.0008077984285970439 0 0.010072730252968926 0.00078876876058938425 0 0.0099711979312555876 0.0008077984285970439 0 0.010008416461217862 0.0007550150847226429 0 0.010072730252968926 0.00078876876058938425 0 0.0099053641290370326 0.00077003388184879651 0 0.0099711979312555876 0.0008077984285970439 0 0.010008416461217862 0.0007550150847226429 0 0.010069375028744772 0.0008104427092736591 0 0.010126610355147869 0.00078058137558515187 0 0.010072730252968926 0.00078876876058938425 0 0.0090703000495900576 0.00069863053980240709 0 0.009779737595157852 0.00066832504683605088 0 0.010008416461217862 0.0007550150847226429 0 0.010072730252968926 0.00078876876058938425 0 0.010095059570261904 0.00073295946115797318 0 0.010126610355147869 0.00078058137558515187 0 0.010072730252968926 0.00078876876058938425 0 0.010095059570261904 0.00073295946115797318 0 0.010095059570261904 0.00073295946115797318 0 0.010091584026082918 0.0006196925496926611 0 0.010158247412058697 0.00071306181772896838 0 0.010095059570261904 0.00073295946115797318 0 0.0099832290435247304 0.00068477350629805509 0 0.010091584026082918 0.0006196925496926611 0 0.010008416461217862 0.0007550150847226429 0 0.010095059570261904 0.00073295946115797318 0 0.0099832290435247304 0.00068477350629805509 0 0.0099053641290370326 0.00077003388184879651 0 0.010008416461217862 0.0007550150847226429 0 0.0099832290435247304 0.00068477350629805509 0 0.0099229123066728823 0.00056282010247732167 0 0.0099832290435247304 0.00068477350629805509 0 0.010091584026082918 0.0006196925496926611 0 0.010120950007339645 0.00086078760446576901 0 0.010325399181060502 0.00065490646578974761 0 0.010474021460505998 0.0007245148214891767 0 0.010561584288192784 0.00087487645147111528 0 0.010414439979849317 0.0009219514705431696 0 0.010741585325304817 0.00079503529309959346 0 0.010474021460505998 0.0007245148214891767 0 0.010561584288192784 0.00087487645147111528 0 0.010377648548664378 0.00096790741681757443 0 0.010120950007339645 0.00086078760446576901 0 0.010684265129447526 0.00095869297371961452 0 0.010741585325304817 0.00079503529309959346 0 0.010561584288192784 0.00087487645147111528 0 0.01200968187371446 0.0022604446514761498 0 0.011703359515790103 0.0014093748165396203 0 0.011131223161672687 0.0019370329179432154 0 0.011381527627078745 0.0015638124257690935 0 0.010957815660918043 0.0010714158543171284 0 0.01200968187371446 0.0022604446514761498 0 0.012402577808932115 0.0021383001554815297 0 0.011703359515790103 0.0014093748165396203 0 0.010325399181060502 0.00065490646578974761 0 0.010219200956324835 0.00069350537325865757 0 0.010091584026082918 0.0006196925496926611 0 0.010233046571451127 0.00069576889549495893 0 0.010158247412058697 0.00071306181772896838 0 0.010474021460505998 0.0007245148214891767 0 0.010414439979849317 0.0009219514705431696 0 0.010228112583877983 0.00070647153851716919 0 0.010474021460505998 0.0007245148214891767 0 0.010233046571451127 0.00069576889549495893 0 0.010228112583877983 0.00070647153851716919 0 0.010233046571451127 0.00069576889549495893 0 0.010199504275149606 0.00073976036911191291 0 0.010230512849141523 0.00078304410307935635 0 0.010233046571451127 0.00069576889549495893 0 0.010228112583877983 0.00070647153851716919 0 0.010426534882773366 0.00081183293852762071 0 0.010233046571451127 0.00069576889549495893 0 0.010230512849141523 0.00078304410307935635 0 0.010426534882773366 0.00081183293852762071 0 0.010199504275149606 0.00073976036911191291 0 0.01016450488498933 0.00075848893254355548 0 0.010230512849141523 0.00078304410307935635 0 0.010233046571451127 0.00069576889549495893 0 0.010199504275149606 0.00073976036911191291 0 0.010158247412058697 0.00071306181772896838 0 0.010199504275149606 0.00073976036911191291 0 0.010158247412058697 0.00071306181772896838 0 0.01016450488498933 0.00075848893254355548 0 0.010095059570261904 0.00073295946115797318 0 0.010158247412058697 0.00071306181772896838 0 0.01016450488498933 0.00075848893254355548 0 0.010145207537221161 0.00078937047840729865 0 0.010126610355147869 0.00078058137558515187 0 0.010171868771105151 0.00076983156052220396 0 0.010126610355147869 0.00078058137558515187 0 0.010171868771105151 0.00076983156052220396 0 0.01016450488498933 0.00075848893254355548 0 0.010126610355147869 0.00078058137558515187 0 0.010095059570261904 0.00073295946115797318 0 0.01016450488498933 0.00075848893254355548 0 0.010171868771105151 0.00076983156052220396 0 0.01016450488498933 0.00075848893254355548 0 0.010230512849141523 0.00078304410307935635 0 0.010171868771105151 0.00076983156052220396 0 0.010230512849141523 0.00078304410307935635 0 0.01014040336877617 0.00075479956502092947 0 0.01014095095535094 0.0007003460900675743 0 0.010426534882773366 0.00081183293852762071 0 0.01014040336877617 0.00075479956502092947 0 0.010230512849141523 0.00078304410307935635 0 0.010426534882773366 0.00081183293852762071 0 0.01014040336877617 0.00075479956502092947 0 0.01014095095535094 0.0007003460900675743 0 0.010046676007743439 0.00082544709364987126 0 0.010007553513363321 0.00055437376106809942 0 0.01014095095535094 0.0007003460900675743 0 0.010426534882773366 0.00081183293852762071 0 0.010046676007743439 0.00082544709364987126 0 0.010426534882773366 0.00081183293852762071 0 0.01005611071053002 0.0012954535028890911 0 0.010046676007743439 0.00082544709364987126 0 0.010957815660918043 0.0010714158543171284 0 0.010484465285184189 0.00082296901851878069 0 0.011703359515790103 0.0014093748165396203 0 0.010426534882773366 0.00081183293852762071 0 0.010672299975997886 0.0014453172964857437 0 0.011703359515790103 0.0014093748165396203 0 0.010672299975997886 0.0014453172964857437 0 0.011131223161672687 0.0019370329179432154 0 0.010426534882773366 0.00081183293852762071 0 0.010672299975997886 0.0014453172964857437 0 0.01005611071053002 0.0012954535028890911 0 0.010672299975997886 0.0014453172964857437 0 0.010345816741313163 0.0018432794250269823 0 0.01005611071053002 0.0012954535028890911 0 0.010672299975997886 0.0014453172964857437 0 0.010345816741313163 0.0018432794250269823 0 0.011131223161672687 0.0019370329179432154 0 0.010627554746385545 0.002247651111952762 0 0.010345816741313163 0.0018432794250269823 0 0.011131223161672687 0.0019370329179432154 0 0.0092990450413210721 0.0021282908089759324 0 0.0098321752430817616 0.0018554201618410167 0 0.0094862663077402345 0.0015403380707958991 0 0.010061776963597896 0.0024219920064205524 0 0.010345816741313163 0.0018432794250269823 0 0.0098321752430817616 0.0018554201618410167 0 0.010345816741313163 0.0018432794250269823 0 0.0098321752430817616 0.0018554201618410167 0 0.01005611071053002 0.0012954535028890911 0 0.0098321752430817616 0.0018554201618410167 0 0.01005611071053002 0.0012954535028890911 0 0.0094862663077402345 0.0015403380707958991 0 0.01005611071053002 0.0012954535028890911 0 0.0094862663077402345 0.0015403380707958991 0 0.0096673349369233025 0.00093560563355957747 0 0.0094862663077402345 0.0015403380707958991 0 0.0096673349369233025 0.00093560563355957747 0 0.0092003236566473908 0.0011915788618960912 0 0.01005611071053002 0.0012954535028890911 0 0.0096673349369233025 0.00093560563355957747 0 0.010046676007743439 0.00082544709364987126 0 0.0096673349369233025 0.00093560563355957747 0 0.010046676007743439 0.00082544709364987126 0 0.010007553513363321 0.00055437376106809942 0 0.0096673349369233025 0.00093560563355957747 0 0.010007553513363321 0.00055437376106809942 0 0.0094039360711774232 0.00057420590129394057 0 0.0096673349369233025 0.00093560563355957747 0 0.0094039360711774232 0.00057420590129394057 0 0.0092003236566473908 0.0011915788618960912 0 0.0084642217528914897 0.00070822039331313463 0 0.0089183375004792433 0.0010146962138647502 0 0.008243408657804676 0.0010169434593100912 0 0.0094616231519197586 0.0007782224223935731 0 0.0088307152250828753 0.00079978171922546765 0 0.0084642217528914897 0.00070822039331313463 0 0.008396124057736357 0.00039843213509248998 0 0.0081204241870303489 0.00061588591426119099 0 0.0084642217528914897 0.00070822039331313463 0 0.008396124057736357 0.00039843213509248998 0 0.0087500331847625255 0.00045635722099046693 0 0.0084642217528914897 0.00070822039331313463 0 0.0087500331847625255 0.00045635722099046693 0 0.0089183375004792433 0.0010146962138647502 0 0.0087500331847625255 0.00045635722099046693 0 0.0089183375004792433 0.0010146962138647502 0 0.0092402604359863635 0.00042980986009036917 0 0.0094616231519197586 0.0007782224223935731 0 0.0099225404488252535 0.00072101132344706375 0 0.01014095095535094 0.0007003460900675743 0 0.010007553513363321 0.00055437376106809942 0 0.0099542753707631028 0.00072716911626268985 0 0.01014040336877617 0.00075479956502092947 0 0.010060220480815514 0.00065498197506412288 0 0.0099542753707631028 0.00072716911626268985 0 0.01014095095535094 0.0007003460900675743 0 0.01014040336877617 0.00075479956502092947 0 0.0099542753707631028 0.00072716911626268985 0 0.0099394993949265403 0.00053537070149862359 0 0.0096645751546814984 0.00036688752396974323 0 0.010075303674228481 0.00041699246688049708 0 0.010060220480815514 0.00065498197506412288 0 0.0099542753707631028 0.00072716911626268985 0 0.0099394993949265403 0.00053537070149862359 0 0.0099542753707631028 0.00072716911626268985 0 0.0099394993949265403 0.00053537070149862359 0 0.0096645751546814984 0.00036688752396974323 0 0.010060220480815514 0.00065498197506412288 0 0.0099394993949265403 0.00053537070149862359 0 0.010075303674228481 0.00041699246688049708 0 0.0099542753707631028 0.00072716911626268985 0 0.0092402604359863635 0.00042980986009036917 0 0.0096645751546814984 0.00036688752396974323 0 0.0089183375004792433 0.0010146962138647502 0 0.0099542753707631028 0.00072716911626268985 0 0.0092402604359863635 0.00042980986009036917 0 0.0092402604359863635 0.00042980986009036917 0 0.0093318469600776211 -3.8821389835128757e-05 0 0.0096645751546814984 0.00036688752396974323 0 -0.0022437344446337749 0.0019691998189710481 0 -0.00057978042648678318 0.0027026641931550579 0 -0.00081642252750006004 0.0018554940729410222 0 0.0036240422632076528 0.0010051067084687554 0 0.0046586065558429177 0.0015265515645739732 0 0.0093318469600776211 -3.8821389835128757e-05 0 0.0096645751546814984 0.00036688752396974323 0 0.010075303674228481 0.00041699246688049708 0 -0.0013620632878906405 0.001720556819314143 0 -0.0021717580464745484 0.0014121045024482481 0 -0.0019515204129925442 0.0015372103439645051 0 -0.0022450594699289341 0.0014127979719416313 0 -0.001965328789103586 0.0012136121840295054 0 -0.0022437344446337749 0.0019691998189710481 0 -0.00081642252750006004 0.0018554940729410222 0 -0.0022450594699289341 0.0014127979719416313 0 -0.0022450594699289341 0.0014127979719416313 0 -0.0030052902049682402 0.0014905800955217492 0 -0.0026275659305662782 0.0011722138562673568 0 0.0093318469600776211 -3.8821389835128757e-05 0 0.008455455486849334 -0.00030679560367832467 0 0.0088620646721257017 9.0873099111767495e-05 0 -0.0022437344446337749 0.0019691998189710481 0 -0.0022450594699289341 0.0014127979719416313 0 -0.0030052902049682402 0.0014905800955217492 0 0.0036240422632076528 0.0010051067084687554 0 0.0024966451897939167 0.00048198600522443889 0 0.0084131312177370965 -9.5839557839524466e-05 0 0.0082295771175530802 -1.0793778396164238e-05 0 0.0081055387031038189 -0.00015098587528715828 0 0.0024966451897939167 0.00048198600522443889 0 0.0031570936988869354 0.00017047384736277387 0 0.0082295771175530802 -1.0793778396164238e-05 0 0.0084552197313579377 4.0196329456249866e-06 0 0.0082920687818717701 0.0001602259660863567 0 0.008455455486849334 -0.00030679560367832467 0 0.0084552197313579377 4.0196329456249866e-06 0 0.0088620646721257017 9.0873099111767495e-05 0 0.0084131312177370965 -9.5839557839524466e-05 0 0.0082295771175530802 -1.0793778396164238e-05 0 0.0084552197313579377 4.0196329456249866e-06 0 0.0024966451897939167 0.00048198600522443889 0 0.0056975949490431005 -0.00029741511189155639 0 0.0084552197313579377 4.0196329456249866e-06 0 0.0082920687818717701 0.0001602259660863567 0 0.0085585506049260136 0.00021855233031949255 0 0.008396124057736357 0.00039843213509248998 0 0.0082920687818717701 0.0001602259660863567 0 0.0085585506049260136 0.00021855233031949255 0 0.008396124057736357 0.00039843213509248998 0 0.0082920687818717701 0.0001602259660863567 0 0.0080903783549489804 0.00032142494892872233 0 0.008396124057736357 0.00039843213509248998 0 0.0087500331847625255 0.00045635722099046693 0 0.0085585506049260136 0.00021855233031949255 0 0.0087500331847625255 0.00045635722099046693 0 0.0085585506049260136 0.00021855233031949255 0 0.0088620646721257017 9.0873099111767495e-05 0 0.0092402604359863635 0.00042980986009036917 0 0.0093318469600776211 -3.8821389835128757e-05 0 0.0088620646721257017 9.0873099111767495e-05 0 0.0087500331847625255 0.00045635722099046693 0 0.0092402604359863635 0.00042980986009036917 0 0.0088620646721257017 9.0873099111767495e-05 0 0.0084552197313579377 4.0196329456249866e-06 0 0.0085585506049260136 0.00021855233031949255 0 0.0088620646721257017 9.0873099111767495e-05 0 -0.002754972796975202 0.00075630287378767778 0 -0.0025364531348689282 0.00089018729565996252 0 -0.0026766706866246685 0.00069204687792770957 0 -0.002754972796975202 0.00075630287378767778 0 -0.0029115071641066686 0.00093325331273750656 0 -0.0025364531348689282 0.00089018729565996252 0 -0.002754972796975202 0.00075630287378767778 0 -0.0029115071641066686 0.00093325331273750656 0 -0.0028729543228556672 0.00061454452670127555 0 -0.002600650273369527 0.00045187080014390534 0 -0.0026078018516157938 0.0003627254328857613 0 -0.0027131024173912013 0.00052712140683698508 0 -0.0032339934168389506 0.00078156070239906897 0 -0.002766443774373658 0.00054837671579595207 0 -0.002600650273369527 0.00045187080014390534 0 -0.0026078018516157938 0.0003627254328857613 0 -0.0024811705039159827 0.00036348255601354135 0 -0.0026078018516157938 0.0003627254328857613 0 -0.0024811705039159827 0.00036348255601354135 0 -0.0024228367858332568 0.00023562184589879831 0 -0.0025269239337193574 0.00019070739956485573 0 -0.0026078018516157938 0.0003627254328857613 0 -0.0024228367858332568 0.00023562184589879831 0 0.0024966451897939167 0.00048198600522443889 0 -0.0032339934168389506 0.00078156070239906897 0 -0.0030052902049682402 0.0014905800955217492 0 -0.0029115071641066686 0.00093325331273750656 0 -0.0026275659305662782 0.0011722138562673568 0 -0.0029115071641066686 0.00093325331273750656 0 -0.0026275659305662782 0.0011722138562673568 0 -0.0025364531348689282 0.00089018729565996252 0 -0.0022450594699289341 0.0014127979719416313 0 -0.0026275659305662782 0.0011722138562673568 0 -0.0023363119997024699 0.0011718151262701301 0 -0.0022450594699289341 0.0014127979719416313 0 -0.0023363119997024699 0.0011718151262701301 0 -0.001965328789103586 0.0012136121840295054 0 -0.0023363119997024699 0.0011718151262701301 0 -0.001965328789103586 0.0012136121840295054 0 -0.0025364531348689282 0.00089018729565996252 0 -0.0021837665776746474 0.0011201791059454176 0 -0.0025141954539841904 0.0009078243139243146 0 -0.0026275659305662782 0.0011722138562673568 0 -0.0023363119997024699 0.0011718151262701301 0 -0.0025364531348689282 0.00089018729565996252 0 -0.0023857984424799261 0.0010276811762280655 0 -0.0024229976690209867 0.00084481251175870021 0 -0.0022987733338303892 0.00086844928014047633 0 -0.0023857984424799261 0.0010276811762280655 0 -0.0024229976690209867 0.00084481251175870021 0 -0.0025364531348689282 0.00089018729565996252 0 -0.0024229976690209867 0.00084481251175870021 0 -0.0025305901965090045 0.00067749373809912114 0 -0.0023369208061256369 0.00073303367544501113 0 -0.0024229976690209867 0.00084481251175870021 0 -0.0023369208061256369 0.00073303367544501113 0 -0.0022987733338303892 0.00086844928014047633 0 -0.0025364531348689282 0.00089018729565996252 0 -0.0025305901965090045 0.00067749373809912114 0 -0.0026766706866246685 0.00069204687792770957 0 -0.0024229976690209867 0.00084481251175870021 0 -0.0025364531348689282 0.00089018729565996252 0 -0.0025305901965090045 0.00067749373809912114 0 -0.0025305901965090045 0.00067749373809912114 0 -0.0026546101350197969 0.00060198820414462863 0 -0.0026766706866246685 0.00069204687792770957 0 -0.0025305901965090045 0.00067749373809912114 0 -0.0026546101350197969 0.00060198820414462863 0 -0.0026165697724287954 0.00044907239087422867 0 -0.0026546101350197969 0.00060198820414462863 0 -0.0026165697724287954 0.00044907239087422867 0 -0.0028215723710513872 0.00059777309724670105 0 -0.0025305901965090045 0.00067749373809912114 0 -0.0023369208061256369 0.00073303367544501113 0 -0.0023591963502231587 0.00059761048437600474 0 -0.0025305901965090045 0.00067749373809912114 0 -0.0023591963502231587 0.00059761048437600474 0 -0.0024294798600180967 0.0005021981295364453 0 -0.0025305901965090045 0.00067749373809912114 0 -0.0024294798600180967 0.0005021981295364453 0 -0.0025058233805427084 0.00035669268996374806 0 -0.0023591963502231587 0.00059761048437600474 0 -0.0024294798600180967 0.0005021981295364453 0 -0.0023347934638442208 0.0004796841688490378 0 -0.0024294798600180967 0.0005021981295364453 0 -0.0025058233805427084 0.00035669268996374806 0 -0.0023926201692550859 0.00037429360772113019 0 -0.0024294798600180967 0.0005021981295364453 0 -0.0023926201692550859 0.00037429360772113019 0 -0.0023347934638442208 0.0004796841688490378 0 -0.0026165697724287954 0.00044907239087422867 0 -0.0028215723710513872 0.00059777309724670105 0 -0.0026287555550814391 0.00023313958579885307 0 -0.0025305901965090045 0.00067749373809912114 0 -0.0026165697724287954 0.00044907239087422867 0 -0.0024912934011985036 0.00027534999179852063 0 -0.0025324907131118982 0.00065875352838805519 0 -0.00249866007663509 0.00032275962630988074 0 -0.0028215723710513872 0.00059777309724670105 0 -0.0028729543228556672 0.00061454452670127555 0 -0.0029553434457296338 0.00059654747680968755 0 -0.0028215723710513872 0.00059777309724670105 0 -0.0030283609051133301 0.0006105253752120949 0 -0.0030351871738457706 0.00061629257012146897 0 -0.002766443774373658 0.00054837671579595207 0 -0.0029265649557142187 0.00061765207347699413 0 -0.0028366760815133675 0.00059890123819708499 0 -0.002824874645440048 0.00043121543415003774 0 -0.0028215723710513872 0.00059777309724670105 0 -0.0030283609051133301 0.0006105253752120949 0 -0.0029553434457296338 0.00059654747680968755 0 -0.0026546101350197969 0.00060198820414462863 0 -0.0028215723710513872 0.00059777309724670105 0 -0.0026766706866246685 0.00069204687792770957 0 -0.002754972796975202 0.00075630287378767778 0 -0.0028215723710513872 0.00059777309724670105 0 -0.0028729543228556672 0.00061454452670127555 0 -0.002754972796975202 0.00075630287378767778 0 -0.0028215723710513872 0.00059777309724670105 0 -0.0026766706866246685 0.00069204687792770957 0 -0.002600650273369527 0.00045187080014390534 0 -0.0027131024173912013 0.00052712140683698508 0 -0.0024764964909751168 0.00047668815305907969 0 -0.0027131024173912013 0.00052712140683698508 0 -0.0027351867930830204 0.00059982808992783629 0 -0.0024764964909751168 0.00047668815305907969 0 -0.0031428174997454876 0.00069691231165575648 0 -0.003738195789283378 0.00078733424020587678 0 -0.0037461674834204082 0.00094381887643516047 0 -0.0037352829073575696 0.00070359586001380605 0 -0.0039000199445297788 0.00083955710527719842 0 -0.0027131024173912013 0.00052712140683698508 0 -0.0027351867930830204 0.00059982808992783629 0 -0.0029553434457296338 0.00059654747680968755 0 -0.0037461674834204082 0.00094381887643516047 0 -0.0037352829073575696 0.00070359586001380605 0 -0.0031877322681885777 0.00058363971059962867 0 -0.0031428174997454876 0.00069691231165575648 0 -0.0031960936906836089 0.00059489702796758988 0 -0.0027351867930830204 0.00059982808992783629 0 -0.0029553434457296338 0.00059654747680968755 0 -0.0031877322681885777 0.00058363971059962867 0 -0.0030283609051133301 0.0006105253752120949 0 -0.0029553434457296338 0.00059654747680968755 0 -0.0031877322681885777 0.00058363971059962867 0 -0.0030283609051133301 0.0006105253752120949 0 -0.0031877322681885777 0.00058363971059962867 0 -0.0030871379214728414 0.00054587569055058593 0 -0.0030283609051133301 0.0006105253752120949 0 -0.0030871379214728414 0.00054587569055058593 0 -0.0030351871738457706 0.00061629257012146897 0 -0.0031877322681885777 0.00058363971059962867 0 -0.003158548166538256 0.00035854021529007312 0 -0.00342856317367572 0.00023919043275302923 0 -0.0030871379214728414 0.00054587569055058593 0 -0.003158548166538256 0.00035854021529007312 0 -0.0030322964928136001 0.00041682405409464634 0 -0.0031877322681885777 0.00058363971059962867 0 -0.0030871379214728414 0.00054587569055058593 0 -0.003158548166538256 0.00035854021529007312 0 -0.0037352829073575696 0.00070359586001380605 0 -0.0038297551996658301 0.00045276941392327126 0 -0.0039393122087111902 0.00054999424322961716 0 -0.0037314221389096341 0.00070088145237979854 0 -0.0036347796322436466 0.00036191996907956165 0 -0.0037352829073575696 0.00070359586001380605 0 -0.0031877322681885777 0.00058363971059962867 0 -0.00342856317367572 0.00023919043275302923 0 -0.0038297551996658301 0.00045276941392327126 0 -0.0039393122087111902 0.00054999424322961716 0 -0.004046037235956766 0.00041674633637109695 0 -0.0036347796322436466 0.00036191996907956165 0 -0.003535894424314599 -2.1865948602070224e-05 0 -0.0038297551996658301 0.00045276941392327126 0 -0.0041255246852167377 0.00022490686053246552 0 -0.004046037235956766 0.00041674633637109695 0 -0.0038297551996658301 0.00045276941392327126 0 -0.003726758382877371 0.00012319970422072638 0 -0.0041255246852167377 0.00022490686053246552 0 -0.003158548166538256 0.00035854021529007312 0 -0.00342856317367572 0.00023919043275302923 0 -0.0031549940889115261 0.00015632587600637155 0 -0.00342856317367572 0.00023919043275302923 0 -0.0031549940889115261 0.00015632587600637155 0 -0.0033560594479665647 -0.00011701653893709223 0 -0.003158548166538256 0.00035854021529007312 0 -0.0031549940889115261 0.00015632587600637155 0 -0.0030408528224647249 0.00027428014056574449 0 -0.0031549940889115261 0.00015632587600637155 0 -0.0033560594479665647 -0.00011701653893709223 0 -0.0029557843983829333 5.9709120297523211e-05 0 -0.003726758382877371 0.00012319970422072638 0 -0.0041255246852167377 0.00022490686053246552 0 -0.0040853716656274221 -0.00010290206465748917 0 -0.0024894136749441711 -6.9190802562707501e-05 0 -0.0026027415844564624 -0.00017478713388648204 0 -0.0025086428108101128 8.9867929870571532e-05 0 -0.0027020320295555438 -6.674000933660724e-05 0 -0.0026027415844564624 -0.00017478713388648204 0 -0.0028737830824021706 0.0002746426082252807 0 -0.0025165277212476872 -0.00018933063070783056 0 -0.002692179013726018 0.00012041651798098164 0 -0.0024894136749441711 -6.9190802562707501e-05 0 -0.0025154956212450215 -0.00013764869973068966 0 -0.0026027415844564624 -0.00017478713388648204 0 -0.0027020320295555438 -6.674000933660724e-05 0 -0.0026027415844564624 -0.00017478713388648204 0 -0.0026124501551112954 -0.00021296045077303169 0 -0.0025154956212450215 -0.00013764869973068966 0 -0.0025254323400728902 -0.00017998041248499209 0 -0.0026027415844564624 -0.00017478713388648204 0 -0.0025254323400728902 -0.00017998041248499209 0 -0.0026027415844564624 -0.00017478713388648204 0 -0.0025314892755776862 -0.00021188212664261536 0 -0.0026027415844564624 -0.00017478713388648204 0 -0.0025314892755776862 -0.00021188212664261536 0 -0.0025777114266814479 -0.00021730483619370841 0 -0.0027020320295555438 -6.674000933660724e-05 0 -0.0026124501551112954 -0.00021296045077303169 0 -0.0026340383270527252 -0.00025657483230547175 0 -0.0033560594479665647 -0.00011701653893709223 0 -0.0029557843983829333 5.9709120297523211e-05 0 -0.0030474413207926231 -0.00020380157748183127 0 -0.0027020320295555438 -6.674000933660724e-05 0 -0.0029557843983829333 5.9709120297523211e-05 0 -0.0030474413207926231 -0.00020380157748183127 0 -0.0027020320295555438 -6.674000933660724e-05 0 -0.0029557843983829333 5.9709120297523211e-05 0 -0.0028737830824021706 0.0002746426082252807 0 -0.0029557843983829333 5.9709120297523211e-05 0 -0.0029915397743818422 0.00019001309752689192 0 -0.0028737830824021706 0.0002746426082252807 0 -0.0031549940889115261 0.00015632587600637155 0 -0.0029557843983829333 5.9709120297523211e-05 0 -0.0029915397743818422 0.00019001309752689192 0 -0.0031549940889115261 0.00015632587600637155 0 -0.0029915397743818422 0.00019001309752689192 0 -0.0030408528224647249 0.00027428014056574449 0 -0.0029915397743818422 0.00019001309752689192 0 -0.0030408528224647249 0.00027428014056574449 0 -0.0028737830824021706 0.0002746426082252807 0 -0.0024894136749441711 -6.9190802562707501e-05 0 -0.0025086428108101128 8.9867929870571532e-05 0 -0.0024429705462567074 3.5793216273064135e-05 0 -0.0024353905453884132 -0.00022719871503772216 0 -0.0025153019934949805 -2.0581649777130917e-05 0 -0.0024604933675610109 -9.213682350432108e-06 0 -0.0025165277212476872 -0.00018933063070783056 0 -0.0024871785118544694 3.1642421735293009e-05 0 -0.0025086428108101128 8.9867929870571532e-05 0 -0.0024414148293380785 9.2878426564573676e-05 0 -0.0024429705462567074 3.5793216273064135e-05 0 -0.0025086428108101128 8.9867929870571532e-05 0 -0.0024414148293380785 9.2878426564573676e-05 0 -0.0024180500414166025 0.00014737101380862271 0 -0.0024604933675610109 -9.213682350432108e-06 0 -0.0025236537451081963 0.00011856908021625628 0 -0.0024912934011985036 0.00027534999179852063 0 -0.0025086428108101128 8.9867929870571532e-05 0 -0.002423839246568347 0.00023636792071369636 0 -0.0025058233805427084 0.00035669268996374806 0 -0.0025086428108101128 8.9867929870571532e-05 0 -0.0024180500414166025 0.00014737101380862271 0 -0.002423839246568347 0.00023636792071369636 0 -0.0024871785118544694 3.1642421735293009e-05 0 -0.00249866007663509 0.00032275962630988074 0 -0.0025153019934949805 -2.0581649777130917e-05 0 -0.0024604933675610109 -9.213682350432108e-06 0 -0.0025236537451081963 0.00011856908021625628 0 -0.002692179013726018 0.00012041651798098164 0 -0.002824874645440048 0.00043121543415003774 0 -0.0025153019934949805 -2.0581649777130917e-05 0 -0.0025236537451081963 0.00011856908021625628 0 -0.0026287555550814391 0.00023313958579885307 0 -0.0028737830824021706 0.0002746426082252807 0 -0.0030322964928136001 0.00041682405409464634 0 -0.0030351871738457706 0.00061629257012146897 0 -0.0030408528224647249 0.00027428014056574449 0 -0.0028737830824021706 0.0002746426082252807 0 -0.0030322964928136001 0.00041682405409464634 0 -0.003158548166538256 0.00035854021529007312 0 -0.0030408528224647249 0.00027428014056574449 0 -0.0030322964928136001 0.00041682405409464634 0 -0.0030871379214728414 0.00054587569055058593 0 -0.0030322964928136001 0.00041682405409464634 0 -0.0030351871738457706 0.00061629257012146897 0 -0.0026165697724287954 0.00044907239087422867 0 -0.0026287555550814391 0.00023313958579885307 0 -0.0024912934011985036 0.00027534999179852063 0 -0.0025236537451081963 0.00011856908021625628 0 -0.0026287555550814391 0.00023313958579885307 0 -0.0024912934011985036 0.00027534999179852063 0 -0.002423839246568347 0.00023636792071369636 0 -0.0023926201692550859 0.00037429360772113019 0 -0.002342703384938063 0.00029992214203207105 0 -0.002423839246568347 0.00023636792071369636 0 -0.0025058233805427084 0.00035669268996374806 0 -0.0023926201692550859 0.00037429360772113019 0 -0.0023926201692550859 0.00037429360772113019 0 -0.0023072397801459166 0.00039121070291733341 0 -0.002342703384938063 0.00029992214203207105 0 -0.0023072397801459166 0.00039121070291733341 0 -0.0022528043430379281 0.00031605252153857344 0 -0.002342703384938063 0.00029992214203207105 0 -0.0023072397801459166 0.00039121070291733341 0 -0.0022358959790967719 0.00038662681974654695 0 -0.0022528043430379281 0.00031605252153857344 0 -0.0022358959790967719 0.00038662681974654695 0 -0.0022528043430379281 0.00031605252153857344 0 -0.0021634014663487609 0.0003946626797995663 0 -0.0022528043430379281 0.00031605252153857344 0 -0.002211216024460989 0.00023141719395389183 0 -0.0023261193181263228 0.00020382965033673628 0 -0.0022528043430379281 0.00031605252153857344 0 -0.002342703384938063 0.00029992214203207105 0 -0.0023261193181263228 0.00020382965033673628 0 -0.002423839246568347 0.00023636792071369636 0 -0.002342703384938063 0.00029992214203207105 0 -0.0023261193181263228 0.00020382965033673628 0 -0.0022603949537736436 -0.00015380710033677995 0 -0.0021181592208543302 7.5473760117307598e-05 0 -0.0021217571225103531 0.00034519097848661513 0 -0.0021050940207844944 0.00017668407943317253 0 -0.0020213004978111315 0.00044890532952732539 0 -0.0021217571225103531 0.00034519097848661513 0 -0.0021050940207844944 0.00017668407943317253 0 -0.002211216024460989 0.00023141719395389183 0 -0.0022528043430379281 0.00031605252153857344 0 -0.0021217571225103531 0.00034519097848661513 0 -0.0021634014663487609 0.0003946626797995663 0 -0.0021217571225103531 0.00034519097848661513 0 -0.0020871430355669219 0.00040823702326645461 0 -0.0021634014663487609 0.0003946626797995663 0 -0.0022528043430379281 0.00031605252153857344 0 -0.0021217571225103531 0.00034519097848661513 0 -0.002211216024460989 0.00023141719395389183 0 -0.0021050940207844944 0.00017668407943317253 0 -0.002211216024460989 0.00023141719395389183 0 -0.0022531776975492409 0.00010322787723453762 0 -0.0024180500414166025 0.00014737101380862271 0 -0.002423839246568347 0.00023636792071369636 0 -0.0023261193181263228 0.00020382965033673628 0 -0.002211216024460989 0.00023141719395389183 0 -0.0022531776975492409 0.00010322787723453762 0 -0.0023261193181263228 0.00020382965033673628 0 -0.0022531776975492409 0.00010322787723453762 0 -0.0023261193181263228 0.00020382965033673628 0 -0.0023725797815045977 0.00010573332084589392 0 -0.0024180500414166025 0.00014737101380862271 0 -0.0023261193181263228 0.00020382965033673628 0 -0.0023725797815045977 0.00010573332084589392 0 -0.0024414148293380785 9.2878426564573676e-05 0 -0.0024180500414166025 0.00014737101380862271 0 -0.0023725797815045977 0.00010573332084589392 0 -0.0023725797815045977 0.00010573332084589392 0 -0.0024429705462567074 3.5793216273064135e-05 0 -0.0023580460383068186 -3.0624194045242565e-05 0 -0.0024414148293380785 9.2878426564573676e-05 0 -0.0023725797815045977 0.00010573332084589392 0 -0.0024429705462567074 3.5793216273064135e-05 0 -0.0024894136749441711 -6.9190802562707501e-05 0 -0.0024429705462567074 3.5793216273064135e-05 0 -0.0023580460383068186 -3.0624194045242565e-05 0 -0.0022531776975492409 0.00010322787723453762 0 -0.0023725797815045977 0.00010573332084589392 0 -0.0023580460383068186 -3.0624194045242565e-05 0 -0.0022531776975492409 0.00010322787723453762 0 -0.0023580460383068186 -3.0624194045242565e-05 0 -0.0021616751490773044 -0.00010029997945666578 0 -0.0021050940207844944 0.00017668407943317253 0 -0.0022531776975492409 0.00010322787723453762 0 -0.0021616751490773044 -0.00010029997945666578 0 -0.0022603949537736436 -0.00015380710033677995 0 -0.0022409630888192895 -0.00036643143860931419 0 -0.0023580460383068186 -3.0624194045242565e-05 0 -0.0021616751490773044 -0.00010029997945666578 0 -0.0023748472232784893 -0.00019318962403777219 0 -0.0023748472232784893 -0.00019318962403777219 0 -0.002476273869307349 -0.00018617321587808587 0 -0.0024424808065499166 -0.00012251555386245261 0 -0.0025254323400728902 -0.00017998041248499209 0 -0.002476273869307349 -0.00018617321587808587 0 -0.0025314892755776862 -0.00021188212664261536 0 -0.0025154956212450215 -0.00013764869973068966 0 -0.0025254323400728902 -0.00017998041248499209 0 -0.002476273869307349 -0.00018617321587808587 0 -0.0025154956212450215 -0.00013764869973068966 0 -0.002476273869307349 -0.00018617321587808587 0 -0.0024424808065499166 -0.00012251555386245261 0 -0.0024894136749441711 -6.9190802562707501e-05 0 -0.0023580460383068186 -3.0624194045242565e-05 0 -0.0024424808065499166 -0.00012251555386245261 0 -0.0024894136749441711 -6.9190802562707501e-05 0 -0.0025154956212450215 -0.00013764869973068966 0 -0.0024424808065499166 -0.00012251555386245261 0 -0.0023580460383068186 -3.0624194045242565e-05 0 -0.0023748472232784893 -0.00019318962403777219 0 -0.0024424808065499166 -0.00012251555386245261 0 -0.0022504986913028488 -0.00063042539862365524 0 -0.0022765113090755492 -0.00062016509846693827 0 -0.0022718641903749438 -0.00065708990181673828 0 -0.0023210901258548383 -0.00063709728740896077 0 -0.0022765113090755492 -0.00062016509846693827 0 -0.0022718641903749438 -0.00065708990181673828 0 -0.0023899874845247212 -0.00052005885577608693 0 -0.0023210901258548383 -0.00063709728740896077 0 -0.0022765113090755492 -0.00062016509846693827 0 -0.002129010675692385 -0.00066059476955897516 0 -0.0022534703600612621 -0.00055044410265804404 0 -0.0022504986913028488 -0.00063042539862365524 0 -0.0022765113090755492 -0.00062016509846693827 0 -0.0022522031976577655 -0.00056852717336354074 0 -0.0020420442245103216 -0.00065195864948767806 0 -0.0022522031976577655 -0.00056852717336354074 0 -0.0020428171139301801 -0.00068083667153413525 0 -0.0022522031976577655 -0.00056852717336354074 0 -0.0022995709119636148 -0.00038996460889280046 0 -0.0020893980908726155 -0.00048135269072322297 0 -0.0022522031976577655 -0.00056852717336354074 0 -0.0020893980908726155 -0.00048135269072322297 0 -0.0020428171139301801 -0.00068083667153413525 0 -0.0023899874845247212 -0.00052005885577608693 0 -0.0022765113090755492 -0.00062016509846693827 0 -0.0022522031976577655 -0.00056852717336354074 0 -0.0023899874845247212 -0.00052005885577608693 0 -0.0022522031976577655 -0.00056852717336354074 0 -0.0022995709119636148 -0.00038996460889280046 0 -0.0023899874845247212 -0.00052005885577608693 0 -0.0022995709119636148 -0.00038996460889280046 0 -0.0024346921024305155 -0.00021915402396353899 0 -0.0022995709119636148 -0.00038996460889280046 0 -0.0022024548535289927 -0.00022065213044804579 0 -0.0024346921024305155 -0.00021915402396353899 0 -0.0022995709119636148 -0.00038996460889280046 0 -0.0022024548535289927 -0.00022065213044804579 0 -0.0020893980908726155 -0.00048135269072322297 0 -0.0012912613706446228 -6.6314764199386974e-05 0 -0.0014781749175746841 0.00029245841014034242 0 -0.0010944580489802038 0.00034662669722583653 0 -0.0014781749175746841 0.00029245841014034242 0 -0.0013440074060107907 0.00070818555305629137 0 -0.0010944580489802038 0.00034662669722583653 0 -0.0014781749175746841 0.00029245841014034242 0 -0.0018352865314722494 3.1581246045147372e-05 0 -0.0018336778300285699 0.00044434337699484478 0 -0.0014781749175746841 0.00029245841014034242 0 -0.0018336778300285699 0.00044434337699484478 0 -0.0013440074060107907 0.00070818555305629137 0 -0.0017413041101455322 -0.00015391174391605027 0 -0.0021181592208543302 7.5473760117307598e-05 0 -0.0012912613706446228 -6.6314764199386974e-05 0 -0.0014781749175746841 0.00029245841014034242 0 -0.0018352865314722494 3.1581246045147372e-05 0 -0.0021217571225103531 0.00034519097848661513 0 -0.0020213004978111315 0.00044890532952732539 0 -0.0020871430355669219 0.00040823702326645461 0 -0.0020213004978111315 0.00044890532952732539 0 -0.0020871430355669219 0.00040823702326645461 0 -0.0021048009579938704 0.00046374051081104394 0 -0.0021181592208543302 7.5473760117307598e-05 0 -0.0018791665279259159 0.00059260236119901624 0 -0.0020213004978111315 0.00044890532952732539 0 -0.0020535487945335454 0.00053301804169094921 0 -0.0019420948115961641 0.00064983787544608163 0 -0.0020871430355669219 0.00040823702326645461 0 -0.0021634014663487609 0.0003946626797995663 0 -0.0021048009579938704 0.00046374051081104394 0 -0.0021634014663487609 0.0003946626797995663 0 -0.0021048009579938704 0.00046374051081104394 0 -0.0021778629106881061 0.00045095112778133982 0 -0.0021048009579938704 0.00046374051081104394 0 -0.0020535487945335454 0.00053301804169094921 0 -0.0021610293782261436 0.00053572003000323151 0 -0.0021048009579938704 0.00046374051081104394 0 -0.0021778629106881061 0.00045095112778133982 0 -0.0021610293782261436 0.00053572003000323151 0 -0.0020213004978111315 0.00044890532952732539 0 -0.0021048009579938704 0.00046374051081104394 0 -0.0020535487945335454 0.00053301804169094921 0 -0.0023926201692550859 0.00037429360772113019 0 -0.0023072397801459166 0.00039121070291733341 0 -0.0023347934638442208 0.0004796841688490378 0 -0.0023072397801459166 0.00039121070291733341 0 -0.0022479750683641608 0.00047003377305317217 0 -0.0023347934638442208 0.0004796841688490378 0 -0.0022358959790967719 0.00038662681974654695 0 -0.0022479750683641608 0.00047003377305317217 0 -0.0021778629106881061 0.00045095112778133982 0 -0.0023072397801459166 0.00039121070291733341 0 -0.0022358959790967719 0.00038662681974654695 0 -0.0022479750683641608 0.00047003377305317217 0 -0.0022358959790967719 0.00038662681974654695 0 -0.0021634014663487609 0.0003946626797995663 0 -0.0021778629106881061 0.00045095112778133982 0 -0.0022479750683641608 0.00047003377305317217 0 -0.0021610293782261436 0.00053572003000323151 0 -0.0022742310913191166 0.00055015445098220456 0 -0.0022479750683641608 0.00047003377305317217 0 -0.0021778629106881061 0.00045095112778133982 0 -0.0021610293782261436 0.00053572003000323151 0 -0.0022479750683641608 0.00047003377305317217 0 -0.0023347934638442208 0.0004796841688490378 0 -0.0022742310913191166 0.00055015445098220456 0 -0.0023591963502231587 0.00059761048437600474 0 -0.0023347934638442208 0.0004796841688490378 0 -0.0022742310913191166 0.00055015445098220456 0 -0.0023591963502231587 0.00059761048437600474 0 -0.0022742310913191166 0.00055015445098220456 0 -0.0022304371917220098 0.00063945866485929921 0 -0.0021610293782261436 0.00053572003000323151 0 -0.0022742310913191166 0.00055015445098220456 0 -0.0022304371917220098 0.00063945866485929921 0 -0.0021610293782261436 0.00053572003000323151 0 -0.0022304371917220098 0.00063945866485929921 0 -0.0020685646546335012 0.00066050919348642706 0 -0.0022304371917220098 0.00063945866485929921 0 -0.0020685646546335012 0.00066050919348642706 0 -0.0021549166198786209 0.0007786046019813283 0 -0.0023369208061256369 0.00073303367544501113 0 -0.0022304371917220098 0.00063945866485929921 0 -0.0021549166198786209 0.0007786046019813283 0 -0.0023369208061256369 0.00073303367544501113 0 -0.0023591963502231587 0.00059761048437600474 0 -0.0022304371917220098 0.00063945866485929921 0 -0.0020535487945335454 0.00053301804169094921 0 -0.0020685646546335012 0.00066050919348642706 0 -0.0019420948115961641 0.00064983787544608163 0 -0.0020535487945335454 0.00053301804169094921 0 -0.0021610293782261436 0.00053572003000323151 0 -0.0020685646546335012 0.00066050919348642706 0 -0.0020685646546335012 0.00066050919348642706 0 -0.0019420948115961641 0.00064983787544608163 0 -0.0018326451654458312 0.00087011527712385769 0 -0.0020685646546335012 0.00066050919348642706 0 -0.0018326451654458312 0.00087011527712385769 0 -0.0021549166198786209 0.0007786046019813283 0 -0.0018326451654458312 0.00087011527712385769 0 -0.0021549166198786209 0.0007786046019813283 0 -0.0021144181764970729 0.00097807545663472864 0 -0.0018791665279259159 0.00059260236119901624 0 -0.0018490554937356384 0.00083332443553147837 0 -0.0023369208061256369 0.00073303367544501113 0 -0.0021549166198786209 0.0007786046019813283 0 -0.0022987733338303892 0.00086844928014047633 0 -0.0021549166198786209 0.0007786046019813283 0 -0.0022987733338303892 0.00086844928014047633 0 -0.0021144181764970729 0.00097807545663472864 0 -0.0018774366252579269 0.001353637764115866 0 -0.0021837665776746474 0.0011201791059454176 0 -0.0020499637310835914 0.0012916018671436916 0 -0.0023857984424799261 0.0010276811762280655 0 -0.0021144181764970729 0.00097807545663472864 0 -0.0023857984424799261 0.0010276811762280655 0 -0.0022987733338303892 0.00086844928014047633 0 -0.0021144181764970729 0.00097807545663472864 0 -0.0018326451654458312 0.00087011527712385769 0 -0.0021144181764970729 0.00097807545663472864 0 -0.0016948450139547828 0.0012008484096098198 0 -0.0020499637310835914 0.0012916018671436916 0 -0.0021144181764970729 0.00097807545663472864 0 -0.0016948450139547828 0.0012008484096098198 0 -0.0018326451654458312 0.00087011527712385769 0 -0.0016948450139547828 0.0012008484096098198 0 -0.0014544238131770988 0.0010702704122260921 0 -0.0013791560624466638 0.0013678666096630389 0 -0.0016948450139547828 0.0012008484096098198 0 -0.0014544238131770988 0.0010702704122260921 0 -0.0014544238131770988 0.0010702704122260921 0 -0.0013440074060107907 0.00070818555305629137 0 -0.0010346088390046542 0.0011885051843808223 0 -0.0013791560624466638 0.0013678666096630389 0 -0.0014544238131770988 0.0010702704122260921 0 -0.0010346088390046542 0.0011885051843808223 0 -0.0018326451654458312 0.00087011527712385769 0 -0.0014544238131770988 0.0010702704122260921 0 -0.0013440074060107907 0.00070818555305629137 0 -0.0018336778300285699 0.00044434337699484478 0 -0.0018326451654458312 0.00087011527712385769 0 -0.0013440074060107907 0.00070818555305629137 0 -0.00074009986059943289 0.00063331193380998952 0 -0.00046783087318334705 0.00090159067642613653 0 -0.00041448426924667027 0.00049462746796934283 0 -0.0013440074060107907 0.00070818555305629137 0 -0.000855144987309731 0.00071145268007741865 0 -0.0010346088390046542 0.0011885051843808223 0 -0.0013440074060107907 0.00070818555305629137 0 -0.000855144987309731 0.00071145268007741865 0 -0.0010944580489802038 0.00034662669722583653 0 -0.00080089926138741604 0.00066314547294584684 0 -0.00090505587624155912 0.0011171365922515771 0 -0.00074009986059943289 0.00063331193380998952 0 -0.00083004229397126131 0.0010605834653843169 0 -0.00046783087318334705 0.00090159067642613653 0 -0.00018799637361677259 0.001131783248831229 0 -0.00046783087318334705 0.00090159067642613653 0 -0.00010698807151829275 0.00075652779247775259 0 0.00017346113493178167 0.0010577709621609559 0 -0.00010698807151829275 0.00075652779247775259 0 0.00026247474356162135 0.00079884753554044369 0 -0.00018799637361677259 0.001131783248831229 0 0.00017346113493178167 0.0010577709621609559 0 -0.00010698807151829275 0.00075652779247775259 0 -0.00010698807151829275 0.00075652779247775259 0 9.3391056133068287e-05 0.00057114626032840567 0 0.00026247474356162135 0.00079884753554044369 0 -0.00010698807151829275 0.00075652779247775259 0 9.3391056133068287e-05 0.00057114626032840567 0 -0.00015122280860251116 0.00041820309321991683 0 -0.00046783087318334705 0.00090159067642613653 0 -0.00010698807151829275 0.00075652779247775259 0 -0.00041448426924667027 0.00049462746796934283 0 -0.00010698807151829275 0.00075652779247775259 0 -0.00041448426924667027 0.00049462746796934283 0 -0.00015122280860251116 0.00041820309321991683 0 -0.00041448426924667027 0.00049462746796934283 0 -0.00015122280860251116 0.00041820309321991683 0 -0.00033272534701833087 0.00014713716968370655 0 -0.00041448426924667027 0.00049462746796934283 0 -0.00033272534701833087 0.00014713716968370655 0 -0.00068655467737554945 0.00020529490840411478 0 9.3391056133068287e-05 0.00057114626032840567 0 -0.00015122280860251116 0.00041820309321991683 0 0.00014005947175405251 0.00025389241735322942 0 -0.00015122280860251116 0.00041820309321991683 0 -0.00033272534701833087 0.00014713716968370655 0 0.00014005947175405251 0.00025389241735322942 0 -3.3790320065239164e-05 -1.6320984290542653e-05 0 -0.00033272534701833087 0.00014713716968370655 0 -0.0005030298549345369 -0.00023862087057906971 0 -3.3790320065239164e-05 -1.6320984290542653e-05 0 -0.00033272534701833087 0.00014713716968370655 0 0.00014005947175405251 0.00025389241735322942 0 -0.00033272534701833087 0.00014713716968370655 0 -0.00057344740273954705 -1.7403874083344234e-05 0 -0.00068655467737554945 0.00020529490840411478 0 -0.00033272534701833087 0.00014713716968370655 0 -0.00057344740273954705 -1.7403874083344234e-05 0 -0.0005030298549345369 -0.00023862087057906971 0 -0.00057344740273954705 -1.7403874083344234e-05 0 -0.00068655467737554945 0.00020529490840411478 0 -0.00076777030417939541 -0.00013538740513913299 0 -0.00068655467737554945 0.00020529490840411478 0 -0.00095642355264950599 8.6574837977088478e-05 0 -0.00076777030417939541 -0.00013538740513913299 0 -0.00074009986059943289 0.00063331193380998952 0 -0.00041448426924667027 0.00049462746796934283 0 -0.00068655467737554945 0.00020529490840411478 0 -0.00080089926138741604 0.00066314547294584684 0 -0.0006839964172677712 0.00023360061912903381 0 -0.000855144987309731 0.00071145268007741865 0 -0.00068655467737554945 0.00020529490840411478 0 -0.0010944580489802038 0.00034662669722583653 0 -0.00068655467737554945 0.00020529490840411478 0 -0.0010944580489802038 0.00034662669722583653 0 -0.00095642355264950599 8.6574837977088478e-05 0 -0.0012912613706446228 -6.6314764199386974e-05 0 -0.00095642355264950599 8.6574837977088478e-05 0 -0.00076777030417939541 -0.00013538740513913299 0 -0.0012912613706446228 -6.6314764199386974e-05 0 -0.0010944580489802038 0.00034662669722583653 0 -0.00095642355264950599 8.6574837977088478e-05 0 -0.0017413041101455322 -0.00015391174391605027 0 -0.0012281384205038389 -0.00013230779894442022 0 -0.0022024548535289927 -0.00022065213044804579 0 -0.0017365464376306785 -0.00010530821019157218 0 -0.0020893980908726155 -0.00048135269072322297 0 -0.0017365464376306785 -0.00010530821019157218 0 -0.0014512134076939524 -0.00048493536745813014 0 -0.0020893980908726155 -0.00048135269072322297 0 -0.0017365464376306785 -0.00010530821019157218 0 -0.0014512134076939524 -0.00048493536745813014 0 -0.0005030298549345369 -0.00023862087057906971 0 -0.0012281384205038389 -0.00013230779894442022 0 -0.00054447167140299129 -0.00023344698420980843 0 -0.00057344740273954705 -1.7403874083344234e-05 0 -0.00076777030417939541 -0.00013538740513913299 0 -0.0005030298549345369 -0.00023862087057906971 0 -0.0014512134076939524 -0.00048493536745813014 0 -0.0019199955486977607 -0.0007720471652205164 0 -0.00071453535334203334 -0.00069999324518290695 0 -0.0018980905173801809 -0.00080486937307878352 0 -0.0014540645231120165 -0.00077400026879475355 0 -0.0014512134076939524 -0.00048493536745813014 0 -0.0019199955486977607 -0.0007720471652205164 0 -0.0020893980908726155 -0.00048135269072322297 0 -0.0019199955486977607 -0.0007720471652205164 0 -0.0022494415925727942 -0.00072970108736758791 0 -0.0023589595740938149 -0.00093183744311197607 0 -0.0019199955486977607 -0.0007720471652205164 0 -0.0020893980908726155 -0.00048135269072322297 0 -0.0020428171139301801 -0.00068083667153413525 0 -0.0019199955486977607 -0.0007720471652205164 0 -0.0020428171139301801 -0.00068083667153413525 0 -0.0021428805144878132 -0.00062487417149475382 0 -0.0020420442245103216 -0.00065195864948767806 0 -0.0020428171139301801 -0.00068083667153413525 0 -0.0021428805144878132 -0.00062487417149475382 0 -0.0019199955486977607 -0.0007720471652205164 0 -0.0021428805144878132 -0.00062487417149475382 0 -0.0022494415925727942 -0.00072970108736758791 0 -0.0021428805144878132 -0.00062487417149475382 0 -0.0023510806916299991 -0.00059879326988379893 0 -0.0022494415925727942 -0.00072970108736758791 0 -0.0021428805144878132 -0.00062487417149475382 0 -0.0024198298317145836 -0.00044946139418966334 0 -0.0023510806916299991 -0.00059879326988379893 0 -0.0021428805144878132 -0.00062487417149475382 0 -0.0024198298317145836 -0.00044946139418966334 0 -0.0022360225780513579 -0.00045088064905746957 0 -0.002129010675692385 -0.00066059476955897516 0 -0.0023590167371599583 -0.00040328833750096697 0 -0.0020420442245103216 -0.00065195864948767806 0 -0.0021428805144878132 -0.00062487417149475382 0 -0.0022360225780513579 -0.00045088064905746957 0 -0.0020420442245103216 -0.00065195864948767806 0 -0.002175231318254812 -0.00035913798264602264 0 -0.0022360225780513579 -0.00045088064905746957 0 -0.0026050664228988271 -0.00054568754965814072 0 -0.0024198298317145836 -0.00044946139418966334 0 -0.0026297832641337432 -0.00033578940788412726 0 -0.0026050664228988271 -0.00054568754965814072 0 -0.0027874280123519075 -0.00040923496538371765 0 -0.0026297832641337432 -0.00033578940788412726 0 -0.0026050664228988271 -0.00054568754965814072 0 -0.0024198298317145836 -0.00044946139418966334 0 -0.0023510806916299991 -0.00059879326988379893 0 -0.0026050664228988271 -0.00054568754965814072 0 -0.0023510806916299991 -0.00059879326988379893 0 -0.0025269434643932567 -0.00072056559424977531 0 -0.0023171933942339046 -0.00056244025081965963 0 -0.0026179786460095991 -0.00085685607158246871 0 -0.0023510806916299991 -0.00059879326988379893 0 -0.0022494415925727942 -0.00072970108736758791 0 -0.0024623902473101312 -0.00081190427093694216 0 -0.0026050664228988271 -0.00054568754965814072 0 -0.0025269434643932567 -0.00072056559424977531 0 -0.0026560470068326251 -0.00069905910780708447 0 -0.0024623902473101312 -0.00081190427093694216 0 -0.0023589595740938149 -0.00093183744311197607 0 -0.0026010103850420126 -0.0010022725210833839 0 -0.0025269434643932567 -0.00072056559424977531 0 -0.0026316997258368888 -0.00081603522590528938 0 -0.0026560470068326251 -0.00069905910780708447 0 -0.0026179786460095991 -0.00085685607158246871 0 -0.0016908434752504584 -0.00069334243456204889 0 -0.0022494415925727942 -0.00072970108736758791 0 -0.0024623902473101312 -0.00081190427093694216 0 -0.0023589595740938149 -0.00093183744311197607 0 -0.0014512134076939524 -0.00048493536745813014 0 -0.00071453535334203334 -0.00069999324518290695 0 -0.0005030298549345369 -0.00023862087057906971 0 -3.3790320065239164e-05 -1.6320984290542653e-05 0 -0.0005030298549345369 -0.00023862087057906971 0 8.9537636348194225e-05 -0.00037196695775792418 0 -0.0014540645231120165 -0.00077400026879475355 0 -0.0016908434752504584 -0.00069334243456204889 0 -0.00071453535334203334 -0.00069999324518290695 0 -0.0005030298549345369 -0.00023862087057906971 0 8.9537636348194225e-05 -0.00037196695775792418 0 -0.0016908434752504584 -0.00069334243456204889 0 0.00013753953570668165 -2.521277675136918e-05 0 -0.0016908434752504584 -0.00069334243456204889 0 -0.00099946909536242456 -0.0002519176537539145 0 -0.0013358686882456326 -0.00066040889055188378 0 -0.00047182689797228979 -0.00034983666141799488 0 -0.00080701869972716006 -8.0531646514992514e-06 0 -3.3790320065239164e-05 -1.6320984290542653e-05 0 8.9537636348194225e-05 -0.00037196695775792418 0 0.00037275591562077847 2.2640673427672479e-05 0 -0.0026316997258368888 -0.00081603522590528938 0 -0.0027874783502842438 -0.00086505301828205844 0 -0.0027491461998989629 -0.00075367451827799807 0 -0.0027874783502842438 -0.00086505301828205844 0 -0.0027491461998989629 -0.00075367451827799807 0 -0.0029282336161250131 -0.00072662112414395325 0 -0.0027491461998989629 -0.00075367451827799807 0 -0.0027742847582980282 -0.00061125176588931892 0 -0.0029282336161250131 -0.00072662112414395325 0 -0.0026560470068326251 -0.00069905910780708447 0 -0.0027491461998989629 -0.00075367451827799807 0 -0.0027742847582980282 -0.00061125176588931892 0 -0.0026316997258368888 -0.00081603522590528938 0 -0.0026560470068326251 -0.00069905910780708447 0 -0.0027491461998989629 -0.00075367451827799807 0 -0.0026050664228988271 -0.00054568754965814072 0 -0.0026560470068326251 -0.00069905910780708447 0 -0.0027742847582980282 -0.00061125176588931892 0 -0.0027742847582980282 -0.00061125176588931892 0 -0.0029201254270451839 -0.00051270844685298751 0 -0.0027874280123519075 -0.00040923496538371765 0 -0.0029201254270451839 -0.00051270844685298751 0 -0.0029448023490773589 -0.00036178106239747703 0 -0.0027874280123519075 -0.00040923496538371765 0 -0.0026050664228988271 -0.00054568754965814072 0 -0.0027742847582980282 -0.00061125176588931892 0 -0.0027874280123519075 -0.00040923496538371765 0 -0.0029201254270451839 -0.00051270844685298751 0 -0.0030550481076470704 -0.00058268278750316723 0 -0.0030624946760671383 -0.00037727278715154181 0 0.00055912429575144345 1.0344563565543362e-08 0 0.00062058455275012332 1.0268535656628657e-07 0 -0.00017295955942875387 -4.2268782675054667e-07 0 -0.00062564675139127753 -0.00024684399841110478 0 -0.0016919706291893813 -0.00024397178447955689 0 0.00066296116873561066 6.0117027374929274e-08 0 0.00062058455275012332 1.0268535656628657e-07 0 -0.00017295955942875387 -4.2268782675054667e-07 0 0.00055912429575144345 1.0344563565543362e-08 0 -0.00026498013171810279 -8.3112868613660874e-09 0 -0.00017295955942875387 -4.2268782675054667e-07 0 -0.0029201254270451839 -0.00051270844685298751 0 -0.0030550481076470704 -0.00058268278750316723 0 -0.0029282336161250131 -0.00072662112414395325 0 -0.0027742847582980282 -0.00061125176588931892 0 -0.0029201254270451839 -0.00051270844685298751 0 -0.0029282336161250131 -0.00072662112414395325 0 0.00067469739977355295 -2.0767494486592583e-07 0 0.00062058455275012332 1.0268535656628657e-07 0 0.0013834296522067858 -3.0034517789104985e-08 0 0.00055912429575144345 1.0344563565543362e-08 0 0.00062058455275012332 1.0268535656628657e-07 0 0.0013834296522067858 -3.0034517789104985e-08 0 -0.00062564675139127753 -0.00024684399841110478 0 -0.0005032995937564699 -0.00029902092299987471 0 -0.00062564675139127753 -0.00024684399841110478 0 -0.0018776281747648546 -0.00044185093534262608 0 0.00067469739977355295 -2.0767494486592583e-07 0 0.0013834296522067858 -3.0034517789104985e-08 0 0.0014149977162816135 -5.7519293025203e-08 0 -3.2776804329494663e-05 -0.0004903897812487142 0 -0.00033673918689714442 -0.00018423045240747473 0 -2.8780071902170411e-05 -7.6008106555327124e-05 0 -0.00062564675139127753 -0.00024684399841110478 0 0.0007648353587159331 -6.8846594547267726e-05 0 -0.00065353925181946173 0.00013008770248623355 0 -0.00024728860775288569 4.6413870267291551e-05 0 -0.00033908855414084029 0.00024381344633377539 0 -0.00065353925181946173 0.00013008770248623355 0 -0.00033673918689714442 -0.00018423045240747473 0 -0.00024728860775288569 4.6413870267291551e-05 0 -0.00099946909536242456 -0.0002519176537539145 0 -0.0018776281747648546 -0.00044185093534262608 0 -0.00099946909536242456 -0.0002519176537539145 0 0.00042565622030523971 9.8038667905855513e-05 0 0.0013834296522067858 -3.0034517789104985e-08 0 0.0014149977162816135 -5.7519293025203e-08 0 0.0021211469503594942 -3.1745961261689013e-07 0 0.0007648353587159331 -6.8846594547267726e-05 0 0.0012989499394004903 7.7325546013651877e-05 0 -0.00033673918689714442 -0.00018423045240747473 0 -0.00024728860775288569 4.6413870267291551e-05 0 -2.8780071902170411e-05 -7.6008106555327124e-05 0 -0.00024728860775288569 4.6413870267291551e-05 0 -2.8780071902170411e-05 -7.6008106555327124e-05 0 -2.1167529728052804e-05 0.00035297111391124496 0 0.0013834296522067858 -3.0034517789104985e-08 0 0.0022070312216513708 3.911884837759388e-08 0 0.0021211469503594942 -3.1745961261689013e-07 0 -0.00024728860775288569 4.6413870267291551e-05 0 -2.1167529728052804e-05 0.00035297111391124496 0 -0.00033908855414084029 0.00024381344633377539 0 0.0012989499394004903 7.7325546013651877e-05 0 0.00042565622030523971 9.8038667905855513e-05 0 0.0022066194935251608 4.8397295447009268e-07 0 0.0012989499394004903 7.7325546013651877e-05 0 0.0022079315356244049 6.1324499978277113e-08 0 0.0022127705002441397 5.768741695117185e-06 0 0.0029607026140777196 -1.8686151353121623e-06 0 0.0014120191662966811 2.4613521763961009e-05 0 0.0010352544613604887 0.00021540164682500458 0 0.0014043397575569285 0.00057479286101265665 0 0.0012989499394004903 7.7325546013651877e-05 0 0.0022473564677409652 0.00022735257749799525 0 0.0022079315356244049 6.1324499978277113e-08 0 0.0029607026140777196 -1.8686151353121623e-06 0 0.003022107547358164 -3.2143360659814904e-08 0 0.0010352544613604887 0.00021540164682500458 0 0.0014043397575569285 0.00057479286101265665 0 0.0008885281902949498 0.00061933200559250909 0 0.0010352544613604887 0.00021540164682500458 0 0.00066827845761366128 0.00019807229376593439 0 0.0008885281902949498 0.00061933200559250909 0 0.0010352544613604887 0.00021540164682500458 0 0.0010356290741327903 -0.0001113538753234116 0 0.00078258173197872738 -1.8262117265351406e-05 0 0.0014120191662966811 2.4613521763961009e-05 0 0.0010352544613604887 0.00021540164682500458 0 0.0010356290741327903 -0.0001113538753234116 0 0.0010352544613604887 0.00021540164682500458 0 0.00078258173197872738 -1.8262117265351406e-05 0 0.00066827845761366128 0.00019807229376593439 0 0.00064563740519275501 -0.00025168490377529528 0 0.0010356290741327903 -0.0001113538753234116 0 0.00078258173197872738 -1.8262117265351406e-05 0 -0.00099946909536242456 -0.0002519176537539145 0 0.00013753953570668165 -2.521277675136918e-05 0 0.00064563740519275501 -0.00025168490377529528 0 0.00078258173197872738 -1.8262117265351406e-05 0 0.00045344432930973779 -5.440423373906325e-05 0 0.00045501059333134304 -7.6323069652650734e-05 0 0.00041668196787693942 0.00020163013569315114 0 0.00066827845761366128 0.00019807229376593439 0 0.00013753953570668165 -2.521277675136918e-05 0 0.00064500227038412263 0.00021372821704473261 0 0.00078258173197872738 -1.8262117265351406e-05 0 0.00045344432930973779 -5.440423373906325e-05 0 0.00066827845761366128 0.00019807229376593439 0 -3.3790320065239164e-05 -1.6320984290542653e-05 0 0.00037275591562077847 2.2640673427672479e-05 0 0.00014005947175405251 0.00025389241735322942 0 0.00045501059333134304 -7.6323069652650734e-05 0 0.00014005947175405251 0.00025389241735322942 0 0.00041668196787693942 0.00020163013569315114 0 0.00013753953570668165 -2.521277675136918e-05 0 0.00022064204848771591 0.00018068191358953654 0 9.3391056133068287e-05 0.00057114626032840567 0 0.00014005947175405251 0.00025389241735322942 0 0.00043856947667329782 0.00052436659082034443 0 0.00041668196787693942 0.00020163013569315114 0 0.00066827845761366128 0.00019807229376593439 0 0.00043856947667329782 0.00052436659082034443 0 0.00014005947175405251 0.00025389241735322942 0 0.00041668196787693942 0.00020163013569315114 0 0.00043856947667329782 0.00052436659082034443 0 0.00066827845761366128 0.00019807229376593439 0 0.00043856947667329782 0.00052436659082034443 0 0.0008885281902949498 0.00061933200559250909 0 0.00043856947667329782 0.00052436659082034443 0 0.00058115234042948574 0.00097471655194697633 0 0.0008885281902949498 0.00061933200559250909 0 0.00026247474356162135 0.00079884753554044369 0 0.00043856947667329782 0.00052436659082034443 0 0.00058115234042948574 0.00097471655194697633 0 9.3391056133068287e-05 0.00057114626032840567 0 0.00026247474356162135 0.00079884753554044369 0 0.00043856947667329782 0.00052436659082034443 0 0.00017346113493178167 0.0010577709621609559 0 0.00026247474356162135 0.00079884753554044369 0 0.00058115234042948574 0.00097471655194697633 0 0.0010063237748976579 0.0012802874771276579 0 0.00058115234042948574 0.00097471655194697633 0 0.0010765272965015545 0.00092960073018211187 0 0.00058115234042948574 0.00097471655194697633 0 0.0010765272965015545 0.00092960073018211187 0 0.0008885281902949498 0.00061933200559250909 0 0.002569276860622932 0.00051528837375153745 0 0.0022473564677409652 0.00022735257749799525 0 0.0038370204609916411 1.5463423430552687e-08 0 0.0037572806942544369 1.2371789360991039e-06 0 0.003022107547358164 -3.2143360659814904e-08 0 0.0013948301730133299 0.0010940742172999983 0 0.0010765272965015545 0.00092960073018211187 0 0.0014043397575569285 0.00057479286101265665 0 0.0037572806942544369 1.2371789360991039e-06 0 0.0029607026140777196 -1.8686151353121623e-06 0 0.003022107547358164 -3.2143360659814904e-08 0 0.0010765272965015545 0.00092960073018211187 0 0.0014043397575569285 0.00057479286101265665 0 0.0008885281902949498 0.00061933200559250909 0 0.010060123791309427 0.00011054532894482192 0 0.0099009514736865135 -7.4253381244741459e-07 0 0.010010421933890058 -9.659742265225034e-05 0 0.010060123791309427 0.00011054532894482192 0 0.0099009514736865135 -7.4253381244741459e-07 0 0.0099190621956434868 0.00014300090591793079 0 0.0096666363582512509 -0.00060152670161684331 0 0.0095741658613541763 -8.293410986157157e-05 0 0.0099009514736865135 -7.4253381244741459e-07 0 0.0097568567747134231 -1.689167611368241e-06 0 0.0098475733034900318 -9.9188630146793063e-05 0 0.0099009514736865135 -7.4253381244741459e-07 0 0.0097568567747134231 -1.689167611368241e-06 0 0.0098431980613282368 7.469593181078286e-05 0 0.0097568567747134231 -1.689167611368241e-06 0 0.0098431980613282368 7.469593181078286e-05 0 0.00981490360262211 0.00014304638643901254 0 0.0099009514736865135 -7.4253381244741459e-07 0 0.0098431980613282368 7.469593181078286e-05 0 0.0099190621956434868 0.00014300090591793079 0 0.0098431980613282368 7.469593181078286e-05 0 0.00981490360262211 0.00014304638643901254 0 0.0099190621956434868 0.00014300090591793079 0 0.00981490360262211 0.00014304638643901254 0 0.009875241917868172 0.00025205999562047572 0 0.0099190621956434868 0.00014300090591793079 0 0.0097568567747134231 -1.689167611368241e-06 0 0.00981490360262211 0.00014304638643901254 0 0.0097178939346174616 0.00022549806268618638 0 0.00981490360262211 0.00014304638643901254 0 0.0097178939346174616 0.00022549806268618638 0 0.009875241917868172 0.00025205999562047572 0 0.010060123791309427 0.00011054532894482192 0 0.0099190621956434868 0.00014300090591793079 0 0.010044062467940564 0.0003020896173559138 0 0.009875241917868172 0.00025205999562047572 0 0.0099190621956434868 0.00014300090591793079 0 0.010044062467940564 0.0003020896173559138 0 0.010060123791309427 0.00011054532894482192 0 0.010044062467940564 0.0003020896173559138 0 0.010230523027459318 0.00028434901392261494 0 0.010060123791309427 0.00011054532894482192 0 0.010230523027459318 0.00028434901392261494 0 0.01023157381074148 9.2502914590976388e-05 0 0.010230523027459318 0.00028434901392261494 0 0.010340839653240253 0.0004258794348353376 0 0.010387598780462477 0.00026697390773062222 0 0.010230523027459318 0.00028434901392261494 0 0.01023157381074148 9.2502914590976388e-05 0 0.010387598780462477 0.00026697390773062222 0 0.0089770880024956038 -2.18334880246825e-05 0 0.0090010795291555565 -1.5556661636842494e-05 0 0.0077430782670738401 -0.00013293582335067018 0 0.007618398150498194 -0.00012028495226173316 0 0.007584146062294829 -0.00020507963237817751 0 0.0077430782670738401 -0.00013293582335067018 0 0.0077385249870323145 2.7265346897070769e-05 0 0.007618398150498194 -0.00012028495226173316 0 0.010060123791309427 0.00011054532894482192 0 0.01023157381074148 9.2502914590976388e-05 0 0.010010421933890058 -9.659742265225034e-05 0 0.0089770880024956038 -2.18334880246825e-05 0 0.0089884950752819985 -1.9334988292649532e-05 0 0.0077430782670738401 -0.00013293582335067018 0 0.0077385249870323145 2.7265346897070769e-05 0 0.0079152599157385189 -3.4097972346910781e-05 0 0.0077385249870323145 2.7265346897070769e-05 0 0.0079492256587815422 0.00013840311542932747 0 0.0079152599157385189 -3.4097972346910781e-05 0 0.0077385249870323145 2.7265346897070769e-05 0 0.007618398150498194 -0.00012028495226173316 0 0.0075102592589790067 -4.420449545403894e-05 0 0.0077385249870323145 2.7265346897070769e-05 0 0.0076053828309068589 0.00015011186813737964 0 0.0078311024421824482 0.00022928406872080266 0 0.0077385249870323145 2.7265346897070769e-05 0 0.0075102592589790067 -4.420449545403894e-05 0 0.0076053828309068589 0.00015011186813737964 0 0.0077385249870323145 2.7265346897070769e-05 0 0.0079492256587815422 0.00013840311542932747 0 0.0078311024421824482 0.00022928406872080266 0 0.0079492256587815422 0.00013840311542932747 0 0.0079152599157385189 -3.4097972346910781e-05 0 0.0080846126197578281 7.2773441614309251e-05 0 0.0099009514736865135 -7.4253381244741459e-07 0 0.010010421933890058 -9.659742265225034e-05 0 0.0098475733034900318 -9.9188630146793063e-05 0 0.0097568567747134231 -1.689167611368241e-06 0 0.0098475733034900318 -9.9188630146793063e-05 0 0.0097668432402718622 -0.00026078434487401879 0 0.0096666363582512509 -0.00060152670161684331 0 0.0088599191895572891 -0.00039021231301366433 0 0.010010421933890058 -9.659742265225034e-05 0 0.0098475733034900318 -9.9188630146793063e-05 0 0.0097668432402718622 -0.00026078434487401879 0 0.009432656994475359 -0.001014478070761433 0 0.009436188460939016 -0.00133054440419975 0 0.0092892659733264243 -0.0010334856510308297 0 0.0089884950752819985 -1.9334988292649532e-05 0 0.0088599191895572891 -0.00039021231301366433 0 0.009436188460939016 -0.00133054440419975 0 0.009394204385455943 -0.0013561501903430245 0 0.0092892659733264243 -0.0010334856510308297 0 0.008371062619743486 -0.00045015054300320714 0 0.0084994605835834198 -0.00036436062154542606 0 0.0082884268232695877 0.00035387019866278669 0 0.0084641421369452442 -0.0003390575145942609 0 0.0079292718768257681 0.00032617610733827381 0 0.0074841786861574921 0.00026618032139089727 0 0.0074748556636120072 0.00024717316515283206 0 0.0074943129648675343 0.00021981977194028354 0 0.0088599191895572891 -0.00039021231301366433 0 0.0079292718768257681 0.00032617610733827381 0 0.0079492256587815422 0.00013840311542932747 0 0.0080846126197578281 7.2773441614309251e-05 0 0.0080656375304074667 0.00022486596767936476 0 0.0084641421369452442 -0.0003390575145942609 0 0.0083715561458978099 -0.0003440326230575188 0 0.0088599191895572891 -0.00039021231301366433 0 0.0084641421369452442 -0.0003390575145942609 0 0.0074841786861574921 0.00026618032139089727 0 0.0074748556636120072 0.00024717316515283206 0 0.0074812491192078516 0.00026177761504627605 0 0.0074748556636120072 0.00024717316515283206 0 0.0074599738991613139 0.00025415918784759604 0 0.0074473048745047413 0.00023680502284622327 0 0.0074599738991613139 0.00025415918784759604 0 0.0074473048745047413 0.00023680502284622327 0 0.0074083387916022035 0.00024071135214708851 0 0.0074599738991613139 0.00025415918784759604 0 0.0074733491792512768 0.00025543048363181598 0 0.0074847273094253552 0.00026109218956707887 0 0.0074748556636120072 0.00024717316515283206 0 0.0074733491792512768 0.00025543048363181598 0 0.0074812491192078516 0.00026177761504627605 0 0.0074748556636120072 0.00024717316515283206 0 0.0074599738991613139 0.00025415918784759604 0 0.0074733491792512768 0.00025543048363181598 0 0.0074733491792512768 0.00025543048363181598 0 0.0074847273094253552 0.00026109218956707887 0 0.0074812491192078516 0.00026177761504627605 0 0.0074847273094253552 0.00026109218956707887 0 0.0074791837498996488 0.00026149408854802685 0 0.0075264236090519434 0.00026801423114030011 0 0.0074820927691486329 0.00025875235584789266 0 0.0074847273094253552 0.00026109218956707887 0 0.0074812491192078516 0.00026177761504627605 0 0.0074820927691486329 0.00025875235584789266 0 0.0074847273094253552 0.00026109218956707887 0 0.0075264236090519434 0.00026801423114030011 0 0.0074599738991613139 0.00025415918784759604 0 0.0074847273094253552 0.00026109218956707887 0 0.0074791837498996488 0.00026149408854802685 0 0.0074677382264711888 0.00026004073560973075 0 0.0074791837498996488 0.00026149408854802685 0 0.0075008864728822932 0.00026463137084231756 0 0.0074677382264711888 0.00026004073560973075 0 0.0074791837498996488 0.00026149408854802685 0 0.0074374717896855264 0.0002547761633856587 0 0.0074599738991613139 0.00025415918784759604 0 0.0074374717896855264 0.0002547761633856587 0 0.0074083387916022035 0.00024071135214708851 0 0.0074374717896855264 0.0002547761633856587 0 0.0073828084817086038 0.00024984174284640548 0 0.0074083387916022035 0.00024071135214708851 0 0.0074599738991613139 0.00025415918784759604 0 0.0074791837498996488 0.00026149408854802685 0 0.0074374717896855264 0.0002547761633856587 0 0.0073828084817086038 0.00024984174284640548 0 0.0073714078642198519 0.00024768674986971537 0 0.0074277804292197198 0.00025444444956377227 0 0.0074374717896855264 0.0002547761633856587 0 0.0073828084817086038 0.00024984174284640548 0 0.0074277804292197198 0.00025444444956377227 0 0.0073828084817086038 0.00024984174284640548 0 0.0073714078642198519 0.00024768674986971537 0 0.0072795899124477878 0.00024771462590851741 0 0.0073714078642198519 0.00024768674986971537 0 0.0073267607614351908 0.00023948584372442185 0 0.0072795899124477878 0.00024771462590851741 0 0.0073714078642198519 0.00024768674986971537 0 0.0074285038209852454 0.00024790259922231818 0 0.0073267607614351908 0.00023948584372442185 0 0.0073714078642198519 0.00024768674986971537 0 0.0074277804292197198 0.00025444444956377227 0 0.0074285038209852454 0.00024790259922231818 0 0.0074277804292197198 0.00025444444956377227 0 0.0074812090472391544 0.00026025275091960643 0 0.0074285038209852454 0.00024790259922231818 0 0.0074677382264711888 0.00026004073560973075 0 0.0074374717896855264 0.0002547761633856587 0 0.0074277804292197198 0.00025444444956377227 0 0.0074677382264711888 0.00026004073560973075 0 0.0074277804292197198 0.00025444444956377227 0 0.0074812090472391544 0.00026025275091960643 0 0.0074812090472391544 0.00026025275091960643 0 0.0075031805268314083 0.00026070077108609254 0 0.0075322926566328717 0.00026922148711295852 0 0.0074812090472391544 0.00026025275091960643 0 0.0075031805268314083 0.00026070077108609254 0 0.0074285038209852454 0.00024790259922231818 0 0.0074285038209852454 0.00024790259922231818 0 0.0074923280477617506 0.00025372024920000365 0 0.0074178137426596426 0.00023445950600430328 0 0.0075031805268314083 0.00026070077108609254 0 0.0074285038209852454 0.00024790259922231818 0 0.0074923280477617506 0.00025372024920000365 0 0.0075031805268314083 0.00026070077108609254 0 0.0074923280477617506 0.00025372024920000365 0 0.0075529278286781912 0.00026942008993265641 0 0.0074923280477617506 0.00025372024920000365 0 0.0075529278286781912 0.00026942008993265641 0 0.0075467791219925697 0.00026711823257011535 0 0.0074923280477617506 0.00025372024920000365 0 0.0074952758907528951 0.00025172455781885056 0 0.0075467791219925697 0.00026711823257011535 0 0.0075031805268314083 0.00026070077108609254 0 0.0075759513138217403 0.00027704900157932719 0 0.0075322926566328717 0.00026922148711295852 0 0.0075031805268314083 0.00026070077108609254 0 0.0075529278286781912 0.00026942008993265641 0 0.0075759513138217403 0.00027704900157932719 0 0.0075759513138217403 0.00027704900157932719 0 0.0075736855235986689 0.00027782327148656626 0 0.0076152853376098579 0.00028596799044718367 0 0.0084641421369452442 -0.0003390575145942609 0 0.0084507453383456613 -0.00040818468554600448 0 0.0075736855235986689 0.00027782327148656626 0 0.0075264236090519434 0.00026801423114030011 0 0.0075322926566328717 0.00026922148711295852 0 0.0074820927691486329 0.00025875235584789266 0 0.0075264236090519434 0.00026801423114030011 0 0.007607899250487743 0.00028154585350153699 0 0.0075759513138217403 0.00027704900157932719 0 0.0075736855235986689 0.00027782327148656626 0 0.0075322926566328717 0.00026922148711295852 0 0.0075736855235986689 0.00027782327148656626 0 0.0075264236090519434 0.00026801423114030011 0 0.007607899250487743 0.00028154585350153699 0 0.0074791837498996488 0.00026149408854802685 0 0.0075264236090519434 0.00026801423114030011 0 0.0075008864728822932 0.00026463137084231756 0 0.0075264236090519434 0.00026801423114030011 0 0.0075008864728822932 0.00026463137084231756 0 0.0075322926566328717 0.00026922148711295852 0 0.0074812090472391544 0.00026025275091960643 0 0.0075008864728822932 0.00026463137084231756 0 0.0075322926566328717 0.00026922148711295852 0 0.0074677382264711888 0.00026004073560973075 0 0.0074812090472391544 0.00026025275091960643 0 0.0075008864728822932 0.00026463137084231756 0 0.007276706131152561 0.00020116652972704035 0 0.0072540115074008907 0.0002295094607345717 0 0.0071425702844776237 0.00024795866928135099 0 0.0072867378042663303 0.00022746268845637611 0 0.007276706131152561 0.00020116652972704035 0 0.0071425702844776237 0.00024795866928135099 0 0.007276706131152561 0.00020116652972704035 0 0.0072540115074008907 0.0002295094607345717 0 0.0073409099516550001 0.00021217163798542541 0 0.0072540115074008907 0.0002295094607345717 0 0.0073553361569463713 0.00023143490506832715 0 0.0073409099516550001 0.00021217163798542541 0 0.0072540115074008907 0.0002295094607345717 0 0.0073267607614351908 0.00023948584372442185 0 0.0072795899124477878 0.00024771462590851741 0 0.0074285038209852454 0.00024790259922231818 0 0.0073267607614351908 0.00023948584372442185 0 0.0073553361569463713 0.00023143490506832715 0 0.0072540115074008907 0.0002295094607345717 0 0.0073267607614351908 0.00023948584372442185 0 0.0073553361569463713 0.00023143490506832715 0 0.0074285038209852454 0.00024790259922231818 0 0.0073553361569463713 0.00023143490506832715 0 0.0074178137426596426 0.00023445950600430328 0 0.0074923280477617506 0.00025372024920000365 0 0.0074178137426596426 0.00023445950600430328 0 0.0074952758907528951 0.00025172455781885056 0 0.0074178137426596426 0.00023445950600430328 0 0.0074034689599160996 0.0002252169080522917 0 0.0074952758907528951 0.00025172455781885056 0 0.0074034689599160996 0.0002252169080522917 0 0.0074287148707143291 0.00023844879511926502 0 0.0074952758907528951 0.00025172455781885056 0 0.0074178137426596426 0.00023445950600430328 0 0.0074034689599160996 0.0002252169080522917 0 0.0073409099516550001 0.00021217163798542541 0 0.0073553361569463713 0.00023143490506832715 0 0.0074178137426596426 0.00023445950600430328 0 0.0073409099516550001 0.00021217163798542541 0 0.0073225155670411206 0.00016229793262478002 0 0.007276706131152561 0.00020116652972704035 0 0.0073437197672012898 0.00019627589920351402 0 0.007276706131152561 0.00020116652972704035 0 0.0073409099516550001 0.00021217163798542541 0 0.0073437197672012898 0.00019627589920351402 0 0.0074034689599160996 0.0002252169080522917 0 0.0073437197672012898 0.00019627589920351402 0 0.0074287148707143291 0.00023844879511926502 0 0.0074034689599160996 0.0002252169080522917 0 0.0073409099516550001 0.00021217163798542541 0 0.0073437197672012898 0.00019627589920351402 0 0.0073243766201457183 0.00024735106527569065 0 0.0073787624048582594 0.00023748910023606493 0 0.0074028622806100713 0.00034019497249133132 0 0.0073387121988945873 0.00017274593094654706 0 0.0073437197672012898 0.00019627589920351402 0 0.0073787624048582594 0.00023748910023606493 0 0.0073787624048582594 0.00023748910023606493 0 0.0074603404554126271 0.00027449763879949725 0 0.0074287148707143291 0.00023844879511926502 0 0.0073437197672012898 0.00019627589920351402 0 0.0073787624048582594 0.00023748910023606493 0 0.0074287148707143291 0.00023844879511926502 0 0.0073787624048582594 0.00023748910023606493 0 0.0074603404554126271 0.00027449763879949725 0 0.0074028622806100713 0.00034019497249133132 0 0.0074603404554126271 0.00027449763879949725 0 0.0075796042834706647 0.00032155864008511886 0 0.0074028622806100713 0.00034019497249133132 0 0.0074603404554126271 0.00027449763879949725 0 0.0075308815904972905 0.00027667092616561552 0 0.0075796042834706647 0.00032155864008511886 0 0.0074287148707143291 0.00023844879511926502 0 0.0074952758907528951 0.00025172455781885056 0 0.0075308815904972905 0.00027667092616561552 0 0.0074603404554126271 0.00027449763879949725 0 0.0074287148707143291 0.00023844879511926502 0 0.0075308815904972905 0.00027667092616561552 0 0.0074952758907528951 0.00025172455781885056 0 0.0075308815904972905 0.00027667092616561552 0 0.0075813570434895465 0.0002810130345332764 0 0.0075308815904972905 0.00027667092616561552 0 0.0075813570434895465 0.0002810130345332764 0 0.0076313566785105782 0.0003098982464793799 0 0.0075308815904972905 0.00027667092616561552 0 0.0075796042834706647 0.00032155864008511886 0 0.0076313566785105782 0.0003098982464793799 0 0.0075796042834706647 0.00032155864008511886 0 0.0076967042480121858 0.00039245507544247908 0 0.0074028622806100713 0.00034019497249133132 0 0.0077495369705005059 0.00041451156182777815 0 0.0073508350811508074 0.00035778436695597189 0 0.0076967042480121858 0.00039245507544247908 0 0.0077124117650413963 0.00040237970374373724 0 0.0076732207238176678 0.00046400160938179781 0 0.0075796042834706647 0.00032155864008511886 0 0.0076967042480121858 0.00039245507544247908 0 0.0076804614468717076 0.00034459195232829304 0 0.0075796042834706647 0.00032155864008511886 0 0.0076313566785105782 0.0003098982464793799 0 0.0076804614468717076 0.00034459195232829304 0 0.0076967042480121858 0.00039245507544247908 0 0.0077124117650413963 0.00040237970374373724 0 0.007757228352208931 0.0003928209541598277 0 0.0077124117650413963 0.00040237970374373724 0 0.0076572903885280324 0.00046402227061974371 0 0.0077451046175571392 0.00062333347599824191 0 0.0077124117650413963 0.00040237970374373724 0 0.0076572903885280324 0.00046402227061974371 0 0.0076732207238176678 0.00046400160938179781 0 0.0076572903885280324 0.00046402227061974371 0 0.0076732207238176678 0.00046400160938179781 0 0.0076776388678865323 0.0004581666987471743 0 0.0087154128394733316 0.00040901258170636867 0 0.0073508350811508074 0.00035778436695597189 0 0.007755035575943303 0.00048792628812348478 0 0.0076732207238176678 0.00046400160938179781 0 0.007702782416361559 0.00045029763758105637 0 0.0076732207238176678 0.00046400160938179781 0 0.0076776388678865323 0.0004581666987471743 0 0.007702782416361559 0.00045029763758105637 0 0.0087154128394733316 0.00040901258170636867 0 0.010098284531342656 0.00078890647930181604 0 0.0076828208348184166 0.00030991509262312924 0 0.007607899250487743 0.00028154585350153699 0 0.0078673262623502813 0.00037654464353242427 0 0.009432656994475359 -0.001014478070761433 0 0.0094560146118944522 -0.00049704338861979191 0 0.0092892659733264243 -0.0010334856510308297 0 0.0084507453383456613 -0.00040818468554600448 0 0.0084587992552210348 1.2431830523566683e-05 0 0.0075736855235986689 0.00027782327148656626 0 0.007607899250487743 0.00028154585350153699 0 0.0076152853376098579 0.00028596799044718367 0 0.0076828208348184166 0.00030991509262312924 0 0.007607899250487743 0.00028154585350153699 0 0.0076152853376098579 0.00028596799044718367 0 0.0076828208348184166 0.00030991509262312924 0 0.0076152853376098579 0.00028596799044718367 0 0.0076252020325190632 0.00028985041618215349 0 0.0075759513138217403 0.00027704900157932719 0 0.0076152853376098579 0.00028596799044718367 0 0.0076252020325190632 0.00028985041618215349 0 0.0075529278286781912 0.00026942008993265641 0 0.0075759513138217403 0.00027704900157932719 0 0.0076252020325190632 0.00028985041618215349 0 0.0075529278286781912 0.00026942008993265641 0 0.0076252020325190632 0.00028985041618215349 0 0.0076084469540540515 0.00028585086246797739 0 0.0074952758907528951 0.00025172455781885056 0 0.0075467791219925697 0.00026711823257011535 0 0.0075813570434895465 0.0002810130345332764 0 0.0075529278286781912 0.00026942008993265641 0 0.0075467791219925697 0.00026711823257011535 0 0.0076084469540540515 0.00028585086246797739 0 0.0075467791219925697 0.00026711823257011535 0 0.0076084469540540515 0.00028585086246797739 0 0.0075813570434895465 0.0002810130345332764 0 0.0075813570434895465 0.0002810130345332764 0 0.0076633522562696869 0.00031107904735168602 0 0.0076313566785105782 0.0003098982464793799 0 0.0076084469540540515 0.00028585086246797739 0 0.0075813570434895465 0.0002810130345332764 0 0.0076633522562696869 0.00031107904735168602 0 0.0076633522562696869 0.00031107904735168602 0 0.0077347008848516648 0.00034041705769565455 0 0.0076943687240292402 0.00033296224241333313 0 0.0076633522562696869 0.00031107904735168602 0 0.0076313566785105782 0.0003098982464793799 0 0.0076943687240292402 0.00033296224241333313 0 0.0076252020325190632 0.00028985041618215349 0 0.0076084469540540515 0.00028585086246797739 0 0.0077189371932470706 0.00032860852494346265 0 0.0076828208348184166 0.00030991509262312924 0 0.0076252020325190632 0.00028985041618215349 0 0.0077189371932470706 0.00032860852494346265 0 0.0076084469540540515 0.00028585086246797739 0 0.0076633522562696869 0.00031107904735168602 0 0.0077189371932470706 0.00032860852494346265 0 0.0076633522562696869 0.00031107904735168602 0 0.0077189371932470706 0.00032860852494346265 0 0.0077347008848516648 0.00034041705769565455 0 0.0077189371932470706 0.00032860852494346265 0 0.0078286396226958446 0.00037234941164996608 0 0.0078673262623502813 0.00037654464353242427 0 0.0077189371932470706 0.00032860852494346265 0 0.0077347008848516648 0.00034041705769565455 0 0.0078286396226958446 0.00037234941164996608 0 0.0076804614468717076 0.00034459195232829304 0 0.0076943687240292402 0.00033296224241333313 0 0.0077619444270849922 0.00036961103311393889 0 0.0076313566785105782 0.0003098982464793799 0 0.0076804614468717076 0.00034459195232829304 0 0.0076943687240292402 0.00033296224241333313 0 0.0077347008848516648 0.00034041705769565455 0 0.0076943687240292402 0.00033296224241333313 0 0.0077619444270849922 0.00036961103311393889 0 0.0077347008848516648 0.00034041705769565455 0 0.0077619444270849922 0.00036961103311393889 0 0.0078286396226958446 0.00037234941164996608 0 0.0076967042480121858 0.00039245507544247908 0 0.0077619444270849922 0.00036961103311393889 0 0.007757228352208931 0.0003928209541598277 0 0.0076967042480121858 0.00039245507544247908 0 0.0076804614468717076 0.00034459195232829304 0 0.0077619444270849922 0.00036961103311393889 0 0.0077124117650413963 0.00040237970374373724 0 0.0078615264049527109 0.00040957525848998882 0 0.0080243403609175212 0.00046919011255463334 0 0.0077124117650413963 0.00040237970374373724 0 0.007757228352208931 0.0003928209541598277 0 0.0078615264049527109 0.00040957525848998882 0 0.0077619444270849922 0.00036961103311393889 0 0.007757228352208931 0.0003928209541598277 0 0.0078615264049527109 0.00040957525848998882 0 0.0077619444270849922 0.00036961103311393889 0 0.0078615264049527109 0.00040957525848998882 0 0.0078286396226958446 0.00037234941164996608 0 0.0078615264049527109 0.00040957525848998882 0 0.0078286396226958446 0.00037234941164996608 0 0.0079551985575698064 0.00041732460123868634 0 0.0078286396226958446 0.00037234941164996608 0 0.0078673262623502813 0.00037654464353242427 0 0.0079551985575698064 0.00041732460123868634 0 0.0094560146118944522 -0.00049704338861979191 0 0.0092892659733264243 -0.0010334856510308297 0 0.0090513752104567444 -0.00047039150546866336 0 0.0076828208348184166 0.00030991509262312924 0 0.0077189371932470706 0.00032860852494346265 0 0.0078673262623502813 0.00037654464353242427 0 0.0095741658613541763 -8.293410986157157e-05 0 0.0095335145611939124 0.0004946093185289618 0 0.0094560146118944522 -0.00049704338861979191 0 0.0089913024200884064 0.00010108221318870503 0 0.0095298965581074296 0.0005348347115213853 0 0.0090513752104567444 -0.00047039150546866336 0 0.0089913024200884064 0.00010108221318870503 0 0.0084936294560948172 0.00060121460446313805 0 0.0094560146118944522 -0.00049704338861979191 0 0.0090513752104567444 -0.00047039150546866336 0 0.0089913024200884064 0.00010108221318870503 0 0.0078673262623502813 0.00037654464353242427 0 0.0079551985575698064 0.00041732460123868634 0 0.008147794334845011 0.00048331405830152679 0 0.0077124117650413963 0.00040237970374373724 0 0.0080243403609175212 0.00046919011255463334 0 0.0082997453550438527 0.00060752089540237178 0 0.0079551985575698064 0.00041732460123868634 0 0.0080243403609175212 0.00046919011255463334 0 0.008147794334845011 0.00048331405830152679 0 0.0084587992552210348 1.2431830523566683e-05 0 0.0084509362551953692 0.00059492730722309015 0 0.0077124117650413963 0.00040237970374373724 0 0.0082588283643025978 0.0012046092507819826 0 0.007921136179075864 0.00084164202329130148 0 0.0078673262623502813 0.00037654464353242427 0 0.008147794334845011 0.00048331405830152679 0 0.0084936294560948172 0.00060121460446313805 0 0.0078012379249981154 0.00042738833453971007 0 0.0081589283116753984 0.00084282533901754988 0 0.0078615264049527109 0.00040957525848998882 0 0.0079551985575698064 0.00041732460123868634 0 0.0080243403609175212 0.00046919011255463334 0 0.0080243403609175212 0.00046919011255463334 0 0.008147794334845011 0.00048331405830152679 0 0.0082997453550438527 0.00060752089540237178 0 0.0082588283643025978 0.0012046092507819826 0 0.0080504183474658063 0.0014634052035547337 0 0.007921136179075864 0.00084164202329130148 0 0.008147794334845011 0.00048331405830152679 0 0.0084936294560948172 0.00060121460446313805 0 0.0082997453550438527 0.00060752089540237178 0 0.0084936294560948172 0.00060121460446313805 0 0.0082997453550438527 0.00060752089540237178 0 0.0088700640496951564 0.00089655810265381675 0 0.0084936294560948172 0.00060121460446313805 0 0.0088700640496951564 0.00089655810265381675 0 0.0088581253032345292 0.00069509276934556633 0 0.0088700640496951564 0.00089655810265381675 0 0.0091366249312552651 0.00074088000863337523 0 0.0092341398747845076 0.0010918031388534744 0 0.0088700640496951564 0.00089655810265381675 0 0.0091366249312552651 0.00074088000863337523 0 0.0088581253032345292 0.00069509276934556633 0 0.0091366249312552651 0.00074088000863337523 0 0.0096000688715762901 0.0009067925198597089 0 0.0095298965581074296 0.0005348347115213853 0 0.0091366249312552651 0.00074088000863337523 0 0.0096000688715762901 0.0009067925198597089 0 0.0092341398747845076 0.0010918031388534744 0 0.0091366249312552651 0.00074088000863337523 0 0.0095298965581074296 0.0005348347115213853 0 0.0090084170157824876 0.00053414180728579845 0 0.0089913024200884064 0.00010108221318870503 0 0.0084936294560948172 0.00060121460446313805 0 0.0090084170157824876 0.00053414180728579845 0 0.0089913024200884064 0.00010108221318870503 0 0.0095298965581074296 0.0005348347115213853 0 0.0090084170157824876 0.00053414180728579845 0 0.0084936294560948172 0.00060121460446313805 0 0.0088581253032345292 0.00069509276934556633 0 0.0090084170157824876 0.00053414180728579845 0 0.0091366249312552651 0.00074088000863337523 0 0.0088581253032345292 0.00069509276934556633 0 0.0090084170157824876 0.00053414180728579845 0 0.012373580559395761 0.00097110422004594629 0 0.01239037676313217 0.00091443878172014896 0 0.012415312200530231 0.00096703014548801564 0 0.0076776388678865323 0.0004581666987471743 0 0.007702782416361559 0.00045029763758105637 0 0.0076821700487437082 0.00044027764859285373 0 0.010098284531342656 0.00078890647930181604 0 0.0099354440258633738 0.0012711454947405749 0 0.0080504183474658063 0.0014634052035547337 0 0.007921136179075864 0.00084164202329130148 0 0.0077226020853071098 0.00082389711202053724 0 0.0080504183474658063 0.0014634052035547337 0 0.0074493212669797196 0.00080940533093160744 0 0.0077226020853071098 0.00082389711202053724 0 0.0076572903885280324 0.00046402227061974371 0 0.0076776388678865323 0.0004581666987471743 0 0.0076821700487437082 0.00044027764859285373 0 0.0076572903885280324 0.00046402227061974371 0 0.0074493212669797196 0.00080940533093160744 0 0.0077226020853071098 0.00082389711202053724 0 0.0082227723481981697 0.00088673373426507811 0 0.0099354440258633738 0.0012711454947405749 0 0.0077451046175571392 0.00062333347599824191 0 0.007921136179075864 0.00084164202329130148 0 0.0077226020853071098 0.00082389711202053724 0 0.0077124117650413963 0.00040237970374373724 0 0.0077451046175571392 0.00062333347599824191 0 0.007921136179075864 0.00084164202329130148 0 0.0076572903885280324 0.00046402227061974371 0 0.0077451046175571392 0.00062333347599824191 0 0.0077226020853071098 0.00082389711202053724 0 0.0097518841522666235 0.0022914962755990263 0 0.0099354440258633738 0.0012711454947405749 0 0.011368449453464536 0.0027890262640017987 0 0.011606710903651953 0.0030654543683509023 0 0.011587321268555714 0.002815887061658388 0 0.011368449453464536 0.0027890262640017987 0 0.011587321268555714 0.002815887061658388 0 0.011426460380256921 0.0026810710037592634 0 0.011606710903651953 0.0030654543683509023 0 0.011587321268555714 0.002815887061658388 0 0.01185900978634215 0.0027007606860962193 0 0.012373580559395761 0.00097110422004594629 0 0.012415312200530231 0.00096703014548801564 0 0.012408844890826628 0.0010436297328891766 0 0.0099354440258633738 0.0012711454947405749 0 0.012449395104696868 0.0019597431230290161 0 0.011587321268555714 0.002815887061658388 0 0.01185900978634215 0.0027007606860962193 0 0.011565471765416446 0.002606714838536361 0 0.01185900978634215 0.0027007606860962193 0 0.011565471765416446 0.002606714838536361 0 0.011672773098701553 0.0023650601517385423 0 0.011565471765416446 0.002606714838536361 0 0.011426460380256921 0.0026810710037592634 0 0.011342376221700975 0.002504966123485363 0 0.011587321268555714 0.002815887061658388 0 0.011565471765416446 0.002606714838536361 0 0.011426460380256921 0.0026810710037592634 0 0.011565471765416446 0.002606714838536361 0 0.011672773098701553 0.0023650601517385423 0 0.011342376221700975 0.002504966123485363 0 0.01153498802895698 0.0019017299593443839 0 0.011672773098701553 0.0023650601517385423 0 0.011342376221700975 0.002504966123485363 0 0.012162057727555624 0.0021749221615522786 0 0.01185900978634215 0.0027007606860962193 0 0.011672773098701553 0.0023650601517385423 0 0.0088700640496951564 0.00089655810265381675 0 0.0092341398747845076 0.0010918031388534744 0 0.0092560336875838235 0.0016244878082943774 0 0.0095309927463782633 0.0012937945974867075 0 0.0092341398747845076 0.0010918031388534744 0 0.0092560336875838235 0.0016244878082943774 0 0.0095309927463782633 0.0012937945974867075 0 0.0097305816537042924 0.0015876266896749475 0 0.0097942889721824387 0.0012630877316881003 0 0.0095309927463782633 0.0012937945974867075 0 0.0092560336875838235 0.0016244878082943774 0 0.0097305816537042924 0.0015876266896749475 0 0.0096000688715762901 0.0009067925198597089 0 0.0095309927463782633 0.0012937945974867075 0 0.0097942889721824387 0.0012630877316881003 0 0.0096000688715762901 0.0009067925198597089 0 0.0095309927463782633 0.0012937945974867075 0 0.0092341398747845076 0.0010918031388534744 0 0.0082588283643025978 0.0012046092507819826 0 0.0080504183474658063 0.0014634052035547337 0 0.0087591130610370702 0.0022193365546924922 0 0.011426460380256921 0.0026810710037592634 0 0.011325721284814022 0.0026230704815173207 0 0.011342376221700975 0.002504966123485363 0 0.0082997453550438527 0.00060752089540237178 0 0.0088700640496951564 0.00089655810265381675 0 0.0092560336875838235 0.0016244878082943774 0 0.0081589283116753984 0.00084282533901754988 0 0.0096444274207244315 0.0020604438578802563 0 0.011368449453464536 0.0027890262640017987 0 0.011325721284814022 0.0026230704815173207 0 0.011214645224548316 0.0025802284750839326 0 0.0097518841522666235 0.0022914962755990263 0 0.0096444274207244315 0.0020604438578802563 0 0.011368449453464536 0.0027890262640017987 0 0.011426460380256921 0.0026810710037592634 0 0.011325721284814022 0.0026230704815173207 0 0.011325721284814022 0.0026230704815173207 0 0.011281379570224546 0.00255564236197903 0 0.011214645224548316 0.0025802284750839326 0 0.011389572292411814 0.0024473844905558342 0 0.011342376221700975 0.002504966123485363 0 0.011256683772993848 0.0025338103130901454 0 0.011281379570224546 0.00255564236197903 0 0.011342376221700975 0.002504966123485363 0 0.011256683772993848 0.0025338103130901454 0 0.011281379570224546 0.00255564236197903 0 0.011256683772993848 0.0025338103130901454 0 0.011214645224548316 0.0025802284750839326 0 0.011325721284814022 0.0026230704815173207 0 0.011281379570224546 0.00255564236197903 0 0.011342376221700975 0.002504966123485363 0 0.01055137637963879 0.0023379988265614959 0 0.0096444274207244315 0.0020604438578802563 0 0.011132154152942983 0.0025554394690526176 0 0.011256683772993848 0.0025338103130901454 0 0.011214645224548316 0.0025802284750839326 0 0.0098963147760694637 0.0021417166925865173 0 0.0092998492565378559 0.0016019514721505943 0 0.0095742580656995487 0.0017624484160534794 0 0.0096444274207244315 0.0020604438578802563 0 0.0094446559057095193 0.0017705855093172098 0 0.0097305816537042924 0.0015876266896749475 0 0.0095742580656995487 0.0017624484160534794 0 0.009936325046056833 0.0018887986690326718 0 0.0092560336875838235 0.0016244878082943774 0 0.0097305816537042924 0.0015876266896749475 0 0.0095742580656995487 0.0017624484160534794 0 0.0098963147760694637 0.0021417166925865173 0 0.0095742580656995487 0.0017624484160534794 0 0.009936325046056833 0.0018887986690326718 0 0.010367802933951953 0.0022296272068198964 0 0.009936325046056833 0.0018887986690326718 0 0.010135986703941023 0.0016976078059176797 0 0.0097305816537042924 0.0015876266896749475 0 0.009936325046056833 0.0018887986690326718 0 0.010135986703941023 0.0016976078059176797 0 0.010490045343998961 0.0019453541832189964 0 0.010497531770359281 0.001470248915358584 0 0.010464830864764267 0.0018235404252917192 0 0.010483217681562415 0.0014085433308293281 0 0.010826761432367988 0.0015807513796165607 0 0.010503766670660497 0.0021161698096880811 0 0.010135986703941023 0.0016976078059176797 0 0.010483217681562415 0.0014085433308293281 0 0.010483217681562415 0.0014085433308293281 0 0.010166704093981469 0.001145971273615211 0 0.010916566713775354 0.00095915062227878262 0 0.010135986703941023 0.0016976078059176797 0 0.010483217681562415 0.0014085433308293281 0 0.010166704093981469 0.001145971273615211 0 0.010135986703941023 0.0016976078059176797 0 0.010166704093981469 0.001145971273615211 0 0.0097942889721824387 0.0012630877316881003 0 0.0097305816537042924 0.0015876266896749475 0 0.010135986703941023 0.0016976078059176797 0 0.0097942889721824387 0.0012630877316881003 0 0.0096000688715762901 0.0009067925198597089 0 0.010166704093981469 0.001145971273615211 0 0.0097942889721824387 0.0012630877316881003 0 0.0096000688715762901 0.0009067925198597089 0 0.0095298965581074296 0.0005348347115213853 0 0.010000252004619374 0.00070135261913313227 0 0.0095298965581074296 0.0005348347115213853 0 0.010000252004619374 0.00070135261913313227 0 0.009881331006412801 0.00039106905831135967 0 0.0096000688715762901 0.0009067925198597089 0 0.010166704093981469 0.001145971273615211 0 0.010000252004619374 0.00070135261913313227 0 0.010000252004619374 0.00070135261913313227 0 0.010084013701069355 0.00049922976743116193 0 0.009881331006412801 0.00039106905831135967 0 0.010166704093981469 0.001145971273615211 0 0.010000252004619374 0.00070135261913313227 0 0.010916566713775354 0.00095915062227878262 0 0.010017542162069515 0.00070132275075474948 0 0.010533346852344076 0.00076576373719908968 0 0.010000252004619374 0.00070135261913313227 0 0.010084013701069355 0.00049922976743116193 0 0.01019481672593278 0.00057226838781730975 0 0.010044062467940564 0.0003020896173559138 0 0.010084013701069355 0.00049922976743116193 0 0.010186766635424503 0.00042669888870755529 0 0.009875241917868172 0.00025205999562047572 0 0.010044062467940564 0.0003020896173559138 0 0.009881331006412801 0.00039106905831135967 0 0.010044062467940564 0.0003020896173559138 0 0.010084013701069355 0.00049922976743116193 0 0.009881331006412801 0.00039106905831135967 0 0.0097178939346174616 0.00022549806268618638 0 0.009875241917868172 0.00025205999562047572 0 0.009881331006412801 0.00039106905831135967 0 0.0097178939346174616 0.00022549806268618638 0 0.0095298965581074296 0.0005348347115213853 0 0.009881331006412801 0.00039106905831135967 0 0.010230523027459318 0.00028434901392261494 0 0.010340839653240253 0.0004258794348353376 0 0.010186766635424503 0.00042669888870755529 0 0.010044062467940564 0.0003020896173559138 0 0.010230523027459318 0.00028434901392261494 0 0.010186766635424503 0.00042669888870755529 0 0.010340839653240253 0.0004258794348353376 0 0.010186766635424503 0.00042669888870755529 0 0.01019481672593278 0.00057226838781730975 0 0.010084013701069355 0.00049922976743116193 0 0.010186766635424503 0.00042669888870755529 0 0.01019481672593278 0.00057226838781730975 0 0.010533346852344076 0.00076576373719908968 0 0.01093309278148288 0.00080599586538245363 0 0.010340839653240253 0.0004258794348353376 0 0.01019481672593278 0.00057226838781730975 0 0.010380951309093294 0.00055611797431847905 0 0.010916566713775354 0.00095915062227878262 0 0.011218395087038065 0.0014702944052613278 0 0.011464863765111131 0.0010796519286239811 0 0.010483217681562415 0.0014085433308293281 0 0.010916566713775354 0.00095915062227878262 0 0.010826761432367988 0.0015807513796165607 0 0.010916566713775354 0.00095915062227878262 0 0.010826761432367988 0.0015807513796165607 0 0.011218395087038065 0.0014702944052613278 0 0.011101867370643224 0.001789012900498503 0 0.010826761432367988 0.0015807513796165607 0 0.011218395087038065 0.0014702944052613278 0 0.011101867370643224 0.001789012900498503 0 0.011218395087038065 0.0014702944052613278 0 0.011346126559485088 0.0017239528635288103 0 0.011218395087038065 0.0014702944052613278 0 0.011346126559485088 0.0017239528635288103 0 0.011473181061195912 0.0015805768512429509 0 0.011346126559485088 0.0017239528635288103 0 0.011473181061195912 0.0015805768512429509 0 0.011626529292864923 0.0016975418586986858 0 0.011473181061195912 0.0015805768512429509 0 0.011626529292864923 0.0016975418586986858 0 0.011611752413199733 0.0014691024605763847 0 0.011626529292864923 0.0016975418586986858 0 0.011611752413199733 0.0014691024605763847 0 0.01181953667390849 0.0014258940861933843 0 0.011473181061195912 0.0015805768512429509 0 0.011611752413199733 0.0014691024605763847 0 0.011491648094307871 0.0013839203885628994 0 0.011218395087038065 0.0014702944052613278 0 0.011473181061195912 0.0015805768512429509 0 0.011491648094307871 0.0013839203885628994 0 0.011218395087038065 0.0014702944052613278 0 0.011491648094307871 0.0013839203885628994 0 0.011464863765111131 0.0010796519286239811 0 0.011491648094307871 0.0013839203885628994 0 0.011679721152780308 0.0013037325606407594 0 0.011464863765111131 0.0010796519286239811 0 0.011611752413199733 0.0014691024605763847 0 0.011491648094307871 0.0013839203885628994 0 0.011679721152780308 0.0013037325606407594 0 0.011679721152780308 0.0013037325606407594 0 0.011464863765111131 0.0010796519286239811 0 0.012004129630277305 0.0011641998479772504 0 0.01093309278148288 0.00080599586538245363 0 0.011206888864564658 0.00095189374371891099 0 0.011679721152780308 0.0013037325606407594 0 0.01181953667390849 0.0014258940861933843 0 0.012004129630277305 0.0011641998479772504 0 0.011757715696774099 0.001544935636505494 0 0.011838308261636918 0.001416698342514764 0 0.011877050638274425 0.0014449157047044098 0 0.011781436927480361 0.0014600234393078815 0 0.011206888864564658 0.00095189374371891099 0 0.011757715696774099 0.001544935636505494 0 0.011775337563048714 0.0016336096349587623 0 0.011877050638274425 0.0014449157047044098 0 0.011757715696774099 0.001544935636505494 0 0.011749934205529378 0.0016544405541118084 0 0.011775337563048714 0.0016336096349587623 0 0.011611752413199733 0.0014691024605763847 0 0.011679721152780308 0.0013037325606407594 0 0.01181953667390849 0.0014258940861933843 0 0.011642978294990615 0.0016768910599057687 0 0.011781436927480361 0.0014600234393078815 0 0.011626529292864923 0.0016975418586986858 0 0.011757715696774099 0.001544935636505494 0 0.011749934205529378 0.0016544405541118084 0 0.012743199463436746 0.00096702369776303422 0 0.012733423902659417 0.00089067872704489315 0 0.012799915504401869 0.00090564871767120914 0 0.012733423902659417 0.00089067872704489315 0 0.012799915504401869 0.00090564871767120914 0 0.012822387548161045 0.00082814560784419476 0 0.012733423902659417 0.00089067872704489315 0 0.012822387548161045 0.00082814560784419476 0 0.012849906141715361 0.00070592970463908915 0 0.012372158662742709 0.0011983298394992201 0 0.011610776716148173 0.0011214127058435867 0 0.012799915504401869 0.00090564871767120914 0 0.012864575119298059 0.00089239136143208118 0 0.012822387548161045 0.00082814560784419476 0 0.012824989395041919 0.00096384188344895841 0 0.012799915504401869 0.00090564871767120914 0 0.012864575119298059 0.00089239136143208118 0 0.012917492539850478 0.0009606409616630977 0 0.012864575119298059 0.00089239136143208118 0 0.012940203833466337 0.00089743299735054046 0 0.012917492539850478 0.0009606409616630977 0 0.012824989395041919 0.00096384188344895841 0 0.012864575119298059 0.00089239136143208118 0 0.012864575119298059 0.00089239136143208118 0 0.012913955337114279 0.00084132487647349541 0 0.012940203833466337 0.00089743299735054046 0 0.012913955337114279 0.00084132487647349541 0 0.012876876869299848 0.00078108713820073002 0 0.012928050055184218 0.00076032615126197817 0 0.012864575119298059 0.00089239136143208118 0 0.012913955337114279 0.00084132487647349541 0 0.012822387548161045 0.00082814560784419476 0 0.012913955337114279 0.00084132487647349541 0 0.012822387548161045 0.00082814560784419476 0 0.012876876869299848 0.00078108713820073002 0 0.013127845938843906 0.0009233596554639893 0 0.012928050055184218 0.00076032615126197817 0 0.013271318893529453 0.00079245550352130491 0 0.012913955337114279 0.00084132487647349541 0 0.013038872160037284 0.00088208867770592583 0 0.012940203833466337 0.00089743299735054046 0 0.012978461757856616 0.00093942105015562744 0 0.013038872160037284 0.00088208867770592583 0 0.012940203833466337 0.00089743299735054046 0 0.012978461757856616 0.00093942105015562744 0 0.012917492539850478 0.0009606409616630977 0 0.012940203833466337 0.00089743299735054046 0 0.013046449997288058 0.00086948771773733198 0 0.012955310279142538 0.00078478338293387412 0 0.012913955337114279 0.00084132487647349541 0 0.013038872160037284 0.00088208867770592583 0 0.012928050055184218 0.00076032615126197817 0 0.012928050055184218 0.00076032615126197817 0 0.012849906141715361 0.00070592970463908915 0 0.013271318893529453 0.00079245550352130491 0 0.0089295919985015529 0.0016402168624933095 0 0.010165415048516212 0.0014786221478805543 0 0.00919258859250645 0.0019179748081767393 0 0.0097798363479891532 0.0018739883652008802 0 0.0090543690190440177 0.001728727001392324 0 0.011610776716148173 0.0011214127058435867 0 0.011109226310940631 0.0012879803759176032 0 0.00919258859250645 0.0019179748081767393 0 0.0097798363479891532 0.0018739883652008802 0 0.0097039195576481101 0.0019581143312438556 0 0.0088476054914146656 0.0013762788634019739 0 0.0090197330097823089 0.0015471662313580371 0 0.0093496209126598916 0.0014382088577541215 0 0.0088476054914146656 0.0013762788634019739 0 0.0090197330097823089 0.0015471662313580371 0 0.0088311610832399867 0.0016252256186299046 0 0.011775337563048714 0.0016336096349587623 0 0.01192213925078464 0.0014571602087416007 0 0.011877050638274425 0.0014449157047044098 0 0.011610776716148173 0.0011214127058435867 0 0.011786773808495488 0.0012187548627889324 0 0.012876876869299848 0.00078108713820073002 0 0.012928050055184218 0.00076032615126197817 0 0.012849906141715361 0.00070592970463908915 0 0.012822387548161045 0.00082814560784419476 0 0.012876876869299848 0.00078108713820073002 0 0.012849906141715361 0.00070592970463908915 0 0.0095777837610294698 0.0006867266284045656 0 0.010206081567470573 0.00076951450346117488 0 0.0095683118313663069 0.0011186538554409579 0 0.011909067459766843 0.0014550548197578683 0 0.011929631598895107 0.0014332579821573115 0 0.011877050638274425 0.0014449157047044098 0 0.011610776716148173 0.0011214127058435867 0 0.010165415048516212 0.0014786221478805543 0 0.010165415048516212 0.0014786221478805543 0 0.011206888864564658 0.00095189374371891099 0 0.011929631598895107 0.0014332579821573115 0 0.011838308261636918 0.001416698342514764 0 0.011877050638274425 0.0014449157047044098 0 0.010512527432842776 0.00055653985955295658 0 0.010509718029292021 0.00048921843967721405 0 0.010554489887155721 0.00047194284931309136 0 0.011206888864564658 0.00095189374371891099 0 0.0085326301063476315 0.00095025371013627289 0 0.010206081567470573 0.00076951450346117488 0 0.0095683118313663069 0.0011186538554409579 0 0.009507461420409995 0.001706062530256246 0 0.0071696586598745645 0.0010417554801850624 0 0.007320752543917646 0.0011723289207007479 0 0.0074123001035046893 0.00099992317140691232 0 0.0090197330097823089 0.0015471662313580371 0 0.0090411120494600511 0.0017648761623612816 0 0.0088311610832399867 0.0016252256186299046 0 0.0084939395570703888 0.0013223764588050112 0 0.0081102170418716514 0.001375260473375576 0 0.0095777837610294698 0.0006867266284045656 0 0.0095683118313663069 0.0011186538554409579 0 0.0089612461026421439 0.0013447260126624424 0 0.010165415048516212 0.0014786221478805543 0 0.0084939395570703888 0.0013223764588050112 0 0.0090197330097823089 0.0015471662313580371 0 0.0093496209126598916 0.0014382088577541215 0 0.0090411120494600511 0.0017648761623612816 0 0.0095683118313663069 0.0011186538554409579 0 0.009507461420409995 0.001706062530256246 0 0.0089612461026421439 0.0013447260126624424 0 0.0085326301063476315 0.00095025371013627289 0 0.0084939395570703888 0.0013223764588050112 0 0.007320752543917646 0.0011723289207007479 0 0.0074123001035046893 0.00099992317140691232 0 0.0074459839582737292 0.0012975493505415065 0 0.0074123001035046893 0.00099992317140691232 0 0.0075315897229834387 0.00086997938452064037 0 0.0073630294125267472 0.00077833338578666724 0 0.0072298887700680938 0.00094767755205766907 0 0.00719734925070044 0.00079560594379705224 0 0.0073630294125267472 0.00077833338578666724 0 0.0071696586598745645 0.0010417554801850624 0 0.0074123001035046893 0.00099992317140691232 0 0.0073630294125267472 0.00077833338578666724 0 0.0085326301063476315 0.00095025371013627289 0 0.0070182912143873658 0.00095505334802848708 0 0.010509718029292021 0.00048921843967721405 0 0.010554489887155721 0.00047194284931309136 0 0.010480032913653597 0.00041498921224873518 0 0.0085326301063476315 0.00095025371013627289 0 0.0087955763615504591 0.00044608687508024942 0 0.0072298887700680938 0.00094767755205766907 0 0.00719734925070044 0.00079560594379705224 0 0.0070616552708549817 0.00082981270959817501 0 0.010509718029292021 0.00048921843967721405 0 0.010480032913653597 0.00041498921224873518 0 0.010465267951952848 0.00044402510076024614 0 0.0087955763615504591 0.00044608687508024942 0 0.010033749633509491 4.0389379608632996e-05 0 0.01050021850615716 0.00039132031168026424 0 0.010465267951952848 0.00044402510076024614 0 0.010421115128043236 0.00037521868814471691 0 0.01050021850615716 0.00039132031168026424 0 0.010421115128043236 0.00037521868814471691 0 0.010387598780462477 0.00026697390773062222 0 0.010340839653240253 0.0004258794348353376 0 0.010421115128043236 0.00037521868814471691 0 0.010387598780462477 0.00026697390773062222 0 0.010340839653240253 0.0004258794348353376 0 0.010465267951952848 0.00044402510076024614 0 0.010421115128043236 0.00037521868814471691 0 0.010340839653240253 0.0004258794348353376 0 0.010380951309093294 0.00055611797431847905 0 0.010465267951952848 0.00044402510076024614 0 0.010380951309093294 0.00055611797431847905 0 0.010512527432842776 0.00055653985955295658 0 0.010509718029292021 0.00048921843967721405 0 0.010380951309093294 0.00055611797431847905 0 0.010509718029292021 0.00048921843967721405 0 0.010465267951952848 0.00044402510076024614 0 0.0094862663077402345 0.0015403380707958991 0 0.0090059961351234771 0.0017065239207775891 0 0.0092003236566473908 0.0011915788618960912 0 0.0090059961351234771 0.0017065239207775891 0 0.0087938450065895898 0.0013649090021922415 0 0.0092003236566473908 0.0011915788618960912 0 0.0092990450413210721 0.0021282908089759324 0 0.0090059961351234771 0.0017065239207775891 0 0.0086709746912941796 0.001834132304964262 0 0.0092990450413210721 0.0021282908089759324 0 0.0094862663077402345 0.0015403380707958991 0 0.0090059961351234771 0.0017065239207775891 0 0.011614966832870388 0.0015963871613513818 0 0.011206327501206849 0.0013805894118832452 0 0.0090059961351234771 0.0017065239207775891 0 0.0086709746912941796 0.001834132304964262 0 0.0086657132158635755 0.00174026083160746 0 0.0090059961351234771 0.0017065239207775891 0 0.0086657132158635755 0.00174026083160746 0 0.0087938450065895898 0.0013649090021922415 0 0.0086657132158635755 0.00174026083160746 0 0.0087938450065895898 0.0013649090021922415 0 0.0083811968237202609 0.0015175180035476292 0 0.0087938450065895898 0.0013649090021922415 0 0.0083811968237202609 0.0015175180035476292 0 0.0083713113786510387 0.0012312609933172315 0 0.0083811968237202609 0.0015175180035476292 0 0.0080543310944161065 0.0017361063018473514 0 0.0079643833015261949 0.0013686722955221487 0 0.0085080064175109254 0.0016386705659679321 0 0.0086800412877992891 0.0017573009134866922 0 0.0086657132158635755 0.00174026083160746 0 0.0083811968237202609 0.0015175180035476292 0 0.0080543310944161065 0.0017361063018473514 0 0.0086657132158635755 0.00174026083160746 0 0.0087796027049851511 0.0018353034225484998 0 0.0087359635090980114 0.0018114301749009693 0 0.0086259161588280869 0.001758991515467269 0 0.0085080064175109254 0.0016386705659679321 0 0.0086657132158635755 0.00174026083160746 0 0.0088235577381372051 0.0019004847769354494 0 0.0087796027049851511 0.0018353034225484998 0 0.0086709746912941796 0.001834132304964262 0 0.0086657132158635755 0.00174026083160746 0 0.0087359635090980114 0.0018114301749009693 0 0.0087796027049851511 0.0018353034225484998 0 0.0087359635090980114 0.0018114301749009693 0 0.0090543690190440177 0.001728727001392324 0 0.011206327501206849 0.0013805894118832452 0 0.011109226310940631 0.0012879803759176032 0 0.013682775098791112 0.00092864249280633516 0 0.01349085019653041 0.00094506480422422716 0 0.013271318893529453 0.00079245550352130491 0 0.0086709746912941796 0.001834132304964262 0 0.0087359635090980114 0.0018114301749009693 0 0.0090543690190440177 0.001728727001392324 0 0.013589557491640923 0.0010639184965619752 0 0.013682775098791112 0.00092864249280633516 0 0.01349085019653041 0.00094506480422422716 0 0.013589557491640923 0.0010639184965619752 0 0.01349085019653041 0.00094506480422422716 0 0.013412833969725514 0.00097638115766454376 0 0.01349085019653041 0.00094506480422422716 0 0.013412833969725514 0.00097638115766454376 0 0.013271318893529453 0.00079245550352130491 0 0.013336277639486662 0.0011133214669231666 0 0.013412833969725514 0.00097638115766454376 0 0.013286738010852112 0.00095030178245838516 0 0.013412833969725514 0.00097638115766454376 0 0.013286738010852112 0.00095030178245838516 0 0.013271318893529453 0.00079245550352130491 0 0.013525730498502031 0.001114742722845853 0 0.013046449997288058 0.00086948771773733198 0 0.013336277639486662 0.0011133214669231666 0 0.013127845938843906 0.0009233596554639893 0 0.013286738010852112 0.00095030178245838516 0 0.013127845938843906 0.0009233596554639893 0 0.013286738010852112 0.00095030178245838516 0 0.013271318893529453 0.00079245550352130491 0 0.0089295919985015529 0.0016402168624933095 0 0.0085080064175109254 0.0016386705659679321 0 0.0085080064175109254 0.0016386705659679321 0 0.0081102170418716514 0.001375260473375576 0 0.00919258859250645 0.0019179748081767393 0 0.0088355981097625515 0.0018621995653861293 0 0.0090543690190440177 0.001728727001392324 0 0.0080543310944161065 0.0017361063018473514 0 0.0074459839582737292 0.0012975493505415065 0 0.0079643833015261949 0.0013686722955221487 0 0.0088476054914146656 0.0013762788634019739 0 0.0083598016371935497 0.0013163703943257948 0 0.0088311610832399867 0.0016252256186299046 0 0.0088355981097625515 0.0018621995653861293 0 0.0087796027049851511 0.0018353034225484998 0 0.0090543690190440177 0.001728727001392324 0 0.0074459839582737292 0.0012975493505415065 0 0.0076552428562609992 0.0010367364178820195 0 0.0079643833015261949 0.0013686722955221487 0 0.0074123001035046893 0.00099992317140691232 0 0.0074459839582737292 0.0012975493505415065 0 0.0076552428562609992 0.0010367364178820195 0 0.0074123001035046893 0.00099992317140691232 0 0.0076552428562609992 0.0010367364178820195 0 0.0075315897229834387 0.00086997938452064037 0 0.0076552428562609992 0.0010367364178820195 0 0.0075315897229834387 0.00086997938452064037 0 0.0076676782131840432 0.00087890460879392848 0 0.0076864276384832793 0.0010300911336135557 0 0.0082415375099724672 0.00087372399834524921 0 0.0076676782131840432 0.00087890460879392848 0 0.0078344281398811406 0.0010034691769929605 0 0.0078125049801551008 0.00073490816731769642 0 0.0076552428562609992 0.0010367364178820195 0 0.0076676782131840432 0.00087890460879392848 0 0.0078344281398811406 0.0010034691769929605 0 0.0076552428562609992 0.0010367364178820195 0 0.0079643833015261949 0.0013686722955221487 0 0.0083713113786510387 0.0012312609933172315 0 0.0076552428562609992 0.0010367364178820195 0 0.0083713113786510387 0.0012312609933172315 0 0.0086595377515288289 0.00072696469031464797 0 0.0083811968237202609 0.0015175180035476292 0 0.0079643833015261949 0.0013686722955221487 0 0.0083713113786510387 0.0012312609933172315 0 0.0087938450065895898 0.0013649090021922415 0 0.0083713113786510387 0.0012312609933172315 0 0.0086595377515288289 0.00072696469031464797 0 0.0087938450065895898 0.0013649090021922415 0 0.0086595377515288289 0.00072696469031464797 0 0.0092003236566473908 0.0011915788618960912 0 0.0078344281398811406 0.0010034691769929605 0 0.008243408657804676 0.0010169434593100912 0 0.0078125049801551008 0.00073490816731769642 0 0.0082415375099724672 0.00087372399834524921 0 0.0088307152250828753 0.00079978171922546765 0 0.0086595377515288289 0.00072696469031464797 0 0.0094039360711774232 0.00057420590129394057 0 0.0092003236566473908 0.0011915788618960912 0 0.008396124057736357 0.00039843213509248998 0 0.0081204241870303489 0.00061588591426119099 0 0.0080903783549489804 0.00032142494892872233 0 0.0081204241870303489 0.00061588591426119099 0 0.0078618737945659201 0.00044581557816276561 0 0.0080903783549489804 0.00032142494892872233 0 0.0084642217528914897 0.00070822039331313463 0 0.008243408657804676 0.0010169434593100912 0 0.0081204241870303489 0.00061588591426119099 0 0.008243408657804676 0.0010169434593100912 0 0.0081204241870303489 0.00061588591426119099 0 0.0078125049801551008 0.00073490816731769642 0 0.0078125049801551008 0.00073490816731769642 0 0.0078618737945659201 0.00044581557816276561 0 0.0076687814317696456 0.00052331480255507858 0 0.0081204241870303489 0.00061588591426119099 0 0.0078125049801551008 0.00073490816731769642 0 0.0078618737945659201 0.00044581557816276561 0 0.0078618737945659201 0.00044581557816276561 0 0.0076687814317696456 0.00052331480255507858 0 0.007672995010624975 0.00028030857290091893 0 0.0076687814317696456 0.00052331480255507858 0 0.0075269168082429281 0.00066405686681526301 0 0.0075088240936508829 0.00038263097072655612 0 0.0076676782131840432 0.00087890460879392848 0 0.0078125049801551008 0.00073490816731769642 0 0.0075269168082429281 0.00066405686681526301 0 0.0078125049801551008 0.00073490816731769642 0 0.0076687814317696456 0.00052331480255507858 0 0.0075269168082429281 0.00066405686681526301 0 0.0075269168082429281 0.00066405686681526301 0 0.0073630294125267472 0.00077833338578666724 0 0.0073245054429836882 0.00061104271629629323 0 0.0075315897229834387 0.00086997938452064037 0 0.0076676782131840432 0.00087890460879392848 0 0.0075269168082429281 0.00066405686681526301 0 0.0075315897229834387 0.00086997938452064037 0 0.0075269168082429281 0.00066405686681526301 0 0.0073630294125267472 0.00077833338578666724 0 0.0075269168082429281 0.00066405686681526301 0 0.0073855823506342256 0.00046770211817269062 0 0.0075088240936508829 0.00038263097072655612 0 0.0075269168082429281 0.00066405686681526301 0 0.0073855823506342256 0.00046770211817269062 0 0.0073245054429836882 0.00061104271629629323 0 0.0073791804969152988 0.00031098032876662046 0 0.0073335089689681079 8.723505515197694e-05 0 0.0072554167450457948 0.00039505112202113039 0 0.0073855823506342256 0.00046770211817269062 0 0.0073791804969152988 0.00031098032876662046 0 0.0075088240936508829 0.00038263097072655612 0 0.0073791804969152988 0.00031098032876662046 0 0.0075088240936508829 0.00038263097072655612 0 0.0074245826711482922 0.00021132944397828936 0 0.0075088240936508829 0.00038263097072655612 0 0.0074245826711482922 0.00021132944397828936 0 0.0075184322098407301 0.00020120300105242722 0 0.0073791804969152988 0.00031098032876662046 0 0.0074245826711482922 0.00021132944397828936 0 0.0073335089689681079 8.723505515197694e-05 0 0.0073335089689681079 8.723505515197694e-05 0 0.0073007747689185542 1.995045852286754e-05 0 0.00734130912636513 2.3221319073446738e-05 0 0.0073335089689681079 8.723505515197694e-05 0 0.00734130912636513 2.3221319073446738e-05 0 0.0074196546572287136 9.725332988395171e-05 0 0.007407861808160613 3.4607642826826202e-05 0 0.00734130912636513 2.3221319073446738e-05 0 0.0074196546572287136 9.725332988395171e-05 0 0.007407861808160613 3.4607642826826202e-05 0 0.0074196546572287136 9.725332988395171e-05 0 0.0075111806584035471 7.9597923005557514e-05 0 0.0074245826711482922 0.00021132944397828936 0 0.0074196546572287136 9.725332988395171e-05 0 0.0075184322098407301 0.00020120300105242722 0 0.0074245826711482922 0.00021132944397828936 0 0.0073335089689681079 8.723505515197694e-05 0 0.0074196546572287136 9.725332988395171e-05 0 0.0075111806584035471 7.9597923005557514e-05 0 0.0076099773394236632 0.00014451222593039496 0 0.0075184322098407301 0.00020120300105242722 0 0.0074196546572287136 9.725332988395171e-05 0 0.0075111806584035471 7.9597923005557514e-05 0 0.0075184322098407301 0.00020120300105242722 0 0.0075111806584035471 7.9597923005557514e-05 0 0.0075566289735297769 1.402919902775448e-05 0 0.0074584210533292609 -2.2262057019349831e-06 0 0.007407861808160613 3.4607642826826202e-05 0 0.0075111806584035471 7.9597923005557514e-05 0 0.0074584210533292609 -2.2262057019349831e-06 0 0.007632388583547851 -1.2801029768299255e-05 0 0.0075566289735297769 1.402919902775448e-05 0 0.0076192635833523875 5.8317380099881038e-05 0 0.007632388583547851 -1.2801029768299255e-05 0 0.0075566289735297769 1.402919902775448e-05 0 0.0075905653126556337 -5.9266802956153049e-05 0 0.0075111806584035471 7.9597923005557514e-05 0 0.0075566289735297769 1.402919902775448e-05 0 0.0076192635833523875 5.8317380099881038e-05 0 0.007632388583547851 -1.2801029768299255e-05 0 0.0076192635833523875 5.8317380099881038e-05 0 0.007695863754140355 1.5278693044716171e-05 0 0.0076099773394236632 0.00014451222593039496 0 0.007672995010624975 0.00028030857290091893 0 0.0077378601097454012 0.00010419774713181267 0 0.0076192635833523875 5.8317380099881038e-05 0 0.0076099773394236632 0.00014451222593039496 0 0.0077378601097454012 0.00010419774713181267 0 0.0075111806584035471 7.9597923005557514e-05 0 0.0076192635833523875 5.8317380099881038e-05 0 0.0076099773394236632 0.00014451222593039496 0 0.0076099773394236632 0.00014451222593039496 0 0.007672995010624975 0.00028030857290091893 0 0.0075184322098407301 0.00020120300105242722 0 0.0076687814317696456 0.00052331480255507858 0 0.0075088240936508829 0.00038263097072655612 0 0.007672995010624975 0.00028030857290091893 0 0.0075088240936508829 0.00038263097072655612 0 0.007672995010624975 0.00028030857290091893 0 0.0075184322098407301 0.00020120300105242722 0 0.0078618737945659201 0.00044581557816276561 0 0.007672995010624975 0.00028030857290091893 0 0.0078923613627986493 0.00021606315372472344 0 0.0078618737945659201 0.00044581557816276561 0 0.0078923613627986493 0.00021606315372472344 0 0.0080903783549489804 0.00032142494892872233 0 0.007672995010624975 0.00028030857290091893 0 0.0078923613627986493 0.00021606315372472344 0 0.0077378601097454012 0.00010419774713181267 0 0.0077378601097454012 0.00010419774713181267 0 0.007695863754140355 1.5278693044716171e-05 0 0.0077818191781057356 -2.3374745616583802e-05 0 0.0076192635833523875 5.8317380099881038e-05 0 0.0077378601097454012 0.00010419774713181267 0 0.007695863754140355 1.5278693044716171e-05 0 0.007695863754140355 1.5278693044716171e-05 0 0.0077818191781057356 -2.3374745616583802e-05 0 0.007695642735355359 -5.7060572232478754e-05 0 0.007632388583547851 -1.2801029768299255e-05 0 0.007695863754140355 1.5278693044716171e-05 0 0.007695642735355359 -5.7060572232478754e-05 0 0.0077378601097454012 0.00010419774713181267 0 0.0077818191781057356 -2.3374745616583802e-05 0 0.0079019160658716989 2.905505929125957e-05 0 0.0077818191781057356 -2.3374745616583802e-05 0 0.0079019160658716989 2.905505929125957e-05 0 0.0078795393162133034 -8.5710621814799918e-05 0 0.0078923613627986493 0.00021606315372472344 0 0.0077378601097454012 0.00010419774713181267 0 0.0079019160658716989 2.905505929125957e-05 0 0.0078923613627986493 0.00021606315372472344 0 0.0079019160658716989 2.905505929125957e-05 0 0.0080687138514029758 9.4034991533413793e-05 0 0.0079019160658716989 2.905505929125957e-05 0 0.0081055387031038189 -0.00015098587528715828 0 0.0078795393162133034 -8.5710621814799918e-05 0 0.0079019160658716989 2.905505929125957e-05 0 0.0080687138514029758 9.4034991533413793e-05 0 0.0081055387031038189 -0.00015098587528715828 0 0.0082295771175530802 -1.0793778396164238e-05 0 0.0080687138514029758 9.4034991533413793e-05 0 0.0081055387031038189 -0.00015098587528715828 0 0.0082295771175530802 -1.0793778396164238e-05 0 0.0082920687818717701 0.0001602259660863567 0 0.0080687138514029758 9.4034991533413793e-05 0 0.0082920687818717701 0.0001602259660863567 0 0.0080687138514029758 9.4034991533413793e-05 0 0.0080903783549489804 0.00032142494892872233 0 0.0078923613627986493 0.00021606315372472344 0 0.0080687138514029758 9.4034991533413793e-05 0 0.0080903783549489804 0.00032142494892872233 0 0.0074390660829198787 -9.2959949689599302e-05 0 0.0074951486733026065 -0.00014728574642515902 0 0.0073746324873610889 -0.00013090526767650274 0 0.0074390660829198787 -9.2959949689599302e-05 0 0.0074951486733026065 -0.00014728574642515902 0 0.0075102592589790067 -4.420449545403894e-05 0 0.0074390660829198787 -9.2959949689599302e-05 0 0.0073746324873610889 -0.00013090526767650274 0 0.0073774710096672835 -3.6920158704225826e-05 0 0.0074951486733026065 -0.00014728574642515902 0 0.007618398150498194 -0.00012028495226173316 0 0.0075102592589790067 -4.420449545403894e-05 0 0.0074951486733026065 -0.00014728574642515902 0 0.007618398150498194 -0.00012028495226173316 0 0.007584146062294829 -0.00020507963237817751 0 0.0074884539216019536 -0.00024378787856572113 0 0.0074951486733026065 -0.00014728574642515902 0 0.007584146062294829 -0.00020507963237817751 0 0.0087955763615504591 0.00044608687508024942 0 0.0090010795291555565 -1.5556661636842494e-05 0 0.0074796876736672535 -0.00023060807956436455 0 0.0073787333360987523 -8.0940359758032061e-05 0 0.0074562180338930599 -0.00026860263603098347 0 0.0074884539216019536 -0.00024378787856572113 0 0.0073427670582798055 -8.3222034606511542e-05 0 0.0074884539216019536 -0.00024378787856572113 0 0.0074951486733026065 -0.00014728574642515902 0 0.0073746324873610889 -0.00013090526767650274 0 0.0074562180338930599 -0.00026860263603098347 0 0.0074884539216019536 -0.00024378787856572113 0 0.007584146062294829 -0.00020507963237817751 0 0.0074884539216019536 -0.00024378787856572113 0 0.0073427670582798055 -8.3222034606511542e-05 0 0.0073807473273320556 -2.874687338047504e-05 0 0.00719734925070044 0.00079560594379705224 0 0.0070616552708549817 0.00082981270959817501 0 0.0071654818792316853 0.00063391290900588807 0 0.0087955763615504591 0.00044608687508024942 0 0.0070592910863092051 0.00032924560333289258 0 0.00719734925070044 0.00079560594379705224 0 0.0071654818792316853 0.00063391290900588807 0 0.0072593486644936004 0.00070478394231231613 0 0.00719734925070044 0.00079560594379705224 0 0.0073630294125267472 0.00077833338578666724 0 0.0072593486644936004 0.00070478394231231613 0 0.0071654818792316853 0.00063391290900588807 0 0.0072593486644936004 0.00070478394231231613 0 0.0073245054429836882 0.00061104271629629323 0 0.0073630294125267472 0.00077833338578666724 0 0.0072593486644936004 0.00070478394231231613 0 0.0073245054429836882 0.00061104271629629323 0 0.0073855823506342256 0.00046770211817269062 0 0.0073245054429836882 0.00061104271629629323 0 0.0072554167450457948 0.00039505112202113039 0 0.0071654818792316853 0.00063391290900588807 0 0.0073245054429836882 0.00061104271629629323 0 0.0072554167450457948 0.00039505112202113039 0 0.0070592910863092051 0.00032924560333289258 0 0.0073013344321433337 0.00020044768758082878 0 0.0073787333360987523 -8.0940359758032061e-05 0 0.0072974036360337283 3.9229152779282884e-05 0 0.0073427670582798055 -8.3222034606511542e-05 0 0.0073807473273320556 -2.874687338047504e-05 0 0.0072742615059053157 7.4203744200188135e-05 0 0.0073774710096672835 -3.6920158704225826e-05 0 0.0073026340561303457 -8.1722919510046898e-06 0 0.0073413067224194278 1.0674781498974463e-05 0 0.0073746324873610889 -0.00013090526767650274 0 0.0073774710096672835 -3.6920158704225826e-05 0 0.0073026340561303457 -8.1722919510046898e-06 0 0.0073807473273320556 -2.874687338047504e-05 0 0.0072867236186993836 9.9491351445621181e-05 0 0.0072742615059053157 7.4203744200188135e-05 0 0.0073774710096672835 -3.6920158704225826e-05 0 0.0073413067224194278 1.0674781498974463e-05 0 0.0073686608131768522 4.0920377429033537e-05 0 0.0073335089689681079 8.723505515197694e-05 0 0.0072867236186993836 9.9491351445621181e-05 0 0.0072742615059053157 7.4203744200188135e-05 0 0.0073268639915867609 0.00010377245594603277 0 0.0073013344321433337 0.00020044768758082878 0 0.0073855823506342256 0.00046770211817269062 0 0.0073791804969152988 0.00031098032876662046 0 0.0072554167450457948 0.00039505112202113039 0 0.0073020045621111657 2.1859991916649653e-05 0 0.0072974036360337283 3.9229152779282884e-05 0 0.0073007747689185542 1.995045852286754e-05 0 0.0073026340561303457 -8.1722919510046898e-06 0 0.0073072942987646248 1.6328998988782647e-05 0 0.0073335089689681079 8.723505515197694e-05 0 0.0073007747689185542 1.995045852286754e-05 0 0.0072867236186993836 9.9491351445621181e-05 0 0.0073026340561303457 -8.1722919510046898e-06 0 0.0073072942987646248 1.6328998988782647e-05 0 0.0073272909499479877 2.6407262079915021e-05 0 0.0073072942987646248 1.6328998988782647e-05 0 0.0073272909499479877 2.6407262079915021e-05 0 0.0073002438293498211 8.2182568357287388e-06 0 0.0073026340561303457 -8.1722919510046898e-06 0 0.0073413067224194278 1.0674781498974463e-05 0 0.0073272909499479877 2.6407262079915021e-05 0 0.0073272909499479877 2.6407262079915021e-05 0 0.0073686608131768522 4.0920377429033537e-05 0 0.0073362635096248666 3.5754614111364487e-05 0 0.0073413067224194278 1.0674781498974463e-05 0 0.0073272909499479877 2.6407262079915021e-05 0 0.0073686608131768522 4.0920377429033537e-05 0 0.0074390660829198787 -9.2959949689599302e-05 0 0.0073774710096672835 -3.6920158704225826e-05 0 0.0075102592589790067 -4.420449545403894e-05 0 0.0073774710096672835 -3.6920158704225826e-05 0 0.0073686608131768522 4.0920377429033537e-05 0 0.0075102592589790067 -4.420449545403894e-05 0 0.0073686608131768522 4.0920377429033537e-05 0 0.0075102592589790067 -4.420449545403894e-05 0 0.0076053828309068589 0.00015011186813737964 0 0.0073744081440200136 4.6620275819082205e-05 0 0.0074670802867502764 9.0097794427774678e-05 0 0.0073686608131768522 4.0920377429033537e-05 0 0.0073328398191590443 3.784686707053253e-05 0 0.0073330187402775651 3.8542043104694549e-05 0 0.0073328398191590443 3.784686707053253e-05 0 0.0073330187402775651 3.8542043104694549e-05 0 0.0073338629594958786 6.9622857511971998e-05 0 0.0073330187402775651 3.8542043104694549e-05 0 0.0073259875594686129 4.4878232985467358e-05 0 0.0073338629594958786 6.9622857511971998e-05 0 0.005914140283774981 -0.00023604172816223861 0 0.0058234695700966508 -0.00027997982412598379 0 0.0047941005422558912 -0.00060360848985501121 0 0.004482911355407496 -0.00052929378881201204 0 0.0055163028340608497 -0.00023291599916913785 0 0.0047941005422558912 -0.00060360848985501121 0 0.004482911355407496 -0.00052929378881201204 0 0.0047809414662323959 -0.0007649044336242247 0 0.0073330187402775651 3.8542043104694549e-05 0 0.0073259875594686129 4.4878232985467358e-05 0 0.0073362635096248666 3.5754614111364487e-05 0 0.0073686608131768522 4.0920377429033537e-05 0 0.0073330187402775651 3.8542043104694549e-05 0 0.0073362635096248666 3.5754614111364487e-05 0 0.0073272909499479877 2.6407262079915021e-05 0 0.0073362635096248666 3.5754614111364487e-05 0 0.0073220916273389891 2.5609278551040867e-05 0 0.0073362635096248666 3.5754614111364487e-05 0 0.0073220916273389891 2.5609278551040867e-05 0 0.0073173704653349608 3.9969157288527434e-05 0 0.0073272909499479877 2.6407262079915021e-05 0 0.0073220916273389891 2.5609278551040867e-05 0 0.0073002438293498211 8.2182568357287388e-06 0 0.0072854688894509988 -1.845453495570797e-05 0 0.0073173704653349608 3.9969157288527434e-05 0 0.0072410084972936379 -6.6998915762662625e-05 0 0.0073002438293498211 8.2182568357287388e-06 0 0.0072854688894509988 -1.845453495570797e-05 0 0.0073173704653349608 3.9969157288527434e-05 0 0.0073007747689185542 1.995045852286754e-05 0 0.0073002438293498211 8.2182568357287388e-06 0 0.0072854688894509988 -1.845453495570797e-05 0 0.0073007747689185542 1.995045852286754e-05 0 0.0073072942987646248 1.6328998988782647e-05 0 0.0073002438293498211 8.2182568357287388e-06 0 0.0073220916273389891 2.5609278551040867e-05 0 0.0073002438293498211 8.2182568357287388e-06 0 0.0073173704653349608 3.9969157288527434e-05 0 0.0060561157482889099 -0.00077413647020630459 0 0.0055163028340608497 -0.00023291599916913785 0 0.0072410084972936379 -6.6998915762662625e-05 0 0.0064342079288108849 -0.00010982697938691554 0 0.0071940057567698263 -5.3033338924155721e-05 0 0.005914140283774981 -0.00023604172816223861 0 0.0064342079288108849 -0.00010982697938691554 0 0.0060561157482889099 -0.00077413647020630459 0 0.0055163028340608497 -0.00023291599916913785 0 0.0048965640032439545 -0.0011128147196307902 0 0.0047941005422558912 -0.00060360848985501121 0 0.0055163028340608497 -0.00023291599916913785 0 0.0048965640032439545 -0.0011128147196307902 0 0.0073259875594686129 4.4878232985467358e-05 0 0.0073362635096248666 3.5754614111364487e-05 0 0.0073173704653349608 3.9969157288527434e-05 0 -0.0017305158917852827 0.0012343329168194959 0 -0.0016081034274409278 0.0013891981351376302 0 -0.0016572175086556184 0.0015439082696412226 0 -0.0017315498549626352 0.0012150195995791326 0 -0.0017020298912935013 0.0017820607624151981 0 0.0019455250619654844 0.00013956425480134848 0 0.0018241612162711292 -0.00017219446561601457 0 -0.0020614396018777022 0.00099444573403649592 0 -0.0017305158917852827 0.0012343329168194959 0 -0.0014365842382325644 0.0012517460006420996 0 -0.0017305158917852827 0.0012343329168194959 0 -0.0014365842382325644 0.0012517460006420996 0 -0.0016081034274409278 0.0013891981351376302 0 -0.0020614396018777022 0.00099444573403649592 0 -0.0020461986736197836 0.001293708557971315 0 -0.0022839490141534674 0.0012887694922702059 0 -0.0020614396018777022 0.00099444573403649592 0 -0.0017305158917852827 0.0012343329168194959 0 -0.0020461986736197836 0.001293708557971315 0 -0.0017305158917852827 0.0012343329168194959 0 -0.0020461986736197836 0.001293708557971315 0 -0.0019413036471333726 0.0014793264123486676 0 -0.0020461986736197836 0.001293708557971315 0 -0.0022083636965730688 0.0015038367321523081 0 -0.0019413036471333726 0.0014793264123486676 0 -0.0020461986736197836 0.001293708557971315 0 -0.0022083636965730688 0.0015038367321523081 0 -0.0022839490141534674 0.0012887694922702059 0 -0.0022083636965730688 0.0015038367321523081 0 -0.0020249497183424856 0.0017410244165369244 0 -0.0023524655472039382 0.001776324537937348 0 -0.0019413036471333726 0.0014793264123486676 0 -0.0020249497183424856 0.0017410244165369244 0 -0.0017659969901480796 0.0016874921475648315 0 -0.0022083636965730688 0.0015038367321523081 0 -0.0019413036471333726 0.0014793264123486676 0 -0.0020249497183424856 0.0017410244165369244 0 -0.0020249497183424856 0.0017410244165369244 0 -0.0023524655472039382 0.001776324537937348 0 -0.0021348290118167273 0.0019640075439871108 0 -0.0020249497183424856 0.0017410244165369244 0 -0.0017659969901480796 0.0016874921475648315 0 -0.0017821506639722272 0.0020722318841721399 0 0.0018241612162711292 -0.00017219446561601457 0 -0.0013786098669108682 0.00070568262774941485 0 -0.0014365842382325644 0.0012517460006420996 0 -0.0016081034274409278 0.0013891981351376302 0 -0.0015826087702914991 0.0015506507277954452 0 -0.0010472965543222548 -0.00068425456114193514 0 -0.0011319885183919388 -0.00049264770593290396 0 -0.00099964830389743316 -0.00057263544298752128 0 -0.0016572175086556184 0.0015439082696412226 0 -0.0015826087702914991 0.0015506507277954452 0 -0.0016423094682792684 0.0017053687585313773 0 -0.0017305158917852827 0.0012343329168194959 0 -0.0019413036471333726 0.0014793264123486676 0 -0.0017659969901480796 0.0016874921475648315 0 -0.0011319885183919388 -0.00049264770593290396 0 -0.0011190062969716735 -0.00048759734734823496 0 -0.00099964830389743316 -0.00057263544298752128 0 -0.0016081034274409278 0.0013891981351376302 0 -0.0016572175086556184 0.0015439082696412226 0 -0.0015826087702914991 0.0015506507277954452 0 -0.0011319885183919388 -0.00049264770593290396 0 -0.0011190062969716735 -0.00048759734734823496 0 -0.0011462872584952716 -0.00049246019704554244 0 -0.0011190062969716735 -0.00048759734734823496 0 -0.00091733273698861118 -0.00050699752938723351 0 -0.00078796206831163013 -0.00041950017953405809 0 -0.00099964830389743316 -0.00057263544298752128 0 -0.00091733273698861118 -0.00050699752938723351 0 -0.00078289561135046345 -0.00053780401841902327 0 -0.0011106944527605976 -0.00049164496757151516 0 -0.00096944642358366901 -0.00047489141930289049 0 -0.0011190062969716735 -0.00048759734734823496 0 -0.00099964830389743316 -0.00057263544298752128 0 -0.00091733273698861118 -0.00050699752938723351 0 -0.00091733273698861118 -0.00050699752938723351 0 -0.00078289561135046345 -0.00053780401841902327 0 -0.00078796206831163013 -0.00041950017953405809 0 0.004482911355407496 -0.00052929378881201204 0 0.0043647083653764948 -0.00073401451446992072 0 0.004301796508348962 -0.00063193287836134967 0 0.0018241612162711292 -0.00017219446561601457 0 0.0017881298477245074 -0.00070806752481181352 0 -0.0010472965543222548 -0.00068425456114193514 0 -0.00099964830389743316 -0.00057263544298752128 0 -0.00078289561135046345 -0.00053780401841902327 0 0.004482911355407496 -0.00052929378881201204 0 0.0047809414662323959 -0.0007649044336242247 0 0.0043647083653764948 -0.00073401451446992072 0 0.0041457570579337879 -0.0011733262162840587 0 0.0018241612162711292 -0.00017219446561601457 0 -0.003738195789283378 0.00078733424020587678 0 0.0005880955979354278 0.00075348098647616589 0 -0.0024764964909751168 0.00047668815305907969 0 -0.0024811705039159827 0.00036348255601354135 0 -0.0022771224019542857 0.00029043991719958844 0 -0.0039589205856801705 0.00094277458954410425 0 -0.003701866788804862 0.00072504118899741022 0 -0.0039089290013953172 0.00093323339920882615 0 -0.002600650273369527 0.00045187080014390534 0 -0.0024764964909751168 0.00047668815305907969 0 -0.0024811705039159827 0.00036348255601354135 0 0.0081055387031038189 -0.00015098587528715828 0 0.0078023927407507177 -0.00016686942541916641 0 0.0078795393162133034 -8.5710621814799918e-05 0 -0.0024811705039159827 0.00036348255601354135 0 -0.0024228367858332568 0.00023562184589879831 0 -0.0022771224019542857 0.00029043991719958844 0 0.0031570936988869354 0.00017047384736277387 0 0.0005880955979354278 0.00075348098647616589 0 0.0078023927407507177 -0.00016686942541916641 0 0.0077837868871883124 -0.00012867015967856776 0 0.0078159425766255557 -0.00011015805339104981 0 0.0077837868871883124 -0.00012867015967856776 0 0.0078159425766255557 -0.00011015805339104981 0 0.0077545602712870264 -0.00010578613199726137 0 0.0078023927407507177 -0.00016686942541916641 0 0.0077773171917153924 -0.00014830884322212243 0 0.00775241931240151 -0.00014801386335183382 0 0.0078023927407507177 -0.00016686942541916641 0 0.0077773171917153924 -0.00014830884322212243 0 0.0077837868871883124 -0.00012867015967856776 0 0.0077773171917153924 -0.00014830884322212243 0 0.0077837868871883124 -0.00012867015967856776 0 0.00775241931240151 -0.00014801386335183382 0 0.0077818191781057356 -2.3374745616583802e-05 0 0.0078159425766255557 -0.00011015805339104981 0 0.0077545602712870264 -0.00010578613199726137 0 0.0077818191781057356 -2.3374745616583802e-05 0 0.0078159425766255557 -0.00011015805339104981 0 0.0078795393162133034 -8.5710621814799918e-05 0 0.0078023927407507177 -0.00016686942541916641 0 0.0078159425766255557 -0.00011015805339104981 0 0.0078795393162133034 -8.5710621814799918e-05 0 0.007695642735355359 -5.7060572232478754e-05 0 0.0076531094985979068 -0.00010386135093053646 0 0.0076429965108964727 -5.7877978385190764e-05 0 0.007695642735355359 -5.7060572232478754e-05 0 0.007703410183200087 -0.00010485584859814146 0 0.0076531094985979068 -0.00010386135093053646 0 0.007695642735355359 -5.7060572232478754e-05 0 0.0077545602712870264 -0.00010578613199726137 0 0.007703410183200087 -0.00010485584859814146 0 0.0077818191781057356 -2.3374745616583802e-05 0 0.007695642735355359 -5.7060572232478754e-05 0 0.0077545602712870264 -0.00010578613199726137 0 0.0078023927407507177 -0.00016686942541916641 0 0.00775241931240151 -0.00014801386335183382 0 0.0077022540387828775 -0.00015113844951614679 0 0.0077545602712870264 -0.00010578613199726137 0 0.007732591597064015 -0.00012929839532800392 0 0.007703410183200087 -0.00010485584859814146 0 0.0077545602712870264 -0.00010578613199726137 0 0.007732591597064015 -0.00012929839532800392 0 0.00775241931240151 -0.00014801386335183382 0 0.0077837868871883124 -0.00012867015967856776 0 0.0077545602712870264 -0.00010578613199726137 0 0.00775241931240151 -0.00014801386335183382 0 0.007732591597064015 -0.00012929839532800392 0 0.007703410183200087 -0.00010485584859814146 0 0.0077022540387828775 -0.00015113844951614679 0 0.007732591597064015 -0.00012929839532800392 0 0.00775241931240151 -0.00014801386335183382 0 0.0077022540387828775 -0.00015113844951614679 0 0.0076531094985979068 -0.00010386135093053646 0 0.0077022540387828775 -0.00015113844951614679 0 0.0076077918947216137 -0.00016500728895995056 0 0.007703410183200087 -0.00010485584859814146 0 0.0076531094985979068 -0.00010386135093053646 0 0.0077022540387828775 -0.00015113844951614679 0 0.0078023927407507177 -0.00016686942541916641 0 0.0077022540387828775 -0.00015113844951614679 0 0.0076077918947216137 -0.00016500728895995056 0 -0.003701866788804862 0.00072504118899741022 0 -0.003995920252226331 0.00094775221628700626 0 -0.0039089290013953172 0.00093323339920882615 0 -0.0037222371580442962 0.00073149453595662485 0 -0.0035851749227261333 0.0010823249326797583 0 -0.0039589205856801705 0.00094277458954410425 0 -0.0037386323124851306 0.00047709300526281898 0 -0.003701866788804862 0.00072504118899741022 0 -0.0037386323124851306 0.00047709300526281898 0 -0.003701866788804862 0.00072504118899741022 0 -0.0032592790712786591 0.00083167672127742336 0 -0.003701866788804862 0.00072504118899741022 0 -0.0032592790712786591 0.00083167672127742336 0 -0.0031589089989190692 0.0012743486783982996 0 -0.0029519526883069066 0.00099714197923376135 0 -0.0028020203960549598 0.00068603790818073549 0 -0.0025974545581628869 0.0011629623594034714 0 -0.0037386323124851306 0.00047709300526281898 0 -0.0028020203960549598 0.00068603790818073549 0 -0.0032592790712786591 0.00083167672127742336 0 -0.0029519526883069066 0.00099714197923376135 0 -0.0032592790712786591 0.00083167672127742336 0 -0.0031589089989190692 0.0012743486783982996 0 -0.0029519526883069066 0.00099714197923376135 0 -0.0028020203960549598 0.00068603790818073549 0 -0.0032592790712786591 0.00083167672127742336 0 0.0005880955979354278 0.00075348098647616589 0 0.0025907261097340875 0.00017771339745339975 0 0.0078023927407507177 -0.00016686942541916641 0 0.007454235671856606 -0.00028228338176036354 0 0.0076077918947216137 -0.00016500728895995056 0 0.0076077918947216137 -0.00016500728895995056 0 0.0075403305708380353 -9.7365672590273719e-05 0 0.0074872810601433592 -0.00012915910081165202 0 0.0076531094985979068 -0.00010386135093053646 0 0.0075980732687570655 -0.00010544666188223067 0 0.0075905653126556337 -5.9266802956153049e-05 0 0.0076531094985979068 -0.00010386135093053646 0 0.0076077918947216137 -0.00016500728895995056 0 0.0075980732687570655 -0.00010544666188223067 0 0.0076077918947216137 -0.00016500728895995056 0 0.0075980732687570655 -0.00010544666188223067 0 0.0075403305708380353 -9.7365672590273719e-05 0 0.0075403305708380353 -9.7365672590273719e-05 0 0.0075905653126556337 -5.9266802956153049e-05 0 0.0075169527189922706 -3.9081671983733226e-05 0 0.0075980732687570655 -0.00010544666188223067 0 0.0075403305708380353 -9.7365672590273719e-05 0 0.0075905653126556337 -5.9266802956153049e-05 0 0.0075566289735297769 1.402919902775448e-05 0 0.0075905653126556337 -5.9266802956153049e-05 0 0.0075169527189922706 -3.9081671983733226e-05 0 0.007632388583547851 -1.2801029768299255e-05 0 0.007695642735355359 -5.7060572232478754e-05 0 0.0076429965108964727 -5.7877978385190764e-05 0 0.007632388583547851 -1.2801029768299255e-05 0 0.0075905653126556337 -5.9266802956153049e-05 0 0.0076429965108964727 -5.7877978385190764e-05 0 0.0076531094985979068 -0.00010386135093053646 0 0.0075905653126556337 -5.9266802956153049e-05 0 0.0076429965108964727 -5.7877978385190764e-05 0 0.0074584210533292609 -2.2262057019349831e-06 0 0.007446090290281082 -5.7564363349099214e-05 0 0.0073186533380954887 -2.9230847344678848e-05 0 0.0075566289735297769 1.402919902775448e-05 0 0.0074584210533292609 -2.2262057019349831e-06 0 0.0075169527189922706 -3.9081671983733226e-05 0 0.0074584210533292609 -2.2262057019349831e-06 0 0.0075169527189922706 -3.9081671983733226e-05 0 0.007446090290281082 -5.7564363349099214e-05 0 0.0075403305708380353 -9.7365672590273719e-05 0 0.0075169527189922706 -3.9081671983733226e-05 0 0.007446090290281082 -5.7564363349099214e-05 0 0.0075403305708380353 -9.7365672590273719e-05 0 0.007446090290281082 -5.7564363349099214e-05 0 0.0074872810601433592 -0.00012915910081165202 0 0.007454235671856606 -0.00028228338176036354 0 0.0076077918947216137 -0.00016500728895995056 0 0.0074872810601433592 -0.00012915910081165202 0 0.007446090290281082 -5.7564363349099214e-05 0 0.0073697437157159013 -7.7754390883359915e-05 0 0.0074872810601433592 -0.00012915910081165202 0 0.007454235671856606 -0.00028228338176036354 0 0.0073697437157159013 -7.7754390883359915e-05 0 0.0074872810601433592 -0.00012915910081165202 0 0.007454235671856606 -0.00028228338176036354 0 0.0073697437157159013 -7.7754390883359915e-05 0 0.0072410084972936379 -6.6998915762662625e-05 0 0.0073697437157159013 -7.7754390883359915e-05 0 0.0072410084972936379 -6.6998915762662625e-05 0 0.0073186533380954887 -2.9230847344678848e-05 0 0.007407861808160613 3.4607642826826202e-05 0 0.00734130912636513 2.3221319073446738e-05 0 0.0073186533380954887 -2.9230847344678848e-05 0 0.007446090290281082 -5.7564363349099214e-05 0 0.0073697437157159013 -7.7754390883359915e-05 0 0.0073186533380954887 -2.9230847344678848e-05 0 0.007407861808160613 3.4607642826826202e-05 0 0.0074584210533292609 -2.2262057019349831e-06 0 0.0073186533380954887 -2.9230847344678848e-05 0 0.0073007747689185542 1.995045852286754e-05 0 0.00734130912636513 2.3221319073446738e-05 0 0.0073186533380954887 -2.9230847344678848e-05 0 0.0073007747689185542 1.995045852286754e-05 0 0.0072854688894509988 -1.845453495570797e-05 0 0.0073186533380954887 -2.9230847344678848e-05 0 0.0072854688894509988 -1.845453495570797e-05 0 0.0072410084972936379 -6.6998915762662625e-05 0 0.0073186533380954887 -2.9230847344678848e-05 0 0.0019455250619654844 0.00013956425480134848 0 0.0025907261097340875 0.00017771339745339975 0 0.0060561157482889099 -0.00077413647020630459 0 0.007454235671856606 -0.00028228338176036354 0 0.0072410084972936379 -6.6998915762662625e-05 0 -0.0020614396018777022 0.00099444573403649592 0 -0.0028020203960549598 0.00068603790818073549 0 -0.0025974545581628869 0.0011629623594034714 0 -0.0020614396018777022 0.00099444573403649592 0 -0.0025974545581628869 0.0011629623594034714 0 -0.0022839490141534674 0.0012887694922702059 0 -0.0025974545581628869 0.0011629623594034714 0 -0.0025614423531760866 0.0014632620689963929 0 -0.0022839490141534674 0.0012887694922702059 0 -0.0022083636965730688 0.0015038367321523081 0 -0.0025614423531760866 0.0014632620689963929 0 -0.0022839490141534674 0.0012887694922702059 0 -0.0022083636965730688 0.0015038367321523081 0 -0.0025614423531760866 0.0014632620689963929 0 -0.0023524655472039382 0.001776324537937348 0 -0.0025614423531760866 0.0014632620689963929 0 -0.0023524655472039382 0.001776324537937348 0 -0.0027581599638068582 0.0017515253872141961 0 -0.0042604011553344749 0.00081540863739081385 0 -0.003995920252226331 0.00094775221628700626 0 -0.0040135505985280737 0.00085908826113427288 0 -0.0035268803045893399 0.001239669545381327 0 -0.0035851749227261333 0.0010823249326797583 0 -0.0025974545581628869 0.0011629623594034714 0 -0.0025614423531760866 0.0014632620689963929 0 -0.0031589089989190692 0.0012743486783982996 0 -0.0025614423531760866 0.0014632620689963929 0 -0.0027581599638068582 0.0017515253872141961 0 -0.0031589089989190692 0.0012743486783982996 0 -0.0029519526883069066 0.00099714197923376135 0 -0.0025974545581628869 0.0011629623594034714 0 -0.0031589089989190692 0.0012743486783982996 0 -0.0039089290013953172 0.00093323339920882615 0 -0.0040135505985280737 0.00085908826113427288 0 -0.0039194187816372983 0.00092443550008746767 0 -0.003995920252226331 0.00094775221628700626 0 -0.0039089290013953172 0.00093323339920882615 0 -0.0040135505985280737 0.00085908826113427288 0 -0.0042604011553344749 0.00081540863739081385 0 -0.0040135505985280737 0.00085908826113427288 0 -0.0041709337446265487 0.00065385960258863569 0 -0.0037461674834204082 0.00094381887643516047 0 -0.0039000199445297788 0.00083955710527719842 0 -0.0039194187816372983 0.00092443550008746767 0 -0.0040135505985280737 0.00085908826113427288 0 -0.0039000199445297788 0.00083955710527719842 0 -0.0039922302492486168 0.00068630402230028694 0 -0.0040135505985280737 0.00085908826113427288 0 -0.0039000199445297788 0.00083955710527719842 0 -0.0039194187816372983 0.00092443550008746767 0 -0.0037461674834204082 0.00094381887643516047 0 -0.0039589205856801705 0.00094277458954410425 0 -0.0039194187816372983 0.00092443550008746767 0 -0.0039589205856801705 0.00094277458954410425 0 -0.0039089290013953172 0.00093323339920882615 0 -0.0039194187816372983 0.00092443550008746767 0 -0.0041100532190567239 0.00052889093466457085 0 -0.0039393122087111902 0.00054999424322961716 0 -0.004046037235956766 0.00041674633637109695 0 -0.0041100532190567239 0.00052889093466457085 0 -0.0039393122087111902 0.00054999424322961716 0 -0.0039922302492486168 0.00068630402230028694 0 -0.0037352829073575696 0.00070359586001380605 0 -0.0039393122087111902 0.00054999424322961716 0 -0.0039922302492486168 0.00068630402230028694 0 -0.0037352829073575696 0.00070359586001380605 0 -0.0039000199445297788 0.00083955710527719842 0 -0.0039922302492486168 0.00068630402230028694 0 -0.0040135505985280737 0.00085908826113427288 0 -0.0039922302492486168 0.00068630402230028694 0 -0.0041709337446265487 0.00065385960258863569 0 -0.0041100532190567239 0.00052889093466457085 0 -0.0039922302492486168 0.00068630402230028694 0 -0.0041709337446265487 0.00065385960258863569 0 -0.0041709337446265487 0.00065385960258863569 0 -0.0042602418755836322 0.00047387871640478728 0 -0.0043328510781219607 0.00052435436587456685 0 -0.0041100532190567239 0.00052889093466457085 0 -0.0041709337446265487 0.00065385960258863569 0 -0.0042602418755836322 0.00047387871640478728 0 -0.0041100532190567239 0.00052889093466457085 0 -0.0042602418755836322 0.00047387871640478728 0 -0.0042339153026446537 0.00035345514697013091 0 -0.0043328510781219607 0.00052435436587456685 0 -0.0042967311886326735 0.00065276072543128997 0 -0.00442118897667617 0.00062182439889108747 0 -0.0041709337446265487 0.00065385960258863569 0 -0.0043328510781219607 0.00052435436587456685 0 -0.0042967311886326735 0.00065276072543128997 0 -0.0042604011553344749 0.00081540863739081385 0 -0.0041709337446265487 0.00065385960258863569 0 -0.0042967311886326735 0.00065276072543128997 0 -0.0023524655472039382 0.001776324537937348 0 -0.0024294136448764249 0.002187523859972207 0 -0.0021348290118167273 0.0019640075439871108 0 -0.0042604011553344749 0.00081540863739081385 0 -0.0042967311886326735 0.00065276072543128997 0 -0.00442118897667617 0.00062182439889108747 0 -0.0023524655472039382 0.001776324537937348 0 -0.0027581599638068582 0.0017515253872141961 0 -0.0024294136448764249 0.002187523859972207 0 -0.0035268803045893399 0.001239669545381327 0 -0.0033646050136698527 0.0015833969943229505 0 -0.00442118897667617 0.00062182439889108747 0 -0.0043946888240327881 0.00047996856266753176 0 -0.0044934277531763177 0.00048090855462398828 0 -0.0043328510781219607 0.00052435436587456685 0 -0.00442118897667617 0.00062182439889108747 0 -0.0043946888240327881 0.00047996856266753176 0 -0.0033646050136698527 0.0015833969943229505 0 -0.0033816564537476495 0.00052460186301373217 0 -0.0049240127128232537 1.7502902007915249e-05 0 -0.0033816564537476495 0.00052460186301373217 0 -0.0043946888240327881 0.00047996856266753176 0 -0.0043748829991305778 0.00037611425921193077 0 -0.0043486636892261163 0.00044620555047488895 0 -0.0050276286966262802 -0.00033530939412240008 0 -0.0049337300203591483 -0.00039013794843421607 0 -0.0049608578293301279 -0.00032160205787919866 0 -0.0043946888240327881 0.00047996856266753176 0 -0.0043748829991305778 0.00037611425921193077 0 -0.0044934277531763177 0.00048090855462398828 0 -0.0050048493843085984 -0.00030273094621490962 0 -0.0050276286966262802 -0.00033530939412240008 0 -0.0050483458430466022 -0.00027977618547551545 0 -0.0050048493843085984 -0.00030273094621490962 0 -0.0050276286966262802 -0.00033530939412240008 0 -0.0049608578293301279 -0.00032160205787919866 0 -0.0050048493843085984 -0.00030273094621490962 0 -0.0049608578293301279 -0.00032160205787919866 0 -0.0049818236030841762 -0.00027545120793731539 0 -0.0050276286966262802 -0.00033530939412240008 0 -0.0051068379106260541 -0.00027564527764743844 0 -0.0050483458430466022 -0.00027977618547551545 0 -0.0049240127128232537 1.7502902007915249e-05 0 -0.0046119019185453742 -3.3483334551876468e-05 0 -0.0043748829991305778 0.00037611425921193077 0 -0.0042936770633900685 0.00040159839282255706 0 -0.0042584890653785089 0.00027247501752199232 0 -0.0042602418755836322 0.00047387871640478728 0 -0.0043328510781219607 0.00052435436587456685 0 -0.0044513147592833103 0.00027037730049836288 0 -0.0043328510781219607 0.00052435436587456685 0 -0.0042936770633900685 0.00040159839282255706 0 -0.0043486636892261163 0.00044620555047488895 0 -0.0043480502932076569 0.00048964597335953135 0 -0.0043588400356347999 0.00034268226906921479 0 -0.0043748829991305778 0.00037611425921193077 0 -0.0042936770633900685 0.00040159839282255706 0 -0.0043486636892261163 0.00044620555047488895 0 -0.0043328510781219607 0.00052435436587456685 0 -0.0043946888240327881 0.00047996856266753176 0 -0.0043486636892261163 0.00044620555047488895 0 -0.0042602418755836322 0.00047387871640478728 0 -0.0044513147592833103 0.00027037730049836288 0 -0.0042339153026446537 0.00035345514697013091 0 -0.0044513147592833103 0.00027037730049836288 0 -0.0042339153026446537 0.00035345514697013091 0 -0.0043771012534756766 0.00016001558736931541 0 -0.0043588400356347999 0.00034268226906921479 0 -0.0046119019185453742 -3.3483334551876468e-05 0 -0.0044513147592833103 0.00027037730049836288 0 -0.0043771012534756766 0.00016001558736931541 0 -0.0045816428518208104 -5.9397614490419554e-05 0 -0.0043771012534756766 0.00016001558736931541 0 -0.0043851502417786578 -1.2877628731057908e-05 0 -0.0045816428518208104 -5.9397614490419554e-05 0 -0.0043771012534756766 0.00016001558736931541 0 -0.0041255246852167377 0.00022490686053246552 0 -0.0043851502417786578 -1.2877628731057908e-05 0 -0.0042339153026446537 0.00035345514697013091 0 -0.0043771012534756766 0.00016001558736931541 0 -0.0041255246852167377 0.00022490686053246552 0 -0.0041255246852167377 0.00022490686053246552 0 -0.0043851502417786578 -1.2877628731057908e-05 0 -0.0040853716656274221 -0.00010290206465748917 0 -0.0042339153026446537 0.00035345514697013091 0 -0.0041255246852167377 0.00022490686053246552 0 -0.004046037235956766 0.00041674633637109695 0 -0.0041100532190567239 0.00052889093466457085 0 -0.0042339153026446537 0.00035345514697013091 0 -0.004046037235956766 0.00041674633637109695 0 -0.0011701362740624635 -0.00048731155679555637 0 -0.0011362495848014262 -0.00049870981328475948 0 -0.0011502985599551778 -0.00050604431594964588 0 -0.0011701362740624635 -0.00048731155679555637 0 -0.001169180172966312 -0.00049179954303533221 0 -0.0011938513222758439 -0.00047763172234832288 0 -0.0011701362740624635 -0.00048731155679555637 0 -0.0011938513222758439 -0.00047763172234832288 0 -0.0012012856820639763 -0.00044936582632742642 0 -0.0011701362740624635 -0.00048731155679555637 0 -0.0011570675628161692 -0.00046675065461156741 0 -0.0012012856820639763 -0.00044936582632742642 0 -0.0011701362740624635 -0.00048731155679555637 0 -0.0011570675628161692 -0.00046675065461156741 0 -0.0011362495848014262 -0.00049870981328475948 0 -0.0011570675628161692 -0.00046675065461156741 0 -0.0011362495848014262 -0.00049870981328475948 0 -0.0011076052647201393 -0.0004603077016422182 0 -0.0011362495848014262 -0.00049870981328475948 0 -0.0011434935927845181 -0.00052520024689778377 0 -0.0010896081121542051 -0.00050095616026141535 0 -0.0011362495848014262 -0.00049870981328475948 0 -0.0011076052647201393 -0.0004603077016422182 0 -0.0010896081121542051 -0.00050095616026141535 0 -0.0011362495848014262 -0.00049870981328475948 0 -0.0011434935927845181 -0.00052520024689778377 0 -0.0011502985599551778 -0.00050604431594964588 0 -0.0011434935927845181 -0.00052520024689778377 0 -0.0011502985599551778 -0.00050604431594964588 0 -0.0011484122846638727 -0.00050232131162015461 0 -0.0011190062969716735 -0.00048759734734823496 0 -0.0011434935927845181 -0.00052520024689778377 0 -0.0011484122846638727 -0.00050232131162015461 0 -0.0011701362740624635 -0.00048731155679555637 0 -0.0011502985599551778 -0.00050604431594964588 0 -0.0011484122846638727 -0.00050232131162015461 0 -0.0011701362740624635 -0.00048731155679555637 0 -0.0011484122846638727 -0.00050232131162015461 0 -0.001169180172966312 -0.00049179954303533221 0 -0.0011484122846638727 -0.00050232131162015461 0 -0.0011462872584952716 -0.00049246019704554244 0 -0.001169180172966312 -0.00049179954303533221 0 -0.0013786098669108682 0.00070568262774941485 0 -0.0015022753191502225 0.00076772412359876079 0 -0.0011190062969716735 -0.00048759734734823496 0 -0.0011484122846638727 -0.00050232131162015461 0 -0.0011462872584952716 -0.00049246019704554244 0 -0.0011319885183919388 -0.00049264770593290396 0 -0.0011462872584952716 -0.00049246019704554244 0 -0.0011703596041739213 -0.00049145018929906996 0 -0.0017020298912935013 0.0017820607624151981 0 -0.0015022753191502225 0.00076772412359876079 0 -0.0011462872584952716 -0.00049246019704554244 0 -0.0011703596041739213 -0.00049145018929906996 0 -0.001169180172966312 -0.00049179954303533221 0 -0.0011703596041739213 -0.00049145018929906996 0 -0.001169180172966312 -0.00049179954303533221 0 -0.0011938513222758439 -0.00047763172234832288 0 -0.0020249497183424856 0.0017410244165369244 0 -0.0017821506639722272 0.0020722318841721399 0 -0.0021348290118167273 0.0019640075439871108 0 -0.0017821506639722272 0.0020722318841721399 0 -0.0021348290118167273 0.0019640075439871108 0 -0.0020845220919758489 0.0022481785553458145 0 -0.0024294136448764249 0.002187523859972207 0 -0.0021348290118167273 0.0019640075439871108 0 -0.0020845220919758489 0.0022481785553458145 0 -0.0024294136448764249 0.002187523859972207 0 -0.0020845220919758489 0.0022481785553458145 0 -0.0021623498483587245 0.0025948775832722796 0 -0.0020845220919758489 0.0022481785553458145 0 -0.0019086929701077439 0.0024049677909378517 0 -0.0021623498483587245 0.0025948775832722796 0 -0.0017821506639722272 0.0020722318841721399 0 -0.0020845220919758489 0.0022481785553458145 0 -0.0019086929701077439 0.0024049677909378517 0 -0.0016404139056476613 0.00074577521115565119 0 -0.0033816564537476495 0.00052460186301373217 0 -0.0015022753191502225 0.00076772412359876079 0 -0.0012943170339389568 -0.00051185878940850082 0 -0.0013917326412279615 0.00013817917089398662 0 -0.0013313051726644867 -4.2643481716899712e-05 0 -0.0013903880245550375 -0.00016108111033003012 0 -0.0011703596041739213 -0.00049145018929906996 0 -0.0011938513222758439 -0.00047763172234832288 0 -0.0012457753442721223 -0.00045225948540472775 0 -0.0015022753191502225 0.00076772412359876079 0 -0.0016404139056476613 0.00074577521115565119 0 -0.0011938513222758439 -0.00047763172234832288 0 -0.0012457753442721223 -0.00045225948540472775 0 -0.0012012856820639763 -0.00044936582632742642 0 -0.0012457753442721223 -0.00045225948540472775 0 -0.0012382343345006791 -0.00039491404161368966 0 -0.0012012856820639763 -0.00044936582632742642 0 -0.0013313051726644867 -4.2643481716899712e-05 0 -0.0013903880245550375 -0.00016108111033003012 0 -0.0013034083960582745 -0.00019689434913097611 0 -0.0013903880245550375 -0.00016108111033003012 0 -0.0013034083960582745 -0.00019689434913097611 0 -0.0013225718094998396 -0.0002859997535319713 0 -0.0013034083960582745 -0.00019689434913097611 0 -0.0012725846658537803 -0.00014357628047497571 0 -0.0013225718094998396 -0.0002859997535319713 0 -0.0033816564537476495 0.00052460186301373217 0 -0.0030282445848850755 -0.00042504401013329548 0 -0.0049337300203591483 -0.00039013794843421607 0 -0.0049608578293301279 -0.00032160205787919866 0 -0.0048986264104232038 -0.00032251454344746713 0 -0.0013597460693392639 -6.4577467730139655e-05 0 -0.0013034083960582745 -0.00019689434913097611 0 -0.0012725846658537803 -0.00014357628047497571 0 -0.0016404139056476613 0.00074577521115565119 0 -0.0012295340774145477 -0.00044113863370895368 0 -0.0049608578293301279 -0.00032160205787919866 0 -0.0048986264104232038 -0.00032251454344746713 0 -0.0049380716233357203 -0.00026654934522900205 0 -0.0013225718094998396 -0.0002859997535319713 0 -0.0013143057472877902 -0.00031162277757731922 0 -0.0013046708487235575 -0.00032113469816365969 0 -0.0013903880245550375 -0.00016108111033003012 0 -0.0013225718094998396 -0.0002859997535319713 0 -0.0013143057472877902 -0.00031162277757731922 0 -0.0012457753442721223 -0.00045225948540472775 0 -0.0013143057472877902 -0.00031162277757731922 0 -0.0012382343345006791 -0.00039491404161368966 0 -0.0012943170339389568 -0.00051185878940850082 0 -0.001317771592719558 -0.00021461121589736004 0 -0.0013143057472877902 -0.00031162277757731922 0 -0.0012504105734732606 -0.00034605903360985444 0 -0.0012887076648177038 -0.00031573881579735857 0 -0.0013143057472877902 -0.00031162277757731922 0 -0.0012504105734732606 -0.00034605903360985444 0 -0.0012382343345006791 -0.00039491404161368966 0 -0.0012504105734732606 -0.00034605903360985444 0 -0.0011939013954704572 -0.00034424870848698708 0 -0.0012792173777218228 -0.00030013288582925131 0 -0.0012504105734732606 -0.00034605903360985444 0 -0.0011939013954704572 -0.00034424870848698708 0 -0.0011930774742005931 -0.00040132827192271623 0 -0.0012504105734732606 -0.00034605903360985444 0 -0.0012382343345006791 -0.00039491404161368966 0 -0.0011930774742005931 -0.00040132827192271623 0 -0.0012382343345006791 -0.00039491404161368966 0 -0.0011930774742005931 -0.00040132827192271623 0 -0.0012012856820639763 -0.00044936582632742642 0 -0.0011570675628161692 -0.00046675065461156741 0 -0.0011930774742005931 -0.00040132827192271623 0 -0.0012012856820639763 -0.00044936582632742642 0 -0.0011930774742005931 -0.00040132827192271623 0 -0.0011431022922472279 -0.00043003422443208846 0 -0.00111390851603174 -0.00038695685843288428 0 -0.0011076052647201393 -0.0004603077016422182 0 -0.0011431022922472279 -0.00043003422443208846 0 -0.00111390851603174 -0.00038695685843288428 0 -0.0011570675628161692 -0.00046675065461156741 0 -0.0011930774742005931 -0.00040132827192271623 0 -0.0011431022922472279 -0.00043003422443208846 0 -0.0011570675628161692 -0.00046675065461156741 0 -0.0011076052647201393 -0.0004603077016422182 0 -0.0011431022922472279 -0.00043003422443208846 0 -0.0011939013954704572 -0.00034424870848698708 0 -0.0011930774742005931 -0.00040132827192271623 0 -0.00111390851603174 -0.00038695685843288428 0 -0.0011939013954704572 -0.00034424870848698708 0 -0.00111390851603174 -0.00038695685843288428 0 -0.0011309771100879956 -0.00027112993751863613 0 -0.00111390851603174 -0.00038695685843288428 0 -0.0010190326491806029 -0.00045416293693334306 0 -0.0010175103065357724 -0.00034005750691087054 0 -0.00111390851603174 -0.00038695685843288428 0 -0.0010175103065357724 -0.00034005750691087054 0 -0.0011309771100879956 -0.00027112993751863613 0 -0.0010738320689659677 -0.00044844716588818143 0 -0.0013779392114556881 -0.00032877839691620222 0 -0.0010190326491806029 -0.00045416293693334306 0 -0.00090909552490393375 -0.00042391708350345968 0 -0.0010175103065357724 -0.00034005750691087054 0 -0.0011076052647201393 -0.0004603077016422182 0 -0.00111390851603174 -0.00038695685843288428 0 -0.0010190326491806029 -0.00045416293693334306 0 -0.0012644239784225025 -0.0004659508308899781 0 -0.00091280232013093629 -0.00050181177768998284 0 -0.0011054614426962402 -0.00029735266337419051 0 -0.0010190326491806029 -0.00045416293693334306 0 -0.00090909552490393375 -0.00042391708350345968 0 -0.00088091600458367635 -0.00051122903343188896 0 -0.00090909552490393375 -0.00042391708350345968 0 -0.00088091600458367635 -0.00051122903343188896 0 -0.00091280232013093629 -0.00050181177768998284 0 -0.0010738320689659677 -0.00044844716588818143 0 -0.00094079359918339235 -0.00049391013303794337 0 -0.00088091600458367635 -0.00051122903343188896 0 -0.000880293340600175 -0.00054309719550507999 0 -0.00091280232013093629 -0.00050181177768998284 0 -0.00088091600458367635 -0.00051122903343188896 0 -0.00084041897300286025 -0.00045603256526191587 0 -0.000880293340600175 -0.00054309719550507999 0 -0.00088091600458367635 -0.00051122903343188896 0 -0.00084041897300286025 -0.00045603256526191587 0 -0.00072835595513380449 -0.00046302350028217323 0 0.0017613846073369806 -0.00045310167377114405 0 0.0019154283969711186 -0.0003882839481292438 0 0.0043686587054555517 -0.00043329010149390217 0 0.0045997735208895768 -0.00047001939933595982 0 0.0045890742117127969 -0.00025879529518740374 0 -0.0010190326491806029 -0.00045416293693334306 0 -0.0010896081121542051 -0.00050095616026141535 0 -0.0010261164658977948 -0.00053916366206508066 0 -0.0011076052647201393 -0.0004603077016422182 0 -0.0010190326491806029 -0.00045416293693334306 0 -0.0010896081121542051 -0.00050095616026141535 0 -0.0010190326491806029 -0.00045416293693334306 0 -0.00088091600458367635 -0.00051122903343188896 0 -0.0010261164658977948 -0.00053916366206508066 0 -0.00087796084940407746 -0.00050983531651521187 0 -0.00087915111717554238 -0.00049722542343335577 0 0.0017613846073369806 -0.00045310167377114405 0 0.0017967521677633121 -0.00051789198281613667 0 -0.00084041897300286025 -0.00045603256526191587 0 -0.00072835595513380449 -0.00046302350028217323 0 -0.00071097190772627199 -0.00044333870422724021 0 -0.00096944642358366901 -0.00047489141930289049 0 -0.00087915111717554238 -0.00049722542343335577 0 -0.00078796206831163013 -0.00041950017953405809 0 -0.00072835595513380449 -0.00046302350028217323 0 -0.00071097190772627199 -0.00044333870422724021 0 -0.0011434935927845181 -0.00052520024689778377 0 -0.0010896081121542051 -0.00050095616026141535 0 -0.0010261164658977948 -0.00053916366206508066 0 -0.00078289561135046345 -0.00053780401841902327 0 -0.00078796206831163013 -0.00041950017953405809 0 -0.00071097190772627199 -0.00044333870422724021 0 0.0043647083653764948 -0.00073401451446992072 0 0.0042866077968308674 -0.00061709558633518831 0 0.004301796508348962 -0.00063193287836134967 0 0.0017881298477245074 -0.00070806752481181352 0 0.0017967521677633121 -0.00051789198281613667 0 0.0042866077968308674 -0.00061709558633518831 0 0.0043425665700960398 -0.00060109218286916676 0 0.004301796508348962 -0.00063193287836134967 0 0.0043425665700960398 -0.00060109218286916676 0 0.0043911148851437862 -0.00066977391711989698 0 0.004301796508348962 -0.00063193287836134967 0 0.0059006173848478744 -0.00028669614806960282 0 0.0058234695700966508 -0.00027997982412598379 0 0.0043686587054555517 -0.00043329010149390217 0 0.0042866077968308674 -0.00061709558633518831 0 0.0043425665700960398 -0.00060109218286916676 0 0.0043686587054555517 -0.00043329010149390217 0 0.0043425665700960398 -0.00060109218286916676 0 0.004465212005144055 -0.00057302382606602502 0 0.004465212005144055 -0.00057302382606602502 0 0.0046362842917945695 -0.00066375833947415286 0 0.0045997735208895768 -0.00047001939933595982 0 0.0043686587054555517 -0.00043329010149390217 0 0.004465212005144055 -0.00057302382606602502 0 0.0045997735208895768 -0.00047001939933595982 0 0.0059006173848478744 -0.00028669614806960282 0 0.0060312672051839843 -0.00032790600378824287 0 0.004465212005144055 -0.00057302382606602502 0 0.0043911148851437862 -0.00066977391711989698 0 0.0046362842917945695 -0.00066375833947415286 0 0.0074056075513844483 0.00010104164504007516 0 0.0074333719362383579 8.6742445803919039e-05 0 0.0074364338117469701 1.8751456816751107e-05 0 0.0043425665700960398 -0.00060109218286916676 0 0.004465212005144055 -0.00057302382606602502 0 0.0043911148851437862 -0.00066977391711989698 0 0.0074056075513844483 0.00010104164504007516 0 0.007398373857334945 7.1799207164272141e-05 0 0.0074178386242471457 8.7091287866729799e-05 0 0.007398373857334945 7.1799207164272141e-05 0 0.0074178386242471457 8.7091287866729799e-05 0 0.0074331999369031945 8.6848585221460247e-05 0 0.0074056075513844483 0.00010104164504007516 0 0.0074333719362383579 8.6742445803919039e-05 0 0.0074178386242471457 8.7091287866729799e-05 0 0.0074333719362383579 8.6742445803919039e-05 0 0.0074178386242471457 8.7091287866729799e-05 0 0.0074331999369031945 8.6848585221460247e-05 0 0.0075085224452372083 0.00015400272549980263 0 0.00746820197075416 0.00019276416499591957 0 0.0074360931040804903 0.00012778644834080267 0 0.0074333719362383579 8.6742445803919039e-05 0 0.0074331999369031945 8.6848585221460247e-05 0 0.0074360931040804903 0.00012778644834080267 0 0.0077016150554550921 0.00013253502056953778 0 0.0074371003414776772 8.8868105277595388e-05 0 0.0079492256587815422 0.00013840311542932747 0 0.0080562085038923328 0.0003030080310434655 0 0.0080656375304074667 0.00022486596767936476 0 0.0075085224452372083 0.00015400272549980263 0 0.00746820197075416 0.00019276416499591957 0 0.0074943129648675343 0.00021981977194028354 0 0.0077016150554550921 0.00013253502056953778 0 0.0079292718768257681 0.00032617610733827381 0 0.00746820197075416 0.00019276416499591957 0 0.0074943129648675343 0.00021981977194028354 0 0.0074632691438707875 0.0002242729545970632 0 0.0074748556636120072 0.00024717316515283206 0 0.0074943129648675343 0.00021981977194028354 0 0.0074632691438707875 0.0002242729545970632 0 0.0079492256587815422 0.00013840311542932747 0 0.0080562085038923328 0.0003030080310434655 0 0.0078311024421824482 0.00022928406872080266 0 0.007398373857334945 7.1799207164272141e-05 0 0.0074331999369031945 8.6848585221460247e-05 0 0.0073699525342719617 4.3158925150719938e-05 0 0.0077016150554550921 0.00013253502056953778 0 0.0076113717651571542 0.00014792278683772869 0 0.0073328398191590443 3.784686707053253e-05 0 0.0073699525342719617 4.3158925150719938e-05 0 0.0073338629594958786 6.9622857511971998e-05 0 0.0074670802867502764 9.0097794427774678e-05 0 0.0076113717651571542 0.00014792278683772869 0 0.0074056075513844483 0.00010104164504007516 0 0.007398373857334945 7.1799207164272141e-05 0 0.0073338629594958786 6.9622857511971998e-05 0 0.007398373857334945 7.1799207164272141e-05 0 0.0073699525342719617 4.3158925150719938e-05 0 0.0073338629594958786 6.9622857511971998e-05 0 0.0070295935015153698 0.00028225115707907036 0 0.007205050191087253 0.00024808077942436036 0 0.007132881324702558 0.00012278724381145289 0 0.0070295935015153698 0.00028225115707907036 0 0.00676433067433808 0.00031995133895270522 0 0.0071425702844776237 0.00024795866928135099 0 0.0070295935015153698 0.00028225115707907036 0 0.00676433067433808 0.00031995133895270522 0 0.007132881324702558 0.00012278724381145289 0 0.0063982695071289663 0.000503656432667452 0 0.0067594635785116061 0.00032990786821876706 0 0.0072328682887582213 0.00034853604041908956 0 0.00676433067433808 0.00031995133895270522 0 0.0071425702844776237 0.00024795866928135099 0 0.0055260445328340685 0.00070406246049393138 0 0.00676433067433808 0.00031995133895270522 0 0.0059987720416660095 6.5900191251904046e-05 0 0.0072540115074008907 0.0002295094607345717 0 0.0071521390274147459 0.0002526128982805136 0 0.0072795899124477878 0.00024771462590851741 0 0.0072540115074008907 0.0002295094607345717 0 0.0071425702844776237 0.00024795866928135099 0 0.0071521390274147459 0.0002526128982805136 0 0.0070295935015153698 0.00028225115707907036 0 0.0071425702844776237 0.00024795866928135099 0 0.0071521390274147459 0.0002526128982805136 0 0.0070295935015153698 0.00028225115707907036 0 0.0071521390274147459 0.0002526128982805136 0 0.007205050191087253 0.00024808077942436036 0 0.0071521390274147459 0.0002526128982805136 0 0.0072795899124477878 0.00024771462590851741 0 0.007205050191087253 0.00024808077942436036 0 0.0073828084817086038 0.00024984174284640548 0 0.0072795899124477878 0.00024771462590851741 0 0.0073289304464973903 0.00024047594280014395 0 0.0072795899124477878 0.00024771462590851741 0 0.0073289304464973903 0.00024047594280014395 0 0.007205050191087253 0.00024808077942436036 0 0.0073828084817086038 0.00024984174284640548 0 0.0073289304464973903 0.00024047594280014395 0 0.0074083387916022035 0.00024071135214708851 0 0.0073289304464973903 0.00024047594280014395 0 0.0073107179222961106 0.00020792461561417006 0 0.0073758609713371415 0.00020380679188964347 0 0.0073289304464973903 0.00024047594280014395 0 0.0073107179222961106 0.00020792461561417006 0 0.007205050191087253 0.00024808077942436036 0 0.0074632691438707875 0.0002242729545970632 0 0.0074473048745047413 0.00023680502284622327 0 0.0074294307019605252 0.00021128212359055557 0 0.0074748556636120072 0.00024717316515283206 0 0.0074632691438707875 0.0002242729545970632 0 0.0074473048745047413 0.00023680502284622327 0 0.0074473048745047413 0.00023680502284622327 0 0.0074083387916022035 0.00024071135214708851 0 0.0074294307019605252 0.00021128212359055557 0 0.0073289304464973903 0.00024047594280014395 0 0.0074083387916022035 0.00024071135214708851 0 0.0073758609713371415 0.00020380679188964347 0 0.0074083387916022035 0.00024071135214708851 0 0.0073758609713371415 0.00020380679188964347 0 0.0074294307019605252 0.00021128212359055557 0 0.0073758609713371415 0.00020380679188964347 0 0.0074294307019605252 0.00021128212359055557 0 0.0074360931040804903 0.00012778644834080267 0 0.00746820197075416 0.00019276416499591957 0 0.0074294307019605252 0.00021128212359055557 0 0.0074360931040804903 0.00012778644834080267 0 0.00746820197075416 0.00019276416499591957 0 0.0074632691438707875 0.0002242729545970632 0 0.0074294307019605252 0.00021128212359055557 0 0.0073722211185694433 0.00014222440607240271 0 0.0074231958865041553 9.4633722399593622e-05 0 0.0074364338117469701 1.8751456816751107e-05 0 0.0073722211185694433 0.00014222440607240271 0 0.0072763074745462132 0.00015212589350699642 0 0.0074364338117469701 1.8751456816751107e-05 0 0.0073758609713371415 0.00020380679188964347 0 0.0074360931040804903 0.00012778644834080267 0 0.0073722211185694433 0.00014222440607240271 0 0.0073107179222961106 0.00020792461561417006 0 0.0073758609713371415 0.00020380679188964347 0 0.0073722211185694433 0.00014222440607240271 0 0.0074333719362383579 8.6742445803919039e-05 0 0.0074360931040804903 0.00012778644834080267 0 0.0074231958865041553 9.4633722399593622e-05 0 0.0074360931040804903 0.00012778644834080267 0 0.0073722211185694433 0.00014222440607240271 0 0.0074231958865041553 9.4633722399593622e-05 0 0.007205050191087253 0.00024808077942436036 0 0.0072763074745462132 0.00015212589350699642 0 0.007132881324702558 0.00012278724381145289 0 0.0073107179222961106 0.00020792461561417006 0 0.007205050191087253 0.00024808077942436036 0 0.0072763074745462132 0.00015212589350699642 0 0.0073107179222961106 0.00020792461561417006 0 0.0073722211185694433 0.00014222440607240271 0 0.0072763074745462132 0.00015212589350699642 0 0.0072763074745462132 0.00015212589350699642 0 0.0074364338117469701 1.8751456816751107e-05 0 0.007132881324702558 0.00012278724381145289 0 0.0060312672051839843 -0.00032790600378824287 0 0.0059900380039964972 -0.00040040839102187161 0 0.0074364338117469701 1.8751456816751107e-05 0 0.0070734088777649039 -0.00022928351902422995 0 0.007132881324702558 0.00012278724381145289 0 0.0074333719362383579 8.6742445803919039e-05 0 0.0074231958865041553 9.4633722399593622e-05 0 0.0074364338117469701 1.8751456816751107e-05 0 0.0046362842917945695 -0.00066375833947415286 0 0.0045997735208895768 -0.00047001939933595982 0 0.0047827614058053173 -0.000503076168250137 0 0.0046362842917945695 -0.00066375833947415286 0 0.0047827614058053173 -0.000503076168250137 0 0.0049570045893514081 -0.00060372012860786142 0 0.0047827614058053173 -0.000503076168250137 0 0.0049302107053365634 -0.00040777680942460589 0 0.0049570045893514081 -0.00060372012860786142 0 0.0045997735208895768 -0.00047001939933595982 0 0.0047827614058053173 -0.000503076168250137 0 0.0048021206841084765 -0.00034718811948182343 0 0.0049302107053365634 -0.00040777680942460589 0 0.0050888676221183286 -0.00036381426964949176 0 0.0049570045893514081 -0.00060372012860786142 0 0.0050888676221183286 -0.00036381426964949176 0 0.0049570045893514081 -0.00060372012860786142 0 0.0052404965566853557 -0.00036152945634650396 0 0.00676433067433808 0.00031995133895270522 0 0.0070734088777649039 -0.00022928351902422995 0 0.007132881324702558 0.00012278724381145289 0 0.00676433067433808 0.00031995133895270522 0 0.0070734088777649039 -0.00022928351902422995 0 0.0059987720416660095 6.5900191251904046e-05 0 0.0054413809386428154 -0.00038764821624734467 0 0.0070734088777649039 -0.00022928351902422995 0 0.0059987720416660095 6.5900191251904046e-05 0 0.0054413809386428154 -0.00038764821624734467 0 0.0049570045893514081 -0.00060372012860786142 0 0.0052404965566853557 -0.00036152945634650396 0 0.0054789886150477356 -0.0004063108649019895 0 0.0059900380039964972 -0.00040040839102187161 0 0.0052079328190456266 -0.00032733461611908759 0 0.0052404965566853557 -0.00036152945634650396 0 0.0051753665112770396 -0.00031242589429826274 0 0.0051753665112770396 -0.00031242589429826274 0 0.0050205898964749609 -0.00028075440758074441 0 0.0051169093575807534 -0.0002468209851990008 0 0.0050888676221183286 -0.00036381426964949176 0 0.0051753665112770396 -0.00031242589429826274 0 0.0050205898964749609 -0.00028075440758074441 0 0.0050888676221183286 -0.00036381426964949176 0 0.0052404965566853557 -0.00036152945634650396 0 0.0051753665112770396 -0.00031242589429826274 0 0.0049302107053365634 -0.00040777680942460589 0 0.0050205898964749609 -0.00028075440758074441 0 0.0048021206841084765 -0.00034718811948182343 0 0.0049302107053365634 -0.00040777680942460589 0 0.0050888676221183286 -0.00036381426964949176 0 0.0050205898964749609 -0.00028075440758074441 0 0.0050205898964749609 -0.00028075440758074441 0 0.0048021206841084765 -0.00034718811948182343 0 0.0048503562796377298 -0.00013445749292375844 0 0.0050205898964749609 -0.00028075440758074441 0 0.0050176189597523789 -0.00018366984856869125 0 0.0048503562796377298 -0.00013445749292375844 0 0.0050176189597523789 -0.00018366984856869125 0 0.0051169093575807534 -0.0002468209851990008 0 0.0050683917930689475 -5.8468743363489101e-05 0 0.0050205898964749609 -0.00028075440758074441 0 0.0050176189597523789 -0.00018366984856869125 0 0.0051169093575807534 -0.0002468209851990008 0 0.0053386956350050955 -0.00014825805855206154 0 0.0035381941450165271 -0.00048469018372156609 0 0.0045997735208895768 -0.00047001939933595982 0 0.0048021206841084765 -0.00034718811948182343 0 0.0045890742117127969 -0.00025879529518740374 0 0.0047827614058053173 -0.000503076168250137 0 0.0049302107053365634 -0.00040777680942460589 0 0.0048021206841084765 -0.00034718811948182343 0 0.0048021206841084765 -0.00034718811948182343 0 0.0048503562796377298 -0.00013445749292375844 0 0.0045890742117127969 -0.00025879529518740374 0 -0.0007166156396413144 -0.00055967622057706762 0 -0.000880293340600175 -0.00054309719550507999 0 -0.00081251353088653987 -0.00047702213426180237 0 0.0018205278731950119 -0.00036241984798827579 0 0.0019154283969711186 -0.0003882839481292438 0 -0.000880293340600175 -0.00054309719550507999 0 -0.00091280232013093629 -0.00050181177768998284 0 -0.00081251353088653987 -0.00047702213426180237 0 -0.0007166156396413144 -0.00055967622057706762 0 -0.00081251353088653987 -0.00047702213426180237 0 -0.00065598009050639645 -0.00042243552161735139 0 -0.00081251353088653987 -0.00047702213426180237 0 -0.00075794612581797053 -0.0003433405704296996 0 -0.00089586772984534817 -0.00035028026532723524 0 -0.00081251353088653987 -0.00047702213426180237 0 -0.00075794612581797053 -0.0003433405704296996 0 -0.00065598009050639645 -0.00042243552161735139 0 -0.00091280232013093629 -0.00050181177768998284 0 -0.00081251353088653987 -0.00047702213426180237 0 -0.00089586772984534817 -0.00035028026532723524 0 -0.00091280232013093629 -0.00050181177768998284 0 -0.00089586772984534817 -0.00035028026532723524 0 -0.0011054614426962402 -0.00029735266337419051 0 0.0050562600949625308 -0.00013909666234703996 0 0.0051169093575807534 -0.0002468209851990008 0 0.0049286155963488183 -8.9225703148415009e-05 0 0.0050562600949625308 -0.00013909666234703996 0 0.0049286155963488183 -8.9225703148415009e-05 0 0.0049599950121626754 -5.7140561556827865e-05 0 0.0035381941450165271 -0.00048469018372156609 0 0.004678398438281022 -5.9068774724652592e-05 0 -0.0007166156396413144 -0.00055967622057706762 0 -0.00046432446786357547 -0.00049619530791757333 0 -0.00065598009050639645 -0.00042243552161735139 0 0.0050176189597523789 -0.00018366984856869125 0 0.0048503562796377298 -0.00013445749292375844 0 0.0050683917930689475 -5.8468743363489101e-05 0 0.0018205278731950119 -0.00036241984798827579 0 0.0035381941450165271 -0.00048469018372156609 0 -0.00065598009050639645 -0.00042243552161735139 0 -0.00052389812541728188 -0.00033268383882084347 0 -0.000647311351788869 -0.00028259698960581648 0 -0.00046432446786357547 -0.00049619530791757333 0 -0.00065598009050639645 -0.00042243552161735139 0 -0.00052389812541728188 -0.00033268383882084347 0 -0.00075794612581797053 -0.0003433405704296996 0 -0.00065598009050639645 -0.00042243552161735139 0 -0.000647311351788869 -0.00028259698960581648 0 0.0035381941450165271 -0.00048469018372156609 0 0.0020736228199251029 -4.9730144294672077e-05 0 0.0048266941753150484 -0.00011567335496035336 0 0.0049599950121626754 -5.7140561556827865e-05 0 0.0046888272974968696 0.00020216954278822223 0 0.0049771953264151798 0.00019559885894494599 0 0.0049599950121626754 -5.7140561556827865e-05 0 0.0046888272974968696 0.00020216954278822223 0 0.0049771953264151798 0.00019559885894494599 0 0.0046888272974968696 0.00020216954278822223 0 0.0048843434882314338 0.00046943190855847799 0 0.0015326534663531342 -1.5544006427341287e-05 0 0.00086511525476531818 0.00034142072455214077 0 0.0046888272974968696 0.00020216954278822223 0 0.0048843434882314338 0.00046943190855847799 0 0.0045591081275338117 0.00053721225779013019 0 0.0020736228199251029 -4.9730144294672077e-05 0 0.00086511525476531818 0.00034142072455214077 0 -0.00052389812541728188 -0.00033268383882084347 0 -0.000647311351788869 -0.00028259698960581648 0 -0.00058367421761592729 -0.00016797059131343857 0 -0.000647311351788869 -0.00028259698960581648 0 -0.00064404771380910581 -0.0001986600256410128 0 -0.00071535703355012786 -0.00022367358325194422 0 -0.00064404771380910581 -0.0001986600256410128 0 -0.00069046434485272451 -0.00011794178150402443 0 -0.00071535703355012786 -0.00022367358325194422 0 -0.000647311351788869 -0.00028259698960581648 0 -0.00064404771380910581 -0.0001986600256410128 0 -0.00058367421761592729 -0.00016797059131343857 0 -0.00058367421761592729 -0.00016797059131343857 0 -0.00069046434485272451 -0.00011794178150402443 0 -0.00065902620367931848 3.7071886700453016e-05 0 -0.00069046434485272451 -0.00011794178150402443 0 -0.00077362119038274315 -2.8345266208093896e-05 0 -0.00065902620367931848 3.7071886700453016e-05 0 0.00086511525476531818 0.00034142072455214077 0 -0.001313146376718485 -0.00049907252224368551 0 -0.0017323332866761346 -0.00051056514523355569 0 -0.0019084181680473337 -0.00066705712830411211 0 -0.0016692007485998707 -0.00087596351515462371 0 -0.00064404771380910581 -0.0001986600256410128 0 -0.00058367421761592729 -0.00016797059131343857 0 -0.00069046434485272451 -0.00011794178150402443 0 -0.0020038842964600753 -0.00046038419877063254 0 -0.0017323332866761346 -0.00051056514523355569 0 -0.0019084181680473337 -0.00066705712830411211 0 -0.0019084181680473337 -0.00066705712830411211 0 -0.002023160562908593 -0.00085845576592307284 0 -0.0021116974636817788 -0.00063446513326787706 0 -0.0020038842964600753 -0.00046038419877063254 0 -0.0019084181680473337 -0.00066705712830411211 0 -0.0021116974636817788 -0.00063446513326787706 0 -0.00089586772984534817 -0.00035028026532723524 0 -0.00096675757847792425 -0.00020425721890869947 0 -0.0011054614426962402 -0.00029735266337419051 0 -0.00089586772984534817 -0.00035028026532723524 0 -0.00096675757847792425 -0.00020425721890869947 0 -0.00083642189439718355 -0.00023263383907737767 0 -0.00096675757847792425 -0.00020425721890869947 0 -0.00083642189439718355 -0.00023263383907737767 0 -0.00090168991536730453 -9.1083867870343511e-05 0 -0.00075794612581797053 -0.0003433405704296996 0 -0.00089586772984534817 -0.00035028026532723524 0 -0.00083642189439718355 -0.00023263383907737767 0 -0.00075794612581797053 -0.0003433405704296996 0 -0.00083642189439718355 -0.00023263383907737767 0 -0.00071535703355012786 -0.00022367358325194422 0 -0.00075794612581797053 -0.0003433405704296996 0 -0.000647311351788869 -0.00028259698960581648 0 -0.00071535703355012786 -0.00022367358325194422 0 -0.00083642189439718355 -0.00023263383907737767 0 -0.00071535703355012786 -0.00022367358325194422 0 -0.00077876474533612001 -0.00013874547784551919 0 -0.00077362119038274315 -2.8345266208093896e-05 0 -0.00090168991536730453 -9.1083867870343511e-05 0 -0.00095474318319660261 3.9309169422534608e-05 0 -0.00069046434485272451 -0.00011794178150402443 0 -0.00071535703355012786 -0.00022367358325194422 0 -0.00077876474533612001 -0.00013874547784551919 0 -0.00069046434485272451 -0.00011794178150402443 0 -0.00077876474533612001 -0.00013874547784551919 0 -0.00077362119038274315 -2.8345266208093896e-05 0 -0.00077876474533612001 -0.00013874547784551919 0 -0.00077362119038274315 -2.8345266208093896e-05 0 -0.00090168991536730453 -9.1083867870343511e-05 0 -0.00083642189439718355 -0.00023263383907737767 0 -0.00077876474533612001 -0.00013874547784551919 0 -0.00090168991536730453 -9.1083867870343511e-05 0 -0.00096675757847792425 -0.00020425721890869947 0 -0.00090168991536730453 -9.1083867870343511e-05 0 -0.0011091250159805893 -5.9505310099869225e-05 0 -0.00090168991536730453 -9.1083867870343511e-05 0 -0.00095474318319660261 3.9309169422534608e-05 0 -0.0011091250159805893 -5.9505310099869225e-05 0 -0.00095474318319660261 3.9309169422534608e-05 0 -0.00084492996323468647 0.00012431414622842703 0 -0.0010800085308655272 0.00016496477623668423 0 -0.00095474318319660261 3.9309169422534608e-05 0 -0.0010800085308655272 0.00016496477623668423 0 -0.0011091250159805893 -5.9505310099869225e-05 0 -0.00084492996323468647 0.00012431414622842703 0 -0.00065902620367931848 3.7071886700453016e-05 0 -0.00073572314965224652 0.00025448180592633048 0 -0.00077362119038274315 -2.8345266208093896e-05 0 -0.00084492996323468647 0.00012431414622842703 0 -0.00065902620367931848 3.7071886700453016e-05 0 -0.00077362119038274315 -2.8345266208093896e-05 0 -0.00095474318319660261 3.9309169422534608e-05 0 -0.00084492996323468647 0.00012431414622842703 0 -0.00084492996323468647 0.00012431414622842703 0 -0.0009662334828055458 0.00029899403486948427 0 -0.00073572314965224652 0.00025448180592633048 0 -0.0009662334828055458 0.00029899403486948427 0 -0.0010800085308655272 0.00016496477623668423 0 -0.0012252431277432029 0.00039770120218035501 0 -0.00084492996323468647 0.00012431414622842703 0 -0.0009662334828055458 0.00029899403486948427 0 -0.0010800085308655272 0.00016496477623668423 0 -0.0019639889072731562 -0.0010511721830791605 0 -0.002023160562908593 -0.00085845576592307284 0 -0.0016692007485998707 -0.00087596351515462371 0 -0.0019084181680473337 -0.00066705712830411211 0 -0.002023160562908593 -0.00085845576592307284 0 -0.0016692007485998707 -0.00087596351515462371 0 -0.0019639889072731562 -0.0010511721830791605 0 -0.0016692007485998707 -0.00087596351515462371 0 -0.001767323991003512 -0.0011463255936995981 0 -0.0016692007485998707 -0.00087596351515462371 0 -0.001767323991003512 -0.0011463255936995981 0 -0.0016030231996815825 -0.0012461939073858713 0 -0.001313146376718485 -0.00049907252224368551 0 -0.0010464996406821091 -0.00042218963979387972 0 -0.001767323991003512 -0.0011463255936995981 0 -0.0016030231996815825 -0.0012461939073858713 0 -0.0017185356120270857 -0.0013138157891657283 0 -0.001767323991003512 -0.0011463255936995981 0 -0.0017185356120270857 -0.0013138157891657283 0 -0.0018847385351581905 -0.0012404798487673679 0 -0.0019639889072731562 -0.0010511721830791605 0 -0.0018847385351581905 -0.0012404798487673679 0 -0.0021954177922474754 -0.0012421515304041346 0 -0.0018847385351581905 -0.0012404798487673679 0 -0.0017322859932167695 -0.0014734409147807311 0 -0.0021954177922474754 -0.0012421515304041346 0 -0.0019639889072731562 -0.0010511721830791605 0 -0.001767323991003512 -0.0011463255936995981 0 -0.0018847385351581905 -0.0012404798487673679 0 -0.0024831107347967826 -0.0015533390910336111 0 -0.0033140664427073934 -0.0017791266749383429 0 -0.002064317165672938 -0.0014286637503073633 0 -0.0018180496603773832 -0.0014257834179217175 0 -0.0023583114242003108 -0.0016583294489234245 0 -0.002064317165672938 -0.0014286637503073633 0 -0.0018180496603773832 -0.0014257834179217175 0 -0.0021954177922474754 -0.0012421515304041346 0 -0.0024831107347967826 -0.0015533390910336111 0 -0.0019036299746370195 -0.0012650863163710909 0 -0.0041082095590705267 -0.0018331182499193798 0 -0.0041360708060383606 -0.00187598478317147 0 -0.004052209683138506 -0.0018565601301259254 0 -0.0041082095590705267 -0.0018331182499193798 0 -0.0040752418534357642 -0.0018178108744721522 0 -0.004052209683138506 -0.0018565601301259254 0 -0.0041082095590705267 -0.0018331182499193798 0 -0.0040752418534357642 -0.0018178108744721522 0 -0.00412641938008449 -0.0017804743268584277 0 -0.0041768631930525326 -0.0017861990759265353 0 -0.0041506183380643344 -0.0018288018456773377 0 -0.00412641938008449 -0.0017804743268584277 0 -0.0041082095590705267 -0.0018331182499193798 0 -0.0041506183380643344 -0.0018288018456773377 0 -0.00412641938008449 -0.0017804743268584277 0 -0.0041082095590705267 -0.0018331182499193798 0 -0.0041506183380643344 -0.0018288018456773377 0 -0.0041360708060383606 -0.00187598478317147 0 -0.0041768631930525326 -0.0017861990759265353 0 -0.0041506183380643344 -0.0018288018456773377 0 -0.0041935941679838813 -0.001844321183837278 0 -0.0024831107347967826 -0.0015533390910336111 0 -0.0028116311469295061 -0.0011301967831280175 0 -0.0041506183380643344 -0.0018288018456773377 0 -0.0041360708060383606 -0.00187598478317147 0 -0.0041935941679838813 -0.001844321183837278 0 -0.0017359137247929702 -0.0014621597190823926 0 -0.0016488151379725772 -0.001435071104866077 0 -0.0015427330216874816 -0.0015805266281858289 0 -0.0016030231996815825 -0.0012461939073858713 0 -0.0016488151379725772 -0.001435071104866077 0 -0.0015427330216874816 -0.0015805266281858289 0 -0.0024831107347967826 -0.0015533390910336111 0 -0.0019209297050571076 -0.0014163274692334804 0 -0.0017185356120270857 -0.0013138157891657283 0 -0.0018847385351581905 -0.0012404798487673679 0 -0.0017322859932167695 -0.0014734409147807311 0 -0.0016030231996815825 -0.0012461939073858713 0 -0.0017185356120270857 -0.0013138157891657283 0 -0.0016488151379725772 -0.001435071104866077 0 -0.0017185356120270857 -0.0013138157891657283 0 -0.0017322859932167695 -0.0014734409147807311 0 -0.0016488151379725772 -0.001435071104866077 0 -0.00073572314965224652 0.00025448180592633048 0 -0.0008795561664538277 0.00037933696803960797 0 -0.00081382025874815207 0.00047915805576478416 0 -0.0010464996406821091 -0.00042218963979387972 0 -0.0028116311469295061 -0.0011301967831280175 0 -0.0009662334828055458 0.00029899403486948427 0 -0.00073572314965224652 0.00025448180592633048 0 -0.0008795561664538277 0.00037933696803960797 0 -0.0009662334828055458 0.00029899403486948427 0 -0.0008795561664538277 0.00037933696803960797 0 -0.00095975056740247406 0.00041041894836564053 0 -0.0008795561664538277 0.00037933696803960797 0 -0.00081382025874815207 0.00047915805576478416 0 -0.00092332813711871933 0.00049448851409231989 0 -0.0008795561664538277 0.00037933696803960797 0 -0.00095975056740247406 0.00041041894836564053 0 -0.00092332813711871933 0.00049448851409231989 0 -0.0009662334828055458 0.00029899403486948427 0 -0.00095975056740247406 0.00041041894836564053 0 -0.0010708221591066262 0.0004691841102263016 0 -0.0009662334828055458 0.00029899403486948427 0 -0.0010708221591066262 0.0004691841102263016 0 -0.0012252431277432029 0.00039770120218035501 0 -0.00095975056740247406 0.00041041894836564053 0 -0.0010708221591066262 0.0004691841102263016 0 -0.00092332813711871933 0.00049448851409231989 0 -0.0010708221591066262 0.0004691841102263016 0 -0.00097218470134738139 0.00057796146079224821 0 -0.0012650576929709805 0.00074022377168660603 0 -0.0010708221591066262 0.0004691841102263016 0 -0.00097218470134738139 0.00057796146079224821 0 -0.00092332813711871933 0.00049448851409231989 0 -0.0041972204022844226 -0.0015663089589309919 0 -0.0042076053033450276 -0.0015515154028531741 0 -0.0042219759019219757 -0.0015939374751064324 0 -0.0041768631930525326 -0.0017861990759265353 0 -0.0041935941679838813 -0.001844321183837278 0 -0.0042275976077956121 -0.0017450164949094989 0 -0.0028116311469295061 -0.0011301967831280175 0 -0.0043497520571218456 -0.0017518371580353769 0 -0.0025707734081240091 -0.00050579109969622264 0 -0.0028116311469295061 -0.0011301967831280175 0 -0.0009744813395298384 0.00056695337626633388 0 -0.00081382025874815207 0.00047915805576478416 0 -0.00092332813711871933 0.00049448851409231989 0 -0.0025707734081240091 -0.00050579109969622264 0 -0.0018259098913545374 1.6008427778306311e-05 0 -0.0041768631930525326 -0.0017861990759265353 0 -0.0042275976077956121 -0.0017450164949094989 0 -0.0041765211533446962 -0.0017423064812343244 0 -0.0042275976077956121 -0.0017450164949094989 0 -0.0041978432883762471 -0.0016922967669847574 0 -0.0041765211533446962 -0.0017423064812343244 0 -0.0025707734081240091 -0.00050579109969622264 0 -0.0022888819394569974 -0.00016794720543064322 0 -0.0025707734081240091 -0.00050579109969622264 0 -0.0039958260348000041 -0.0014358630785673036 0 -0.0041972204022844226 -0.0015663089589309919 0 -0.0042219759019219757 -0.0015939374751064324 0 -0.0041937373235410406 -0.0016032443109415386 0 -0.0042219759019219757 -0.0015939374751064324 0 -0.0041937373235410406 -0.0016032443109415386 0 -0.0042121281863226777 -0.0016235265982571783 0 -0.0035843881197744651 -0.0013188073920680024 0 -0.0037484580144360696 -0.0010688284367816241 0 -0.0039437993576691057 -0.0011254611604160972 0 -0.0041937373235410406 -0.0016032443109415386 0 -0.0042030505854227318 -0.0016277752566994568 0 -0.004179517799885445 -0.0016439999532651985 0 -0.0042030505854227318 -0.0016277752566994568 0 -0.0042138400585745505 -0.0016401059959886392 0 -0.004179517799885445 -0.0016439999532651985 0 -0.0041937373235410406 -0.0016032443109415386 0 -0.0042030505854227318 -0.0016277752566994568 0 -0.0042121281863226777 -0.0016235265982571783 0 -0.0042121281863226777 -0.0016235265982571783 0 -0.0042138400585745505 -0.0016401059959886392 0 -0.0042310803857147569 -0.001654123467972926 0 -0.0042030505854227318 -0.0016277752566994568 0 -0.0042121281863226777 -0.0016235265982571783 0 -0.0042138400585745505 -0.0016401059959886392 0 -0.0043497520571218456 -0.0017518371580353769 0 -0.0042086627937251405 -0.0016318884218429932 0 -0.0042275976077956121 -0.0017450164949094989 0 -0.0041978432883762471 -0.0016922967669847574 0 -0.0042310803857147569 -0.001654123467972926 0 -0.0042219759019219757 -0.0015939374751064324 0 -0.0042121281863226777 -0.0016235265982571783 0 -0.0042310803857147569 -0.001654123467972926 0 -0.0041978432883762471 -0.0016922967669847574 0 -0.0042085805027005079 -0.0016560222249526119 0 -0.0042310803857147569 -0.001654123467972926 0 -0.0041978432883762471 -0.0016922967669847574 0 -0.0041772699025535761 -0.0016654004682478984 0 -0.0042085805027005079 -0.0016560222249526119 0 -0.0041978432883762471 -0.0016922967669847574 0 -0.0041538619428649441 -0.0017118787569182063 0 -0.0041765211533446962 -0.0017423064812343244 0 -0.0041978432883762471 -0.0016922967669847574 0 -0.0041538619428649441 -0.0017118787569182063 0 -0.0041772699025535761 -0.0016654004682478984 0 -0.0041538619428649441 -0.0017118787569182063 0 -0.0041772699025535761 -0.0016654004682478984 0 -0.0041330204913083519 -0.0016819812661913391 0 -0.0041772699025535761 -0.0016654004682478984 0 -0.0041330204913083519 -0.0016819812661913391 0 -0.0041610534756372879 -0.0016441571401192606 0 -0.0041330204913083519 -0.0016819812661913391 0 -0.004087575603146279 -0.0016621799471761495 0 -0.0040957184651843033 -0.001732831941491863 0 -0.0041330204913083519 -0.0016819812661913391 0 -0.004087575603146279 -0.0016621799471761495 0 -0.0041610534756372879 -0.0016441571401192606 0 -0.0041538619428649441 -0.0017118787569182063 0 -0.0041330204913083519 -0.0016819812661913391 0 -0.0040957184651843033 -0.001732831941491863 0 -0.0040752418534357642 -0.0018178108744721522 0 -0.00412641938008449 -0.0017804743268584277 0 -0.0040573457617712532 -0.0017776505570925741 0 -0.0040957184651843033 -0.001732831941491863 0 -0.00412641938008449 -0.0017804743268584277 0 -0.0040573457617712532 -0.0017776505570925741 0 -0.0041538619428649441 -0.0017118787569182063 0 -0.0040957184651843033 -0.001732831941491863 0 -0.00412641938008449 -0.0017804743268584277 0 -0.0041538619428649441 -0.0017118787569182063 0 -0.00412641938008449 -0.0017804743268584277 0 -0.0041765211533446962 -0.0017423064812343244 0 -0.0041768631930525326 -0.0017861990759265353 0 -0.00412641938008449 -0.0017804743268584277 0 -0.0041765211533446962 -0.0017423064812343244 0 -0.0040046680491588171 -1.7089072606903737e-05 0 -0.0043443324006451536 -0.00046054308400163648 0 -0.0016731685281014016 0.00069732536617666304 0 -0.0015703028659914959 0.00089185034495808469 0 -0.0014965598780540129 0.00070292199225417034 0 -0.0064873760691121201 -0.00088483023326321015 0 -0.0065058053637971486 -0.00084984448578973536 0 -0.0064621081800671342 -0.00083838188442217441 0 -0.0016731685281014016 0.00069732536617666304 0 -0.0014965598780540129 0.00070292199225417034 0 -0.0015885982560506467 0.00055984818888712182 0 -0.0064873760691121201 -0.00088483023326321015 0 -0.0065531398195179036 -0.00088041426628912502 0 -0.0065058053637971486 -0.00084984448578973536 0 -0.0065531398195179036 -0.00088041426628912502 0 -0.0065058053637971486 -0.00084984448578973536 0 -0.0065513181680495851 -0.000841015918605608 0 -0.0065058053637971486 -0.00084984448578973536 0 -0.0065513181680495851 -0.000841015918605608 0 -0.0065070184116315516 -0.00084079608624511326 0 -0.0043443324006451536 -0.00046054308400163648 0 -0.0070755854262208422 -0.00064230550097021922 0 -0.0065058053637971486 -0.00084984448578973536 0 -0.0064621081800671342 -0.00083838188442217441 0 -0.0065070184116315516 -0.00084079608624511326 0 -0.0064305528524475023 -0.00086974289089834886 0 -0.0064488499079800206 -0.00084329052913661572 0 -0.0065070184116315516 -0.00084079608624511326 0 -0.0042611972536663583 -0.00093442021116007374 0 -0.0039704731138651946 -0.0009716862242866108 0 -0.0039437993576691057 -0.0011254611604160972 0 -0.0042611972536663583 -0.00093442021116007374 0 -0.0041038165403813279 -0.00088416523252452027 0 -0.0039704731138651946 -0.0009716862242866108 0 -0.0042611972536663583 -0.00093442021116007374 0 -0.0041038165403813279 -0.00088416523252452027 0 -0.0041536962584628806 -0.00080652319229163006 0 -0.0043443324006451536 -0.00046054308400163648 0 -0.0053330924980395456 -0.00089084663468463811 0 -0.0037484580144360696 -0.0010688284367816241 0 -0.0039062967417952165 -0.00082579554153382575 0 -0.0039704731138651946 -0.0009716862242866108 0 -0.0039958260348000041 -0.0014358630785673036 0 -0.0045800038581251838 -0.0012878655224961661 0 -0.0038785939326191387 -0.0008510307451351256 0 -0.0045800038581251838 -0.0012878655224961661 0 -0.0041038165403813279 -0.00088416523252452027 0 -0.0039062967417952165 -0.00082579554153382575 0 -0.0039704731138651946 -0.0009716862242866108 0 -0.0037484580144360696 -0.0010688284367816241 0 -0.0039704731138651946 -0.0009716862242866108 0 -0.0039437993576691057 -0.0011254611604160972 0 -0.0015703028659914959 0.00089185034495808469 0 -0.0012650576929709805 0.00074022377168660603 0 -0.0014965598780540129 0.00070292199225417034 0 -0.0043443324006451536 -0.00046054308400163648 0 -0.0022888819394569974 -0.00016794720543064322 0 -0.0012650576929709805 0.00074022377168660603 0 -0.0014965598780540129 0.00070292199225417034 0 -0.0014132262402572536 0.00057312733021815468 0 -0.0012650576929709805 0.00074022377168660603 0 -0.0014132262402572536 0.00057312733021815468 0 -0.0012252431277432029 0.00039770120218035501 0 -0.0010708221591066262 0.0004691841102263016 0 -0.0012650576929709805 0.00074022377168660603 0 -0.0012252431277432029 0.00039770120218035501 0 -0.0014132262402572536 0.00057312733021815468 0 -0.0012252431277432029 0.00039770120218035501 0 -0.001481925247435051 0.00042900545835163414 0 -0.0012252431277432029 0.00039770120218035501 0 -0.001481925247435051 0.00042900545835163414 0 -0.0014244556938174458 0.00026490984657525485 0 -0.001481925247435051 0.00042900545835163414 0 -0.0015764622221800073 0.00031689055902344153 0 -0.0014244556938174458 0.00026490984657525485 0 -0.0015764622221800073 0.00031689055902344153 0 -0.0016612396224997971 0.00044416101262609986 0 -0.0017220604546706189 0.00031312989904436374 0 -0.001481925247435051 0.00042900545835163414 0 -0.0015764622221800073 0.00031689055902344153 0 -0.0016612396224997971 0.00044416101262609986 0 -0.001481925247435051 0.00042900545835163414 0 -0.0016612396224997971 0.00044416101262609986 0 -0.0015885982560506467 0.00055984818888712182 0 -0.0014132262402572536 0.00057312733021815468 0 -0.001481925247435051 0.00042900545835163414 0 -0.0015885982560506467 0.00055984818888712182 0 -0.0014965598780540129 0.00070292199225417034 0 -0.0014132262402572536 0.00057312733021815468 0 -0.0015885982560506467 0.00055984818888712182 0 -0.0065531398195179036 -0.00088041426628912502 0 -0.006538424523157645 -0.00098428994366888106 0 -0.0066595819240973129 -0.00091888044683637645 0 -0.0016612396224997971 0.00044416101262609986 0 -0.0015885982560506467 0.00055984818888712182 0 -0.0017879134325965674 0.00050470594239458537 0 -0.0040046680491588171 -1.7089072606903737e-05 0 -0.0045539903730658056 1.9549575556471859e-05 0 -0.0064873760691121201 -0.00088483023326321015 0 -0.0065531398195179036 -0.00088041426628912502 0 -0.006538424523157645 -0.00098428994366888106 0 -0.0016731685281014016 0.00069732536617666304 0 -0.0015885982560506467 0.00055984818888712182 0 -0.0017879134325965674 0.00050470594239458537 0 -0.0016612396224997971 0.00044416101262609986 0 -0.0017807853082839015 0.00050829623493473159 0 -0.0017220604546706189 0.00031312989904436374 0 -0.0045539903730658056 1.9549575556471859e-05 0 -0.0044557978355305164 0.0001316359593095082 0 -0.0017807853082839015 0.00050829623493473159 0 -0.0017220604546706189 0.00031312989904436374 0 -0.0018994927779592025 0.00030276983846638675 0 -0.0016502070997532899 -0.00019275451582440896 0 -0.0045539903730658056 1.9549575556471859e-05 0 -0.0017220604546706189 0.00031312989904436374 0 -0.0015918384637940322 0.0001312836204317326 0 -0.0018163745395521206 0.00014985006155603613 0 -0.0017220604546706189 0.00031312989904436374 0 -0.0018163745395521206 0.00014985006155603613 0 -0.0018994927779592025 0.00030276983846638675 0 -0.0015764622221800073 0.00031689055902344153 0 -0.0017220604546706189 0.00031312989904436374 0 -0.0015918384637940322 0.0001312836204317326 0 -0.0015764622221800073 0.00031689055902344153 0 -0.0015918384637940322 0.0001312836204317326 0 -0.0014244556938174458 0.00026490984657525485 0 -0.0015918384637940322 0.0001312836204317326 0 -0.0014244556938174458 0.00026490984657525485 0 -0.0013491961703476444 5.5093139658442162e-05 0 -0.0015918384637940322 0.0001312836204317326 0 -0.0013491961703476444 5.5093139658442162e-05 0 -0.0015362395237711944 -0.00010597094559206826 0 -0.0015918384637940322 0.0001312836204317326 0 -0.0017865199311145781 -2.2836980030301123e-05 0 -0.0015362395237711944 -0.00010597094559206826 0 -0.0015918384637940322 0.0001312836204317326 0 -0.0017865199311145781 -2.2836980030301123e-05 0 -0.0018163745395521206 0.00014985006155603613 0 -0.0010800085308655272 0.00016496477623668423 0 -0.0012252431277432029 0.00039770120218035501 0 -0.0012579989270309873 0.00021525384258630568 0 -0.0010800085308655272 0.00016496477623668423 0 -0.0012579989270309873 0.00021525384258630568 0 -0.0012041719680867342 9.6942927875033109e-05 0 -0.0012579989270309873 0.00021525384258630568 0 -0.0014244556938174458 0.00026490984657525485 0 -0.0013491961703476444 5.5093139658442162e-05 0 -0.0012252431277432029 0.00039770120218035501 0 -0.0012579989270309873 0.00021525384258630568 0 -0.0014244556938174458 0.00026490984657525485 0 -0.0012579989270309873 0.00021525384258630568 0 -0.0013491961703476444 5.5093139658442162e-05 0 -0.0012041719680867342 9.6942927875033109e-05 0 -0.0013491961703476444 5.5093139658442162e-05 0 -0.0012041719680867342 9.6942927875033109e-05 0 -0.0011091250159805893 -5.9505310099869225e-05 0 -0.0010800085308655272 0.00016496477623668423 0 -0.0012041719680867342 9.6942927875033109e-05 0 -0.0011091250159805893 -5.9505310099869225e-05 0 -0.0013491961703476444 5.5093139658442162e-05 0 -0.0011091250159805893 -5.9505310099869225e-05 0 -0.0013251702643131726 -0.00021048702767285587 0 -0.0013491961703476444 5.5093139658442162e-05 0 -0.0013251702643131726 -0.00021048702767285587 0 -0.0015362395237711944 -0.00010597094559206826 0 -0.0012644239784225025 -0.0004659508308899781 0 -0.0013251702643131726 -0.00021048702767285587 0 -0.0011054614426962402 -0.00029735266337419051 0 -0.0012644239784225025 -0.0004659508308899781 0 -0.0013251702643131726 -0.00021048702767285587 0 -0.0015767646873103933 -0.00037766611853685381 0 -0.00096675757847792425 -0.00020425721890869947 0 -0.0011091250159805893 -5.9505310099869225e-05 0 -0.0011054614426962402 -0.00029735266337419051 0 -0.0011091250159805893 -5.9505310099869225e-05 0 -0.0013251702643131726 -0.00021048702767285587 0 -0.0011054614426962402 -0.00029735266337419051 0 -0.0017865199311145781 -2.2836980030301123e-05 0 -0.0015362395237711944 -0.00010597094559206826 0 -0.0018769290132942462 -0.00026923187314761881 0 -0.0013251702643131726 -0.00021048702767285587 0 -0.0015362395237711944 -0.00010597094559206826 0 -0.0015767646873103933 -0.00037766611853685381 0 -0.0015362395237711944 -0.00010597094559206826 0 -0.0015767646873103933 -0.00037766611853685381 0 -0.0018769290132942462 -0.00026923187314761881 0 -0.0013779392114556881 -0.00032877839691620222 0 -0.0011338273000054023 -0.00037001285710657969 0 -0.0017865199311145781 -2.2836980030301123e-05 0 -0.0018769290132942462 -0.00026923187314761881 0 -0.0019698184522317841 -8.4892494581533483e-05 0 -0.0018769290132942462 -0.00026923187314761881 0 -0.0019698184522317841 -8.4892494581533483e-05 0 -0.0021833632051022215 -0.00014259760412387799 0 -0.0011338273000054023 -0.00037001285710657969 0 -0.0035674960304569615 1.6775153369182539e-05 0 -0.0019698184522317841 -8.4892494581533483e-05 0 -0.0021833632051022215 -0.00014259760412387799 0 -0.002034984009245558 9.1741057930894187e-05 0 -0.0067326331314732212 0.00041573161642488718 0 -0.0067843259254011168 0.00043437108687003603 0 -0.0067219768790932142 0.00018615555050894032 0 -0.0067326331314732212 0.00041573161642488718 0 -0.0067871291085881847 0.00044331249241223237 0 -0.0066529554284778022 0.00066708975135306315 0 -0.0035674960304569615 1.6775153369182539e-05 0 -0.0040196885348367083 -2.8445232386102913e-06 0 -0.0045871945184719366 0.00037974124382262161 0 -0.0035674960304569615 1.6775153369182539e-05 0 -0.0011939013954704572 -0.00034424870848698708 0 -0.0011309771100879956 -0.00027112993751863613 0 -0.0012792173777218228 -0.00030013288582925131 0 -0.0011309771100879956 -0.00027112993751863613 0 -0.0012898120135500406 -0.00019440861904209295 0 -0.0012792173777218228 -0.00030013288582925131 0 -0.0012898120135500406 -0.00019440861904209295 0 -0.0012792173777218228 -0.00030013288582925131 0 -0.0013341429945626332 -0.00027139297469826152 0 -0.0012504105734732606 -0.00034605903360985444 0 -0.0012792173777218228 -0.00030013288582925131 0 -0.0012887076648177038 -0.00031573881579735857 0 -0.0012792173777218228 -0.00030013288582925131 0 -0.0012887076648177038 -0.00031573881579735857 0 -0.0013046708487235575 -0.00032113469816365969 0 -0.0048986264104232038 -0.00032251454344746713 0 -0.0048562533267837299 -0.00024786779043941306 0 -0.0049380716233357203 -0.00026654934522900205 0 -0.0030282445848850755 -0.00042504401013329548 0 -0.0040196885348367083 -2.8445232386102913e-06 0 -0.0013143057472877902 -0.00031162277757731922 0 -0.0012887076648177038 -0.00031573881579735857 0 -0.0013046708487235575 -0.00032113469816365969 0 -0.0019333166695137741 -0.00078414387498510396 0 -0.0040196885348367083 -2.8445232386102913e-06 0 -0.0048562533267837299 -0.00024786779043941306 0 -0.0049380716233357203 -0.00026654934522900205 0 -0.0049714491809148042 -0.00019588690369195803 0 -0.0049608578293301279 -0.00032160205787919866 0 -0.0049380716233357203 -0.00026654934522900205 0 -0.0049818236030841762 -0.00027545120793731539 0 -0.0049380716233357203 -0.00026654934522900205 0 -0.0049818236030841762 -0.00027545120793731539 0 -0.0050030688401011009 -0.0002344576316450633 0 -0.0049380716233357203 -0.00026654934522900205 0 -0.0049714491809148042 -0.00019588690369195803 0 -0.0050030688401011009 -0.0002344576316450633 0 -0.0066529554284778022 0.00066708975135306315 0 -0.0061750479503121271 0.00036966537434261889 0 -0.0064814747591619096 0.00034010993490369228 0 -0.0067326331314732212 0.00041573161642488718 0 -0.0066529554284778022 0.00066708975135306315 0 -0.0064814747591619096 0.00034010993490369228 0 -0.0040196885348367083 -2.8445232386102913e-06 0 -0.005931843986303394 0.00019364838693112862 0 -0.0067326331314732212 0.00041573161642488718 0 -0.0064814747591619096 0.00034010993490369228 0 -0.0067219768790932142 0.00018615555050894032 0 -0.0064814747591619096 0.00034010993490369228 0 -0.0067219768790932142 0.00018615555050894032 0 -0.0061739716256781927 -3.0872962027017522e-05 0 -0.0067071172201330562 0.00017772008184372236 0 -0.0063695406174615462 3.0758820740731907e-05 0 -0.0067219768790932142 0.00018615555050894032 0 -0.0065579705432141791 7.3857187386207985e-05 0 -0.0066902549630241852 5.2036783941114194e-05 0 -0.0067219768790932142 0.00018615555050894032 0 -0.0066902549630241852 5.2036783941114194e-05 0 -0.0068062977986223117 -2.7605587564646308e-06 0 -0.0061750479503121271 0.00036966537434261889 0 -0.0064814747591619096 0.00034010993490369228 0 -0.0061739716256781927 -3.0872962027017522e-05 0 -0.0065579705432141791 7.3857187386207985e-05 0 -0.0066863782244632672 -5.4694495161762316e-05 0 -0.0065689259171937608 -0.00015245774651140358 0 -0.0065579705432141791 7.3857187386207985e-05 0 -0.0066902549630241852 5.2036783941114194e-05 0 -0.0066863782244632672 -5.4694495161762316e-05 0 -0.0066902549630241852 5.2036783941114194e-05 0 -0.0066863782244632672 -5.4694495161762316e-05 0 -0.0068062977986223117 -2.7605587564646308e-06 0 -0.0066863782244632672 -5.4694495161762316e-05 0 -0.0068062977986223117 -2.7605587564646308e-06 0 -0.0068285537169469742 -0.00012153095916363373 0 -0.0068062977986223117 -2.7605587564646308e-06 0 -0.0069245400252619851 -7.7440439964166313e-05 0 -0.006952380158190199 0.00011669033575224042 0 -0.0068062977986223117 -2.7605587564646308e-06 0 -0.0069245400252619851 -7.7440439964166313e-05 0 -0.0068285537169469742 -0.00012153095916363373 0 -0.0069245400252619851 -7.7440439964166313e-05 0 -0.0070657503932987295 -0.00010129559348888934 0 -0.006952380158190199 0.00011669033575224042 0 -0.0018163745395521206 0.00014985006155603613 0 -0.0018994927779592025 0.00030276983846638675 0 -0.002034984009245558 9.1741057930894187e-05 0 -0.0044557978355305164 0.0001316359593095082 0 -0.0045922937609917096 7.3759115468029218e-05 0 -0.0017865199311145781 -2.2836980030301123e-05 0 -0.0018163745395521206 0.00014985006155603613 0 -0.002034984009245558 9.1741057930894187e-05 0 -0.0017865199311145781 -2.2836980030301123e-05 0 -0.0019698184522317841 -8.4892494581533483e-05 0 -0.002034984009245558 9.1741057930894187e-05 0 -0.0035674960304569615 1.6775153369182539e-05 0 -0.0045922937609917096 7.3759115468029218e-05 0 -0.0067219768790932142 0.00018615555050894032 0 -0.0068062977986223117 -2.7605587564646308e-06 0 -0.006952380158190199 0.00011669033575224042 0 -0.0067843259254011168 0.00043437108687003603 0 -0.0067219768790932142 0.00018615555050894032 0 -0.006952380158190199 0.00011669033575224042 0 -0.0047409926237712259 -0.00048838660939745822 0 -0.0046097825337441606 -0.00063144317809855563 0 -0.0047477259156513858 -0.00047451993332031894 0 -0.00471349936458709 -0.00044117277426819078 0 -0.005095642762137035 -0.00021123966649232669 0 -0.0047477259156513858 -0.00047451993332031894 0 -0.0044253808320354956 -0.00023296065579374639 0 -0.0041263393492146118 -0.00049581289407194407 0 -0.0044253808320354956 -0.00023296065579374639 0 -0.0043851502417786578 -1.2877628731057908e-05 0 -0.0040853716656274221 -0.00010290206465748917 0 -0.0044253808320354956 -0.00023296065579374639 0 -0.0043851502417786578 -1.2877628731057908e-05 0 -0.0046047953003009101 -0.00022118054008155431 0 -0.0047477259156513858 -0.00047451993332031894 0 -0.0044253808320354956 -0.00023296065579374639 0 -0.0046047953003009101 -0.00022118054008155431 0 -0.0046119019185453742 -3.3483334551876468e-05 0 -0.0049400157566892181 -0.00034114349709375816 0 -0.0046047953003009101 -0.00022118054008155431 0 -0.004756430386345439 -8.4959370292368949e-05 0 -0.00471349936458709 -0.00044117277426819078 0 -0.0051068379106260541 -0.00027564527764743844 0 -0.0051147629976934905 -0.00021946227329519921 0 -0.005094054151443741 -0.000238987307915903 0 -0.0043851502417786578 -1.2877628731057908e-05 0 -0.0046047953003009101 -0.00022118054008155431 0 -0.0045816428518208104 -5.9397614490419554e-05 0 -0.0045803324632830936 -0.00015867155416423573 0 -0.0046119019185453742 -3.3483334551876468e-05 0 -0.0051147629976934905 -0.00021946227329519921 0 -0.0051133538277684399 -0.00020951879415929061 0 -0.005095642762137035 -0.00021123966649232669 0 -0.0051147629976934905 -0.00021946227329519921 0 -0.0051133538277684399 -0.00020951879415929061 0 -0.005094054151443741 -0.000238987307915903 0 -0.0047477259156513858 -0.00047451993332031894 0 -0.0046047953003009101 -0.00022118054008155431 0 -0.00471349936458709 -0.00044117277426819078 0 -0.0051133538277684399 -0.00020951879415929061 0 -0.0050604394355925298 -0.00023530516639495776 0 -0.005035671192952184 -0.00020771784967193692 0 -0.0051133538277684399 -0.00020951879415929061 0 -0.0050604394355925298 -0.00023530516639495776 0 -0.005094054151443741 -0.000238987307915903 0 -0.0051068379106260541 -0.00027564527764743844 0 -0.0050775590865584268 -0.00025981629926828507 0 -0.0050483458430466022 -0.00027977618547551545 0 -0.0050604394355925298 -0.00023530516639495776 0 -0.005094054151443741 -0.000238987307915903 0 -0.0050775590865584268 -0.00025981629926828507 0 -0.0051068379106260541 -0.00027564527764743844 0 -0.005094054151443741 -0.000238987307915903 0 -0.0050775590865584268 -0.00025981629926828507 0 -0.0050604394355925298 -0.00023530516639495776 0 -0.0050775590865584268 -0.00025981629926828507 0 -0.0050483458430466022 -0.00027977618547551545 0 -0.0050604394355925298 -0.00023530516639495776 0 -0.0050483458430466022 -0.00027977618547551545 0 -0.0050030688401011009 -0.0002344576316450633 0 -0.0050483458430466022 -0.00027977618547551545 0 -0.0049818236030841762 -0.00027545120793731539 0 -0.0050030688401011009 -0.0002344576316450633 0 -0.0050048493843085984 -0.00030273094621490962 0 -0.0050483458430466022 -0.00027977618547551545 0 -0.0049818236030841762 -0.00027545120793731539 0 -0.0049714491809148042 -0.00019588690369195803 0 -0.0050030688401011009 -0.0002344576316450633 0 -0.005035671192952184 -0.00020771784967193692 0 -0.0050604394355925298 -0.00023530516639495776 0 -0.0050030688401011009 -0.0002344576316450633 0 -0.005035671192952184 -0.00020771784967193692 0 -0.0049714491809148042 -0.00019588690369195803 0 -0.005035671192952184 -0.00020771784967193692 0 -0.0050524673497267195 -0.00016869445275116658 0 -0.0061750479503121271 0.00036966537434261889 0 -0.0061739716256781927 -3.0872962027017522e-05 0 -0.0057048095802699969 6.7773737918520291e-05 0 -0.005931843986303394 0.00019364838693112862 0 -0.0053026786094375923 -9.2095939707216329e-05 0 -0.0063695406174615462 3.0758820740731907e-05 0 -0.0059634298625930908 -7.9788686916197428e-05 0 -0.0061739716256781927 -3.0872962027017522e-05 0 -0.0056990101677541665 -0.0001721657928203161 0 -0.0057048095802699969 6.7773737918520291e-05 0 -0.0065579705432141791 7.3857187386207985e-05 0 -0.0062423678389643003 2.3123777487314501e-05 0 -0.0065689259171937608 -0.00015245774651140358 0 -0.0056990101677541665 -0.0001721657928203161 0 -0.0057048095802699969 6.7773737918520291e-05 0 -0.0053998536947363375 -0.00014365260836702692 0 -0.0051133538277684399 -0.00020951879415929061 0 -0.005035671192952184 -0.00020771784967193692 0 -0.0050524673497267195 -0.00016869445275116658 0 -0.0051133538277684399 -0.00020951879415929061 0 -0.0050524673497267195 -0.00016869445275116658 0 -0.0051721409757941013 -0.00019991119983369296 0 -0.0051133538277684399 -0.00020951879415929061 0 -0.0051721409757941013 -0.00019991119983369296 0 -0.005095642762137035 -0.00021123966649232669 0 -0.0049400157566892181 -0.00034114349709375816 0 -0.0050432989128807709 -0.00023899578996618777 0 -0.0053026786094375923 -9.2095939707216329e-05 0 -0.0054177692794309777 -0.00011823597084780659 0 -0.0050524673497267195 -0.00016869445275116658 0 -0.0051721409757941013 -0.00019991119983369296 0 -0.0053998536947363375 -0.00014365260836702692 0 -0.0051721409757941013 -0.00019991119983369296 0 -0.0053998536947363375 -0.00014365260836702692 0 -0.005095642762137035 -0.00021123966649232669 0 -0.0053998536947363375 -0.00014365260836702692 0 -0.0052923393143583467 -0.00016072894398479158 0 -0.005095642762137035 -0.00021123966649232669 0 -0.0052923393143583467 -0.00016072894398479158 0 -0.0054410631529464744 -0.00019366050280725293 0 -0.0053504338253355412 -0.00018477898910028553 0 -0.0053998536947363375 -0.00014365260836702692 0 -0.0052923393143583467 -0.00016072894398479158 0 -0.0054410631529464744 -0.00019366050280725293 0 -0.0047477259156513858 -0.00047451993332031894 0 -0.005095642762137035 -0.00021123966649232669 0 -0.0052874266289264626 -0.0002729202563057588 0 -0.0052923393143583467 -0.00016072894398479158 0 -0.005095642762137035 -0.00021123966649232669 0 -0.0052874266289264626 -0.0002729202563057588 0 -0.0056399652428647988 -0.00033745648378744546 0 -0.0059555594916052097 -0.00051852634553067455 0 -0.0056145909022914759 -0.00052763303616603784 0 -0.0056399652428647988 -0.00033745648378744546 0 -0.005503839102350771 -0.00034046073883474382 0 -0.0056145909022914759 -0.00052763303616603784 0 -0.005503839102350771 -0.00034046073883474382 0 -0.0054410631529464744 -0.00019366050280725293 0 -0.0053954226547395711 -0.00026226062426267134 0 -0.0053998536947363375 -0.00014365260836702692 0 -0.0054410631529464744 -0.00019366050280725293 0 -0.0055592797859306048 -0.00020437779822130559 0 -0.0056399652428647988 -0.00033745648378744546 0 -0.005503839102350771 -0.00034046073883474382 0 -0.0054410631529464744 -0.00019366050280725293 0 -0.0056399652428647988 -0.00033745648378744546 0 -0.0054410631529464744 -0.00019366050280725293 0 -0.0055592797859306048 -0.00020437779822130559 0 -0.0056399652428647988 -0.00033745648378744546 0 -0.0055592797859306048 -0.00020437779822130559 0 -0.0058862774147483699 -0.00029970747914055332 0 -0.0056990101677541665 -0.0001721657928203161 0 -0.0053998536947363375 -0.00014365260836702692 0 -0.0055592797859306048 -0.00020437779822130559 0 -0.0062423678389643003 2.3123777487314501e-05 0 -0.0055592797859306048 -0.00020437779822130559 0 -0.0058862774147483699 -0.00029970747914055332 0 -0.0059634298625930908 -7.9788686916197428e-05 0 -0.005581518660392323 -0.00020394038717896711 0 -0.0058862774147483699 -0.00029970747914055332 0 -0.0059555594916052097 -0.00051852634553067455 0 -0.0061709646322386747 -0.00033743293926867876 0 -0.0056399652428647988 -0.00033745648378744546 0 -0.0058862774147483699 -0.00029970747914055332 0 -0.0059555594916052097 -0.00051852634553067455 0 -0.0059555594916052097 -0.00051852634553067455 0 -0.0061709646322386747 -0.00033743293926867876 0 -0.0062977259717621479 -0.00052129524150643796 0 -0.0061709646322386747 -0.00033743293926867876 0 -0.0065028515072492535 -0.00040138775274627391 0 -0.0062977259717621479 -0.00052129524150643796 0 -0.0062423678389643003 2.3123777487314501e-05 0 -0.0061709646322386747 -0.00033743293926867876 0 -0.0063789687007451377 -0.00021520098245189496 0 -0.0062423678389643003 2.3123777487314501e-05 0 -0.0058862774147483699 -0.00029970747914055332 0 -0.0061709646322386747 -0.00033743293926867876 0 -0.0063789687007451377 -0.00021520098245189496 0 -0.0065028515072492535 -0.00040138775274627391 0 -0.0065689259171937608 -0.00015245774651140358 0 -0.0062423678389643003 2.3123777487314501e-05 0 -0.0063789687007451377 -0.00021520098245189496 0 -0.0065689259171937608 -0.00015245774651140358 0 -0.0061709646322386747 -0.00033743293926867876 0 -0.0063789687007451377 -0.00021520098245189496 0 -0.0065028515072492535 -0.00040138775274627391 0 -0.0065028515072492535 -0.00040138775274627391 0 -0.0065272065171987238 -0.00065005221687474226 0 -0.0062977259717621479 -0.00052129524150643796 0 -0.0065028515072492535 -0.00040138775274627391 0 -0.0065272065171987238 -0.00065005221687474226 0 -0.0066917976138598295 -0.00054917676438812969 0 -0.0065272065171987238 -0.00065005221687474226 0 -0.0062206662094936209 -0.00073207825509151783 0 -0.0066844320146146295 -0.00080527524561910886 0 -0.0065272065171987238 -0.00065005221687474226 0 -0.0067683513027939658 -0.00074702510316481036 0 -0.0066844320146146295 -0.00080527524561910886 0 -0.0062432747102301595 -0.00071662890066565791 0 -0.00641211589564361 -0.00086510893918745314 0 -0.0062206662094936209 -0.00073207825509151783 0 -0.0066433635418409664 -0.00084778249676699944 0 -0.0066844320146146295 -0.00080527524561910886 0 -0.0059555594916052097 -0.00051852634553067455 0 -0.0062206662094936209 -0.00073207825509151783 0 -0.0062977259717621479 -0.00052129524150643796 0 -0.0065272065171987238 -0.00065005221687474226 0 -0.0062206662094936209 -0.00073207825509151783 0 -0.0062977259717621479 -0.00052129524150643796 0 -0.0059555594916052097 -0.00051852634553067455 0 -0.0062206662094936209 -0.00073207825509151783 0 -0.0058720796498856762 -0.00078108863733815294 0 -0.0062206662094936209 -0.00073207825509151783 0 -0.0058720796498856762 -0.00078108863733815294 0 -0.0060639213082330215 -0.00092405254837821249 0 -0.0058720796498856762 -0.00078108863733815294 0 -0.005565466372371531 -0.00076093254911406831 0 -0.0055207292082249879 -0.00098474751715651575 0 -0.0058811614811912945 -0.00078592126642918316 0 -0.0058061733059554107 -0.00091859057872685783 0 -0.0058720796498856762 -0.00078108863733815294 0 -0.0060639213082330215 -0.00092405254837821249 0 -0.0060561571885386703 -0.00091633362942775316 0 -0.0058720796498856762 -0.00078108863733815294 0 -0.0056145909022914759 -0.00052763303616603784 0 -0.005565466372371531 -0.00076093254911406831 0 -0.0059555594916052097 -0.00051852634553067455 0 -0.0058720796498856762 -0.00078108863733815294 0 -0.0056145909022914759 -0.00052763303616603784 0 -0.0069707468781526989 -0.00032190527115116135 0 -0.0068850844301090184 -0.00036148751231564381 0 -0.0069428835339470857 -0.00023166873463372211 0 -0.0069707468781526989 -0.00032190527115116135 0 -0.0068850844301090184 -0.00036148751231564381 0 -0.0070072943036748932 -0.00040823149671734028 0 -0.0045539903730658056 1.9549575556471859e-05 0 -0.0072375292931122397 -0.00060756655688943022 0 -0.0071561693481591183 -0.00029054959863610182 0 -0.0070072943036748932 -0.00040823149671734028 0 -0.0070363122247164324 -0.00027847293652846631 0 -0.006538424523157645 -0.00098428994366888106 0 -0.0067354401953328607 -0.00090467399841916575 0 -0.0066595819240973129 -0.00091888044683637645 0 -0.0069707468781526989 -0.00032190527115116135 0 -0.0070363122247164324 -0.00027847293652846631 0 -0.0069428835339470857 -0.00023166873463372211 0 -0.0069707468781526989 -0.00032190527115116135 0 -0.0070072943036748932 -0.00040823149671734028 0 -0.0070363122247164324 -0.00027847293652846631 0 -0.0071561693481591183 -0.00029054959863610182 0 -0.0070657503932987295 -0.00010129559348888934 0 -0.0070363122247164324 -0.00027847293652846631 0 -0.0070657503932987295 -0.00010129559348888934 0 -0.0070363122247164324 -0.00027847293652846631 0 -0.0069428835339470857 -0.00023166873463372211 0 -0.0069245400252619851 -7.7440439964166313e-05 0 -0.0070657503932987295 -0.00010129559348888934 0 -0.0069428835339470857 -0.00023166873463372211 0 -0.0068850844301090184 -0.00036148751231564381 0 -0.0069428835339470857 -0.00023166873463372211 0 -0.006777467828896897 -0.00023218688657932845 0 -0.0069428835339470857 -0.00023166873463372211 0 -0.0068285537169469742 -0.00012153095916363373 0 -0.006777467828896897 -0.00023218688657932845 0 -0.0069245400252619851 -7.7440439964166313e-05 0 -0.0069428835339470857 -0.00023166873463372211 0 -0.0068285537169469742 -0.00012153095916363373 0 -0.0066863782244632672 -5.4694495161762316e-05 0 -0.0068285537169469742 -0.00012153095916363373 0 -0.006777467828896897 -0.00023218688657932845 0 -0.0066863782244632672 -5.4694495161762316e-05 0 -0.006777467828896897 -0.00023218688657932845 0 -0.0065689259171937608 -0.00015245774651140358 0 -0.006777467828896897 -0.00023218688657932845 0 -0.0065689259171937608 -0.00015245774651140358 0 -0.0067213643965654806 -0.00038103943425483116 0 -0.0065028515072492535 -0.00040138775274627391 0 -0.0065689259171937608 -0.00015245774651140358 0 -0.0067213643965654806 -0.00038103943425483116 0 -0.0065028515072492535 -0.00040138775274627391 0 -0.0067213643965654806 -0.00038103943425483116 0 -0.0066917976138598295 -0.00054917676438812969 0 -0.0068850844301090184 -0.00036148751231564381 0 -0.006777467828896897 -0.00023218688657932845 0 -0.0067213643965654806 -0.00038103943425483116 0 -0.0068850844301090184 -0.00036148751231564381 0 -0.0067213643965654806 -0.00038103943425483116 0 -0.0068694718293865883 -0.00055829559778353686 0 -0.0067213643965654806 -0.00038103943425483116 0 -0.0068694718293865883 -0.00055829559778353686 0 -0.0066917976138598295 -0.00054917676438812969 0 -0.0068694718293865883 -0.00055829559778353686 0 -0.0066917976138598295 -0.00054917676438812969 0 -0.0067683513027939658 -0.00074702510316481036 0 -0.0065272065171987238 -0.00065005221687474226 0 -0.0066917976138598295 -0.00054917676438812969 0 -0.0067683513027939658 -0.00074702510316481036 0 -0.00682126832720302 -0.00080614982077504031 0 -0.0067683513027939658 -0.00074702510316481036 0 -0.0068455936199462849 -0.00081322859828681108 0 -0.006765326036545052 -0.00071678454325975471 0 -0.0067906103072843688 -0.00073181840520225529 0 -0.00682126832720302 -0.00080614982077504031 0 -0.0067814034847945206 -0.00083350328308785316 0 -0.0068455936199462849 -0.00081322859828681108 0 -0.0067814034847945206 -0.00083350328308785316 0 -0.0067750095361825595 -0.0008149627552329424 0 -0.0068455936199462849 -0.00081322859828681108 0 -0.0072375292931122397 -0.00060756655688943022 0 -0.006765326036545052 -0.00071678454325975471 0 -0.0067354401953328607 -0.00090467399841916575 0 -0.00682126832720302 -0.00080614982077504031 0 -0.0067814034847945206 -0.00083350328308785316 0 -0.0068850844301090184 -0.00036148751231564381 0 -0.0070072943036748932 -0.00040823149671734028 0 -0.0068694718293865883 -0.00055829559778353686 0 -0.0066611043360984817 -0.00092497631725265914 0 -0.0066644704646516952 -0.00083772360559320022 0 -0.0065531398195179036 -0.00088041426628912502 0 -0.0066595819240973129 -0.00091888044683637645 0 -0.0065513181680495851 -0.000841015918605608 0 -0.0067354401953328607 -0.00090467399841916575 0 -0.0066595819240973129 -0.00091888044683637645 0 -0.0067814034847945206 -0.00083350328308785316 0 -0.0066595819240973129 -0.00091888044683637645 0 -0.0067814034847945206 -0.00083350328308785316 0 -0.0067750095361825595 -0.0008149627552329424 0 -0.0067750095361825595 -0.0008149627552329424 0 -0.0068079123019489625 -0.00081658148821503571 0 -0.0068455936199462849 -0.00081322859828681108 0 -0.0066644704646516952 -0.00083772360559320022 0 -0.0066801443997334224 -0.0008101390582554394 0 -0.0068079123019489625 -0.00081658148821503571 0 -0.0068650029830458386 -0.00080959159975461893 0 -0.0068916195403295796 -0.00076916369920490611 0 -0.0068650029830458386 -0.00080959159975461893 0 -0.0069237284711865157 -0.0008211670102678761 0 -0.0068916195403295796 -0.00076916369920490611 0 -0.0068650029830458386 -0.00080959159975461893 0 -0.0068455936199462849 -0.00081322859828681108 0 -0.0069237284711865157 -0.0008211670102678761 0 -0.0068079123019489625 -0.00081658148821503571 0 -0.0068650029830458386 -0.00080959159975461893 0 -0.0068455936199462849 -0.00081322859828681108 0 -0.0067683513027939658 -0.00074702510316481036 0 -0.0068455936199462849 -0.00081322859828681108 0 -0.0068419002374865718 -0.0008147502062946999 0 -0.0068455936199462849 -0.00081322859828681108 0 -0.0068419002374865718 -0.0008147502062946999 0 -0.0069237284711865157 -0.0008211670102678761 0 -0.0068419002374865718 -0.0008147502062946999 0 -0.0068723552847497508 -0.0008288468697916564 0 -0.0066844320146146295 -0.00080527524561910886 0 -0.0067683513027939658 -0.00074702510316481036 0 -0.0068419002374865718 -0.0008147502062946999 0 -0.0066844320146146295 -0.00080527524561910886 0 -0.0068723552847497508 -0.0008288468697916564 0 -0.0069237284711865157 -0.0008211670102678761 0 -0.0070175176798083407 -0.00080942250666587621 0 -0.0068419002374865718 -0.0008147502062946999 0 -0.0068723552847497508 -0.0008288468697916564 0 -0.0069237284711865157 -0.0008211670102678761 0 -0.0068723552847497508 -0.0008288468697916564 0 -0.0070175176798083407 -0.00080942250666587621 0 -0.0069259827941229885 -0.00081893136444285692 0 -0.0069237284711865157 -0.0008211670102678761 0 -0.0070358136689652045 -0.00073136860155844968 0 -0.0068916195403295796 -0.00076916369920490611 0 -0.0069237284711865157 -0.0008211670102678761 0 -0.0070175176798083407 -0.00080942250666587621 0 -0.0070358136689652045 -0.00073136860155844968 0 -0.0070175176798083407 -0.00080942250666587621 0 -0.0071980401077160376 -0.00068233412688173162 0 -0.0071174406127117217 -0.00081222725227706588 0 -0.0071980401077160376 -0.00068233412688173162 0 -0.0070358136689652045 -0.00073136860155844968 0 -0.0071912458844320092 -0.00053257356519951734 0 -0.0070175176798083407 -0.00080942250666587621 0 -0.0071980401077160376 -0.00068233412688173162 0 -0.0070358136689652045 -0.00073136860155844968 0 -0.0070358136689652045 -0.00073136860155844968 0 -0.0069545397962680359 -0.00056679178487979807 0 -0.0071912458844320092 -0.00053257356519951734 0 -0.0070358136689652045 -0.00073136860155844968 0 -0.0068916195403295796 -0.00076916369920490611 0 -0.0069545397962680359 -0.00056679178487979807 0 -0.006760822322858526 -0.00072209658899976376 0 -0.0068916195403295796 -0.00076916369920490611 0 -0.0069545397962680359 -0.00056679178487979807 0 -0.0066876121650135357 -0.00068593551349530827 0 -0.0066871347044565712 -0.00044344200588635862 0 -0.006760822322858526 -0.00072209658899976376 0 -0.0066894908567567031 -0.00043463419793517724 0 -0.0069545397962680359 -0.00056679178487979807 0 -0.0066801443997334224 -0.0008101390582554394 0 -0.0066876121650135357 -0.00068593551349530827 0 -0.0068079123019489625 -0.00081658148821503571 0 -0.006760822322858526 -0.00072209658899976376 0 -0.0068916195403295796 -0.00076916369920490611 0 -0.0061366660068229223 -0.00094362394143616686 0 -0.006139369042055599 -0.00095021622580128157 0 -0.0061799167819507096 -0.00093676130445641379 0 -0.0061366660068229223 -0.00094362394143616686 0 -0.0060639213082330215 -0.00092405254837821249 0 -0.0060561571885386703 -0.00091633362942775316 0 -0.0062206662094936209 -0.00073207825509151783 0 -0.0060639213082330215 -0.00092405254837821249 0 -0.0061747376592298881 -0.00093726168343585153 0 -0.0060639213082330215 -0.00092405254837821249 0 -0.006139369042055599 -0.00095021622580128157 0 -0.0061747376592298881 -0.00093726168343585153 0 -0.0061366660068229223 -0.00094362394143616686 0 -0.0060639213082330215 -0.00092405254837821249 0 -0.006139369042055599 -0.00095021622580128157 0 -0.00641211589564361 -0.00086510893918745314 0 -0.0064157022615044437 -0.00087388617737173854 0 -0.006139369042055599 -0.00095021622580128157 0 -0.0061747376592298881 -0.00093726168343585153 0 -0.00612322234661088 -0.0009370760962450587 0 -0.0066433635418409664 -0.00084778249676699944 0 -0.0069259827941229885 -0.00081893136444285692 0 -0.0069404200269154196 -0.00080246638751101367 0 -0.0068723552847497508 -0.0008288468697916564 0 -0.0066433635418409664 -0.00084778249676699944 0 -0.0066844320146146295 -0.00080527524561910886 0 -0.0068723552847497508 -0.0008288468697916564 0 -0.0066433635418409664 -0.00084778249676699944 0 -0.0069259827941229885 -0.00081893136444285692 0 -0.0070175176798083407 -0.00080942250666587621 0 -0.0069259827941229885 -0.00081893136444285692 0 -0.0071174406127117217 -0.00081222725227706588 0 -0.0069259827941229885 -0.00081893136444285692 0 -0.0071174406127117217 -0.00081222725227706588 0 -0.0069404200269154196 -0.00080246638751101367 0 -0.0064157022615044437 -0.00087388617737173854 0 -0.0074412370192593388 -0.00077069653730444862 0 -0.0071174406127117217 -0.00081222725227706588 0 -0.0069404200269154196 -0.00080246638751101367 0 -0.0070554176226251646 -0.00096206934200279812 0 -0.0071980401077160376 -0.00068233412688173162 0 -0.0071174406127117217 -0.00081222725227706588 0 -0.0074870404598335397 -0.00061147421290375743 0 -0.0071423127098590999 -0.00082402712561799633 0 -0.0074412370192593388 -0.00077069653730444862 0 -0.006133096386127336 -0.00087432478707250038 0 -0.00612322234661088 -0.0009370760962450587 0 -0.0060774140311386582 -0.00082745277413408789 0 -0.006133096386127336 -0.00087432478707250038 0 -0.0061479372299837699 -0.00080714974657566843 0 -0.0060774140311386582 -0.00082745277413408789 0 -0.006133096386127336 -0.00087432478707250038 0 -0.00612322234661088 -0.0009370760962450587 0 -0.0061509536939864645 -0.00091918778005967421 0 -0.006139369042055599 -0.00095021622580128157 0 -0.00612322234661088 -0.0009370760962450587 0 -0.0061509536939864645 -0.00091918778005967421 0 -0.0061509536939864645 -0.00091918778005967421 0 -0.0061871127085085425 -0.00086522962435390172 0 -0.0061799167819507096 -0.00093676130445641379 0 -0.006139369042055599 -0.00095021622580128157 0 -0.0061509536939864645 -0.00091918778005967421 0 -0.0061799167819507096 -0.00093676130445641379 0 -0.006133096386127336 -0.00087432478707250038 0 -0.0061509536939864645 -0.00091918778005967421 0 -0.0061871127085085425 -0.00086522962435390172 0 -0.006133096386127336 -0.00087432478707250038 0 -0.0061871127085085425 -0.00086522962435390172 0 -0.0061479372299837699 -0.00080714974657566843 0 -0.0061871127085085425 -0.00086522962435390172 0 -0.0062718889664963992 -0.00086343966487511235 0 -0.0061799167819507096 -0.00093676130445641379 0 -0.0061871127085085425 -0.00086522962435390172 0 -0.0062718889664963992 -0.00086343966487511235 0 -0.0062502971746864165 -0.00081002843896517678 0 -0.0061366660068229223 -0.00094362394143616686 0 -0.0061799167819507096 -0.00093676130445641379 0 -0.0062171531333454306 -0.00096420093618089216 0 -0.0062718889664963992 -0.00086343966487511235 0 -0.0061799167819507096 -0.00093676130445641379 0 -0.0062171531333454306 -0.00096420093618089216 0 -0.0063322330203312701 -0.00074735070063884385 0 -0.0062138314599612474 -0.0007542536670244439 0 -0.0063031866281983255 -0.00062790664925255766 0 -0.0063322330203312701 -0.00074735070063884385 0 -0.0063031866281983255 -0.00062790664925255766 0 -0.006435726048975892 -0.00062234280840639414 0 -0.0063322330203312701 -0.00074735070063884385 0 -0.0062502971746864165 -0.00081002843896517678 0 -0.0062138314599612474 -0.0007542536670244439 0 -0.0062718889664963992 -0.00086343966487511235 0 -0.0063322330203312701 -0.00074735070063884385 0 -0.0062502971746864165 -0.00081002843896517678 0 -0.0061871127085085425 -0.00086522962435390172 0 -0.0062138314599612474 -0.0007542536670244439 0 -0.0061479372299837699 -0.00080714974657566843 0 -0.0061871127085085425 -0.00086522962435390172 0 -0.0062502971746864165 -0.00081002843896517678 0 -0.0062138314599612474 -0.0007542536670244439 0 -0.0062138314599612474 -0.0007542536670244439 0 -0.0062073751483724031 -0.00065703436201704213 0 -0.0063031866281983255 -0.00062790664925255766 0 -0.0062138314599612474 -0.0007542536670244439 0 -0.0062073751483724031 -0.00065703436201704213 0 -0.0061227491161923676 -0.00069600016286266281 0 -0.0062138314599612474 -0.0007542536670244439 0 -0.0061227491161923676 -0.00069600016286266281 0 -0.0061479372299837699 -0.00080714974657566843 0 -0.0061227491161923676 -0.00069600016286266281 0 -0.0061479372299837699 -0.00080714974657566843 0 -0.0060774140311386582 -0.00082745277413408789 0 -0.0075161620656779985 -0.00061880228159052857 0 -0.0074412370192593388 -0.00077069653730444862 0 -0.0074870404598335397 -0.00061147421290375743 0 -0.0077369534605253656 -0.00024046115447506967 0 -0.0074124920507979584 -0.00046888752575985056 0 -0.0071980401077160376 -0.00068233412688173162 0 -0.0074870404598335397 -0.00061147421290375743 0 -0.0074124920507979584 -0.00046888752575985056 0 -0.0074412370192593388 -0.00077069653730444862 0 -0.0083586021114125351 -0.00033824320694381214 0 -0.0089067916777930828 -0.00054434530399002207 0 -0.008810455915522224 -0.00071600405166033249 0 -0.0087978740154803416 -0.00050259516138599202 0 -0.0089067916777930828 -0.00054434530399002207 0 -0.0087978740154803416 -0.00050259516138599202 0 -0.0088685098654003175 -0.00038822585266956941 0 -0.0083586021114125351 -0.00033824320694381214 0 -0.0083934018473205523 4.4173416051449273e-05 0 -0.0077369534605253656 -0.00024046115447506967 0 -0.0080199978684776883 0.00037436315670086404 0 -0.0076657497729640403 -1.4594971386077323e-05 0 -0.0087978740154803416 -0.00050259516138599202 0 -0.0087904791378597032 -0.00030143997039496525 0 -0.0088685098654003175 -0.00038822585266956941 0 -0.0087904791378597032 -0.00030143997039496525 0 -0.0088958197433185969 -0.00029392489310603893 0 -0.0088538372757244656 -0.00020901274645105386 0 -0.0087904791378597032 -0.00030143997039496525 0 -0.0088958197433185969 -0.00029392489310603893 0 -0.0088685098654003175 -0.00038822585266956941 0 -0.0088958197433185969 -0.00029392489310603893 0 -0.0089760567064045751 -0.00026082431795852436 0 -0.008992499224271415 -0.00038116878688309133 0 -0.0088958197433185969 -0.00029392489310603893 0 -0.0088685098654003175 -0.00038822585266956941 0 -0.008992499224271415 -0.00038116878688309133 0 -0.0089067916777930828 -0.00054434530399002207 0 -0.0088685098654003175 -0.00038822585266956941 0 -0.008992499224271415 -0.00038116878688309133 0 -0.0075161620656779985 -0.00061880228159052857 0 -0.007591015562565283 -0.00046101809064170166 0 -0.0062073751483724031 -0.00065703436201704213 0 -0.0061227491161923676 -0.00069600016286266281 0 -0.0061917404958665712 -0.00054190376349006169 0 -0.0061917404958665712 -0.00054190376349006169 0 -0.0063100319933058931 -0.00052261638927138731 0 -0.0063031866281983255 -0.00062790664925255766 0 -0.0062073751483724031 -0.00065703436201704213 0 -0.0061917404958665712 -0.00054190376349006169 0 -0.0063031866281983255 -0.00062790664925255766 0 -0.0061917404958665712 -0.00054190376349006169 0 -0.0063100319933058931 -0.00052261638927138731 0 -0.0062779947348915116 -0.00036029767275096104 0 -0.007591015562565283 -0.00046101809064170166 0 -0.0076878788632504238 -0.00029559273588624719 0 -0.0089760567064045751 -0.00026082431795852436 0 -0.008992499224271415 -0.00038116878688309133 0 -0.009072076047442458 -0.00022510392672368143 0 -0.0063100319933058931 -0.00052261638927138731 0 -0.0063537637059567645 -0.00042815067877654921 0 -0.0062779947348915116 -0.00036029767275096104 0 -0.0063537637059567645 -0.00042815067877654921 0 -0.0064285292632800589 -0.00049077450182858891 0 -0.0064030027008388172 -0.00032523464477827091 0 -0.0064452350067115364 -0.0004977315140174464 0 -0.0064032337720005975 -0.00036250443138737183 0 -0.0063100319933058931 -0.00052261638927138731 0 -0.0063537637059567645 -0.00042815067877654921 0 -0.0064285292632800589 -0.00049077450182858891 0 -0.0063100319933058931 -0.00052261638927138731 0 -0.0064285292632800589 -0.00049077450182858891 0 -0.0063031866281983255 -0.00062790664925255766 0 -0.0064285292632800589 -0.00049077450182858891 0 -0.0063031866281983255 -0.00062790664925255766 0 -0.006435726048975892 -0.00062234280840639414 0 -0.0069405746398350614 -0.00019401704146921296 0 -0.0069545397962680359 -0.00056679178487979807 0 -0.0071711038302778637 -0.00033539942735846373 0 -0.0069405746398350614 -0.00019401704146921296 0 -0.0066894908567567031 -0.00043463419793517724 0 -0.0067337501296742125 -0.00015265730077919647 0 -0.0069405746398350614 -0.00019401704146921296 0 -0.0066894908567567031 -0.00043463419793517724 0 -0.0069545397962680359 -0.00056679178487979807 0 -0.0069545397962680359 -0.00056679178487979807 0 -0.0071912458844320092 -0.00053257356519951734 0 -0.0071711038302778637 -0.00033539942735846373 0 -0.0071912458844320092 -0.00053257356519951734 0 -0.0074124920507979584 -0.00046888752575985056 0 -0.0074454478813245437 -0.0002800991037472183 0 -0.0071980401077160376 -0.00068233412688173162 0 -0.0071912458844320092 -0.00053257356519951734 0 -0.0074124920507979584 -0.00046888752575985056 0 -0.0077369534605253656 -0.00024046115447506967 0 -0.0074124920507979584 -0.00046888752575985056 0 -0.0074454478813245437 -0.0002800991037472183 0 -0.0074454478813245437 -0.0002800991037472183 0 -0.0071711038302778637 -0.00033539942735846373 0 -0.007381011140108508 -9.0650220833443567e-05 0 -0.0071912458844320092 -0.00053257356519951734 0 -0.0074454478813245437 -0.0002800991037472183 0 -0.0071711038302778637 -0.00033539942735846373 0 -0.0069405746398350614 -0.00019401704146921296 0 -0.0071711038302778637 -0.00033539942735846373 0 -0.007381011140108508 -9.0650220833443567e-05 0 -0.007381011140108508 -9.0650220833443567e-05 0 -0.0077086841329250776 0.00016790198391404215 0 -0.0072769761705657422 0.00015727994571226894 0 -0.0077369534605253656 -0.00024046115447506967 0 -0.0074454478813245437 -0.0002800991037472183 0 -0.0076657497729640403 -1.4594971386077323e-05 0 -0.0074454478813245437 -0.0002800991037472183 0 -0.007381011140108508 -9.0650220833443567e-05 0 -0.0076657497729640403 -1.4594971386077323e-05 0 -0.007381011140108508 -9.0650220833443567e-05 0 -0.0076657497729640403 -1.4594971386077323e-05 0 -0.0077086841329250776 0.00016790198391404215 0 -0.0080199978684776883 0.00037436315670086404 0 -0.0076657497729640403 -1.4594971386077323e-05 0 -0.0077086841329250776 0.00016790198391404215 0 -0.0080199978684776883 0.00037436315670086404 0 -0.0077086841329250776 0.00016790198391404215 0 -0.0081862128713740216 0.00042177536202375298 0 -0.0077086841329250776 0.00016790198391404215 0 -0.0072084301611541439 0.00049471025154707612 0 -0.0081862128713740216 0.00042177536202375298 0 -0.0077086841329250776 0.00016790198391404215 0 -0.0072769761705657422 0.00015727994571226894 0 -0.0072084301611541439 0.00049471025154707612 0 -0.0069329505917248308 0.00013361166579928219 0 -0.0067460709744261958 0.00043332349428518689 0 -0.0072084301611541439 0.00049471025154707612 0 -0.0072769761705657422 0.00015727994571226894 0 -0.0069329505917248308 0.00013361166579928219 0 -0.0072084301611541439 0.00049471025154707612 0 -0.0069405746398350614 -0.00019401704146921296 0 -0.007381011140108508 -9.0650220833443567e-05 0 -0.0072769761705657422 0.00015727994571226894 0 -0.0069405746398350614 -0.00019401704146921296 0 -0.0072769761705657422 0.00015727994571226894 0 -0.0069329505917248308 0.00013361166579928219 0 -0.0069405746398350614 -0.00019401704146921296 0 -0.0067337501296742125 -0.00015265730077919647 0 -0.0069329505917248308 0.00013361166579928219 0 -0.0067337501296742125 -0.00015265730077919647 0 -0.0069329505917248308 0.00013361166579928219 0 -0.0066779131885278996 7.1852677984275982e-05 0 -0.0069329505917248308 0.00013361166579928219 0 -0.0066779131885278996 7.1852677984275982e-05 0 -0.0067460709744261958 0.00043332349428518689 0 -0.006469911038329907 0.00019605538785378025 0 -0.0063875431264393259 0.00031070570352369437 0 -0.0067460709744261958 0.00043332349428518689 0 -0.006469911038329907 0.00019605538785378025 0 -0.0066779131885278996 7.1852677984275982e-05 0 -0.0067460709744261958 0.00043332349428518689 0 -0.0063327826411220967 0.00023802818612824749 0 -0.0067059898735677328 6.1205424131550526e-05 0 -0.0064603541296723958 0.00015202528603390324 0 -0.0062821500310385921 -0.00012195339576777721 0 -0.0062392604147528501 0.00024860599492180672 0 -0.006469911038329907 0.00019605538785378025 0 -0.0062707141002844224 0.00029762283608349496 0 -0.0063875431264393259 0.00031070570352369437 0 -0.0063327826411220967 0.00023802818612824749 0 -0.0069177064358006699 -0.0002059032730328316 0 -0.0064603541296723958 0.00015202528603390324 0 -0.0065355721231148238 -0.00019422244754279967 0 -0.0062821500310385921 -0.00012195339576777721 0 -0.0067337501296742125 -0.00015265730077919647 0 -0.0066779131885278996 7.1852677984275982e-05 0 -0.0065355721231148238 -0.00019422244754279967 0 -0.0064603541296723958 0.00015202528603390324 0 -0.0066779131885278996 7.1852677984275982e-05 0 -0.0065355721231148238 -0.00019422244754279967 0 -0.0066894908567567031 -0.00043463419793517724 0 -0.0067337501296742125 -0.00015265730077919647 0 -0.0065355721231148238 -0.00019422244754279967 0 -0.0065355721231148238 -0.00019422244754279967 0 -0.0063384078672586294 -0.00047131411889930009 0 -0.0062821500310385921 -0.00012195339576777721 0 -0.0066894908567567031 -0.00043463419793517724 0 -0.0065355721231148238 -0.00019422244754279967 0 -0.0063384078672586294 -0.00047131411889930009 0 -0.0066894908567567031 -0.00043463419793517724 0 -0.0063384078672586294 -0.00047131411889930009 0 -0.006505505452141516 -0.00059882012455716842 0 -0.006025339652002454 -0.00044825866577286982 0 -0.0057265403700450124 -0.00069655088436722181 0 -0.0060296614107396163 -0.00086682537017181713 0 -0.0063624795321033569 -0.00064259114856316652 0 -0.006025339652002454 -0.00044825866577286982 0 -0.0060296614107396163 -0.00086682537017181713 0 -0.0063630964232129529 -0.00058156561855283138 0 -0.0062030211092039657 -4.1494829912062323e-05 0 -0.0063624795321033569 -0.00064259114856316652 0 -0.006025339652002454 -0.00044825866577286982 0 -0.0063114731601921483 -0.00018503746175232242 0 -0.006025339652002454 -0.00044825866577286982 0 -0.0059824222471757463 -2.5859053861078958e-05 0 -0.0056868552547673923 -0.0003152237556770711 0 -0.006025339652002454 -0.00044825866577286982 0 -0.0056868552547673923 -0.0003152237556770711 0 -0.0057265403700450124 -0.00069655088436722181 0 -0.0066577003458398263 -0.0008988689773698755 0 -0.0064729938541734254 -0.0010422159935264321 0 -0.0059824222471757463 -2.5859053861078958e-05 0 -0.0063114731601921483 -0.00018503746175232242 0 -0.0062612502593906057 0.00025673325200838333 0 -0.006025339652002454 -0.00044825866577286982 0 -0.0059824222471757463 -2.5859053861078958e-05 0 -0.0063114731601921483 -0.00018503746175232242 0 -0.0062030211092039657 -4.1494829912062323e-05 0 -0.0069177064358006699 -0.0002059032730328316 0 -0.0066577003458398263 -0.0008988689773698755 0 -0.0069177064358006699 -0.0002059032730328316 0 -0.0073901310549738053 -0.0016368071865320688 0 -0.0075289398796058891 -0.0014775069117396124 0 -0.0074080041399435023 -0.0014280075338475593 0 -0.0073901310549738053 -0.0016368071865320688 0 -0.0072912146107424981 -0.001502812831079163 0 -0.0074080041399435023 -0.0014280075338475593 0 -0.0073901310549738053 -0.0016368071865320688 0 -0.0072912146107424981 -0.001502812831079163 0 -0.0071734941210046671 -0.0016161165329129003 0 -0.0072912146107424981 -0.001502812831079163 0 -0.0071734941210046671 -0.0016161165329129003 0 -0.0071713793486278352 -0.0014766822488247856 0 -0.0070554253673959779 -0.0015211599806105314 0 -0.0071734941210046671 -0.0016161165329129003 0 -0.0069649731132676879 -0.0016342391962409764 0 -0.0070554253673959779 -0.0015211599806105314 0 -0.0071734941210046671 -0.0016161165329129003 0 -0.0071713793486278352 -0.0014766822488247856 0 -0.0071734941210046671 -0.0016161165329129003 0 -0.0072412551929067308 -0.0017964567449386037 0 -0.0070497470752360859 -0.0017709721277656052 0 -0.0071734941210046671 -0.0016161165329129003 0 -0.0069649731132676879 -0.0016342391962409764 0 -0.0070497470752360859 -0.0017709721277656052 0 -0.0073901310549738053 -0.0016368071865320688 0 -0.0071734941210046671 -0.0016161165329129003 0 -0.0072412551929067308 -0.0017964567449386037 0 -0.0067866668059401707 -0.0016270324152439042 0 -0.0069076128390306892 -0.0015207720444961352 0 -0.0069649731132676879 -0.0016342391962409764 0 -0.0067866668059401707 -0.0016270324152439042 0 -0.0067993275281606046 -0.0015276238172509708 0 -0.0069076128390306892 -0.0015207720444961352 0 -0.0070554253673959779 -0.0015211599806105314 0 -0.0069076128390306892 -0.0015207720444961352 0 -0.0069649731132676879 -0.0016342391962409764 0 -0.0069649731132676879 -0.0016342391962409764 0 -0.006870041241613418 -0.001754471299654479 0 -0.0070497470752360859 -0.0017709721277656052 0 -0.0067866668059401707 -0.0016270324152439042 0 -0.0069649731132676879 -0.0016342391962409764 0 -0.006870041241613418 -0.001754471299654479 0 -0.0067866668059401707 -0.0016270324152439042 0 -0.006870041241613418 -0.001754471299654479 0 -0.0067273776690382923 -0.0017892187229167989 0 -0.006870041241613418 -0.001754471299654479 0 -0.0067958179690196813 -0.0018818791134558917 0 -0.0067273776690382923 -0.0017892187229167989 0 -0.006870041241613418 -0.001754471299654479 0 -0.0067958179690196813 -0.0018818791134558917 0 -0.0069183851256014693 -0.0018919936429478384 0 -0.006870041241613418 -0.001754471299654479 0 -0.0069183851256014693 -0.0018919936429478384 0 -0.0070497470752360859 -0.0017709721277656052 0 -0.0069183851256014693 -0.0018919936429478384 0 -0.0070497470752360859 -0.0017709721277656052 0 -0.0070886893747748748 -0.0019502015156793273 0 -0.0069183851256014693 -0.0018919936429478384 0 -0.0070886893747748748 -0.0019502015156793273 0 -0.006937089312120677 -0.0020970769787689303 0 -0.0067958179690196813 -0.0018818791134558917 0 -0.0069183851256014693 -0.0018919936429478384 0 -0.0067715565576943696 -0.0020062777363976684 0 -0.0069183851256014693 -0.0018919936429478384 0 -0.0067715565576943696 -0.0020062777363976684 0 -0.006937089312120677 -0.0020970769787689303 0 -0.0064729938541734254 -0.0010422159935264321 0 -0.0062197184264075637 -0.0012965302617180203 0 -0.0072412551929067308 -0.0017964567449386037 0 -0.0070497470752360859 -0.0017709721277656052 0 -0.0070886893747748748 -0.0019502015156793273 0 -0.0053746763085445225 -0.00062067604972592869 0 -0.0057265403700450124 -0.00069655088436722181 0 -0.0054907288820244832 -0.00092127259647383484 0 -0.0056868552547673923 -0.0003152237556770711 0 -0.0053746763085445225 -0.00062067604972592869 0 -0.0057265403700450124 -0.00069655088436722181 0 -0.0057265403700450124 -0.00069655088436722181 0 -0.0054907288820244832 -0.00092127259647383484 0 -0.0057200509016367054 -0.0010611335185964758 0 -0.0053746763085445225 -0.00062067604972592869 0 -0.0052736188030099449 -0.00096529102597912408 0 -0.0050788670570095906 -0.00094048295225896978 0 -0.0053746763085445225 -0.00062067604972592869 0 -0.0052736188030099449 -0.00096529102597912408 0 -0.0054907288820244832 -0.00092127259647383484 0 -0.0052736188030099449 -0.00096529102597912408 0 -0.0054907288820244832 -0.00092127259647383484 0 -0.0053367827627830381 -0.0011268853120170216 0 -0.0054907288820244832 -0.00092127259647383484 0 -0.0053367827627830381 -0.0011268853120170216 0 -0.0055266370322098112 -0.0012040946835230036 0 -0.0052736188030099449 -0.00096529102597912408 0 -0.0053367827627830381 -0.0011268853120170216 0 -0.0051047167564324597 -0.0011984915649335287 0 -0.0053367827627830381 -0.0011268853120170216 0 -0.0051416681799426782 -0.0013383920800743487 0 -0.0053469255934777337 -0.0013748628343275065 0 -0.0053367827627830381 -0.0011268853120170216 0 -0.0055266370322098112 -0.0012040946835230036 0 -0.0053469255934777337 -0.0013748628343275065 0 -0.0054907288820244832 -0.00092127259647383484 0 -0.0055266370322098112 -0.0012040946835230036 0 -0.0057200509016367054 -0.0010611335185964758 0 -0.0055266370322098112 -0.0012040946835230036 0 -0.0057278793926693354 -0.001340248271104219 0 -0.0055405510135848896 -0.0014230724394622891 0 -0.0055266370322098112 -0.0012040946835230036 0 -0.0057200509016367054 -0.0010611335185964758 0 -0.0057278793926693354 -0.001340248271104219 0 -0.0067715565576943696 -0.0020062777363976684 0 -0.006937089312120677 -0.0020970769787689303 0 -0.0067891166487559053 -0.0022391605386178717 0 -0.0062197184264075637 -0.0012965302617180203 0 -0.0060685333278780278 -0.0014883536823626633 0 -0.0052736188030099449 -0.00096529102597912408 0 -0.0050788670570095906 -0.00094048295225896978 0 -0.0051047167564324597 -0.0011984915649335287 0 -0.0050429324761883934 -0.0012125176079531826 0 -0.0047679205284364345 -0.0012980414552262445 0 -0.0051416681799426782 -0.0013383920800743487 0 -0.0050788670570095906 -0.00094048295225896978 0 -0.0051047167564324597 -0.0011984915649335287 0 -0.0048684772454309641 -0.0012748275469742889 0 -0.0052925657795805676 -0.0011404494427783333 0 -0.0051002821667275825 -0.0012034707250571297 0 -0.0053367827627830381 -0.0011268853120170216 0 -0.0050429324761883934 -0.0012125176079531826 0 -0.0051416681799426782 -0.0013383920800743487 0 -0.0051002821667275825 -0.0012034707250571297 0 -0.0047238261234077202 -0.0014280613396092919 0 -0.0060685333278780278 -0.0014883536823626633 0 -0.00543570532048856 -0.0017895410870335908 0 -0.0050788670570095906 -0.00094048295225896978 0 -0.0048684772454309641 -0.0012748275469742889 0 -0.0048096711710205785 -0.0012415116269676458 0 -0.0047238261234077202 -0.0014280613396092919 0 -0.0044435181744676014 -0.0018361351394064879 0 -0.0051326707231487559 -0.0015779217599794309 0 -0.0049249449338212179 -0.001459765169681935 0 -0.0046864331262080937 -0.0017148202401618404 0 -0.0047238261234077202 -0.0014280613396092919 0 -0.00543570532048856 -0.0017895410870335908 0 -0.00543570532048856 -0.0017895410870335908 0 -0.0044435181744676014 -0.0018361351394064879 0 -0.0041005613083412518 -0.0015269315082601384 0 -0.0041694825476860427 -0.0015945182371944441 0 -0.0040322525413174484 -0.0015867751979767644 0 -0.0041005613083412518 -0.0015269315082601384 0 -0.0041933867012849063 -0.0014588778936157475 0 -0.0041694825476860427 -0.0015945182371944441 0 -0.0041005613083412518 -0.0015269315082601384 0 -0.0041278058919309388 -0.001439968929117745 0 -0.0041933867012849063 -0.0014588778936157475 0 -0.0042131043048710655 -0.0012792721158371137 0 -0.0041034250402722829 -0.0013717903738702062 0 -0.0041764014110011608 -0.0013823040080052087 0 -0.0041005613083412518 -0.0015269315082601384 0 -0.0041278058919309388 -0.001439968929117745 0 -0.0040789589461301947 -0.0014389475387431585 0 -0.0041278058919309388 -0.001439968929117745 0 -0.0041034250402722829 -0.0013717903738702062 0 -0.0040789589461301947 -0.0014389475387431585 0 -0.0041278058919309388 -0.001439968929117745 0 -0.0041034250402722829 -0.0013717903738702062 0 -0.0041764014110011608 -0.0013823040080052087 0 -0.0044435181744676014 -0.0018361351394064879 0 -0.0044093547630326101 -0.0017674857307767265 0 -0.0041278058919309388 -0.001439968929117745 0 -0.0041764014110011608 -0.0013823040080052087 0 -0.0041933867012849063 -0.0014588778936157475 0 -0.0041764014110011608 -0.0013823040080052087 0 -0.0042564002603706083 -0.0013899627496172147 0 -0.0041933867012849063 -0.0014588778936157475 0 -0.0042564002603706083 -0.0013899627496172147 0 -0.0041933867012849063 -0.0014588778936157475 0 -0.0044607258741558992 -0.0014422383598897692 0 -0.0042131043048710655 -0.0012792721158371137 0 -0.0042564002603706083 -0.0013899627496172147 0 -0.0044607258741558992 -0.0014422383598897692 0 -0.0042131043048710655 -0.0012792721158371137 0 -0.0041764014110011608 -0.0013823040080052087 0 -0.0042564002603706083 -0.0013899627496172147 0 -0.0041933867012849063 -0.0014588778936157475 0 -0.0041694825476860427 -0.0015945182371944441 0 -0.0044607258741558992 -0.0014422383598897692 0 -0.0047238261234077202 -0.0014280613396092919 0 -0.0049572707969443661 -0.0014913406388241371 0 -0.0042131043048710655 -0.0012792721158371137 0 -0.0044607258741558992 -0.0014422383598897692 0 -0.0048009745333942259 -0.0014804574094782062 0 -0.0047679205284364345 -0.0012980414552262445 0 -0.0051416681799426782 -0.0013383920800743487 0 -0.0051949069039462824 -0.0015401530887271914 0 -0.0041694825476860427 -0.0015945182371944441 0 -0.00453182249540312 -0.0015758073585504359 0 -0.0044607258741558992 -0.0014422383598897692 0 -0.00453182249540312 -0.0015758073585504359 0 -0.0044607258741558992 -0.0014422383598897692 0 -0.0048009745333942259 -0.0014804574094782062 0 -0.00453182249540312 -0.0015758073585504359 0 -0.0047109500191792435 -0.0017725971010881863 0 -0.0048009745333942259 -0.0014804574094782062 0 -0.0042000483689475345 -0.001612410430189556 0 -0.0044290910844756986 -0.0016878245169448555 0 -0.0041694825476860427 -0.0015945182371944441 0 -0.0041961907914226616 -0.001634960228732825 0 -0.0041610534756372879 -0.0016441571401192606 0 -0.0041694825476860427 -0.0015945182371944441 0 -0.00453182249540312 -0.0015758073585504359 0 -0.0047109500191792435 -0.0017725971010881863 0 -0.0041772699025535761 -0.0016654004682478984 0 -0.0041961907914226616 -0.001634960228732825 0 -0.0042085805027005079 -0.0016560222249526119 0 -0.0041772699025535761 -0.0016654004682478984 0 -0.0041961907914226616 -0.001634960228732825 0 -0.0041610534756372879 -0.0016441571401192606 0 -0.004087575603146279 -0.0016621799471761495 0 -0.0041694825476860427 -0.0015945182371944441 0 -0.0041610534756372879 -0.0016441571401192606 0 -0.0056385431480680068 -0.0015678031597675794 0 -0.0055405510135848896 -0.0014230724394622891 0 -0.0054556644475125746 -0.0015452733371055108 0 -0.0056385431480680068 -0.0015678031597675794 0 -0.0057491067774369051 -0.0017347530262845283 0 -0.0058593033451705681 -0.0015667688410794882 0 -0.0056385431480680068 -0.0015678031597675794 0 -0.0057278793926693354 -0.001340248271104219 0 -0.0058593033451705681 -0.0015667688410794882 0 -0.0056385431480680068 -0.0015678031597675794 0 -0.0057278793926693354 -0.001340248271104219 0 -0.0055405510135848896 -0.0014230724394622891 0 -0.0055266370322098112 -0.0012040946835230036 0 -0.0055405510135848896 -0.0014230724394622891 0 -0.0053469255934777337 -0.0013748628343275065 0 -0.0055405510135848896 -0.0014230724394622891 0 -0.0053469255934777337 -0.0013748628343275065 0 -0.0054556644475125746 -0.0015452733371055108 0 -0.0051949069039462824 -0.0015401530887271914 0 -0.0054556644475125746 -0.0015452733371055108 0 -0.0055706387663692356 -0.0018260431787255357 0 -0.0051416681799426782 -0.0013383920800743487 0 -0.0053469255934777337 -0.0013748628343275065 0 -0.0051949069039462824 -0.0015401530887271914 0 -0.0053469255934777337 -0.0013748628343275065 0 -0.0051949069039462824 -0.0015401530887271914 0 -0.0054556644475125746 -0.0015452733371055108 0 -0.0047109500191792435 -0.0017725971010881863 0 -0.0048009745333942259 -0.0014804574094782062 0 -0.0054079225704327548 -0.0018984617898558024 0 -0.0048009745333942259 -0.0014804574094782062 0 -0.0054079225704327548 -0.0018984617898558024 0 -0.0055706387663692356 -0.0018260431787255357 0 -0.0049572707969443661 -0.0014913406388241371 0 -0.0055655136033546946 -0.0018242238493464693 0 -0.0044290910844756986 -0.0016878245169448555 0 -0.0049207311867396136 -0.0018292151708582543 0 -0.0041961907914226616 -0.001634960228732825 0 -0.0042085805027005079 -0.0016560222249526119 0 -0.0042320252474097615 -0.0016544209909888071 0 -0.0042085805027005079 -0.0016560222249526119 0 -0.0042310803857147569 -0.001654123467972926 0 -0.0042320252474097615 -0.0016544209909888071 0 -0.0045800038581251838 -0.0012878655224961661 0 -0.0049207311867396136 -0.0018292151708582543 0 -0.0042138400585745505 -0.0016401059959886392 0 -0.004179517799885445 -0.0016439999532651985 0 -0.0042320252474097615 -0.0016544209909888071 0 -0.0059387891465343731 -0.0019927552886144883 0 -0.0054079225704327548 -0.0018984617898558024 0 -0.0055706387663692356 -0.0018260431787255357 0 -0.0042138400585745505 -0.0016401059959886392 0 -0.0042310803857147569 -0.001654123467972926 0 -0.0042320252474097615 -0.0016544209909888071 0 -0.0056385431480680068 -0.0015678031597675794 0 -0.0054556644475125746 -0.0015452733371055108 0 -0.0055706387663692356 -0.0018260431787255357 0 -0.0056385431480680068 -0.0015678031597675794 0 -0.0055706387663692356 -0.0018260431787255357 0 -0.0057491067774369051 -0.0017347530262845283 0 -0.0059387891465343731 -0.0019927552886144883 0 -0.0055706387663692356 -0.0018260431787255357 0 -0.0057491067774369051 -0.0017347530262845283 0 -0.0059387891465343731 -0.0019927552886144883 0 -0.0057491067774369051 -0.0017347530262845283 0 -0.0058593033451705681 -0.0015667688410794882 0 -0.0059387891465343731 -0.0019927552886144883 0 -0.0058593033451705681 -0.0015667688410794882 0 -0.0061600424652134373 -0.0015534234676013244 0 -0.0045800038581251838 -0.0012878655224961661 0 -0.0056028488685661024 -0.0011641439317161884 0 -0.0057278793926693354 -0.001340248271104219 0 -0.0058593033451705681 -0.0015667688410794882 0 -0.0059624350076549404 -0.0012313406469463245 0 -0.0058593033451705681 -0.0015667688410794882 0 -0.0061600424652134373 -0.0015534234676013244 0 -0.0059624350076549404 -0.0012313406469463245 0 -0.0056028488685661024 -0.0011641439317161884 0 -0.0060954604599429288 -0.0014367469936129077 0 -0.0064295813914013256 -0.00096072592977436823 0 -0.0065254654387420811 -0.00089307737341704711 0 -0.0063756030019974808 -0.0010795143705865889 0 -0.0056028488685661024 -0.0011641439317161884 0 -0.0065702942799942187 -0.0010405894056293729 0 -0.0064295813914013256 -0.00096072592977436823 0 -0.0065254654387420811 -0.00089307737341704711 0 -0.0064561779946059952 -0.00087397813776059056 0 -0.0041038165403813279 -0.00088416523252452027 0 -0.0040114584047830819 -0.00085557180311777764 0 -0.0041536962584628806 -0.00080652319229163006 0 -0.0065254654387420811 -0.00089307737341704711 0 -0.0064561779946059952 -0.00087397813776059056 0 -0.0064444437139736244 -0.00083360229390350095 0 -0.0040114584047830819 -0.00085557180311777764 0 -0.0041053216434256056 -0.00071413997254123995 0 -0.0041536962584628806 -0.00080652319229163006 0 -0.0064561779946059952 -0.00087397813776059056 0 -0.0064444437139736244 -0.00083360229390350095 0 -0.0064281616540238255 -0.00084519504918057354 0 -0.0056028488685661024 -0.0011641439317161884 0 -0.0053330924980395456 -0.00089084663468463811 0 -0.0064305528524475023 -0.00086974289089834886 0 -0.0064444437139736244 -0.00083360229390350095 0 -0.0064488499079800206 -0.00084329052913661572 0 -0.0064488499079800206 -0.00084329052913661572 0 -0.0064281616540238255 -0.00084519504918057354 0 -0.0065020493315630723 -0.00082254588919253194 0 -0.0064444437139736244 -0.00083360229390350095 0 -0.0064488499079800206 -0.00084329052913661572 0 -0.0064281616540238255 -0.00084519504918057354 0 -0.0065513181680495851 -0.000841015918605608 0 -0.0065542228248754017 -0.0008125813293767141 0 -0.0065070184116315516 -0.00084079608624511326 0 -0.0065542228248754017 -0.0008125813293767141 0 -0.0065070184116315516 -0.00084079608624511326 0 -0.0065020493315630723 -0.00082254588919253194 0 -0.0064488499079800206 -0.00084329052913661572 0 -0.0065070184116315516 -0.00084079608624511326 0 -0.0065020493315630723 -0.00082254588919253194 0 -0.0065542228248754017 -0.0008125813293767141 0 -0.0065020493315630723 -0.00082254588919253194 0 -0.006508392411347424 -0.00076931676041783008 0 -0.0064281616540238255 -0.00084519504918057354 0 -0.0065020493315630723 -0.00082254588919253194 0 -0.006508392411347424 -0.00076931676041783008 0 -0.0064281616540238255 -0.00084519504918057354 0 -0.006508392411347424 -0.00076931676041783008 0 -0.0064595756935370173 -0.00075529561939258064 0 -0.0064234463789841429 -0.00085872492707175633 0 -0.0063976995003087976 -0.00087724865299548566 0 -0.0064281616540238255 -0.00084519504918057354 0 -0.0064595756935370173 -0.00075529561939258064 0 -0.0064050392442427341 -0.00070671323236370757 0 -0.0064295813914013256 -0.00096072592977436823 0 -0.0064281616540238255 -0.00084519504918057354 0 -0.0063917212176020461 -0.0010833754684679423 0 -0.0064295813914013256 -0.00096072592977436823 0 -0.0064561779946059952 -0.00087397813776059056 0 -0.0064281616540238255 -0.00084519504918057354 0 -0.0064295813914013256 -0.00096072592977436823 0 -0.0063917212176020461 -0.0010833754684679423 0 -0.0063756030019974808 -0.0010795143705865889 0 -0.0064595756935370173 -0.00075529561939258064 0 -0.0064050392442427341 -0.00070671323236370757 0 -0.0065025848112853016 -0.00069141461064284142 0 -0.006614335164583306 -0.00067526195262529551 0 -0.006508392411347424 -0.00076931676041783008 0 -0.0065025848112853016 -0.00069141461064284142 0 -0.0065542228248754017 -0.0008125813293767141 0 -0.006614335164583306 -0.00067526195262529551 0 -0.006508392411347424 -0.00076931676041783008 0 -0.006508392411347424 -0.00076931676041783008 0 -0.0064595756935370173 -0.00075529561939258064 0 -0.0065025848112853016 -0.00069141461064284142 0 -0.006614335164583306 -0.00067526195262529551 0 -0.0066894908567567031 -0.00043463419793517724 0 -0.006505505452141516 -0.00059882012455716842 0 -0.006614335164583306 -0.00067526195262529551 0 -0.0065025848112853016 -0.00069141461064284142 0 -0.006505505452141516 -0.00059882012455716842 0 -0.0063630964232129529 -0.00058156561855283138 0 -0.0063976995003087976 -0.00087724865299548566 0 -0.0063384078672586294 -0.00047131411889930009 0 -0.0064050392442427341 -0.00070671323236370757 0 -0.006505505452141516 -0.00059882012455716842 0 -0.0064050392442427341 -0.00070671323236370757 0 -0.0065025848112853016 -0.00069141461064284142 0 -0.006505505452141516 -0.00059882012455716842 0 -0.0063624795321033569 -0.00064259114856316652 0 -0.0063917212176020461 -0.0010833754684679423 0 -0.0062656865595851225 -0.00094909812012466943 0 -0.0063624795321033569 -0.00064259114856316652 0 -0.0062656865595851225 -0.00094909812012466943 0 -0.0060296614107396163 -0.00086682537017181713 0 -0.0062656865595851225 -0.00094909812012466943 0 -0.0060296614107396163 -0.00086682537017181713 0 -0.0061362061960075166 -0.0010638060838735505 0 -0.0057265403700450124 -0.00069655088436722181 0 -0.0057200509016367054 -0.0010611335185964758 0 -0.0060296614107396163 -0.00086682537017181713 0 -0.0060296614107396163 -0.00086682537017181713 0 -0.0059624350076549404 -0.0012313406469463245 0 -0.0061362061960075166 -0.0010638060838735505 0 -0.0057200509016367054 -0.0010611335185964758 0 -0.0060296614107396163 -0.00086682537017181713 0 -0.0059624350076549404 -0.0012313406469463245 0 -0.0057200509016367054 -0.0010611335185964758 0 -0.0057278793926693354 -0.001340248271104219 0 -0.0059624350076549404 -0.0012313406469463245 0 -0.0061306808305662524 -0.0015204418852653146 0 -0.0063756030019974808 -0.0010795143705865889 0 -0.0061362061960075166 -0.0010638060838735505 0 -0.0061306808305662524 -0.0015204418852653146 0 -0.0059624350076549404 -0.0012313406469463245 0 -0.0061362061960075166 -0.0010638060838735505 0 -0.0063917212176020461 -0.0010833754684679423 0 -0.0063756030019974808 -0.0010795143705865889 0 -0.0062656865595851225 -0.00094909812012466943 0 -0.0063756030019974808 -0.0010795143705865889 0 -0.0062656865595851225 -0.00094909812012466943 0 -0.0061362061960075166 -0.0010638060838735505 0 -0.0032529616263781767 -9.3441671890807845e-05 0 -0.0035430120553554558 -1.8002936281211009e-07 0 -0.0027035442179599348 -2.0613922778328019e-07 0 -0.0032529616263781767 -9.3441671890807845e-05 0 -0.0035430120553554558 -1.8002936281211009e-07 0 -0.003664335074414945 -3.0074802119663371e-05 0 -0.0032529616263781767 -9.3441671890807845e-05 0 -0.0033399135705364904 -4.5629666065788265e-05 0 -0.003664335074414945 -3.0074802119663371e-05 0 -0.0032529616263781767 -9.3441671890807845e-05 0 -0.0033399135705364904 -4.5629666065788265e-05 0 -0.0031820562515428841 -7.367853905816831e-05 0 -0.0033399135705364904 -4.5629666065788265e-05 0 -0.0031907819712293241 -3.2668670159555372e-05 0 -0.0031962796667628695 4.3228312913880693e-05 0 -0.0031907819712293241 -3.2668670159555372e-05 0 -0.0030946118406962866 -4.3356734549037762e-05 0 -0.0031820562515428841 -7.367853905816831e-05 0 -0.0033399135705364904 -4.5629666065788265e-05 0 -0.0031907819712293241 -3.2668670159555372e-05 0 -0.0031820562515428841 -7.367853905816831e-05 0 -0.0031075091016708784 2.5153746414868207e-06 0 -0.0030211619208294969 5.8725953719959553e-07 0 -0.0030637997626814743 3.7453227393090227e-05 0 -0.0031907819712293241 -3.2668670159555372e-05 0 -0.0031075091016708784 2.5153746414868207e-06 0 -0.0030946118406962866 -4.3356734549037762e-05 0 -0.0031907819712293241 -3.2668670159555372e-05 0 -0.0031075091016708784 2.5153746414868207e-06 0 -0.0031962796667628695 4.3228312913880693e-05 0 -0.0031075091016708784 2.5153746414868207e-06 0 -0.0030946118406962866 -4.3356734549037762e-05 0 -0.0030211619208294969 5.8725953719959553e-07 0 -0.0030946118406962866 -4.3356734549037762e-05 0 -0.0029864536281215539 -4.6797276779995054e-05 0 -0.0030211619208294969 5.8725953719959553e-07 0 -0.0030645405825253727 -7.2908949393670288e-05 0 -0.0029370845089059273 -8.1578089124349106e-05 0 -0.0029864536281215539 -4.6797276779995054e-05 0 -0.0030946118406962866 -4.3356734549037762e-05 0 -0.0030645405825253727 -7.2908949393670288e-05 0 -0.0029864536281215539 -4.6797276779995054e-05 0 -0.0030946118406962866 -4.3356734549037762e-05 0 -0.0030645405825253727 -7.2908949393670288e-05 0 -0.0031820562515428841 -7.367853905816831e-05 0 -0.0030645405825253727 -7.2908949393670288e-05 0 -0.0031820562515428841 -7.367853905816831e-05 0 -0.0030730314327085577 -6.2821197938852592e-05 0 -0.0032529616263781767 -9.3441671890807845e-05 0 -0.0031820562515428841 -7.367853905816831e-05 0 -0.0030730314327085577 -6.2821197938852592e-05 0 -0.0030645405825253727 -7.2908949393670288e-05 0 -0.0030730314327085577 -6.2821197938852592e-05 0 -0.0029441421256188251 -9.2796180328174401e-05 0 -0.0030645405825253727 -7.2908949393670288e-05 0 -0.0029441421256188251 -9.2796180328174401e-05 0 -0.0029370845089059273 -8.1578089124349106e-05 0 -0.0030730314327085577 -6.2821197938852592e-05 0 -0.0029441421256188251 -9.2796180328174401e-05 0 -0.0029639475054312092 -5.341260945600498e-05 0 -0.0030730314327085577 -6.2821197938852592e-05 0 -0.0029639475054312092 -5.341260945600498e-05 0 -0.0029691057597317906 2.4871075467179772e-06 0 -0.0032529616263781767 -9.3441671890807845e-05 0 -0.0030730314327085577 -6.2821197938852592e-05 0 -0.0029691057597317906 2.4871075467179772e-06 0 -0.0032529616263781767 -9.3441671890807845e-05 0 -0.0029691057597317906 2.4871075467179772e-06 0 -0.0027035442179599348 -2.0613922778328019e-07 0 -0.0027014808624158861 7.4676157429858217e-10 0 -0.0019132787877464436 -5.3953212572349533e-10 0 -0.0018576001247652802 -3.0229300891508313e-08 0 -0.0026565446044448269 -5.0862304420878962e-05 0 -0.0024181695304269983 -5.5488249633831565e-05 0 -0.0029639475054312092 -5.341260945600498e-05 0 -0.0029691057597317906 2.4871075467179772e-06 0 -0.0029823636990623454 -1.4927788584872589e-05 0 -0.0029691057597317906 2.4871075467179772e-06 0 -0.0027035442179599348 -2.0613922778328019e-07 0 -0.0029823636990623454 -1.4927788584872589e-05 0 -0.0024181695304269983 -5.5488249633831565e-05 0 -0.0020203119838383293 -0.00012690063320350999 0 -0.0019132787877464436 -5.3953212572349533e-10 0 -0.0018576001247652802 -3.0229300891508313e-08 0 -0.0010891514611339206 5.3931132728009532e-10 0 -0.0029639475054312092 -5.341260945600498e-05 0 -0.0029823636990623454 -1.4927788584872589e-05 0 -0.0029585780284973775 -0.0001272510539052559 0 -0.0029585780284973775 -0.0001272510539052559 0 -0.0030504732225598271 -0.00018460088652252766 0 -0.0029006680687657339 -0.00024282591157828262 0 -0.0018576001247652802 -3.0229300891508313e-08 0 -0.0010891514611339206 5.3931132728009532e-10 0 -0.001015433879309579 -8.8023838382443663e-08 0 -0.0029823636990623454 -1.4927788584872589e-05 0 -0.0029585780284973775 -0.0001272510539052559 0 -0.0030504732225598271 -0.00018460088652252766 0 -0.0030504732225598271 -0.00018460088652252766 0 -0.0029448023490773589 -0.00036178106239747703 0 -0.0030624946760671383 -0.00037727278715154181 0 -0.0010891514611339206 5.3931132728009532e-10 0 -0.001015433879309579 -8.8023838382443663e-08 0 -0.00026498013171810279 -8.3112868613660874e-09 0 -0.001015433879309579 -8.8023838382443663e-08 0 -0.00026498013171810279 -8.3112868613660874e-09 0 -0.00017295955942875387 -4.2268782675054667e-07 0 -0.0020203119838383293 -0.00012690063320350999 0 -0.0016919706291893813 -0.00024397178447955689 0 -0.0030504732225598271 -0.00018460088652252766 0 -0.0029448023490773589 -0.00036178106239747703 0 -0.0029006680687657339 -0.00024282591157828262 0 -0.0029201254270451839 -0.00051270844685298751 0 -0.0029448023490773589 -0.00036178106239747703 0 -0.0030624946760671383 -0.00037727278715154181 0 -0.0027874280123519075 -0.00040923496538371765 0 -0.0027828721226856169 -0.0002575944930640297 0 -0.0026297832641337432 -0.00033578940788412726 0 -0.0029448023490773589 -0.00036178106239747703 0 -0.0027874280123519075 -0.00040923496538371765 0 -0.0029006680687657339 -0.00024282591157828262 0 -0.0027874280123519075 -0.00040923496538371765 0 -0.0029006680687657339 -0.00024282591157828262 0 -0.0027828721226856169 -0.0002575944930640297 0 -0.0027828721226856169 -0.0002575944930640297 0 -0.0028665607305978927 -0.00014293048120028574 0 -0.0027159370235658748 -0.00019289748015185958 0 -0.0029006680687657339 -0.00024282591157828262 0 -0.0027828721226856169 -0.0002575944930640297 0 -0.0028665607305978927 -0.00014293048120028574 0 -0.0029585780284973775 -0.0001272510539052559 0 -0.0029006680687657339 -0.00024282591157828262 0 -0.0028665607305978927 -0.00014293048120028574 0 -0.0029441421256188251 -9.2796180328174401e-05 0 -0.0029639475054312092 -5.341260945600498e-05 0 -0.0028665607305978927 -0.00014293048120028574 0 -0.0029639475054312092 -5.341260945600498e-05 0 -0.0029585780284973775 -0.0001272510539052559 0 -0.0028665607305978927 -0.00014293048120028574 0 -0.0029441421256188251 -9.2796180328174401e-05 0 -0.0028665607305978927 -0.00014293048120028574 0 -0.0028008138200335095 -0.00013673028419385898 0 -0.0028008138200335095 -0.00013673028419385898 0 -0.0027061830570467536 -0.00014824993506615654 0 -0.0027159370235658748 -0.00019289748015185958 0 -0.0027159370235658748 -0.00019289748015185958 0 -0.0026042650796008265 -0.00024412419901081168 0 -0.0026034455209664664 -0.00016514222510370834 0 -0.0027061830570467536 -0.00014824993506615654 0 -0.0027159370235658748 -0.00019289748015185958 0 -0.0026034455209664664 -0.00016514222510370834 0 -0.0028665607305978927 -0.00014293048120028574 0 -0.0028008138200335095 -0.00013673028419385898 0 -0.0027159370235658748 -0.00019289748015185958 0 -0.0027828721226856169 -0.0002575944930640297 0 -0.0027159370235658748 -0.00019289748015185958 0 -0.0026297832641337432 -0.00033578940788412726 0 -0.0027159370235658748 -0.00019289748015185958 0 -0.0026042650796008265 -0.00024412419901081168 0 -0.0026297832641337432 -0.00033578940788412726 0 -0.0026042650796008265 -0.00024412419901081168 0 -0.0024629253812735092 -0.00031219957987826079 0 -0.0026034455209664664 -0.00016514222510370834 0 -0.0026042650796008265 -0.00024412419901081168 0 -0.0026297832641337432 -0.00033578940788412726 0 -0.0024629253812735092 -0.00031219957987826079 0 -0.0024198298317145836 -0.00044946139418966334 0 -0.0026297832641337432 -0.00033578940788412726 0 -0.0024629253812735092 -0.00031219957987826079 0 -0.0022504986913028488 -0.00063042539862365524 0 -0.0022385325238863081 -0.00065776941621821354 0 -0.0022718641903749438 -0.00065708990181673828 0 -0.0023590167371599583 -0.00040328833750096697 0 -0.002267281458241835 -0.00039148659180900011 0 -0.0022161160055733883 -0.00035961331796117578 0 -0.0024629253812735092 -0.00031219957987826079 0 -0.0022360225780513579 -0.00045088064905746957 0 -0.0024198298317145836 -0.00044946139418966334 0 -0.0024629253812735092 -0.00031219957987826079 0 -0.0022360225780513579 -0.00045088064905746957 0 -0.0023590167371599583 -0.00040328833750096697 0 -0.0026169454303476176 -9.7695344174457196e-05 0 -0.0026561225169304389 -9.191055279946379e-05 0 -0.0026576070103828866 -0.00014451507571076807 0 -0.0026034455209664664 -0.00016514222510370834 0 -0.0022161160055733883 -0.00035961331796117578 0 -0.0024629253812735092 -0.00031219957987826079 0 -0.0026034455209664664 -0.00016514222510370834 0 -0.0023590167371599583 -0.00040328833750096697 0 -0.0025243620765091129 -0.00044318897906378243 0 -0.0026561225169304389 -9.191055279946379e-05 0 -0.0026576070103828866 -0.00014451507571076807 0 -0.002687010190082403 -0.00015045257751651757 0 -0.0026576070103828866 -0.00014451507571076807 0 -0.0026832519936141257 -0.00016024734286464062 0 -0.002687010190082403 -0.00015045257751651757 0 -0.0027061830570467536 -0.00014824993506615654 0 -0.0026034455209664664 -0.00016514222510370834 0 -0.0026832519936141257 -0.00016024734286464062 0 -0.0026576070103828866 -0.00014451507571076807 0 -0.0026034455209664664 -0.00016514222510370834 0 -0.0026832519936141257 -0.00016024734286464062 0 -0.0027061830570467536 -0.00014824993506615654 0 -0.0026832519936141257 -0.00016024734286464062 0 -0.0027290667228282487 -0.00013257331542062823 0 -0.0026832519936141257 -0.00016024734286464062 0 -0.0027290667228282487 -0.00013257331542062823 0 -0.0026996011056341488 -0.00014300888665604624 0 -0.0027139456605979749 -0.00012344711118189634 0 -0.0027290667228282487 -0.00013257331542062823 0 -0.0026996011056341488 -0.00014300888665604624 0 -0.0027139456605979749 -0.00012344711118189634 0 -0.0027470256711019103 -9.5997093240259246e-05 0 -0.0027290667228282487 -0.00013257331542062823 0 -0.0027139456605979749 -0.00012344711118189634 0 -0.0027470256711019103 -9.5997093240259246e-05 0 -0.0027041975053590456 -0.00010378578658166101 0 -0.0027470256711019103 -9.5997093240259246e-05 0 -0.0027979641760454265 -9.1850163060963966e-05 0 -0.0027290667228282487 -0.00013257331542062823 0 -0.0027979641760454265 -9.1850163060963966e-05 0 -0.0027290667228282487 -0.00013257331542062823 0 -0.0028186616133436611 -0.00011021011014810428 0 -0.0027470256711019103 -9.5997093240259246e-05 0 -0.0027979641760454265 -9.1850163060963966e-05 0 -0.002808085364040556 -5.2505121731136659e-05 0 -0.0028008138200335095 -0.00013673028419385898 0 -0.0027061830570467536 -0.00014824993506615654 0 -0.0028186616133436611 -0.00011021011014810428 0 -0.0027061830570467536 -0.00014824993506615654 0 -0.0027290667228282487 -0.00013257331542062823 0 -0.0028186616133436611 -0.00011021011014810428 0 -0.0029441421256188251 -9.2796180328174401e-05 0 -0.0028008138200335095 -0.00013673028419385898 0 -0.0028186616133436611 -0.00011021011014810428 0 -0.0029441421256188251 -9.2796180328174401e-05 0 -0.0028186616133436611 -0.00011021011014810428 0 -0.0029370845089059273 -8.1578089124349106e-05 0 -0.0028186616133436611 -0.00011021011014810428 0 -0.0029370845089059273 -8.1578089124349106e-05 0 -0.0028825861745744824 -6.0207470632474433e-05 0 -0.0027979641760454265 -9.1850163060963966e-05 0 -0.0028186616133436611 -0.00011021011014810428 0 -0.0028825861745744824 -6.0207470632474433e-05 0 -0.0027979641760454265 -9.1850163060963966e-05 0 -0.0028825861745744824 -6.0207470632474433e-05 0 -0.002808085364040556 -5.2505121731136659e-05 0 -0.0028825861745744824 -6.0207470632474433e-05 0 -0.0028503377822015957 1.5434940661328061e-05 0 -0.002808085364040556 -5.2505121731136659e-05 0 -0.0029370845089059273 -8.1578089124349106e-05 0 -0.0028825861745744824 -6.0207470632474433e-05 0 -0.0029864536281215539 -4.6797276779995054e-05 0 -0.0028825861745744824 -6.0207470632474433e-05 0 -0.0029864536281215539 -4.6797276779995054e-05 0 -0.0029437441168669782 -9.6581071200766382e-06 0 -0.0028503377822015957 1.5434940661328061e-05 0 -0.0029876552436141307 5.4463109548401265e-05 0 -0.0030044095413630251 8.20767103294074e-05 0 -0.0029864536281215539 -4.6797276779995054e-05 0 -0.0029437441168669782 -9.6581071200766382e-06 0 -0.0030211619208294969 5.8725953719959553e-07 0 -0.0030211619208294969 5.8725953719959553e-07 0 -0.0029876552436141307 5.4463109548401265e-05 0 -0.0030637997626814743 3.7453227393090227e-05 0 -0.0029437441168669782 -9.6581071200766382e-06 0 -0.0030211619208294969 5.8725953719959553e-07 0 -0.0029876552436141307 5.4463109548401265e-05 0 -0.0044141093660502269 -0.00042186083973657582 0 -0.004899520448009659 6.4331251206333775e-05 0 -0.0028825861745744824 -6.0207470632474433e-05 0 -0.0029437441168669782 -9.6581071200766382e-06 0 -0.0028503377822015957 1.5434940661328061e-05 0 -0.0029437441168669782 -9.6581071200766382e-06 0 -0.0028503377822015957 1.5434940661328061e-05 0 -0.0029876552436141307 5.4463109548401265e-05 0 -0.0044141093660502269 -0.00042186083973657582 0 -0.0043516908001671921 -0.00044583242806852611 0 -0.0061145064711256763 -0.00073825450238541076 0 -0.0058950038492189983 -0.00087792224116559211 0 -0.0060406445996910299 -0.0005898950956543306 0 -0.0058950038492189983 -0.00087792224116559211 0 -0.0057925691495736599 -0.00065417129343117643 0 -0.0060406445996910299 -0.0005898950956543306 0 -0.0043516908001671921 -0.00044583242806852611 0 -0.0040984805190472781 -0.00059846246687401017 0 -0.0027470256711019103 -9.5997093240259246e-05 0 -0.0027499253014578759 -4.8673011079157082e-05 0 -0.0027041975053590456 -0.00010378578658166101 0 -0.0027470256711019103 -9.5997093240259246e-05 0 -0.0027499253014578759 -4.8673011079157082e-05 0 -0.002808085364040556 -5.2505121731136659e-05 0 -0.0028503377822015957 1.5434940661328061e-05 0 -0.0027499253014578759 -4.8673011079157082e-05 0 -0.002808085364040556 -5.2505121731136659e-05 0 -0.0055907047298881206 -0.00082710609893739385 0 -0.0057278677914834467 -0.00080581195786012555 0 -0.0056034736958866203 -0.00097298866049648231 0 -0.0057794562529467223 -0.00086301353540998516 0 -0.0046057403274832555 -0.00074168739526083685 0 -0.0055907047298881206 -0.00082710609893739385 0 -0.0057278677914834467 -0.00080581195786012555 0 -0.0056352496965310283 -0.00075128969076070258 0 -0.0055907047298881206 -0.00082710609893739385 0 -0.0056352496965310283 -0.00075128969076070258 0 -0.0055290796936770716 -0.00076330175473085656 0 -0.0058950038492189983 -0.00087792224116559211 0 -0.0056034052985191804 -0.00088038769310230152 0 -0.0056229423001913281 -0.0010371367751689851 0 -0.0058950038492189983 -0.00087792224116559211 0 -0.0056034052985191804 -0.00088038769310230152 0 -0.0057925691495736599 -0.00065417129343117643 0 -0.0057794562529467223 -0.00086301353540998516 0 -0.0058115768711058217 -0.00065324182229411273 0 -0.0057278677914834467 -0.00080581195786012555 0 -0.005703864562410745 -0.00066611304576609141 0 -0.005859249084818198 -0.0006476862455679378 0 -0.005703864562410745 -0.00066611304576609141 0 -0.0056352496965310283 -0.00075128969076070258 0 -0.0055526210941205028 -0.00067685545927571953 0 -0.0057278677914834467 -0.00080581195786012555 0 -0.005703864562410745 -0.00066611304576609141 0 -0.0056352496965310283 -0.00075128969076070258 0 -0.0055526210941205028 -0.00067685545927571953 0 -0.0054269733432663848 -0.00073640987930964706 0 -0.0054644400671431939 -0.00062061248954281209 0 -0.0055526210941205028 -0.00067685545927571953 0 -0.0055290796936770716 -0.00076330175473085656 0 -0.0054269733432663848 -0.00073640987930964706 0 -0.0056352496965310283 -0.00075128969076070258 0 -0.0055526210941205028 -0.00067685545927571953 0 -0.0055290796936770716 -0.00076330175473085656 0 -0.0054269733432663848 -0.00073640987930964706 0 -0.0053155539993258432 -0.00064260171229019744 0 -0.0054644400671431939 -0.00062061248954281209 0 -0.0054269733432663848 -0.00073640987930964706 0 -0.0053213747049553443 -0.00076884808187104687 0 -0.0053155539993258432 -0.00064260171229019744 0 -0.0054269733432663848 -0.00073640987930964706 0 -0.0054555741183782919 -0.00084987405151916039 0 -0.0053613572722880304 -0.00086250462886019693 0 -0.0054269733432663848 -0.00073640987930964706 0 -0.0053613572722880304 -0.00086250462886019693 0 -0.0053213747049553443 -0.00076884808187104687 0 -0.0055907047298881206 -0.00082710609893739385 0 -0.0054555741183782919 -0.00084987405151916039 0 -0.0056034736958866203 -0.00097298866049648231 0 -0.0055290796936770716 -0.00076330175473085656 0 -0.0054269733432663848 -0.00073640987930964706 0 -0.0054555741183782919 -0.00084987405151916039 0 -0.0055907047298881206 -0.00082710609893739385 0 -0.0055290796936770716 -0.00076330175473085656 0 -0.0054555741183782919 -0.00084987405151916039 0 -0.0054555741183782919 -0.00084987405151916039 0 -0.0055448322915732269 -0.0010038190595947471 0 -0.0056034736958866203 -0.00097298866049648231 0 -0.0054555741183782919 -0.00084987405151916039 0 -0.0054832042382049386 -0.00093084169139310245 0 -0.005421488672690265 -0.00091718720105059932 0 -0.0058011679665935329 -0.0011308070846013552 0 -0.0039654366312396015 -0.00069315409383195682 0 -0.0053613572722880304 -0.00086250462886019693 0 -0.005421488672690265 -0.00091718720105059932 0 -0.0053853671147781248 -0.00099245864930062075 0 -0.0054555741183782919 -0.00084987405151916039 0 -0.0053613572722880304 -0.00086250462886019693 0 -0.005421488672690265 -0.00091718720105059932 0 -0.0023933917089216331 -0.00092976450389323315 0 -0.0025574647708348527 -0.00084463515263326415 0 -0.0024311463563095178 -0.00082914483819215357 0 -0.0023933917089216331 -0.00092976450389323315 0 -0.0024311463563095178 -0.00082914483819215357 0 -0.0023719747255384516 -0.00079578201187433537 0 -0.0039654366312396015 -0.00069315409383195682 0 -0.0038413708023206901 -0.00073767700769468739 0 -0.0054832042382049386 -0.00093084169139310245 0 -0.005421488672690265 -0.00091718720105059932 0 -0.0053853671147781248 -0.00099245864930062075 0 -0.0025574647708348527 -0.00084463515263326415 0 -0.0024311463563095178 -0.00082914483819215357 0 -0.002424145218901616 -0.00074366825285611122 0 -0.0039654366312396015 -0.00069315409383195682 0 -0.002251544713628463 -0.00035759488113110209 0 -0.0023933917089216331 -0.00092976450389323315 0 -0.0022783630693884501 -0.00075154584317072514 0 -0.0023719747255384516 -0.00079578201187433537 0 -0.0026990187653976316 -0.00013110004848620365 0 -0.0026998249240957548 -0.00013277154756005649 0 -0.0026948110124755866 -0.0001483387194869281 0 -0.0046057403274832555 -0.00074168739526083685 0 -0.0040984805190472781 -0.00059846246687401017 0 -0.0026990187653976316 -0.00013110004848620365 0 -0.0027001531617178603 -0.00012694930381487742 0 -0.0026998249240957548 -0.00013277154756005649 0 -0.0039654366312396015 -0.00069315409383195682 0 -0.0046057403274832555 -0.00074168739526083685 0 -0.0027001531617178603 -0.00012694930381487742 0 -0.0027041975053590456 -0.00010378578658166101 0 -0.0026998249240957548 -0.00013277154756005649 0 -0.0056034052985191804 -0.00088038769310230152 0 -0.005405606357482765 -0.0011471471248357369 0 -0.0056229423001913281 -0.0010371367751689851 0 -0.0027139456605979749 -0.00012344711118189634 0 -0.0027041975053590456 -0.00010378578658166101 0 -0.0026998249240957548 -0.00013277154756005649 0 -0.0027139456605979749 -0.00012344711118189634 0 -0.0026998249240957548 -0.00013277154756005649 0 -0.0026996011056341488 -0.00014300888665604624 0 -0.0026998249240957548 -0.00013277154756005649 0 -0.0026996011056341488 -0.00014300888665604624 0 -0.0026948110124755866 -0.0001483387194869281 0 -0.0026832519936141257 -0.00016024734286464062 0 -0.0026996011056341488 -0.00014300888665604624 0 -0.0026948110124755866 -0.0001483387194869281 0 -0.0022783630693884501 -0.00075154584317072514 0 -0.0023395001445903969 -0.00074591083674986841 0 -0.0023719747255384516 -0.00079578201187433537 0 -0.0022783630693884501 -0.00075154584317072514 0 -0.0023395001445903969 -0.00074591083674986841 0 -0.0022938564740471652 -0.00069949374307832059 0 -0.0023395001445903969 -0.00074591083674986841 0 -0.0022938564740471652 -0.00069949374307832059 0 -0.002424145218901616 -0.00074366825285611122 0 -0.0022938564740471652 -0.00069949374307832059 0 -0.0023037859752833064 -0.00066588796959939859 0 -0.0023083976449655126 -0.00072077972207307067 0 -0.002251544713628463 -0.00035759488113110209 0 -0.0025243620765091129 -0.00044318897906378243 0 -0.0026832519936141257 -0.00016024734286464062 0 -0.0026948110124755866 -0.0001483387194869281 0 -0.002687010190082403 -0.00015045257751651757 0 -0.0022938564740471652 -0.00069949374307832059 0 -0.0022554767312623117 -0.00068536454624271756 0 -0.0022808318121817664 -0.0006761634284463998 0 -0.0022783630693884501 -0.00075154584317072514 0 -0.0022938564740471652 -0.00069949374307832059 0 -0.0022554767312623117 -0.00068536454624271756 0 -0.0022554767312623117 -0.00068536454624271756 0 -0.0022808318121817664 -0.0006761634284463998 0 -0.0022718641903749438 -0.00065708990181673828 0 -0.0022385325238863081 -0.00065776941621821354 0 -0.0022554767312623117 -0.00068536454624271756 0 -0.0022718641903749438 -0.00065708990181673828 0 -0.0022938564740471652 -0.00069949374307832059 0 -0.0022808318121817664 -0.0006761634284463998 0 -0.0023037859752833064 -0.00066588796959939859 0 -0.0022808318121817664 -0.0006761634284463998 0 -0.0022718641903749438 -0.00065708990181673828 0 -0.0023037859752833064 -0.00066588796959939859 0 -0.0023210901258548383 -0.00063709728740896077 0 -0.0022718641903749438 -0.00065708990181673828 0 -0.0023037859752833064 -0.00066588796959939859 0 -0.0023748472232784893 -0.00019318962403777219 0 -0.0024188009407897946 -0.0003717819294802256 0 -0.0024914173385157255 -0.00027450414184662907 0 -0.0025053009365706438 -0.00037516882695692953 0 -0.0024914173385157255 -0.00027450414184662907 0 -0.0025723466762861769 -0.00032459255477826132 0 -0.0024188009407897946 -0.0003717819294802256 0 -0.0025053009365706438 -0.00037516882695692953 0 -0.0024914173385157255 -0.00027450414184662907 0 -0.0023748472232784893 -0.00019318962403777219 0 -0.002476273869307349 -0.00018617321587808587 0 -0.0024914173385157255 -0.00027450414184662907 0 -0.002476273869307349 -0.00018617321587808587 0 -0.0024914173385157255 -0.00027450414184662907 0 -0.0025314892755776862 -0.00021188212664261536 0 -0.0021616751490773044 -0.00010029997945666578 0 -0.0023748472232784893 -0.00019318962403777219 0 -0.0022139784796590236 -0.00042160084464171942 0 -0.0023748472232784893 -0.00019318962403777219 0 -0.0024188009407897946 -0.0003717819294802256 0 -0.0022139784796590236 -0.00042160084464171942 0 -0.0022409630888192895 -0.00036643143860931419 0 -0.0022625321268429236 -0.00054208922606402529 0 -0.0022139784796590236 -0.00042160084464171942 0 -0.0023663817319551691 -0.00053835912329949331 0 -0.0023083976449655126 -0.00072077972207307067 0 -0.0024188009407897946 -0.0003717819294802256 0 -0.0022139784796590236 -0.00042160084464171942 0 -0.0023663817319551691 -0.00053835912329949331 0 -0.0023663817319551691 -0.00053835912329949331 0 -0.0024656484111642472 -0.00047285877642511554 0 -0.0024852451247087885 -0.00057085030803089574 0 -0.0024188009407897946 -0.0003717819294802256 0 -0.0023663817319551691 -0.00053835912329949331 0 -0.0024656484111642472 -0.00047285877642511554 0 -0.0024188009407897946 -0.0003717819294802256 0 -0.0025053009365706438 -0.00037516882695692953 0 -0.0024656484111642472 -0.00047285877642511554 0 -0.0025053009365706438 -0.00037516882695692953 0 -0.0024656484111642472 -0.00047285877642511554 0 -0.0025699343292913323 -0.00045163825373373625 0 -0.0024656484111642472 -0.00047285877642511554 0 -0.0024852451247087885 -0.00057085030803089574 0 -0.0025699343292913323 -0.00045163825373373625 0 -0.0024852451247087885 -0.00057085030803089574 0 -0.0025993082953840794 -0.00057163624771725712 0 -0.0025699343292913323 -0.00045163825373373625 0 -0.0024852451247087885 -0.00057085030803089574 0 -0.0023902575449257038 -0.00066360468852768792 0 -0.0025418020586007446 -0.0007191026999541747 0 -0.0024852451247087885 -0.00057085030803089574 0 -0.0025418020586007446 -0.0007191026999541747 0 -0.0025993082953840794 -0.00057163624771725712 0 -0.0023663817319551691 -0.00053835912329949331 0 -0.0024852451247087885 -0.00057085030803089574 0 -0.0023902575449257038 -0.00066360468852768792 0 -0.0022625321268429236 -0.00054208922606402529 0 -0.0022998657910007088 -0.00070829315005614603 0 -0.0023663817319551691 -0.00053835912329949331 0 -0.0023902575449257038 -0.00066360468852768792 0 -0.0023083976449655126 -0.00072077972207307067 0 -0.0023902575449257038 -0.00066360468852768792 0 -0.0023083976449655126 -0.00072077972207307067 0 -0.0023588984073788649 -0.0007208893607840907 0 -0.0023083976449655126 -0.00072077972207307067 0 -0.0023588984073788649 -0.0007208893607840907 0 -0.0023308197196428002 -0.00075975589293056465 0 -0.0022938564740471652 -0.00069949374307832059 0 -0.0023083976449655126 -0.00072077972207307067 0 -0.0023308197196428002 -0.00075975589293056465 0 -0.0023556275839262879 -0.0007449387715125368 0 -0.0022261239375325373 -0.00067062980416119798 0 -0.0023902575449257038 -0.00066360468852768792 0 -0.0023588984073788649 -0.0007208893607840907 0 -0.0024325568797225489 -0.00075005372287670357 0 -0.0023588984073788649 -0.0007208893607840907 0 -0.0023308197196428002 -0.00075975589293056465 0 -0.0024325568797225489 -0.00075005372287670357 0 -0.0038413708023206901 -0.00073767700769468739 0 -0.0022261239375325373 -0.00067062980416119798 0 -0.0024311463563095178 -0.00082914483819215357 0 -0.002424145218901616 -0.00074366825285611122 0 -0.0023719747255384516 -0.00079578201187433537 0 -0.0023395001445903969 -0.00074591083674986841 0 -0.002424145218901616 -0.00074366825285611122 0 -0.0023719747255384516 -0.00079578201187433537 0 -0.0024835234284430485 -0.00091054973496018112 0 -0.0023308197196428002 -0.00075975589293056465 0 -0.0024325568797225489 -0.00075005372287670357 0 -0.0024835234284430485 -0.00091054973496018112 0 -0.0025418020586007446 -0.0007191026999541747 0 -0.0024325568797225489 -0.00075005372287670357 0 -0.0023902575449257038 -0.00066360468852768792 0 -0.0025418020586007446 -0.0007191026999541747 0 -0.0024325568797225489 -0.00075005372287670357 0 -0.0025418020586007446 -0.0007191026999541747 0 -0.0026881360374902009 -0.0008032990322339907 0 -0.002711966366989746 -0.00061236212641466072 0 -0.0038413708023206901 -0.00073767700769468739 0 -0.003705513566060525 -0.00038982139919824623 0 -0.0024835234284430485 -0.00091054973496018112 0 -0.0025418020586007446 -0.0007191026999541747 0 -0.0026881360374902009 -0.0008032990322339907 0 -0.0048377623574374952 -3.2743414802422541e-05 0 -0.0051168591740201365 0.0001187335569806053 0 -0.0050353194529013596 -0.00021661140405647926 0 -0.003705513566060525 -0.00038982139919824623 0 -0.0041263045110684834 -0.00052772638031425942 0 -0.0027288458217560509 -0.00054772127071553249 0 -0.0041263045110684834 -0.00052772638031425942 0 -0.002711966366989746 -0.00061236212641466072 0 -0.0027823704668664012 -0.0004334168914071246 0 -0.0028977867268814524 -0.00069244776546558784 0 -0.0026881360374902009 -0.0008032990322339907 0 -0.002711966366989746 -0.00061236212641466072 0 -0.0028977867268814524 -0.00069244776546558784 0 -0.0025418020586007446 -0.0007191026999541747 0 -0.002711966366989746 -0.00061236212641466072 0 -0.0025993082953840794 -0.00057163624771725712 0 -0.002711966366989746 -0.00061236212641466072 0 -0.0026663953130796748 -0.00048429307809470389 0 -0.0027823704668664012 -0.0004334168914071246 0 -0.0025993082953840794 -0.00057163624771725712 0 -0.0025699343292913323 -0.00045163825373373625 0 -0.0026663953130796748 -0.00048429307809470389 0 -0.0025699343292913323 -0.00045163825373373625 0 -0.0026663953130796748 -0.00048429307809470389 0 -0.0026646566650309262 -0.00033476758643706392 0 -0.0026663953130796748 -0.00048429307809470389 0 -0.0027823704668664012 -0.0004334168914071246 0 -0.0026646566650309262 -0.00033476758643706392 0 -0.002711966366989746 -0.00061236212641466072 0 -0.0025993082953840794 -0.00057163624771725712 0 -0.0026663953130796748 -0.00048429307809470389 0 -0.002972871287880683 -0.0005358759116346868 0 -0.0034039130727639309 -0.00057160125642826483 0 -0.0032716208311354446 -0.0012834179739989193 0 -0.002972871287880683 -0.0005358759116346868 0 -0.0032071085260173657 -0.00034801039672560576 0 -0.0034039130727639309 -0.00057160125642826483 0 -0.0027020320295555438 -6.674000933660724e-05 0 -0.002972871287880683 -0.0005358759116346868 0 -0.0030474413207926231 -0.00020380157748183127 0 -0.002972871287880683 -0.0005358759116346868 0 -0.0030474413207926231 -0.00020380157748183127 0 -0.0032071085260173657 -0.00034801039672560576 0 -0.0027468045061357213 -5.9576508132028845e-05 0 -0.0027288458217560509 -0.00054772127071553249 0 -0.0027020320295555438 -6.674000933660724e-05 0 -0.0027823704668664012 -0.0004334168914071246 0 -0.0026646566650309262 -0.00033476758643706392 0 -0.0027020320295555438 -6.674000933660724e-05 0 -0.0026340383270527252 -0.00025657483230547175 0 -0.0026646566650309262 -0.00033476758643706392 0 -0.0026124501551112954 -0.00021296045077303169 0 -0.0025676779857722824 -0.00025236791142123886 0 -0.0026340383270527252 -0.00025657483230547175 0 -0.0026027415844564624 -0.00017478713388648204 0 -0.0026124501551112954 -0.00021296045077303169 0 -0.0025777114266814479 -0.00021730483619370841 0 -0.0026124501551112954 -0.00021296045077303169 0 -0.0025777114266814479 -0.00021730483619370841 0 -0.0025676779857722824 -0.00025236791142123886 0 -0.0024914173385157255 -0.00027450414184662907 0 -0.0025314892755776862 -0.00021188212664261536 0 -0.0025676779857722824 -0.00025236791142123886 0 -0.0025314892755776862 -0.00021188212664261536 0 -0.0025777114266814479 -0.00021730483619370841 0 -0.0025676779857722824 -0.00025236791142123886 0 -0.0024914173385157255 -0.00027450414184662907 0 -0.0025676779857722824 -0.00025236791142123886 0 -0.0025723466762861769 -0.00032459255477826132 0 -0.0025676779857722824 -0.00025236791142123886 0 -0.0026340383270527252 -0.00025657483230547175 0 -0.0025723466762861769 -0.00032459255477826132 0 -0.0025053009365706438 -0.00037516882695692953 0 -0.0025699343292913323 -0.00045163825373373625 0 -0.0025723466762861769 -0.00032459255477826132 0 -0.0025699343292913323 -0.00045163825373373625 0 -0.0025723466762861769 -0.00032459255477826132 0 -0.0026646566650309262 -0.00033476758643706392 0 -0.0026340383270527252 -0.00025657483230547175 0 -0.0025723466762861769 -0.00032459255477826132 0 -0.0026646566650309262 -0.00033476758643706392 0 -0.0040853716656274221 -0.00010290206465748917 0 -0.0034039130727639309 -0.00057160125642826483 0 -0.0041263393492146118 -0.00049581289407194407 0 -0.0044253808320354956 -0.00023296065579374639 0 -0.0040853716656274221 -0.00010290206465748917 0 -0.0041263393492146118 -0.00049581289407194407 0 -0.0033560594479665647 -0.00011701653893709223 0 -0.0030474413207926231 -0.00020380157748183127 0 -0.0032071085260173657 -0.00034801039672560576 0 -0.003535894424314599 -2.1865948602070224e-05 0 -0.0034075619322808579 -0.00055085187778930499 0 -0.003726758382877371 0.00012319970422072638 0 -0.0040853716656274221 -0.00010290206465748917 0 -0.0034039130727639309 -0.00057160125642826483 0 -0.0033560594479665647 -0.00011701653893709223 0 -0.0032071085260173657 -0.00034801039672560576 0 -0.0034039130727639309 -0.00057160125642826483 0 -0.0047477259156513858 -0.00047451993332031894 0 -0.0041263393492146118 -0.00049581289407194407 0 -0.0038967448489318581 -0.00097554647606921464 0 -0.0034039130727639309 -0.00057160125642826483 0 -0.0041263393492146118 -0.00049581289407194407 0 -0.0038967448489318581 -0.00097554647606921464 0 -0.0052923393143583467 -0.00016072894398479158 0 -0.0052874266289264626 -0.0002729202563057588 0 -0.0053175560951533047 -0.00018806194620957464 0 -0.0046097825337441606 -0.00063144317809855563 0 -0.0041263045110684834 -0.00052772638031425942 0 -0.0034039130727639309 -0.00057160125642826483 0 -0.0038967448489318581 -0.00097554647606921464 0 -0.0032716208311354446 -0.0012834179739989193 0 -0.0052874266289264626 -0.0002729202563057588 0 -0.0053366463604172616 -0.0002115885002178494 0 -0.0053175560951533047 -0.00018806194620957464 0 -0.0041263045110684834 -0.00052772638031425942 0 -0.0052693814204550242 -0.00015036683107561992 0 -0.0053366463604172616 -0.0002115885002178494 0 -0.0053077145673849999 -0.00019543655981155419 0 -0.0053175560951533047 -0.00018806194620957464 0 -0.0051168591740201365 0.0001187335569806053 0 -0.0052167143392025184 -9.6835035816349781e-05 0 -0.0050353194529013596 -0.00021661140405647926 0 -0.0053077145673849999 -0.00019543655981155419 0 -0.0053175560951533047 -0.00018806194620957464 0 -0.005337231685073906 -0.00021161341938093594 0 -0.0053175560951533047 -0.00018806194620957464 0 -0.0053504338253355412 -0.00018477898910028553 0 -0.005337231685073906 -0.00021161341938093594 0 -0.0052923393143583467 -0.00016072894398479158 0 -0.0053175560951533047 -0.00018806194620957464 0 -0.0053504338253355412 -0.00018477898910028553 0 -0.0053504338253355412 -0.00018477898910028553 0 -0.005337231685073906 -0.00021161341938093594 0 -0.0053954226547395711 -0.00026226062426267134 0 -0.0054410631529464744 -0.00019366050280725293 0 -0.0053504338253355412 -0.00018477898910028553 0 -0.0053954226547395711 -0.00026226062426267134 0 -0.005337231685073906 -0.00021161341938093594 0 -0.0053954226547395711 -0.00026226062426267134 0 -0.0053147881299148558 -0.00030500200106171828 0 -0.0054177496476895829 -0.00042411306203104691 0 -0.0052908863868338322 -0.00052806545359273898 0 -0.0053147881299148558 -0.00030500200106171828 0 -0.005503839102350771 -0.00034046073883474382 0 -0.0053954226547395711 -0.00026226062426267134 0 -0.0054177496476895829 -0.00042411306203104691 0 -0.0053954226547395711 -0.00026226062426267134 0 -0.0054177496476895829 -0.00042411306203104691 0 -0.0053147881299148558 -0.00030500200106171828 0 -0.005503839102350771 -0.00034046073883474382 0 -0.0056145909022914759 -0.00052763303616603784 0 -0.0054177496476895829 -0.00042411306203104691 0 -0.0052908863868338322 -0.00052806545359273898 0 -0.0053147881299148558 -0.00030500200106171828 0 -0.0051291674940414592 -0.00042890130584218017 0 -0.0052908863868338322 -0.00052806545359273898 0 -0.0051291674940414592 -0.00042890130584218017 0 -0.0051592539914811488 -0.00057537880471085251 0 -0.0053147881299148558 -0.00030500200106171828 0 -0.0050353194529013596 -0.00021661140405647926 0 -0.0051291674940414592 -0.00042890130584218017 0 -0.0053077145673849999 -0.00019543655981155419 0 -0.005337231685073906 -0.00021161341938093594 0 -0.0053147881299148558 -0.00030500200106171828 0 -0.0052167143392025184 -9.6835035816349781e-05 0 -0.0053147881299148558 -0.00030500200106171828 0 -0.0050353194529013596 -0.00021661140405647926 0 -0.0052693814204550242 -0.00015036683107561992 0 -0.0053125113035585843 -0.00028865683437247848 0 -0.0048377623574374952 -3.2743414802422541e-05 0 -0.0050353194529013596 -0.00021661140405647926 0 -0.0048453110814231405 -0.00045693461782644456 0 -0.0045457553051782233 -0.0001966656633943489 0 -0.0048377623574374952 -3.2743414802422541e-05 0 -0.0048453110814231405 -0.00045693461782644456 0 -0.0038413708023206901 -0.00073767700769468739 0 -0.0052689033499048032 -0.00070204454668751305 0 -0.0053613572722880304 -0.00086250462886019693 0 -0.0053853671147781248 -0.00099245864930062075 0 -0.0052719920262630981 -0.0008858450810885467 0 -0.0048453110814231405 -0.00045693461782644456 0 -0.0051291674940414592 -0.00042890130584218017 0 -0.0051592539914811488 -0.00057537880471085251 0 -0.0050353194529013596 -0.00021661140405647926 0 -0.0048453110814231405 -0.00045693461782644456 0 -0.0051291674940414592 -0.00042890130584218017 0 -0.0052689033499048032 -0.00070204454668751305 0 -0.0051020931248570755 -0.00071234691492635851 0 -0.0048453110814231405 -0.00045693461782644456 0 -0.0051592539914811488 -0.00057537880471085251 0 -0.0051864442235452406 -0.00073974139119895965 0 -0.0052719920262630981 -0.0008858450810885467 0 -0.0052039145017646884 -0.00076289956580359564 0 -0.0051864442235452406 -0.00073974139119895965 0 -0.0053613572722880304 -0.00086250462886019693 0 -0.0052719920262630981 -0.0008858450810885467 0 -0.0053213747049553443 -0.00076884808187104687 0 -0.0052719920262630981 -0.0008858450810885467 0 -0.0052039145017646884 -0.00076289956580359564 0 -0.0053213747049553443 -0.00076884808187104687 0 -0.0052032021006634347 -0.00076740636506137457 0 -0.0052262908644806648 -0.00077079375562689914 0 -0.0052039145017646884 -0.00076289956580359564 0 -0.0053213747049553443 -0.00076884808187104687 0 -0.0053155539993258432 -0.00064260171229019744 0 -0.0052039145017646884 -0.00076289956580359564 0 -0.005203765931125222 -0.00083187133090078396 0 -0.0051170778001759544 -0.00091651868321122962 0 -0.005203765931125222 -0.00083187133090078396 0 -0.0052252230306142284 -0.00092843456574334085 0 -0.0051170778001759544 -0.00091651868321122962 0 -0.0052039145017646884 -0.00076289956580359564 0 -0.005203765931125222 -0.00083187133090078396 0 -0.0051864442235452406 -0.00073974139119895965 0 -0.005203765931125222 -0.00083187133090078396 0 -0.0052660618945565736 -0.00083761483338896069 0 -0.0052252230306142284 -0.00092843456574334085 0 -0.0052660618945565736 -0.00083761483338896069 0 -0.0051864442235452406 -0.00073974139119895965 0 -0.0053023931746075748 -0.00070721022211807675 0 -0.005203765931125222 -0.00083187133090078396 0 -0.0052660618945565736 -0.00083761483338896069 0 -0.0051864442235452406 -0.00073974139119895965 0 -0.0052660618945565736 -0.00083761483338896069 0 -0.0053982793210016816 -0.0008195157536179437 0 -0.0053023931746075748 -0.00070721022211807675 0 -0.0052660618945565736 -0.00083761483338896069 0 -0.0053982793210016816 -0.0008195157536179437 0 -0.0053311833567275084 -0.00094799791130976909 0 -0.005565466372371531 -0.00076093254911406831 0 -0.0053982793210016816 -0.0008195157536179437 0 -0.0055207292082249879 -0.00098474751715651575 0 -0.005565466372371531 -0.00076093254911406831 0 -0.0053982793210016816 -0.0008195157536179437 0 -0.005435029983454783 -0.00062596385067242996 0 -0.0056145909022914759 -0.00052763303616603784 0 -0.005565466372371531 -0.00076093254911406831 0 -0.005435029983454783 -0.00062596385067242996 0 -0.0053982793210016816 -0.0008195157536179437 0 -0.005435029983454783 -0.00062596385067242996 0 -0.0053023931746075748 -0.00070721022211807675 0 -0.0056145909022914759 -0.00052763303616603784 0 -0.0054177496476895829 -0.00042411306203104691 0 -0.005435029983454783 -0.00062596385067242996 0 -0.0054177496476895829 -0.00042411306203104691 0 -0.0052908863868338322 -0.00052806545359273898 0 -0.005435029983454783 -0.00062596385067242996 0 -0.0052908863868338322 -0.00052806545359273898 0 -0.005435029983454783 -0.00062596385067242996 0 -0.0053023931746075748 -0.00070721022211807675 0 -0.0052908863868338322 -0.00052806545359273898 0 -0.0051592539914811488 -0.00057537880471085251 0 -0.0053023931746075748 -0.00070721022211807675 0 -0.0051592539914811488 -0.00057537880471085251 0 -0.0051864442235452406 -0.00073974139119895965 0 -0.0053023931746075748 -0.00070721022211807675 0 -0.0053542472039357228 -0.0010525297961499235 0 -0.0052689494239671654 -0.0010119020138084863 0 -0.0052646630667255835 -0.0011134468827697062 0 -0.0061366660068229223 -0.00094362394143616686 0 -0.0061383815305361333 -0.00092820624597830077 0 -0.0060561571885386703 -0.00091633362942775316 0 -0.0061366660068229223 -0.00094362394143616686 0 -0.0061383815305361333 -0.00092820624597830077 0 -0.0062171531333454306 -0.00096420093618089216 0 -0.0053542472039357228 -0.0010525297961499235 0 -0.0055207292082249879 -0.00098474751715651575 0 -0.0053311833567275084 -0.00094799791130976909 0 -0.0053982793210016816 -0.0008195157536179437 0 -0.0055207292082249879 -0.00098474751715651575 0 -0.0053311833567275084 -0.00094799791130976909 0 -0.0057086117106596064 -0.0010356205647489517 0 -0.0058061733059554107 -0.00091859057872685783 0 -0.0053542472039357228 -0.0010525297961499235 0 -0.0052689494239671654 -0.0010119020138084863 0 -0.0053311833567275084 -0.00094799791130976909 0 -0.0052689494239671654 -0.0010119020138084863 0 -0.0053311833567275084 -0.00094799791130976909 0 -0.0052252230306142284 -0.00092843456574334085 0 -0.0052660618945565736 -0.00083761483338896069 0 -0.0053311833567275084 -0.00094799791130976909 0 -0.0052252230306142284 -0.00092843456574334085 0 -0.0052689494239671654 -0.0010119020138084863 0 -0.0052252230306142284 -0.00092843456574334085 0 -0.0051909557431094183 -0.0010229551777967308 0 -0.0052252230306142284 -0.00092843456574334085 0 -0.0051170778001759544 -0.00091651868321122962 0 -0.0051909557431094183 -0.0010229551777967308 0 -0.0051238972665348338 -0.0010364908129761995 0 -0.0051909557431094183 -0.0010229551777967308 0 -0.0051556744936449989 -0.0011003356341696992 0 -0.0051170778001759544 -0.00091651868321122962 0 -0.0051238972665348338 -0.0010364908129761995 0 -0.0051909557431094183 -0.0010229551777967308 0 -0.0052689494239671654 -0.0010119020138084863 0 -0.0051909557431094183 -0.0010229551777967308 0 -0.0052646630667255835 -0.0011134468827697062 0 -0.005326344110961825 -0.00072498521558868995 0 -0.0058593143899610105 -0.00083297163495748715 0 -0.0051909557431094183 -0.0010229551777967308 0 -0.0051556744936449989 -0.0011003356341696992 0 -0.0052646630667255835 -0.0011134468827697062 0 -0.0056648025302083313 -0.00035486210674677505 0 -0.0056430431483868943 -0.00026743714925062128 0 -0.0057252746394297034 -0.00026712943917917627 0 -0.0066693003717937134 -0.00083565987267467698 0 -0.006524879461258056 -0.00098900770684604293 0 -0.0065616458011250331 -0.00077618321452856511 0 -0.0056648025302083313 -0.00035486210674677505 0 -0.0056430431483868943 -0.00026743714925062128 0 -0.0055684672621563614 -0.00036970379110650922 0 -0.0061946765602227455 -0.00051346892480874683 0 -0.0058593143899610105 -0.00083297163495748715 0 -0.006524879461258056 -0.00098900770684604293 0 -0.0064296403122782236 -0.00082019141047561927 0 -0.0065616458011250331 -0.00077618321452856511 0 -0.006524879461258056 -0.00098900770684604293 0 -0.0063434732532370404 -0.00089869345205553927 0 -0.0064296403122782236 -0.00082019141047561927 0 -0.0058593143899610105 -0.00083297163495748715 0 -0.0064134036174370397 -0.0010045204424842685 0 -0.0061383815305361333 -0.00092820624597830077 0 -0.0060826463302634838 -0.00099349365415791796 0 -0.0062171531333454306 -0.00096420093618089216 0 -0.0057086117106596064 -0.0010356205647489517 0 -0.0058593143899610105 -0.00083297163495748715 0 -0.006524879461258056 -0.00098900770684604293 0 -0.0062171531333454306 -0.00096420093618089216 0 -0.0063434732532370404 -0.00089869345205553927 0 -0.0062718889664963992 -0.00086343966487511235 0 -0.0062171531333454306 -0.00096420093618089216 0 -0.0063434732532370404 -0.00089869345205553927 0 -0.0062718889664963992 -0.00086343966487511235 0 -0.0063434732532370404 -0.00089869345205553927 0 -0.0064296403122782236 -0.00082019141047561927 0 -0.0063322330203312701 -0.00074735070063884385 0 -0.0064296403122782236 -0.00082019141047561927 0 -0.0064649288034005076 -0.00071938815202629764 0 -0.0062718889664963992 -0.00086343966487511235 0 -0.0063322330203312701 -0.00074735070063884385 0 -0.0064296403122782236 -0.00082019141047561927 0 -0.0064296403122782236 -0.00082019141047561927 0 -0.0064649288034005076 -0.00071938815202629764 0 -0.0065616458011250331 -0.00077618321452856511 0 -0.0064649288034005076 -0.00071938815202629764 0 -0.006572110396630206 -0.00063752560222293982 0 -0.0065616458011250331 -0.00077618321452856511 0 -0.0064649288034005076 -0.00071938815202629764 0 -0.006572110396630206 -0.00063752560222293982 0 -0.006435726048975892 -0.00062234280840639414 0 -0.0063322330203312701 -0.00074735070063884385 0 -0.0064649288034005076 -0.00071938815202629764 0 -0.006435726048975892 -0.00062234280840639414 0 -0.0064285292632800589 -0.00049077450182858891 0 -0.006435726048975892 -0.00062234280840639414 0 -0.0065338681980914165 -0.00051357973804062927 0 -0.006572110396630206 -0.00063752560222293982 0 -0.0065338681980914165 -0.00051357973804062927 0 -0.0066645033528878808 -0.00050397496913178385 0 -0.006572110396630206 -0.00063752560222293982 0 -0.006435726048975892 -0.00062234280840639414 0 -0.0065338681980914165 -0.00051357973804062927 0 -0.0065338681980914165 -0.00051357973804062927 0 -0.0066645033528878808 -0.00050397496913178385 0 -0.0065887603475186744 -0.00043240648075511235 0 -0.0065338681980914165 -0.00051357973804062927 0 -0.0065217630287740308 -0.00042961666856007635 0 -0.0065887603475186744 -0.00043240648075511235 0 -0.0064285292632800589 -0.00049077450182858891 0 -0.0065338681980914165 -0.00051357973804062927 0 -0.0065217630287740308 -0.00042961666856007635 0 -0.0066645033528878808 -0.00050397496913178385 0 -0.0068019329690216313 -0.00052767578320430666 0 -0.0067810016768956481 -0.00040811043323560879 0 -0.006572110396630206 -0.00063752560222293982 0 -0.0066645033528878808 -0.00050397496913178385 0 -0.0066932578376133721 -0.00062361840733881669 0 -0.0066932578376133721 -0.00062361840733881669 0 -0.0067962477575771868 -0.00070276555474193462 0 -0.0068019329690216313 -0.00052767578320430666 0 -0.0066645033528878808 -0.00050397496913178385 0 -0.0066932578376133721 -0.00062361840733881669 0 -0.0068019329690216313 -0.00052767578320430666 0 -0.0066932578376133721 -0.00062361840733881669 0 -0.0066581975781764028 -0.00071314138400774523 0 -0.0067962477575771868 -0.00070276555474193462 0 -0.006572110396630206 -0.00063752560222293982 0 -0.0066932578376133721 -0.00062361840733881669 0 -0.0066581975781764028 -0.00071314138400774523 0 -0.006572110396630206 -0.00063752560222293982 0 -0.0066581975781764028 -0.00071314138400774523 0 -0.0065616458011250331 -0.00077618321452856511 0 -0.0066693003717937134 -0.00083565987267467698 0 -0.0066581975781764028 -0.00071314138400774523 0 -0.0065616458011250331 -0.00077618321452856511 0 -0.0061946765602227455 -0.00051346892480874683 0 -0.0062511199015074714 -0.00044166115856926702 0 -0.0066693003717937134 -0.00083565987267467698 0 -0.0066581975781764028 -0.00071314138400774523 0 -0.0067962477575771868 -0.00070276555474193462 0 -0.0056430431483868943 -0.00026743714925062128 0 -0.0057186916327325466 -0.0001657889619256366 0 -0.0057252746394297034 -0.00026712943917917627 0 -0.0058094528847434223 -0.00024306510388281418 0 -0.0057186916327325466 -0.0001657889619256366 0 -0.0057252746394297034 -0.00026712943917917627 0 -0.0058094528847434223 -0.00024306510388281418 0 -0.0058105897758251347 -0.00015313522485486998 0 -0.0057186916327325466 -0.0001657889619256366 0 -0.0058094528847434223 -0.00024306510388281418 0 -0.0058105897758251347 -0.00015313522485486998 0 -0.0058930106663622143 -0.00018629178633389326 0 -0.0058105897758251347 -0.00015313522485486998 0 -0.0057186916327325466 -0.0001657889619256366 0 -0.005793855628523953 -5.8891133399641271e-05 0 -0.0062511199015074714 -0.00044166115856926702 0 -0.0063569585553377534 -0.00031892121527737037 0 -0.0067962477575771868 -0.00070276555474193462 0 -0.00692398264075494 -0.00058096772812882139 0 -0.0068019329690216313 -0.00052767578320430666 0 -0.0058105897758251347 -0.00015313522485486998 0 -0.005793855628523953 -5.8891133399641271e-05 0 -0.0059300362911593645 -5.802164062581448e-05 0 -0.00692398264075494 -0.00058096772812882139 0 -0.0070630489613333226 -0.00045138550156343765 0 -0.0068989955555119158 -0.0003997231627951826 0 -0.0063569585553377534 -0.00031892121527737037 0 -0.0064985111818727705 -0.00018785563153008336 0 -0.00692398264075494 -0.00058096772812882139 0 -0.0068019329690216313 -0.00052767578320430666 0 -0.0068989955555119158 -0.0003997231627951826 0 -0.0060149336408341896 2.988765265329761e-05 0 -0.0059300362911593645 -5.802164062581448e-05 0 -0.0058752792814439382 6.0759592443425358e-05 0 -0.005793855628523953 -5.8891133399641271e-05 0 -0.0059300362911593645 -5.802164062581448e-05 0 -0.0058752792814439382 6.0759592443425358e-05 0 -0.0060149336408341896 2.988765265329761e-05 0 -0.0059300362911593645 -5.802164062581448e-05 0 -0.0060173373280190314 -6.6935062994890617e-05 0 -0.0059300362911593645 -5.802164062581448e-05 0 -0.0059808607977267971 -0.00014634780545822005 0 -0.0060173373280190314 -6.6935062994890617e-05 0 -0.0059300362911593645 -5.802164062581448e-05 0 -0.0059808607977267971 -0.00014634780545822005 0 -0.0058930106663622143 -0.00018629178633389326 0 -0.0058105897758251347 -0.00015313522485486998 0 -0.0059300362911593645 -5.802164062581448e-05 0 -0.0058930106663622143 -0.00018629178633389326 0 -0.0058930106663622143 -0.00018629178633389326 0 -0.0059510778809364747 -0.00024088634755118252 0 -0.0058939399069501512 -0.00025755172323685058 0 -0.0058094528847434223 -0.00024306510388281418 0 -0.0058930106663622143 -0.00018629178633389326 0 -0.0058939399069501512 -0.00025755172323685058 0 -0.0059808607977267971 -0.00014634780545822005 0 -0.0058930106663622143 -0.00018629178633389326 0 -0.0059510778809364747 -0.00024088634755118252 0 -0.0059808607977267971 -0.00014634780545822005 0 -0.0059510778809364747 -0.00024088634755118252 0 -0.0060330486661269557 -0.00021321749669321905 0 -0.0059510778809364747 -0.00024088634755118252 0 -0.0059279361488016212 -0.00030635050142789377 0 -0.0058939399069501512 -0.00025755172323685058 0 -0.0059510778809364747 -0.00024088634755118252 0 -0.0059279361488016212 -0.00030635050142789377 0 -0.0059607420219418639 -0.00029731072023095795 0 -0.0058976812772452442 -0.00030246566583496488 0 -0.0059313892827605472 -0.0002963315601853857 0 -0.0057861676402761802 -0.00028427777518833333 0 -0.005858199997609741 -0.00041316183022027599 0 -0.0059607420219418639 -0.00029731072023095795 0 -0.0057861676402761802 -0.00028427777518833333 0 -0.005858199997609741 -0.00041316183022027599 0 -0.0057181235656006075 -0.00038931624939340421 0 -0.0057861676402761802 -0.00028427777518833333 0 -0.0057181235656006075 -0.00038931624939340421 0 -0.0056376696348702056 -0.00029315752401710553 0 -0.0057181235656006075 -0.00038931624939340421 0 -0.0056376696348702056 -0.00029315752401710553 0 -0.0056161439195061696 -0.00044624893779597748 0 -0.0059279361488016212 -0.00030635050142789377 0 -0.0058635215305296593 -0.00032353443150357538 0 -0.0058939399069501512 -0.00025755172323685058 0 -0.0058976812772452442 -0.00030246566583496488 0 -0.0055294500737598862 -0.00061745791702492937 0 -0.0058094528847434223 -0.00024306510388281418 0 -0.0058635215305296593 -0.00032353443150357538 0 -0.0058939399069501512 -0.00025755172323685058 0 -0.0058094528847434223 -0.00024306510388281418 0 -0.0058635215305296593 -0.00032353443150357538 0 -0.0057632211078308638 -0.00034038645832301098 0 -0.0058094528847434223 -0.00024306510388281418 0 -0.0057252746394297034 -0.00026712943917917627 0 -0.0057632211078308638 -0.00034038645832301098 0 -0.0056648025302083313 -0.00035486210674677505 0 -0.0057252746394297034 -0.00026712943917917627 0 -0.0057632211078308638 -0.00034038645832301098 0 -0.005326344110961825 -0.00072498521558868995 0 -0.0054227658298547816 -0.0007196964860566213 0 -0.0051238972665348338 -0.0010364908129761995 0 -0.0051556744936449989 -0.0011003356341696992 0 -0.0050801558070610892 -0.0010844917316078474 0 -0.0051238972665348338 -0.0010364908129761995 0 -0.0050801558070610892 -0.0010844917316078474 0 -0.0050686016404112213 -0.0010276505108860556 0 -0.0055294500737598862 -0.00061745791702492937 0 -0.0052282247810809656 -0.00077177335000264873 0 -0.0056376696348702056 -0.00029315752401710553 0 -0.0054636089663533992 -0.00047510882060688232 0 -0.0056161439195061696 -0.00044624893779597748 0 -0.0050360135616491783 -0.0010816737495712404 0 -0.0050801558070610892 -0.0010844917316078474 0 -0.0050686016404112213 -0.0010276505108860556 0 -0.0055294500737598862 -0.00061745791702492937 0 -0.0054227658298547816 -0.0007196964860566213 0 -0.0054636089663533992 -0.00047510882060688232 0 -0.0055719758571449911 -0.00056436972911512483 0 -0.0056161439195061696 -0.00044624893779597748 0 -0.0051170778001759544 -0.00091651868321122962 0 -0.0051238972665348338 -0.0010364908129761995 0 -0.0050686016404112213 -0.0010276505108860556 0 -0.0053155539993258432 -0.00064260171229019744 0 -0.0054636089663533992 -0.00047510882060688232 0 -0.0054644400671431939 -0.00062061248954281209 0 -0.0052262908644806648 -0.00077079375562689914 0 -0.0052282247810809656 -0.00077177335000264873 0 -0.0054636089663533992 -0.00047510882060688232 0 -0.0054644400671431939 -0.00062061248954281209 0 -0.0055719758571449911 -0.00056436972911512483 0 -0.0055526210941205028 -0.00067685545927571953 0 -0.0054644400671431939 -0.00062061248954281209 0 -0.0055719758571449911 -0.00056436972911512483 0 -0.005703864562410745 -0.00066611304576609141 0 -0.0055719758571449911 -0.00056436972911512483 0 -0.0056912426103660884 -0.00050122286542299223 0 -0.005703864562410745 -0.00066611304576609141 0 -0.0055526210941205028 -0.00067685545927571953 0 -0.0055719758571449911 -0.00056436972911512483 0 -0.005703864562410745 -0.00066611304576609141 0 -0.0058120981167964899 -0.00053722885057635333 0 -0.0056912426103660884 -0.00050122286542299223 0 -0.005703864562410745 -0.00066611304576609141 0 -0.0058120981167964899 -0.00053722885057635333 0 -0.005859249084818198 -0.0006476862455679378 0 -0.005858199997609741 -0.00041316183022027599 0 -0.0057181235656006075 -0.00038931624939340421 0 -0.0056912426103660884 -0.00050122286542299223 0 -0.005858199997609741 -0.00041316183022027599 0 -0.0058120981167964899 -0.00053722885057635333 0 -0.0056912426103660884 -0.00050122286542299223 0 -0.0057181235656006075 -0.00038931624939340421 0 -0.0056161439195061696 -0.00044624893779597748 0 -0.0056912426103660884 -0.00050122286542299223 0 -0.0055719758571449911 -0.00056436972911512483 0 -0.0056161439195061696 -0.00044624893779597748 0 -0.0056912426103660884 -0.00050122286542299223 0 -0.0059789903542668355 -0.00048026209101456596 0 -0.0060406445996910299 -0.0005898950956543306 0 -0.0060985810797290372 -0.00041559851556860895 0 -0.005858199997609741 -0.00041316183022027599 0 -0.0058120981167964899 -0.00053722885057635333 0 -0.0059789903542668355 -0.00048026209101456596 0 -0.0059688088876496889 -0.00048772223596473891 0 -0.0058115768711058217 -0.00065324182229411273 0 -0.0059789903542668355 -0.00048026209101456596 0 -0.0057925691495736599 -0.00065417129343117643 0 -0.0060406445996910299 -0.0005898950956543306 0 -0.0058120981167964899 -0.00053722885057635333 0 -0.0059789903542668355 -0.00048026209101456596 0 -0.005859249084818198 -0.0006476862455679378 0 -0.0060406445996910299 -0.0005898950956543306 0 -0.0061684271791623948 -0.00059741688007512814 0 -0.0061799592893437595 -0.00046673946495887867 0 -0.0061145064711256763 -0.00073825450238541076 0 -0.0060406445996910299 -0.0005898950956543306 0 -0.0061684271791623948 -0.00059741688007512814 0 -0.0061145064711256763 -0.00073825450238541076 0 -0.0061684271791623948 -0.00059741688007512814 0 -0.0062891112957631353 -0.00061012429485592275 0 -0.0061684271791623948 -0.00059741688007512814 0 -0.0062891112957631353 -0.00061012429485592275 0 -0.0062295130820673303 -0.0005547306886890508 0 -0.0029876552436141307 5.4463109548401265e-05 0 -0.0030017445977972351 8.7876770618176744e-05 0 -0.0030637997626814743 3.7453227393090227e-05 0 -0.0043660916946282732 -0.00020487075853043929 0 -0.004899520448009659 6.4331251206333775e-05 0 -0.0062891112957631353 -0.00061012429485592275 0 -0.0062295130820673303 -0.0005547306886890508 0 -0.0062645695203983557 -0.00049705052058890279 0 -0.004899520448009659 6.4331251206333775e-05 0 -0.0066121470330038987 8.1219423092978779e-05 0 -0.0062891112957631353 -0.00061012429485592275 0 -0.0062645695203983557 -0.00049705052058890279 0 -0.0063461980603273264 -0.00043990013937503513 0 -0.0062295130820673303 -0.0005547306886890508 0 -0.0062645695203983557 -0.00049705052058890279 0 -0.0061799592893437595 -0.00046673946495887867 0 -0.0062645695203983557 -0.00049705052058890279 0 -0.0061799592893437595 -0.00046673946495887867 0 -0.0062722032738797319 -0.00040760021037502522 0 -0.0062645695203983557 -0.00049705052058890279 0 -0.0062722032738797319 -0.00040760021037502522 0 -0.0063461980603273264 -0.00043990013937503513 0 -0.0060406445996910299 -0.0005898950956543306 0 -0.0061799592893437595 -0.00046673946495887867 0 -0.0060985810797290372 -0.00041559851556860895 0 -0.0061684271791623948 -0.00059741688007512814 0 -0.0062295130820673303 -0.0005547306886890508 0 -0.0061799592893437595 -0.00046673946495887867 0 -0.0061799592893437595 -0.00046673946495887867 0 -0.0062636078454767321 -0.00032803049445358364 0 -0.0060985810797290372 -0.00041559851556860895 0 -0.0062636078454767321 -0.00032803049445358364 0 -0.0061136191816181934 -0.00032819076491974128 0 -0.0060985810797290372 -0.00041559851556860895 0 -0.0061799592893437595 -0.00046673946495887867 0 -0.0062722032738797319 -0.00040760021037502522 0 -0.0062636078454767321 -0.00032803049445358364 0 -0.0062722032738797319 -0.00040760021037502522 0 -0.0062636078454767321 -0.00032803049445358364 0 -0.0063780077470267952 -0.00029355130899240818 0 -0.0062636078454767321 -0.00032803049445358364 0 -0.0062954810743821917 -0.00023302692965116242 0 -0.0063780077470267952 -0.00029355130899240818 0 -0.0062636078454767321 -0.00032803049445358364 0 -0.0061909090890539045 -0.00027435639920548655 0 -0.0062954810743821917 -0.00023302692965116242 0 -0.0062636078454767321 -0.00032803049445358364 0 -0.0061909090890539045 -0.00027435639920548655 0 -0.0061136191816181934 -0.00032819076491974128 0 -0.0061909090890539045 -0.00027435639920548655 0 -0.0060822364833093313 -0.00026828011276647549 0 -0.0061948613068435474 -0.00021839928643759042 0 -0.0060822364833093313 -0.00026828011276647549 0 -0.0061136191816181934 -0.00032819076491974128 0 -0.0060198444909196885 -0.00036019884422442653 0 -0.0061909090890539045 -0.00027435639920548655 0 -0.0060822364833093313 -0.00026828011276647549 0 -0.0061136191816181934 -0.00032819076491974128 0 -0.0061136191816181934 -0.00032819076491974128 0 -0.0060985810797290372 -0.00041559851556860895 0 -0.0060198444909196885 -0.00036019884422442653 0 -0.0059789903542668355 -0.00048026209101456596 0 -0.0060985810797290372 -0.00041559851556860895 0 -0.0060198444909196885 -0.00036019884422442653 0 -0.005858199997609741 -0.00041316183022027599 0 -0.0059789903542668355 -0.00048026209101456596 0 -0.0060198444909196885 -0.00036019884422442653 0 -0.005858199997609741 -0.00041316183022027599 0 -0.0060198444909196885 -0.00036019884422442653 0 -0.0059607420219418639 -0.00029731072023095795 0 -0.0060822364833093313 -0.00026828011276647549 0 -0.0060198444909196885 -0.00036019884422442653 0 -0.0059607420219418639 -0.00029731072023095795 0 -0.0060822364833093313 -0.00026828011276647549 0 -0.0059607420219418639 -0.00029731072023095795 0 -0.0060330486661269557 -0.00021321749669321905 0 -0.0059510778809364747 -0.00024088634755118252 0 -0.0059607420219418639 -0.00029731072023095795 0 -0.0060330486661269557 -0.00021321749669321905 0 -0.0060822364833093313 -0.00026828011276647549 0 -0.0060330486661269557 -0.00021321749669321905 0 -0.0061364844850389745 -0.00018249008180783652 0 -0.0060822364833093313 -0.00026828011276647549 0 -0.0061364844850389745 -0.00018249008180783652 0 -0.0061948613068435474 -0.00021839928643759042 0 -0.0061364844850389745 -0.00018249008180783652 0 -0.0061812646533803478 -0.00011716556928163566 0 -0.006065090073379271 -0.00011940454368504551 0 -0.0059808607977267971 -0.00014634780545822005 0 -0.0060330486661269557 -0.00021321749669321905 0 -0.006065090073379271 -0.00011940454368504551 0 -0.0060330486661269557 -0.00021321749669321905 0 -0.0061364844850389745 -0.00018249008180783652 0 -0.006065090073379271 -0.00011940454368504551 0 -0.0059808607977267971 -0.00014634780545822005 0 -0.006065090073379271 -0.00011940454368504551 0 -0.0060173373280190314 -6.6935062994890617e-05 0 -0.006065090073379271 -0.00011940454368504551 0 -0.0060976952154725931 -3.1998836084130458e-05 0 -0.0060173373280190314 -6.6935062994890617e-05 0 -0.0061812646533803478 -0.00011716556928163566 0 -0.006065090073379271 -0.00011940454368504551 0 -0.0060976952154725931 -3.1998836084130458e-05 0 -0.0061812646533803478 -0.00011716556928163566 0 -0.0060976952154725931 -3.1998836084130458e-05 0 -0.0062010056681171726 -3.0438989906385367e-05 0 -0.0060976952154725931 -3.1998836084130458e-05 0 -0.0062010056681171726 -3.0438989906385367e-05 0 -0.0061612412274960953 4.5753918701769777e-05 0 -0.0062010056681171726 -3.0438989906385367e-05 0 -0.0061612412274960953 4.5753918701769777e-05 0 -0.0062593723660184274 4.6226569289728762e-05 0 -0.0060149336408341896 2.988765265329761e-05 0 -0.0060976952154725931 -3.1998836084130458e-05 0 -0.0060173373280190314 -6.6935062994890617e-05 0 -0.0060149336408341896 2.988765265329761e-05 0 -0.0060976952154725931 -3.1998836084130458e-05 0 -0.0061612412274960953 4.5753918701769777e-05 0 -0.0063185418377596694 -6.7089178817459423e-05 0 -0.0064945081861491191 2.3152983586407459e-05 0 -0.0063127593288730809 -6.3204196960371339e-05 0 -0.0065300911764391949 9.7824201493008965e-06 0 -0.006379153968586712 6.4113805416503701e-05 0 -0.0062593723660184274 4.6226569289728762e-05 0 -0.0063127593288730809 -6.3204196960371339e-05 0 -0.006379153968586712 6.4113805416503701e-05 0 -0.0062010056681171726 -3.0438989906385367e-05 0 -0.0062593723660184274 4.6226569289728762e-05 0 -0.0063127593288730809 -6.3204196960371339e-05 0 -0.0061812646533803478 -0.00011716556928163566 0 -0.0062010056681171726 -3.0438989906385367e-05 0 -0.0063127593288730809 -6.3204196960371339e-05 0 -0.0061812646533803478 -0.00011716556928163566 0 -0.0063127593288730809 -6.3204196960371339e-05 0 -0.0062580875353178533 -0.000158209189689575 0 -0.0063127593288730809 -6.3204196960371339e-05 0 -0.0063554071107255802 -0.00016938872033544542 0 -0.0064357806535004017 -0.00011119532254790589 0 -0.0063127593288730809 -6.3204196960371339e-05 0 -0.0062580875353178533 -0.000158209189689575 0 -0.0063554071107255802 -0.00016938872033544542 0 -0.0062580875353178533 -0.000158209189689575 0 -0.0062954810743821917 -0.00023302692965116242 0 -0.0063554071107255802 -0.00016938872033544542 0 -0.0061364844850389745 -0.00018249008180783652 0 -0.0062580875353178533 -0.000158209189689575 0 -0.0061948613068435474 -0.00021839928643759042 0 -0.0061364844850389745 -0.00018249008180783652 0 -0.0061812646533803478 -0.00011716556928163566 0 -0.0062580875353178533 -0.000158209189689575 0 -0.0061909090890539045 -0.00027435639920548655 0 -0.0061948613068435474 -0.00021839928643759042 0 -0.0062954810743821917 -0.00023302692965116242 0 -0.0062580875353178533 -0.000158209189689575 0 -0.0061948613068435474 -0.00021839928643759042 0 -0.0062954810743821917 -0.00023302692965116242 0 -0.0062954810743821917 -0.00023302692965116242 0 -0.0063794225874163196 -0.00017736306101947494 0 -0.0063780077470267952 -0.00029355130899240818 0 -0.0062954810743821917 -0.00023302692965116242 0 -0.0063794225874163196 -0.00017736306101947494 0 -0.0063554071107255802 -0.00016938872033544542 0 -0.0063794225874163196 -0.00017736306101947494 0 -0.0064524570287162715 -0.00016457468332838499 0 -0.0063871540889949563 -0.00015319874168638723 0 -0.0064524570287162715 -0.00016457468332838499 0 -0.0063554071107255802 -0.00016938872033544542 0 -0.0064357806535004017 -0.00011119532254790589 0 -0.0063794225874163196 -0.00017736306101947494 0 -0.0064524570287162715 -0.00016457468332838499 0 -0.0063554071107255802 -0.00016938872033544542 0 -0.0064524570287162715 -0.00016457468332838499 0 -0.0064357806535004017 -0.00011119532254790589 0 -0.0066004471546734396 -0.00013194798643417514 0 -0.0064357806535004017 -0.00011119532254790589 0 -0.0065744783568669907 -3.9497573635414754e-05 0 -0.0066004471546734396 -0.00013194798643417514 0 -0.0065744783568669907 -3.9497573635414754e-05 0 -0.0064034841472983463 2.0081933522914443e-06 0 -0.0066429584439187273 0.00017751422536222951 0 -0.0063127593288730809 -6.3204196960371339e-05 0 -0.0064357806535004017 -0.00011119532254790589 0 -0.0064034841472983463 2.0081933522914443e-06 0 -0.0064357806535004017 -0.00011119532254790589 0 -0.0065744783568669907 -3.9497573635414754e-05 0 -0.0064034841472983463 2.0081933522914443e-06 0 -0.0073234064021722315 -4.7190190659551389e-07 0 -0.0068177524310569374 -8.6112441074805767e-05 0 -0.007061012811476663 -8.688136219103704e-06 0 -0.0065744783568669907 -3.9497573635414754e-05 0 -0.0066004471546734396 -0.00013194798643417514 0 -0.007061012811476663 -8.688136219103704e-06 0 -0.0066004471546734396 -0.00013194798643417514 0 -0.0068177524310569374 -8.6112441074805767e-05 0 -0.007061012811476663 -8.688136219103704e-06 0 -0.0066004471546734396 -0.00013194798643417514 0 -0.0068177524310569374 -8.6112441074805767e-05 0 -0.0063871540889949563 -0.00015319874168638723 0 -0.0073234064021722315 -4.7190190659551389e-07 0 -0.0065732326156178736 -9.9276687300666136e-08 0 -0.0068177524310569374 -8.6112441074805767e-05 0 -0.0065732326156178736 -9.9276687300666136e-08 0 -0.0068177524310569374 -8.6112441074805767e-05 0 -0.0063871540889949563 -0.00015319874168638723 0 -0.0065732326156178736 -9.9276687300666136e-08 0 -0.0063871540889949563 -0.00015319874168638723 0 -0.0058228145161885988 -5.5484161213419197e-07 0 -0.0064524570287162715 -0.00016457468332838499 0 -0.0066004471546734396 -0.00013194798643417514 0 -0.0063871540889949563 -0.00015319874168638723 0 -0.0063794225874163196 -0.00017736306101947494 0 -0.0063871540889949563 -0.00015319874168638723 0 -0.0060481446009912785 -2.0096368187454167e-05 0 -0.0063871540889949563 -0.00015319874168638723 0 -0.0058228145161885988 -5.5484161213419197e-07 0 -0.0060481446009912785 -2.0096368187454167e-05 0 -0.0058228145161885988 -5.5484161213419197e-07 0 -0.0050746532567334272 1.0376528227087197e-06 0 -0.0060481446009912785 -2.0096368187454167e-05 0 -0.0050726799462532312 8.9385476878800477e-08 0 -0.0048797514493159619 0.00031310141834533177 0 -0.0050715159342890597 8.4127902998662149e-07 0 -0.0038789605892648018 0.00023884565237676994 0 -0.0043859121533803766 -1.4614391306279274e-07 0 -0.0059243386294229837 0.00048859036019120435 0 -0.0060481446009912785 -2.0096368187454167e-05 0 -0.0062641891882610767 0.00034722158655014471 0 -0.0050746532567334272 1.0376528227087197e-06 0 -0.0059243386294229837 0.00048859036019120435 0 -0.0060481446009912785 -2.0096368187454167e-05 0 -0.0063794225874163196 -0.00017736306101947494 0 -0.0060481446009912785 -2.0096368187454167e-05 0 -0.0064225546810997283 0.00010540146777135541 0 -0.0063837530533818023 -0.00016749088159973517 0 -0.0063734068534758281 -0.00012010745190859032 0 -0.0060481446009912785 -2.0096368187454167e-05 0 -0.0064225546810997283 0.00010540146777135541 0 -0.0062641891882610767 0.00034722158655014471 0 -0.0063734068534758281 -0.00012010745190859032 0 -0.0066121470330038987 8.1219423092978779e-05 0 -0.0062722032738797319 -0.00040760021037502522 0 -0.0063780077470267952 -0.00029355130899240818 0 -0.0063461980603273264 -0.00043990013937503513 0 -0.0064225546810997283 0.00010540146777135541 0 -0.0062641891882610767 0.00034722158655014471 0 -0.0065172809793876902 0.0004839599476743059 0 -0.0038789605892648018 0.00023884565237676994 0 -0.0032751778452438131 0.00018727818846768642 0 -0.0035003914006763608 7.9901926841834421e-05 0 -0.0048797514493159619 0.00031310141834533177 0 -0.0048016436401868883 0.00044397632376326577 0 -0.0059243386294229837 0.00048859036019120435 0 -0.0062641891882610767 0.00034722158655014471 0 -0.0063399502460556468 0.00061956991569034152 0 -0.0065955830531824475 0.00074342926295334084 0 -0.0063399502460556468 0.00061956991569034152 0 -0.0065172809793876902 0.0004839599476743059 0 -0.0062641891882610767 0.00034722158655014471 0 -0.0063399502460556468 0.00061956991569034152 0 -0.0065172809793876902 0.0004839599476743059 0 -0.0030017445977972351 8.7876770618176744e-05 0 -0.0032751778452438131 0.00018727818846768642 0 -0.0031962796667628695 4.3228312913880693e-05 0 -0.004899520448009659 6.4331251206333775e-05 0 -0.0048016436401868883 0.00044397632376326577 0 -0.0030017445977972351 8.7876770618176744e-05 0 -0.0031962796667628695 4.3228312913880693e-05 0 -0.0030637997626814743 3.7453227393090227e-05 0 -0.0031075091016708784 2.5153746414868207e-06 0 -0.0031962796667628695 4.3228312913880693e-05 0 -0.0030637997626814743 3.7453227393090227e-05 0 -0.0032751778452438131 0.00018727818846768642 0 -0.0031962796667628695 4.3228312913880693e-05 0 -0.0035003914006763608 7.9901926841834421e-05 0 -0.0033399135705364904 -4.5629666065788265e-05 0 -0.0031962796667628695 4.3228312913880693e-05 0 -0.0035003914006763608 7.9901926841834421e-05 0 -0.0033399135705364904 -4.5629666065788265e-05 0 -0.0035003914006763608 7.9901926841834421e-05 0 -0.003664335074414945 -3.0074802119663371e-05 0 -0.0035430120553554558 -1.8002936281211009e-07 0 -0.003664335074414945 -3.0074802119663371e-05 0 -0.0043859121533803766 -1.4614391306279274e-07 0 -0.0038789605892648018 0.00023884565237676994 0 -0.003664335074414945 -3.0074802119663371e-05 0 -0.0043859121533803766 -1.4614391306279274e-07 0 -0.0038789605892648018 0.00023884565237676994 0 -0.0035003914006763608 7.9901926841834421e-05 0 -0.003664335074414945 -3.0074802119663371e-05 0 -0.010177536047389534 5.4781335343739879e-06 0 -0.010059663163737511 0.0002719605844020552 0 -0.0098921318675373113 0.00011828050563541947 0 -0.010177536047389534 5.4781335343739879e-06 0 -0.0098921318675373113 0.00011828050563541947 0 -0.0099098614904780356 -3.5628938461050534e-05 0 -0.010177536047389534 5.4781335343739879e-06 0 -0.010386988778320441 -3.0245393262056295e-07 0 -0.010907680503800633 7.4513697661770709e-07 0 -0.010177536047389534 5.4781335343739879e-06 0 -0.010386988778320441 -3.0245393262056295e-07 0 -0.010063127829275445 -6.0008410733996347e-05 0 -0.010177536047389534 5.4781335343739879e-06 0 -0.010907680503800633 7.4513697661770709e-07 0 -0.010059663163737511 0.0002719605844020552 0 -0.010910058644830255 9.4709879283805034e-07 0 -0.011891736044643121 0.00029625031461795822 0 -0.011771583840170779 -7.4039249986104691e-06 0 -0.010908782170035793 1.3828626765616825e-07 0 -0.010967781469891812 0.00024316751213395335 0 -0.011891736044643121 0.00029625031461795822 0 -0.012107293187946035 7.0389537854101595e-05 0 -0.011771583840170779 -7.4039249986104691e-06 0 -0.010059663163737511 0.0002719605844020552 0 -0.0097538557684467182 0.00021047528850045514 0 -0.0098921318675373113 0.00011828050563541947 0 -0.011891736044643121 0.00029625031461795822 0 -0.012233707745575828 0.00019422581228115574 0 -0.012107293187946035 7.0389537854101595e-05 0 -0.012233707745575828 0.00019422581228115574 0 -0.012280069831490917 3.382185659174552e-05 0 -0.012107293187946035 7.0389537854101595e-05 0 -0.010967781469891812 0.00024316751213395335 0 -0.011020702886615875 0.00020878154985906014 0 -0.0097538557684467182 0.00021047528850045514 0 -0.0097444052957879005 0.00016432845722952889 0 -0.0096819270463220017 0.00018189505368160786 0 -0.012233707745575828 0.00019422581228115574 0 -0.012374802135942182 0.00015085660048101571 0 -0.012280069831490917 3.382185659174552e-05 0 -0.011020702886615875 0.00020878154985906014 0 -0.010893197345482464 0.00019181426568198661 0 -0.0097444052957879005 0.00016432845722952889 0 -0.0097207981092265333 7.0676738212118833e-05 0 -0.0097047414071783859 0.00013823689354980706 0 -0.0097444052957879005 0.00016432845722952889 0 -0.009729088849934878 -6.9806355263201048e-06 0 -0.0095911829256962733 -1.7455632976315637e-05 0 -0.0097444052957879005 0.00016432845722952889 0 -0.0097047414071783859 0.00013823689354980706 0 -0.0096819270463220017 0.00018189505368160786 0 -0.0097370180640564113 0.00015045893708161252 0 -0.0096613204728515697 3.1262582458590894e-05 0 -0.0097444052957879005 0.00016432845722952889 0 -0.0098921318675373113 0.00011828050563541947 0 -0.009729088849934878 -6.9806355263201048e-06 0 -0.0097538557684467182 0.00021047528850045514 0 -0.0097444052957879005 0.00016432845722952889 0 -0.0098921318675373113 0.00011828050563541947 0 -0.0098921318675373113 0.00011828050563541947 0 -0.009729088849934878 -6.9806355263201048e-06 0 -0.0099098614904780356 -3.5628938461050534e-05 0 -0.009729088849934878 -6.9806355263201048e-06 0 -0.0097191441035314949 -8.3392557042442206e-05 0 -0.0099098614904780356 -3.5628938461050534e-05 0 -0.009729088849934878 -6.9806355263201048e-06 0 -0.0095975877511735915 -0.00010422233589905074 0 -0.0095911829256962733 -1.7455632976315637e-05 0 -0.009729088849934878 -6.9806355263201048e-06 0 -0.0095975877511735915 -0.00010422233589905074 0 -0.0097191441035314949 -8.3392557042442206e-05 0 -0.0097191441035314949 -8.3392557042442206e-05 0 -0.0099431869010233008 -0.00011159519602006282 0 -0.0095230405721383124 -0.00015392261326425085 0 -0.0095975877511735915 -0.00010422233589905074 0 -0.0097191441035314949 -8.3392557042442206e-05 0 -0.0095230405721383124 -0.00015392261326425085 0 -0.0097191441035314949 -8.3392557042442206e-05 0 -0.0099431869010233008 -0.00011159519602006282 0 -0.0099098614904780356 -3.5628938461050534e-05 0 -0.0099431869010233008 -0.00011159519602006282 0 -0.0099098614904780356 -3.5628938461050534e-05 0 -0.010063127829275445 -6.0008410733996347e-05 0 -0.010177536047389534 5.4781335343739879e-06 0 -0.0099098614904780356 -3.5628938461050534e-05 0 -0.010063127829275445 -6.0008410733996347e-05 0 -0.010386988778320441 -3.0245393262056295e-07 0 -0.0098662478219300413 -4.0246303074614314e-08 0 -0.010063127829275445 -6.0008410733996347e-05 0 -0.0092127752244217601 -0.00013925696524866231 0 -0.0098641550430865321 3.622573268092511e-07 0 -0.0089697243162649102 -6.5863951871697953e-07 0 -0.0099431869010233008 -0.00011159519602006282 0 -0.0098662478219300413 -4.0246303074614314e-08 0 -0.010063127829275445 -6.0008410733996347e-05 0 -0.0095815155316830609 -0.00012767372723945423 0 -0.0098652293712631119 -6.4157911998039419e-08 0 -0.0092127752244217601 -0.00013925696524866231 0 -0.0089697243162649102 -6.5863951871697953e-07 0 -0.0089782834094102558 -4.5434331518130648e-05 0 -0.0095815155316830609 -0.00012767372723945423 0 -0.0095479773776298814 -0.00013908691848655134 0 -0.0092127752244217601 -0.00013925696524866231 0 -0.0092190642100412265 -5.2357197037316673e-05 0 -0.0095230405721383124 -0.00015392261326425085 0 -0.0092127752244217601 -0.00013925696524866231 0 -0.0092190642100412265 -5.2357197037316673e-05 0 -0.0089782834094102558 -4.5434331518130648e-05 0 -0.0092190642100412265 -5.2357197037316673e-05 0 -0.0090866897956092974 5.5717712559713574e-05 0 -0.0094631381709038113 0.00011540940885210477 0 -0.0092190642100412265 -5.2357197037316673e-05 0 -0.0090866897956092974 5.5717712559713574e-05 0 -0.0089782834094102558 -4.5434331518130648e-05 0 -0.0089697243162649102 -6.5863951871697953e-07 0 -0.0080746471473555955 8.5687870982957143e-07 0 -0.0086092900992600883 1.2188236946375981e-05 0 -0.0089697243162649102 -6.5863951871697953e-07 0 -0.0089782834094102558 -4.5434331518130648e-05 0 -0.0086092900992600883 1.2188236946375981e-05 0 -0.0090866897956092974 5.5717712559713574e-05 0 -0.0089782834094102558 -4.5434331518130648e-05 0 -0.0086092900992600883 1.2188236946375981e-05 0 -0.0080722591044733293 1.1723317337498264e-06 0 -0.0071367770583142367 0.00043754254049972562 0 -0.0074649694922530457 2.3190782338755187e-05 0 -0.0080746471473555955 8.5687870982957143e-07 0 -0.0086092900992600883 1.2188236946375981e-05 0 -0.0088426261002814005 0.00017950064885289426 0 -0.0080736879965799084 1.4753594795113467e-07 0 -0.0079096544951182766 0.00021513468019467984 0 -0.0087448494661665644 0.00026425664017880421 0 -0.0079096544951182766 0.00021513468019467984 0 -0.0090866897956092974 5.5717712559713574e-05 0 -0.0086092900992600883 1.2188236946375981e-05 0 -0.0089908826409311644 0.00029758662650573089 0 -0.0079096544951182766 0.00021513468019467984 0 -0.006558021009431563 0.00011514261884209147 0 -0.0079096544951182766 0.00021513468019467984 0 -0.0080781975983596696 0.00021627315301980929 0 -0.0090866897956092974 5.5717712559713574e-05 0 -0.0089908826409311644 0.00029758662650573089 0 -0.0094631381709038113 0.00011540940885210477 0 -0.0071367770583142367 0.00043754254049972562 0 -0.007061012811476663 -8.688136219103704e-06 0 -0.0066429584439187273 0.00017751422536222951 0 -0.0071367770583142367 0.00043754254049972562 0 -0.007061012811476663 -8.688136219103704e-06 0 -0.0074649694922530457 2.3190782338755187e-05 0 -0.0073234064021722315 -4.7190190659551389e-07 0 -0.007061012811476663 -8.688136219103704e-06 0 -0.0074649694922530457 2.3190782338755187e-05 0 -0.0073234064021722315 -4.7190190659551389e-07 0 -0.0080722591044733293 1.1723317337498264e-06 0 -0.0074649694922530457 2.3190782338755187e-05 0 -0.0064945081861491191 2.3152983586407459e-05 0 -0.006558021009431563 0.00011514261884209147 0 -0.0065300911764391949 9.7824201493008965e-06 0 -0.0067410429964803904 0.00011875155384844554 0 -0.0064845133240769596 0.0001791350098580175 0 -0.0065744783568669907 -3.9497573635414754e-05 0 -0.007061012811476663 -8.688136219103704e-06 0 -0.0066429584439187273 0.00017751422536222951 0 -0.0069693233167375064 0.0002598020517616013 0 -0.0067410429964803904 0.00011875155384844554 0 -0.0066986954220383896 0.00030749548170941159 0 -0.0066986954220383896 0.00030749548170941159 0 -0.0064652119089137362 0.00032927662447476019 0 -0.0064845133240769596 0.0001791350098580175 0 -0.0080781975983596696 0.00021627315301980929 0 -0.0080454846712034594 0.00014214195637685847 0 -0.0067410429964803904 0.00011875155384844554 0 -0.0066986954220383896 0.00030749548170941159 0 -0.0064845133240769596 0.0001791350098580175 0 -0.0094631381709038113 0.00011540940885210477 0 -0.0095740801187949656 -7.977596174195482e-05 0 -0.0095834499584277789 -3.8243568369445888e-05 0 -0.0092190642100412265 -5.2357197037316673e-05 0 -0.0094631381709038113 0.00011540940885210477 0 -0.0095230405721383124 -0.00015392261326425085 0 -0.0094631381709038113 0.00011540940885210477 0 -0.0095230405721383124 -0.00015392261326425085 0 -0.0095740801187949656 -7.977596174195482e-05 0 -0.0095975877511735915 -0.00010422233589905074 0 -0.0095740801187949656 -7.977596174195482e-05 0 -0.0095750913142638554 -6.9636698701236823e-05 0 -0.0095975877511735915 -0.00010422233589905074 0 -0.0095230405721383124 -0.00015392261326425085 0 -0.0095740801187949656 -7.977596174195482e-05 0 -0.0095750913142638554 -6.9636698701236823e-05 0 -0.0095868168621230723 -6.781151485605615e-05 0 -0.0095703393789531056 -8.2580166691975204e-05 0 -0.0095485475123210928 -5.8448462953783768e-05 0 -0.0095928894674482817 -0.00012024021126814365 0 -0.0094674466792099756 -0.00033432715125958031 0 -0.0094499250509736676 -0.00022979838592983523 0 -0.009521282480003182 -0.0001503783707666201 0 -0.0094674466792099756 -0.00033432715125958031 0 -0.009521282480003182 -0.0001503783707666201 0 -0.0096261734530289945 -0.00010723861662747877 0 -0.0095928894674482817 -0.00012024021126814365 0 -0.0095817657242019127 -0.00011221211659476104 0 -0.0062782488877166764 0.00033676885642819739 0 -0.0064652119089137362 0.00032927662447476019 0 -0.0063379933107882234 0.00026014955345113463 0 -0.0077632115682295371 0.00016740805491673055 0 -0.0080454846712034594 0.00014214195637685847 0 -0.0095750913142638554 -6.9636698701236823e-05 0 -0.0095074668677639883 -8.6647073593297105e-05 0 -0.0094807112761505722 -3.9551359356399497e-05 0 -0.0062782488877166764 0.00033676885642819739 0 -0.0063379933107882234 0.00026014955345113463 0 -0.0062427447356791926 0.0002826034692462711 0 -0.0095750913142638554 -6.9636698701236823e-05 0 -0.0095074668677639883 -8.6647073593297105e-05 0 -0.0095834499584277789 -3.8243568369445888e-05 0 -0.0095740801187949656 -7.977596174195482e-05 0 -0.0095750913142638554 -6.9636698701236823e-05 0 -0.0095834499584277789 -3.8243568369445888e-05 0 -0.0064652119089137362 0.00032927662447476019 0 -0.0063379933107882234 0.00026014955345113463 0 -0.0064845133240769596 0.0001791350098580175 0 -0.0063379933107882234 0.00026014955345113463 0 -0.0063076820707791328 0.00014592601598052739 0 -0.0064845133240769596 0.0001791350098580175 0 -0.0063379933107882234 0.00026014955345113463 0 -0.0062309426845153096 0.00021897570973984502 0 -0.0062427447356791926 0.0002826034692462711 0 -0.0063379933107882234 0.00026014955345113463 0 -0.0063076820707791328 0.00014592601598052739 0 -0.0062309426845153096 0.00021897570973984502 0 -0.0063076820707791328 0.00014592601598052739 0 -0.0061991573288071615 0.00013612513902002606 0 -0.0062309426845153096 0.00021897570973984502 0 -0.0062593723660184274 4.6226569289728762e-05 0 -0.0063076820707791328 0.00014592601598052739 0 -0.0061991573288071615 0.00013612513902002606 0 -0.0062593723660184274 4.6226569289728762e-05 0 -0.0063076820707791328 0.00014592601598052739 0 -0.006379153968586712 6.4113805416503701e-05 0 -0.0065300911764391949 9.7824201493008965e-06 0 -0.0064845133240769596 0.0001791350098580175 0 -0.006379153968586712 6.4113805416503701e-05 0 -0.0063076820707791328 0.00014592601598052739 0 -0.0064845133240769596 0.0001791350098580175 0 -0.006379153968586712 6.4113805416503701e-05 0 -0.0060149336408341896 2.988765265329761e-05 0 -0.0061612412274960953 4.5753918701769777e-05 0 -0.0060848583390836868 0.00012334161103363025 0 -0.0060848583390836868 0.00012334161103363025 0 -0.0060637061143729533 0.00021654920884392202 0 -0.00597956299633433 0.00010967582914775169 0 -0.0061612412274960953 4.5753918701769777e-05 0 -0.0060848583390836868 0.00012334161103363025 0 -0.0061991573288071615 0.00013612513902002606 0 -0.0060848583390836868 0.00012334161103363025 0 -0.0061991573288071615 0.00013612513902002606 0 -0.0061413561906836648 0.00020765984562040691 0 -0.0061612412274960953 4.5753918701769777e-05 0 -0.0062593723660184274 4.6226569289728762e-05 0 -0.0061991573288071615 0.00013612513902002606 0 -0.0061991573288071615 0.00013612513902002606 0 -0.0061413561906836648 0.00020765984562040691 0 -0.0062309426845153096 0.00021897570973984502 0 -0.0062309426845153096 0.00021897570973984502 0 -0.0062427447356791926 0.0002826034692462711 0 -0.0061789492817855562 0.00026750612661588123 0 -0.0061413561906836648 0.00020765984562040691 0 -0.0061789492817855562 0.00026750612661588123 0 -0.006127659898405349 0.00026021483322843507 0 -0.0061413561906836648 0.00020765984562040691 0 -0.0062309426845153096 0.00021897570973984502 0 -0.0061789492817855562 0.00026750612661588123 0 -0.006127659898405349 0.00026021483322843507 0 -0.0060637061143729533 0.00021654920884392202 0 -0.0061129671888388668 0.00029998060304110168 0 -0.0060637061143729533 0.00021654920884392202 0 -0.0060979942383810361 0.00035001661514172421 0 -0.0059735135037416592 0.00020216174605591498 0 -0.0061413561906836648 0.00020765984562040691 0 -0.006127659898405349 0.00026021483322843507 0 -0.0060637061143729533 0.00021654920884392202 0 -0.0060848583390836868 0.00012334161103363025 0 -0.0061413561906836648 0.00020765984562040691 0 -0.0060637061143729533 0.00021654920884392202 0 -0.0060637061143729533 0.00021654920884392202 0 -0.0061129671888388668 0.00029998060304110168 0 -0.0060979942383810361 0.00035001661514172421 0 -0.006127659898405349 0.00026021483322843507 0 -0.0061129671888388668 0.00029998060304110168 0 -0.0061498517011186454 0.00030214193776520264 0 -0.0061309941118246839 0.00032558258804124573 0 -0.0061498517011186454 0.00030214193776520264 0 -0.0061535043812620963 0.00033268200273797315 0 -0.0061129671888388668 0.00029998060304110168 0 -0.0061309941118246839 0.00032558258804124573 0 -0.0061498517011186454 0.00030214193776520264 0 -0.0061129671888388668 0.00029998060304110168 0 -0.0061309941118246839 0.00032558258804124573 0 -0.0061182783200161911 0.00033628531561576906 0 -0.0061129671888388668 0.00029998060304110168 0 -0.0061182783200161911 0.00033628531561576906 0 -0.0060979942383810361 0.00035001661514172421 0 -0.0061309941118246839 0.00032558258804124573 0 -0.0061182783200161911 0.00033628531561576906 0 -0.0061250861563997101 0.0003546744977363379 0 -0.0091956622677794083 -0.00038145760448694507 0 -0.0092274185370814429 -0.00038942124274716616 0 -0.0093316397036549929 -0.00029342641730105136 0 -0.0061182783200161911 0.00033628531561576906 0 -0.0061250861563997101 0.0003546744977363379 0 -0.0060979942383810361 0.00035001661514172421 0 -0.0061309941118246839 0.00032558258804124573 0 -0.0061250861563997101 0.0003546744977363379 0 -0.0061535043812620963 0.00033268200273797315 0 -0.0082707462306816273 -0.00011155943829183485 0 -0.0079393869765386604 -0.00027183235486519648 0 -0.0082989232944989492 -5.4933432749505668e-05 0 -0.008294547632092546 -5.3222573001045266e-05 0 -0.0083006886359892808 -5.2942858301903186e-05 0 -0.0085186496778489641 -0.00022918940533356693 0 -0.0079393869765386604 -0.00027183235486519648 0 -0.0085186496778489641 -0.00022918940533356693 0 -0.0082707462306816273 -0.00011155943829183485 0 -0.0085186496778489641 -0.00022918940533356693 0 -0.009126446224935721 -0.00044983606037052483 0 -0.009132520927916124 -0.000472599416283256 0 -0.0091142740359482933 -0.00049604201259614616 0 -0.0089333032919815397 -0.00043038931341387752 0 -0.0091514033368027513 -0.00047375544814889264 0 -0.0090457478538501831 -0.00039540592330876043 0 -0.0089333032919815397 -0.00043038931341387752 0 -0.009257727729093581 -7.2948756745770004e-05 0 -0.0094245546050899486 -6.2314391527205405e-05 0 -0.0094719409188587095 2.0575834772107245e-06 0 -0.0082707462306816273 -0.00011155943829183485 0 -0.0095928894674482817 -0.00012024021126814365 0 -0.0062782488877166764 0.00033676885642819739 0 -0.0061250861563997101 0.0003546744977363379 0 -0.0061954179989505663 0.00032661220020601257 0 -0.0077632115682295371 0.00016740805491673055 0 -0.0082707462306816273 -0.00011155943829183485 0 -0.0095074668677639883 -8.6647073593297105e-05 0 -0.009257727729093581 -7.2948756745770004e-05 0 -0.0094245546050899486 -6.2314391527205405e-05 0 -0.0062427447356791926 0.0002826034692462711 0 -0.0061789492817855562 0.00026750612661588123 0 -0.0061954179989505663 0.00032661220020601257 0 -0.0062782488877166764 0.00033676885642819739 0 -0.0062427447356791926 0.0002826034692462711 0 -0.0061954179989505663 0.00032661220020601257 0 -0.0061789492817855562 0.00026750612661588123 0 -0.0061954179989505663 0.00032661220020601257 0 -0.0061498517011186454 0.00030214193776520264 0 -0.0061789492817855562 0.00026750612661588123 0 -0.006127659898405349 0.00026021483322843507 0 -0.0061498517011186454 0.00030214193776520264 0 -0.0061954179989505663 0.00032661220020601257 0 -0.0061498517011186454 0.00030214193776520264 0 -0.0061535043812620963 0.00033268200273797315 0 -0.0061250861563997101 0.0003546744977363379 0 -0.0061954179989505663 0.00032661220020601257 0 -0.0061535043812620963 0.00033268200273797315 0 -0.0095074668677639883 -8.6647073593297105e-05 0 -0.0094245546050899486 -6.2314391527205405e-05 0 -0.0094807112761505722 -3.9551359356399497e-05 0 -0.0095200428071339823 -0.00010987678965650304 0 -0.0095928894674482817 -0.00012024021126814365 0 -0.0092274185370814429 -0.00038942124274716616 0 -0.0094674466792099756 -0.00033432715125958031 0 -0.0093316397036549929 -0.00029342641730105136 0 -0.0091956622677794083 -0.00038145760448694507 0 -0.0093316397036549929 -0.00029342641730105136 0 -0.009404410325375057 -0.00015060826678450621 0 -0.0085186496778489641 -0.00022918940533356693 0 -0.009580107613404153 -0.00017675726803122589 0 -0.0094096529893829793 -0.00027758230043585188 0 -0.0094674466792099756 -0.00033432715125958031 0 -0.0094499250509736676 -0.00022979838592983523 0 -0.0094096529893829793 -0.00027758230043585188 0 -0.0094674466792099756 -0.00033432715125958031 0 -0.0093316397036549929 -0.00029342641730105136 0 -0.0094096529893829793 -0.00027758230043585188 0 -0.0094499250509736676 -0.00022979838592983523 0 -0.009404410325375057 -0.00015060826678450621 0 -0.0094096529893829793 -0.00027758230043585188 0 -0.0093316397036549929 -0.00029342641730105136 0 -0.009404410325375057 -0.00015060826678450621 0 -0.0091514033368027513 -0.00047375544814889264 0 -0.0091896464077550338 -0.00027127297691618849 0 -0.009404410325375057 -0.00015060826678450621 0 -0.0091896464077550338 -0.00027127297691618849 0 -0.0092624971080480008 -7.1965581945764479e-05 0 -0.008995689269628836 -0.00031430393666220482 0 -0.0091019495242163646 -0.00036238744472937034 0 -0.0091896464077550338 -0.00027127297691618849 0 -0.008995689269628836 -0.00031430393666220482 0 -0.0091019495242163646 -0.00036238744472937034 0 -0.0090457478538501831 -0.00039540592330876043 0 -0.008995689269628836 -0.00031430393666220482 0 -0.0091514033368027513 -0.00047375544814889264 0 -0.0091019495242163646 -0.00036238744472937034 0 -0.0090457478538501831 -0.00039540592330876043 0 -0.0091514033368027513 -0.00047375544814889264 0 -0.0091019495242163646 -0.00036238744472937034 0 -0.0091896464077550338 -0.00027127297691618849 0 -0.0094493763605810899 1.2686881620928683e-05 0 -0.0093810757502485864 -0.00015088297483390693 0 -0.0095386860737839835 -8.192339472240371e-05 0 -0.0093536280716892562 -0.00016787759378382789 0 -0.0094252851777601784 -0.00025437898387110203 0 -0.0095386860737839835 -8.192339472240371e-05 0 -0.0094936215334283525 2.2588088975124328e-05 0 -0.0093536280716892562 -0.00016787759378382789 0 -0.0093808916101000492 -9.1678699387235651e-05 0 -0.0093140454367320099 -0.00026842651926334884 0 -0.0095204399059600851 1.0940737864970816e-05 0 -0.0094549274262351411 7.1160927909353388e-05 0 -0.0094978939540070126 0.00012518623357717299 0 -0.0095204399059600851 1.0940737864970816e-05 0 -0.0094549274262351411 7.1160927909353388e-05 0 -0.0094219453862257573 1.7821573102252793e-05 0 -0.0094936215334283525 2.2588088975124328e-05 0 -0.0096221059767072903 6.3349498502461782e-05 0 -0.009589700116332112 9.4388512988874447e-05 0 -0.0093808916101000492 -9.1678699387235651e-05 0 -0.0095471466449295102 6.9751668500386371e-05 0 -0.0095386860737839835 -8.192339472240371e-05 0 -0.0094936215334283525 2.2588088975124328e-05 0 -0.0096221059767072903 6.3349498502461782e-05 0 -0.0092624971080480008 -7.1965581945764479e-05 0 -0.009404410325375057 -0.00015060826678450621 0 -0.0094957031149086411 -5.0508237049513575e-05 0 -0.0092624971080480008 -7.1965581945764479e-05 0 -0.009474049888242405 8.1087547145779968e-05 0 -0.0094957031149086411 -5.0508237049513575e-05 0 -0.0091896464077550338 -0.00027127297691618849 0 -0.0092624971080480008 -7.1965581945764479e-05 0 -0.009404410325375057 -0.00015060826678450621 0 -0.0094499250509736676 -0.00022979838592983523 0 -0.009404410325375057 -0.00015060826678450621 0 -0.009521282480003182 -0.0001503783707666201 0 -0.009404410325375057 -0.00015060826678450621 0 -0.009521282480003182 -0.0001503783707666201 0 -0.0094957031149086411 -5.0508237049513575e-05 0 -0.0096261734530289945 -0.00010723861662747877 0 -0.0094957031149086411 -5.0508237049513575e-05 0 -0.0096158095360864716 6.9960043546557108e-05 0 -0.009521282480003182 -0.0001503783707666201 0 -0.0096261734530289945 -0.00010723861662747877 0 -0.0094957031149086411 -5.0508237049513575e-05 0 -0.0095975877511735915 -0.00010422233589905074 0 -0.0095703393789531056 -8.2580166691975204e-05 0 -0.0095911829256962733 -1.7455632976315637e-05 0 -0.0095975877511735915 -0.00010422233589905074 0 -0.0095750913142638554 -6.9636698701236823e-05 0 -0.0095703393789531056 -8.2580166691975204e-05 0 -0.0095817657242019127 -0.00011221211659476104 0 -0.0096613204728515697 3.1262582458590894e-05 0 -0.0096261734530289945 -0.00010723861662747877 0 -0.0097207981092265333 7.0676738212118833e-05 0 -0.0096158095360864716 6.9960043546557108e-05 0 -0.0097207981092265333 7.0676738212118833e-05 0 -0.0096158095360864716 6.9960043546557108e-05 0 -0.0096707857949131816 0.00012526758144440831 0 -0.009474049888242405 8.1087547145779968e-05 0 -0.0094957031149086411 -5.0508237049513575e-05 0 -0.0096158095360864716 6.9960043546557108e-05 0 -0.0096221059767072903 6.3349498502461782e-05 0 -0.0096263014432624028 0.00012926344082024032 0 -0.009645523288571517 0.00016149717722738799 0 -0.0095471466449295102 6.9751668500386371e-05 0 -0.0096318283439540478 0.00015083380553249204 0 -0.009474049888242405 8.1087547145779968e-05 0 -0.0096158095360864716 6.9960043546557108e-05 0 -0.009645523288571517 0.00016149717722738799 0 -0.0096263014432624028 0.00012926344082024032 0 -0.009645523288571517 0.00016149717722738799 0 -0.0096277839205851281 0.00017207664619360065 0 -0.0096158095360864716 6.9960043546557108e-05 0 -0.009645523288571517 0.00016149717722738799 0 -0.0096707857949131816 0.00012526758144440831 0 -0.0097207981092265333 7.0676738212118833e-05 0 -0.0096707857949131816 0.00012526758144440831 0 -0.0097047414071783859 0.00013823689354980706 0 -0.009645523288571517 0.00016149717722738799 0 -0.0096707857949131816 0.00012526758144440831 0 -0.0096819270463220017 0.00018189505368160786 0 -0.0096707857949131816 0.00012526758144440831 0 -0.0097047414071783859 0.00013823689354980706 0 -0.0096819270463220017 0.00018189505368160786 0 -0.011706265708745356 -0.00012188129329487537 0 -0.013019160111175154 -0.00029899215582677134 0 -0.010893197345482464 0.00019181426568198661 0 -0.011706265708745356 -0.00012188129329487537 0 -0.012374802135942182 0.00015085660048101571 0 -0.012493229216963319 0.00014220190560333419 0 -0.01241257619387643 2.3477341852249432e-05 0 -0.009645523288571517 0.00016149717722738799 0 -0.0096819270463220017 0.00018189505368160786 0 -0.0096277839205851281 0.00017207664619360065 0 -0.010992502653642881 -0.00010095916923143193 0 -0.010795871669026383 -0.00010443306091664431 0 -0.010927476511146679 -0.00017662763538388898 0 -0.013123063223567689 -0.00084166687385814831 0 -0.01291182148576799 -0.00084626064505416985 0 -0.013123798139404997 -0.00068397470374136396 0 -0.011706265708745356 -0.00012188129329487537 0 -0.01097242340593421 -0.00017871454544609805 0 -0.0094665926789965112 0.00021147295014788809 0 -0.0094860369209511727 0.00021367423227053992 0 -0.0094607988097743026 0.0002140125777136181 0 -0.01291182148576799 -0.00084626064505416985 0 -0.012707933199290077 -0.00074797376171775677 0 -0.01291476737945293 -0.00064583223223372806 0 -0.01097242340593421 -0.00017871454544609805 0 -0.011133791389235094 -0.00029596823448220592 0 -0.0092613351240027775 8.2964949932569766e-05 0 -0.01097242340593421 -0.00017871454544609805 0 -0.0094665926789965112 0.00021147295014788809 0 -0.0095439822271698536 0.00021896357001583566 0 -0.0095031775563348912 0.000175498809303977 0 -0.0095204399059600851 1.0940737864970816e-05 0 -0.0095583035533137028 0.00014787480607464625 0 -0.0094978939540070126 0.00012518623357717299 0 -0.0095439822271698536 0.00021896357001583566 0 -0.0095583035533137028 0.00014787480607464625 0 -0.0095031775563348912 0.000175498809303977 0 -0.0095583035533137028 0.00014787480607464625 0 -0.0095031775563348912 0.000175498809303977 0 -0.0094978939540070126 0.00012518623357717299 0 -0.0094665926789965112 0.00021147295014788809 0 -0.0095031775563348912 0.000175498809303977 0 -0.0094545220700692507 0.00016980249184545435 0 -0.0095031775563348912 0.000175498809303977 0 -0.0094978939540070126 0.00012518623357717299 0 -0.0094545220700692507 0.00016980249184545435 0 -0.0094978939540070126 0.00012518623357717299 0 -0.0094330979721624995 0.0001218505258839856 0 -0.0094545220700692507 0.00016980249184545435 0 -0.0094549274262351411 7.1160927909353388e-05 0 -0.0094978939540070126 0.00012518623357717299 0 -0.0094330979721624995 0.0001218505258839856 0 -0.0094936215334283525 2.2588088975124328e-05 0 -0.009589700116332112 9.4388512988874447e-05 0 -0.0095969467927475918 0.00015595669643159656 0 -0.0095204399059600851 1.0940737864970816e-05 0 -0.0095583035533137028 0.00014787480607464625 0 -0.0096539858754796995 0.00016273276337783418 0 -0.0094493763605810899 1.2686881620928683e-05 0 -0.0099803872509939325 6.8419260521144476e-05 0 -0.0096263014432624028 0.00012926344082024032 0 -0.009589700116332112 9.4388512988874447e-05 0 -0.0095969467927475918 0.00015595669643159656 0 -0.0096221059767072903 6.3349498502461782e-05 0 -0.0096263014432624028 0.00012926344082024032 0 -0.009589700116332112 9.4388512988874447e-05 0 -0.011706265708745356 -0.00012188129329487537 0 -0.0099803872509939325 6.8419260521144476e-05 0 -0.0096263014432624028 0.00012926344082024032 0 -0.0096277839205851281 0.00017207664619360065 0 -0.0096067311676055808 0.00014388715160087239 0 -0.0096333337344626947 0.0001902288359276647 0 -0.0099803872509939325 6.8419260521144476e-05 0 -0.0095439822271698536 0.00021896357001583566 0 -0.0095583035533137028 0.00014787480607464625 0 -0.0096539858754796995 0.00016273276337783418 0 -0.01097242340593421 -0.00017871454544609805 0 -0.0099803872509939325 6.8419260521144476e-05 0 -0.0094577439301116138 0.00021800142070381269 0 -0.0094483385016316274 0.00022268038885790153 0 -0.0094633393739959621 0.00021099003869950954 0 -0.0094577439301116138 0.00021800142070381269 0 -0.0094590838578301594 0.00022425919120714862 0 -0.0094602830092606633 0.00021737449100499897 0 -0.0094577439301116138 0.00021800142070381269 0 -0.0094650799101210249 0.00021292834667204744 0 -0.0094633393739959621 0.00021099003869950954 0 -0.0094577439301116138 0.00021800142070381269 0 -0.0094483385016316274 0.00022268038885790153 0 -0.0094590838578301594 0.00022425919120714862 0 -0.0093084411844867564 0.00012465311281612243 0 -0.0094001821259813087 0.00016227609340713038 0 -0.0094584266415659781 0.00021486068949254998 0 -0.0094590838578301594 0.00022425919120714862 0 -0.0094584266415659781 0.00021486068949254998 0 -0.0094602830092606633 0.00021737449100499897 0 -0.0093843596881503701 0.00017343621635092165 0 -0.0094445987799230083 0.00021099920888884398 0 -0.0093084411844867564 0.00012465311281612243 0 -0.0093767957796731145 0.00011391072725133234 0 -0.0094001821259813087 0.00016227609340713038 0 -0.0093084411844867564 0.00012465311281612243 0 -0.0093767957796731145 0.00011391072725133234 0 -0.0093450332718408788 6.5872392945347927e-05 0 -0.0093767957796731145 0.00011391072725133234 0 -0.0094330979721624995 0.0001218505258839856 0 -0.0094001821259813087 0.00016227609340713038 0 -0.0094549274262351411 7.1160927909353388e-05 0 -0.0094330979721624995 0.0001218505258839856 0 -0.0094017097342537631 7.4273340224287083e-05 0 -0.0093767957796731145 0.00011391072725133234 0 -0.0094330979721624995 0.0001218505258839856 0 -0.0094017097342537631 7.4273340224287083e-05 0 -0.0094330979721624995 0.0001218505258839856 0 -0.0094545220700692507 0.00016980249184545435 0 -0.0094001821259813087 0.00016227609340713038 0 -0.0094545220700692507 0.00016980249184545435 0 -0.0094001821259813087 0.00016227609340713038 0 -0.0094449967693119828 0.00019115395970871552 0 -0.0094608579675540191 0.0002148326139789443 0 -0.0094584266415659781 0.00021486068949254998 0 -0.0094602830092606633 0.00021737449100499897 0 -0.0094001821259813087 0.00016227609340713038 0 -0.0094449967693119828 0.00019115395970871552 0 -0.0094584266415659781 0.00021486068949254998 0 -0.0094665926789965112 0.00021147295014788809 0 -0.0094449967693119828 0.00019115395970871552 0 -0.0094584266415659781 0.00021486068949254998 0 -0.0094665926789965112 0.00021147295014788809 0 -0.0094545220700692507 0.00016980249184545435 0 -0.0094449967693119828 0.00019115395970871552 0 -0.0094665926789965112 0.00021147295014788809 0 -0.0094584266415659781 0.00021486068949254998 0 -0.0094607988097743026 0.0002140125777136181 0 -0.0094608579675540191 0.0002148326139789443 0 -0.0094584266415659781 0.00021486068949254998 0 -0.0094607988097743026 0.0002140125777136181 0 -0.0094608579675540191 0.0002148326139789443 0 -0.0094650799101210249 0.00021292834667204744 0 -0.0094607988097743026 0.0002140125777136181 0 -0.0094577439301116138 0.00021800142070381269 0 -0.0094602830092606633 0.00021737449100499897 0 -0.0094650799101210249 0.00021292834667204744 0 -0.0094608579675540191 0.0002148326139789443 0 -0.0094602830092606633 0.00021737449100499897 0 -0.0094650799101210249 0.00021292834667204744 0 -0.0094650799101210249 0.00021292834667204744 0 -0.009467787673011414 0.00020869354348967837 0 -0.0094633393739959621 0.00021099003869950954 0 -0.009467787673011414 0.00020869354348967837 0 -0.0094626582847953129 0.00020911314075977558 0 -0.0094565244917705817 0.00021176166359668895 0 -0.009467787673011414 0.00020869354348967837 0 -0.0094626582847953129 0.00020911314075977558 0 -0.0094633393739959621 0.00021099003869950954 0 -0.0094626582847953129 0.00020911314075977558 0 -0.0094633393739959621 0.00021099003869950954 0 -0.0094669019418958111 0.0002056095368466797 0 -0.0094626582847953129 0.00020911314075977558 0 -0.0094669019418958111 0.0002056095368466797 0 -0.0094490690778028501 0.00020593060982876445 0 -0.0094483385016316274 0.00022268038885790153 0 -0.0094633393739959621 0.00021099003869950954 0 -0.0094669019418958111 0.0002056095368466797 0 -0.0094483385016316274 0.00022268038885790153 0 -0.0093577671724783939 0.00023647283710897439 0 -0.0094262938384963354 0.00019292676006644655 0 -0.0094445129264006875 0.00022295613018077858 0 -0.0094106279880935163 0.00021959534125185485 0 -0.0093577671724783939 0.00023647283710897439 0 -0.0093551234366136254 0.00018806110397910462 0 -0.0094262938384963354 0.00019292676006644655 0 -0.0093577671724783939 0.00023647283710897439 0 -0.0093551234366136254 0.00018806110397910462 0 -0.0093139346070312545 0.00020079993087527889 0 -0.0093551234366136254 0.00018806110397910462 0 -0.0093201407343709471 0.00017006094010192039 0 -0.0093820112182972544 0.00014448881241387043 0 -0.0093551234366136254 0.00018806110397910462 0 -0.0093201407343709471 0.00017006094010192039 0 -0.0093139346070312545 0.00020079993087527889 0 -0.0092962880620290605 5.5498971884779221e-05 0 -0.0090824287978502356 0.00013777204243799012 0 -0.0091591466841790883 -0.00015228220430746884 0 -0.009156279844559358 -3.4913910789279915e-05 0 -0.0090271582242018433 -0.00020678229592529897 0 -0.0093551234366136254 0.00018806110397910462 0 -0.0094262938384963354 0.00019292676006644655 0 -0.0093820112182972544 0.00014448881241387043 0 -0.0091591466841790883 -0.00015228220430746884 0 -0.0092582338685253968 -9.9515112768054347e-05 0 -0.0092345885229297674 -0.00018287622604755299 0 -0.0092582338685253968 -9.9515112768054347e-05 0 -0.009156279844559358 -3.4913910789279915e-05 0 -0.0092863853190847875 -7.0518220554006585e-06 0 -0.0091591466841790883 -0.00015228220430746884 0 -0.0092582338685253968 -9.9515112768054347e-05 0 -0.009156279844559358 -3.4913910789279915e-05 0 -0.0093843596881503701 0.00017343621635092165 0 -0.0092962880620290605 5.5498971884779221e-05 0 -0.0093084411844867564 0.00012465311281612243 0 -0.009156279844559358 -3.4913910789279915e-05 0 -0.0092863853190847875 -7.0518220554006585e-06 0 -0.0094483385016316274 0.00022268038885790153 0 -0.0094590838578301594 0.00022425919120714862 0 -0.0094262938384963354 0.00019292676006644655 0 -0.0095204399059600851 1.0940737864970816e-05 0 -0.0094219453862257573 1.7821573102252793e-05 0 -0.0093653481091030919 -5.3003348917194339e-05 0 -0.0094017097342537631 7.4273340224287083e-05 0 -0.0093620413349419628 1.2004444779941792e-05 0 -0.0094219453862257573 1.7821573102252793e-05 0 -0.0094549274262351411 7.1160927909353388e-05 0 -0.0094017097342537631 7.4273340224287083e-05 0 -0.0094219453862257573 1.7821573102252793e-05 0 -0.0093084411844867564 0.00012465311281612243 0 -0.0092863853190847875 -7.0518220554006585e-06 0 -0.0093450332718408788 6.5872392945347927e-05 0 -0.0094017097342537631 7.4273340224287083e-05 0 -0.0093450332718408788 6.5872392945347927e-05 0 -0.0093620413349419628 1.2004444779941792e-05 0 -0.0093767957796731145 0.00011391072725133234 0 -0.0094017097342537631 7.4273340224287083e-05 0 -0.0093450332718408788 6.5872392945347927e-05 0 -0.0092863853190847875 -7.0518220554006585e-06 0 -0.0093620413349419628 1.2004444779941792e-05 0 -0.0093653481091030919 -5.3003348917194339e-05 0 -0.0092863853190847875 -7.0518220554006585e-06 0 -0.0093450332718408788 6.5872392945347927e-05 0 -0.0093620413349419628 1.2004444779941792e-05 0 -0.0093620413349419628 1.2004444779941792e-05 0 -0.0094219453862257573 1.7821573102252793e-05 0 -0.0093653481091030919 -5.3003348917194339e-05 0 -0.0095204399059600851 1.0940737864970816e-05 0 -0.0093653481091030919 -5.3003348917194339e-05 0 -0.0093536280716892562 -0.00016787759378382789 0 -0.0092582338685253968 -9.9515112768054347e-05 0 -0.0092863853190847875 -7.0518220554006585e-06 0 -0.0093653481091030919 -5.3003348917194339e-05 0 -0.0092582338685253968 -9.9515112768054347e-05 0 -0.0093536280716892562 -0.00016787759378382789 0 -0.0092345885229297674 -0.00018287622604755299 0 -0.0092582338685253968 -9.9515112768054347e-05 0 -0.0093653481091030919 -5.3003348917194339e-05 0 -0.0093536280716892562 -0.00016787759378382789 0 -0.0094252851777601784 -0.00025437898387110203 0 -0.0092633943324431506 -0.0002817403909543236 0 -0.0092698060181678199 -0.00047986380767103901 0 -0.0093536280716892562 -0.00016787759378382789 0 -0.0094252851777601784 -0.00025437898387110203 0 -0.0092633943324431506 -0.0002817403909543236 0 -0.0093536280716892562 -0.00016787759378382789 0 -0.0092345885229297674 -0.00018287622604755299 0 -0.0092633943324431506 -0.0002817403909543236 0 -0.0090457478538501831 -0.00039540592330876043 0 -0.0089333032919815397 -0.00043038931341387752 0 -0.008995689269628836 -0.00031430393666220482 0 -0.0091591466841790883 -0.00015228220430746884 0 -0.0091349695294355732 -0.00023554931818065383 0 -0.0092345885229297674 -0.00018287622604755299 0 -0.0091349695294355732 -0.00023554931818065383 0 -0.0092345885229297674 -0.00018287622604755299 0 -0.0092633943324431506 -0.0002817403909543236 0 -0.0091349695294355732 -0.00023554931818065383 0 -0.0090976013464757338 -0.00039103392134392752 0 -0.009021070368596746 -0.0003098939920607396 0 -0.0091349695294355732 -0.00023554931818065383 0 -0.0092633943324431506 -0.0002817403909543236 0 -0.0090976013464757338 -0.00039103392134392752 0 -0.0081577495931338569 -0.00032792794338802877 0 -0.0079766447459049799 -0.00040409624645237972 0 -0.0090976013464757338 -0.00039103392134392752 0 -0.0092698060181678199 -0.00047986380767103901 0 -0.00889614897085007 -0.00060523340750360535 0 -0.0092633943324431506 -0.0002817403909543236 0 -0.0090976013464757338 -0.00039103392134392752 0 -0.0092698060181678199 -0.00047986380767103901 0 -0.0093140454367320099 -0.00026842651926334884 0 -0.0081577495931338569 -0.00032792794338802877 0 -0.0091142740359482933 -0.00049604201259614616 0 -0.0089333032919815397 -0.00043038931341387752 0 -0.008737440687246769 -0.00058958291130667135 0 -0.0073876410891942149 -0.00010953564146392981 0 -0.0071707108087034075 -0.00016185092652136864 0 -0.0072205896506795332 -0.0002967554473937284 0 -0.0089333032919815397 -0.00043038931341387752 0 -0.008995689269628836 -0.00031430393666220482 0 -0.008737440687246769 -0.00058958291130667135 0 -0.0079393869765386604 -0.00027183235486519648 0 -0.0064214289875403185 -3.1551471934059896e-05 0 -0.0079393869765386604 -0.00027183235486519648 0 -0.0081577495931338569 -0.00032792794338802877 0 -0.0060637061143729533 0.00021654920884392202 0 -0.0059735135037416592 0.00020216174605591498 0 -0.00597956299633433 0.00010967582914775169 0 -0.0071707108087034075 -0.00016185092652136864 0 -0.0072205896506795332 -0.0002967554473937284 0 -0.0070722233475782274 -0.00027708080230275073 0 -0.0081577495931338569 -0.00032792794338802877 0 -0.0069664240425445978 -0.0003967871985066457 0 -0.0071773095310563549 -0.00016946401566520728 0 -0.0070722233475782274 -0.00027708080230275073 0 -0.0069647391450297809 -0.00022837578643947082 0 -0.0072205896506795332 -0.0002967554473937284 0 -0.0070722233475782274 -0.00027708080230275073 0 -0.0070630489613333226 -0.00045138550156343765 0 -0.0064214289875403185 -3.1551471934059896e-05 0 -0.0064985111818727705 -0.00018785563153008336 0 -0.0060149336408341896 2.988765265329761e-05 0 -0.0060848583390836868 0.00012334161103363025 0 -0.00597956299633433 0.00010967582914775169 0 -0.0060149336408341896 2.988765265329761e-05 0 -0.0058752792814439382 6.0759592443425358e-05 0 -0.00597956299633433 0.00010967582914775169 0 -0.0059735135037416592 0.00020216174605591498 0 -0.0058752792814439382 6.0759592443425358e-05 0 -0.00597956299633433 0.00010967582914775169 0 -0.0068019329690216313 -0.00052767578320430666 0 -0.0068989955555119158 -0.0003997231627951826 0 -0.0067810016768956481 -0.00040811043323560879 0 -0.0068268639284695806 -0.00034805399138415155 0 -0.0068989955555119158 -0.0003997231627951826 0 -0.0067810016768956481 -0.00040811043323560879 0 -0.0068268639284695806 -0.00034805399138415155 0 -0.0068989955555119158 -0.0003997231627951826 0 -0.0068892982617179506 -0.0003179854178050022 0 -0.0070630489613333226 -0.00045138550156343765 0 -0.0068989955555119158 -0.0003997231627951826 0 -0.0069754271142944387 -0.00033055820768100927 0 -0.0070722233475782274 -0.00027708080230275073 0 -0.0070630489613333226 -0.00045138550156343765 0 -0.0069754271142944387 -0.00033055820768100927 0 -0.0068989955555119158 -0.0003997231627951826 0 -0.0069754271142944387 -0.00033055820768100927 0 -0.0068892982617179506 -0.0003179854178050022 0 -0.0069754271142944387 -0.00033055820768100927 0 -0.0069647391450297809 -0.00022837578643947082 0 -0.0068892982617179506 -0.0003179854178050022 0 -0.0070722233475782274 -0.00027708080230275073 0 -0.0069754271142944387 -0.00033055820768100927 0 -0.0069647391450297809 -0.00022837578643947082 0 -0.0079766447459049799 -0.00040409624645237972 0 -0.0074791684596618516 -0.00060067488253776622 0 -0.0069647391450297809 -0.00022837578643947082 0 -0.0068892982617179506 -0.0003179854178050022 0 -0.0068315149123650458 -0.00028008418421909972 0 -0.0068268639284695806 -0.00034805399138415155 0 -0.0068892982617179506 -0.0003179854178050022 0 -0.0067959407864565304 -0.00029361521613312773 0 -0.0068892982617179506 -0.0003179854178050022 0 -0.0068315149123650458 -0.00028008418421909972 0 -0.0067959407864565304 -0.00029361521613312773 0 -0.0068475882667227601 -0.00028267703690057049 0 -0.0069081068563706001 -0.00018889761224294505 0 -0.0067959407864565304 -0.00029361521613312773 0 -0.0074791684596618516 -0.00060067488253776622 0 -0.0082447997240522458 -0.00013082062587722214 0 -0.00889614897085007 -0.00060523340750360535 0 -0.0085060815486293455 -0.00070577205471735816 0 -0.0086479899869861994 -0.00048617920182996674 0 -0.0082447997240522458 -0.00013082062587722214 0 -0.0089639541231805783 -0.00036821053872788695 0 -0.0086939145672788529 0.00021728885041569121 0 -0.0086525846988337336 0.0004772064696087747 0 -0.0085231090969959088 0.00046420390467201959 0 -0.0087093050575785431 -0.00048819207840369166 0 -0.0089260521906000274 -0.00043470588060602806 0 -0.0089194056844774661 -0.00017432077254910978 0 -0.0090976013464757338 -0.00039103392134392752 0 -0.00889614897085007 -0.00060523340750360535 0 -0.0089260521906000274 -0.00043470588060602806 0 -0.00889614897085007 -0.00060523340750360535 0 -0.0086479899869861994 -0.00048617920182996674 0 -0.0089260521906000274 -0.00043470588060602806 0 -0.0090976013464757338 -0.00039103392134392752 0 -0.0089260521906000274 -0.00043470588060602806 0 -0.009021070368596746 -0.0003098939920607396 0 -0.0089260521906000274 -0.00043470588060602806 0 -0.009021070368596746 -0.0003098939920607396 0 -0.0089194056844774661 -0.00017432077254910978 0 -0.0091349695294355732 -0.00023554931818065383 0 -0.009021070368596746 -0.0003098939920607396 0 -0.0089194056844774661 -0.00017432077254910978 0 -0.0091591466841790883 -0.00015228220430746884 0 -0.0091349695294355732 -0.00023554931818065383 0 -0.0090271582242018433 -0.00020678229592529897 0 -0.0091127845132299035 -0.00016645214055543555 0 -0.0090824287978502356 0.00013777204243799012 0 -0.0089198993780237185 0.00040357597160801403 0 -0.0090824287978502356 0.00013777204243799012 0 -0.0082447997240522458 -0.00013082062587722214 0 -0.0090824287978502356 0.00013777204243799012 0 -0.0086939145672788529 0.00021728885041569121 0 -0.008878266725864014 0.00058076523495024341 0 -0.0086525846988337336 0.0004772064696087747 0 -0.0084890313892571033 0.00062835009980091088 0 -0.008878266725864014 0.00058076523495024341 0 -0.0086525846988337336 0.0004772064696087747 0 -0.0084890313892571033 0.00062835009980091088 0 -0.0086525846988337336 0.0004772064696087747 0 -0.0085231090969959088 0.00046420390467201959 0 -0.0084890313892571033 0.00062835009980091088 0 -0.0083881917067923327 0.00062130687247842866 0 -0.0085231090969959088 0.00046420390467201959 0 -0.0083881917067923327 0.00062130687247842866 0 -0.008210543669270003 0.00030247163516825763 0 -0.0084155046628461225 0.0003198378827029156 0 -0.0083881917067923327 0.00062130687247842866 0 -0.0085231090969959088 0.00046420390467201959 0 -0.0084155046628461225 0.0003198378827029156 0 -0.0083881917067923327 0.00062130687247842866 0 -0.0089569510923826149 0.00057622611311247988 0 -0.0085433158248727579 0.00043584996988324276 0 -0.0083881917067923327 0.00062130687247842866 0 -0.0078404131639571613 0.00035379489023773736 0 -0.0077051658043468443 0.00095037643700971992 0 -0.0084176483644525062 0.00064116495280469718 0 -0.0082793381581223735 0.00078311242103247904 0 -0.0083881917067923327 0.00062130687247842866 0 -0.0078404131639571613 0.00035379489023773736 0 -0.008210543669270003 0.00030247163516825763 0 -0.0078404131639571613 0.00035379489023773736 0 -0.0082326253689651747 -2.3405779661960539e-05 0 -0.0074221933493864812 -0.00027902549748070037 0 -0.0078404131639571613 0.00035379489023773736 0 -0.008210543669270003 0.00030247163516825763 0 -0.0082326253689651747 -2.3405779661960539e-05 0 -0.0082447997240522458 -0.00013082062587722214 0 -0.0073727167067787177 -0.00013628085097760914 0 -0.0086939145672788529 0.00021728885041569121 0 -0.0084155046628461225 0.0003198378827029156 0 -0.0082326253689651747 -2.3405779661960539e-05 0 -0.0086939145672788529 0.00021728885041569121 0 -0.0085231090969959088 0.00046420390467201959 0 -0.0084155046628461225 0.0003198378827029156 0 -0.008210543669270003 0.00030247163516825763 0 -0.0084155046628461225 0.0003198378827029156 0 -0.0082326253689651747 -2.3405779661960539e-05 0 -0.0069081068563706001 -0.00018889761224294505 0 -0.0067959407864565304 -0.00029361521613312773 0 -0.0067090148062106097 -0.00025814994020717828 0 -0.0074791684596618516 -0.00060067488253776622 0 -0.0070415239160814521 -0.00057133664976673985 0 -0.0068268639284695806 -0.00034805399138415155 0 -0.0067959407864565304 -0.00029361521613312773 0 -0.0067602344627759664 -0.00035450606615889448 0 -0.0067959407864565304 -0.00029361521613312773 0 -0.0067202724374481665 -0.00032909955861113783 0 -0.0067602344627759664 -0.00035450606615889448 0 -0.0067959407864565304 -0.00029361521613312773 0 -0.0067202724374481665 -0.00032909955861113783 0 -0.0067090148062106097 -0.00025814994020717828 0 -0.0073727167067787177 -0.00013628085097760914 0 -0.0070122597741592652 -0.00029615989377090234 0 -0.0067202724374481665 -0.00032909955861113783 0 -0.0067090148062106097 -0.00025814994020717828 0 -0.0065656259034113451 -0.00033591391168503928 0 -0.0067202724374481665 -0.00032909955861113783 0 -0.0066807079282508505 -0.00038917329232991059 0 -0.0065656259034113451 -0.00033591391168503928 0 -0.0066645033528878808 -0.00050397496913178385 0 -0.0066807079282508505 -0.00038917329232991059 0 -0.0065887603475186744 -0.00043240648075511235 0 -0.0066807079282508505 -0.00038917329232991059 0 -0.0067810016768956481 -0.00040811043323560879 0 -0.0067602344627759664 -0.00035450606615889448 0 -0.0066645033528878808 -0.00050397496913178385 0 -0.0066807079282508505 -0.00038917329232991059 0 -0.0067810016768956481 -0.00040811043323560879 0 -0.0068268639284695806 -0.00034805399138415155 0 -0.0067810016768956481 -0.00040811043323560879 0 -0.0067602344627759664 -0.00035450606615889448 0 -0.0067202724374481665 -0.00032909955861113783 0 -0.0066807079282508505 -0.00038917329232991059 0 -0.0067602344627759664 -0.00035450606615889448 0 -0.0064285292632800589 -0.00049077450182858891 0 -0.0065217630287740308 -0.00042961666856007635 0 -0.0064950888206078425 -0.00045976851049980735 0 -0.0065217630287740308 -0.00042961666856007635 0 -0.006538311724082973 -0.00037721363367142403 0 -0.0064950888206078425 -0.00045976851049980735 0 -0.0066807079282508505 -0.00038917329232991059 0 -0.0065887603475186744 -0.00043240648075511235 0 -0.0065656259034113451 -0.00033591391168503928 0 -0.0065217630287740308 -0.00042961666856007635 0 -0.0065887603475186744 -0.00043240648075511235 0 -0.0065656259034113451 -0.00033591391168503928 0 -0.0065217630287740308 -0.00042961666856007635 0 -0.0065656259034113451 -0.00033591391168503928 0 -0.006538311724082973 -0.00037721363367142403 0 -0.0074221933493864812 -0.00027902549748070037 0 -0.0068877446008677057 -2.5809421662681879e-05 0 -0.006538311724082973 -0.00037721363367142403 0 -0.0070122597741592652 -0.00029615989377090234 0 -0.0065679416995262276 -0.0003802945897312379 0 -0.0068877446008677057 -2.5809421662681879e-05 0 -0.0072979795591862837 0.00023848303960385256 0 -0.0067249547486343212 0.00049479280248659625 0 -0.0074221933493864812 -0.00027902549748070037 0 -0.0068877446008677057 -2.5809421662681879e-05 0 -0.0072979795591862837 0.00023848303960385256 0 -0.0078404131639571613 0.00035379489023773736 0 -0.0072979795591862837 0.00023848303960385256 0 -0.0072541903408085175 0.00068313588033417033 0 -0.0078404131639571613 0.00035379489023773736 0 -0.0074221933493864812 -0.00027902549748070037 0 -0.0072979795591862837 0.00023848303960385256 0 -0.0078404131639571613 0.00035379489023773736 0 -0.0072541903408085175 0.00068313588033417033 0 -0.0077051658043468443 0.00095037643700971992 0 -0.0083999818551771625 9.5033096436442961e-05 0 -0.0083646574539779153 1.1676023230830365e-05 0 -0.0084160443410944766 4.0905748675860065e-05 0 -0.0074717509373890927 0.00031752080390995164 0 -0.0084379547206181009 0.000335573557686954 0 -0.0072541903408085175 0.00068313588033417033 0 -0.0067249547486343212 0.00049479280248659625 0 -0.0070645967941364487 0.0011966829421368847 0 -0.0072979795591862837 0.00023848303960385256 0 -0.0072541903408085175 0.00068313588033417033 0 -0.0067249547486343212 0.00049479280248659625 0 -0.0084379547206181009 0.000335573557686954 0 -0.0089895639487296581 6.5468353750803814e-05 0 -0.0094075771366034042 0.00022169414030461649 0 -0.0094077461588452562 0.00020806006942295727 0 -0.0094063863091963414 0.00019982665495635514 0 -0.0083646574539779153 1.1676023230830365e-05 0 -0.0084331567793038166 -1.6408453544167232e-05 0 -0.0084160443410944766 4.0905748675860065e-05 0 -0.0094075771366034042 0.00022169414030461649 0 -0.0094120260839426276 0.00022657974896149075 0 -0.0094077461588452562 0.00020806006942295727 0 -0.0095038535149117274 0.00031778638814853336 0 -0.0094120260839426276 0.00022657974896149075 0 -0.0092548901002169424 0.00025567389512790251 0 -0.0084379547206181009 0.000335573557686954 0 -0.0087186922918237892 0.00043687219313554986 0 -0.0094077461588452562 0.00020806006942295727 0 -0.0093949263381898646 0.00020054686432404852 0 -0.0094048308251889808 0.00019747650229045064 0 -0.0094120260839426276 0.00022657974896149075 0 -0.0093949263381898646 0.00020054686432404852 0 -0.0093423093677887231 0.00019085275600249214 0 -0.0094120260839426276 0.00022657974896149075 0 -0.0094077461588452562 0.00020806006942295727 0 -0.0093949263381898646 0.00020054686432404852 0 -0.0093949263381898646 0.00020054686432404852 0 -0.0094048308251889808 0.00019747650229045064 0 -0.0093877902012390532 0.00019378662534652848 0 -0.0094077461588452562 0.00020806006942295727 0 -0.0094048308251889808 0.00019747650229045064 0 -0.0094082430185447111 0.00019657323234644654 0 -0.0093423093677887231 0.00019085275600249214 0 -0.0094038347381272345 0.00020108007367029696 0 -0.0093877902012390532 0.00019378662534652848 0 -0.0093949263381898646 0.00020054686432404852 0 -0.0093423093677887231 0.00019085275600249214 0 -0.0093877902012390532 0.00019378662534652848 0 -0.0093423093677887231 0.00019085275600249214 0 -0.0092548901002169424 0.00025567389512790251 0 -0.0092885870009962752 0.00022709414352693942 0 -0.0089569510923826149 0.00057622611311247988 0 -0.0092548901002169424 0.00025567389512790251 0 -0.0085433158248727579 0.00043584996988324276 0 -0.0084379547206181009 0.000335573557686954 0 -0.0082793381581223735 0.00078311242103247904 0 -0.0072541903408085175 0.00068313588033417033 0 -0.0070645967941364487 0.0011966829421368847 0 -0.0077051658043468443 0.00095037643700971992 0 -0.0095038535149117274 0.00031778638814853336 0 -0.0089569510923826149 0.00057622611311247988 0 -0.0092548901002169424 0.00025567389512790251 0 -0.0094120260839426276 0.00022657974896149075 0 -0.0093423093677887231 0.00019085275600249214 0 -0.0092548901002169424 0.00025567389512790251 0 -0.0092238960308813466 0.00025794036895409168 0 -0.0089428641552881157 0.00032438055058732945 0 -0.0092548901002169424 0.00025567389512790251 0 -0.0092882003094072255 0.00020379600130295277 0 -0.0092885870009962752 0.00022709414352693942 0 -0.0089198993780237185 0.00040357597160801403 0 -0.0089428641552881157 0.00032438055058732945 0 -0.0092882003094072255 0.00020379600130295277 0 -0.0093139346070312545 0.00020079993087527889 0 -0.0092786099468012539 0.0002240947835657068 0 -0.0093201407343709471 0.00017006094010192039 0 -0.0092882003094072255 0.00020379600130295277 0 -0.0093139346070312545 0.00020079993087527889 0 -0.0084890313892571033 0.00062835009980091088 0 -0.0083881917067923327 0.00062130687247842866 0 -0.0085433158248727579 0.00043584996988324276 0 -0.0093577671724783939 0.00023647283710897439 0 -0.0093139346070312545 0.00020079993087527889 0 -0.0092786099468012539 0.0002240947835657068 0 -0.0094106279880935163 0.00021959534125185485 0 -0.0093635594056348248 0.00020417646953515496 0 -0.0093423093677887231 0.00019085275600249214 0 -0.0092786099468012539 0.0002240947835657068 0 -0.0092885870009962752 0.00022709414352693942 0 -0.0092882003094072255 0.00020379600130295277 0 -0.0092786099468012539 0.0002240947835657068 0 -0.0092885870009962752 0.00022709414352693942 0 -0.0093423093677887231 0.00019085275600249214 0 -0.0094451635814389243 0.00018396451545626692 0 -0.0094038347381272345 0.00020108007367029696 0 -0.0093462027981773659 0.00019317506608322301 0 -0.0093635594056348248 0.00020417646953515496 0 -0.0094038347381272345 0.00020108007367029696 0 -0.0094245712991884393 0.00020765401559324969 0 -0.0094490690778028501 0.00020593060982876445 0 -0.0094245712991884393 0.00020765401559324969 0 -0.0094490690778028501 0.00020593060982876445 0 -0.0094408844182398612 0.00021311431410145275 0 -0.0094451635814389243 0.00018396451545626692 0 -0.0094038347381272345 0.00020108007367029696 0 -0.0094490690778028501 0.00020593060982876445 0 -0.0094669019418958111 0.0002056095368466797 0 -0.0094451635814389243 0.00018396451545626692 0 -0.0094490690778028501 0.00020593060982876445 0 -0.0094490690778028501 0.00020593060982876445 0 -0.0094565244917705817 0.00021176166359668895 0 -0.0094408844182398612 0.00021311431410145275 0 -0.0094626582847953129 0.00020911314075977558 0 -0.0094490690778028501 0.00020593060982876445 0 -0.0094565244917705817 0.00021176166359668895 0 -0.0094565244917705817 0.00021176166359668895 0 -0.0094408844182398612 0.00021311431410145275 0 -0.0094532971114099189 0.00021528963931909017 0 -0.0094408844182398612 0.00021311431410145275 0 -0.0094444936706110112 0.00021496055306894377 0 -0.0094532971114099189 0.00021528963931909017 0 -0.0094245712991884393 0.00020765401559324969 0 -0.0094408844182398612 0.00021311431410145275 0 -0.0094299452379524584 0.0002102990420472247 0 -0.0094408844182398612 0.00021311431410145275 0 -0.0094444936706110112 0.00021496055306894377 0 -0.0094299452379524584 0.0002102990420472247 0 -0.0094299452379524584 0.0002102990420472247 0 -0.0094301265299253801 0.00020969275532961148 0 -0.0094132770447685529 0.00020417874548318704 0 -0.0094444936706110112 0.00021496055306894377 0 -0.0094299452379524584 0.0002102990420472247 0 -0.0094301265299253801 0.00020969275532961148 0 -0.0094444936706110112 0.00021496055306894377 0 -0.0094301265299253801 0.00020969275532961148 0 -0.0094535299375153869 0.00021678057761842704 0 -0.0094413353290064769 0.00021628524655256629 0 -0.0094301265299253801 0.00020969275532961148 0 -0.0094535299375153869 0.00021678057761842704 0 -0.0094413353290064769 0.00021628524655256629 0 -0.0094301265299253801 0.00020969275532961148 0 -0.0094183644876568075 0.00020329816785449393 0 -0.0094301265299253801 0.00020969275532961148 0 -0.0094103267128353499 0.00019942740162890341 0 -0.0094183644876568075 0.00020329816785449393 0 -0.0094103267128353499 0.00019942740162890341 0 -0.0094183644876568075 0.00020329816785449393 0 -0.0094105830150337851 0.00019797104829912692 0 -0.0094048308251889808 0.00019747650229045064 0 -0.0094103267128353499 0.00019942740162890341 0 -0.0094105830150337851 0.00019797104829912692 0 -0.0094048308251889808 0.00019747650229045064 0 -0.0094103267128353499 0.00019942740162890341 0 -0.0093877902012390532 0.00019378662534652848 0 -0.0094038347381272345 0.00020108007367029696 0 -0.0093877902012390532 0.00019378662534652848 0 -0.0094132770447685529 0.00020417874548318704 0 -0.0094103267128353499 0.00019942740162890341 0 -0.0093877902012390532 0.00019378662534652848 0 -0.0094132770447685529 0.00020417874548318704 0 -0.0094245712991884393 0.00020765401559324969 0 -0.0094299452379524584 0.0002102990420472247 0 -0.0094132770447685529 0.00020417874548318704 0 -0.0094038347381272345 0.00020108007367029696 0 -0.0094245712991884393 0.00020765401559324969 0 -0.0094132770447685529 0.00020417874548318704 0 -0.0094301265299253801 0.00020969275532961148 0 -0.0094103267128353499 0.00019942740162890341 0 -0.0094132770447685529 0.00020417874548318704 0 -0.0094898092008304496 0.00021772580592445333 0 -0.0094727860380130549 0.00021810965678959628 0 -0.0094634654132285875 0.00021826395131794638 0 -0.0094898092008304496 0.00021772580592445333 0 -0.0094634654132285875 0.00021826395131794638 0 -0.0094651965918132221 0.0002100282240546344 0 -0.0094898092008304496 0.00021772580592445333 0 -0.0094651965918132221 0.0002100282240546344 0 -0.0094929893979827634 0.00019793474129432972 0 -0.0094904944469197481 0.00021581115591774044 0 -0.0095451512220013288 0.0002240667406903112 0 -0.0094521495657838798 0.00021482274045799034 0 -0.0094898092008304496 0.00021772580592445333 0 -0.0094904944469197481 0.00021581115591774044 0 -0.0095451512220013288 0.0002240667406903112 0 -0.0094904944469197481 0.00021581115591774044 0 -0.0094727860380130549 0.00021810965678959628 0 -0.009457363428314821 0.00021695040555710411 0 -0.0094898092008304496 0.00021772580592445333 0 -0.0094904944469197481 0.00021581115591774044 0 -0.0094727860380130549 0.00021810965678959628 0 -0.0094727860380130549 0.00021810965678959628 0 -0.0094535299375153869 0.00021678057761842704 0 -0.009457363428314821 0.00021695040555710411 0 -0.0094413353290064769 0.00021628524655256629 0 -0.0094535299375153869 0.00021678057761842704 0 -0.009457363428314821 0.00021695040555710411 0 -0.0094444936706110112 0.00021496055306894377 0 -0.0094634654132285875 0.00021826395131794638 0 -0.0094532971114099189 0.00021528963931909017 0 -0.0094444936706110112 0.00021496055306894377 0 -0.0094535299375153869 0.00021678057761842704 0 -0.0094634654132285875 0.00021826395131794638 0 -0.0094727860380130549 0.00021810965678959628 0 -0.0094535299375153869 0.00021678057761842704 0 -0.0094634654132285875 0.00021826395131794638 0 -0.0094532971114099189 0.00021528963931909017 0 -0.009461122575111152 0.00021018953607699229 0 -0.0094593353385571417 0.00021069725122916673 0 -0.0094565244917705817 0.00021176166359668895 0 -0.0094532971114099189 0.00021528963931909017 0 -0.009461122575111152 0.00021018953607699229 0 -0.010569554937634318 -6.5131054558523318e-05 0 -0.01083427758409534 -0.00016728696264561402 0 -0.009461122575111152 0.00021018953607699229 0 -0.0094590884320519073 0.00019998033885790185 0 -0.0094725333870881515 0.00020719527473997686 0 -0.009461122575111152 0.00021018953607699229 0 -0.0094593353385571417 0.00021069725122916673 0 -0.0094590884320519073 0.00019998033885790185 0 -0.0094532971114099189 0.00021528963931909017 0 -0.0094593353385571417 0.00021069725122916673 0 -0.0094651965918132221 0.0002100282240546344 0 -0.0094634654132285875 0.00021826395131794638 0 -0.0094532971114099189 0.00021528963931909017 0 -0.0094651965918132221 0.0002100282240546344 0 -0.0094593353385571417 0.00021069725122916673 0 -0.0094651965918132221 0.0002100282240546344 0 -0.0094590884320519073 0.00019998033885790185 0 -0.011811776200285441 -0.00037061771077898711 0 -0.011908719925297491 -0.00012450744874486483 0 -0.011414218365799865 -0.00015689558029058652 0 -0.0094651965918132221 0.0002100282240546344 0 -0.0094590884320519073 0.00019998033885790185 0 -0.0094631585009530648 0.00015766178978668396 0 -0.010569554937634318 -6.5131054558523318e-05 0 -0.010784354072294843 -2.1491264671500196e-05 0 -0.011811776200285441 -0.00037061771077898711 0 -0.011908719925297491 -0.00012450744874486483 0 -0.012067417373853246 -0.00030478646211750239 0 -0.012585830917209898 -0.00010260107140416875 0 -0.0125316786475674 -8.9749613552095547e-05 0 -0.012559851238651274 -5.6981620632722578e-05 0 -0.012509313690709355 -0.00011636651315427891 0 -0.010784354072294843 -2.1491264671500196e-05 0 -0.0091613610451807184 4.0868264658931708e-05 0 -0.0095780662699687658 8.2485434323529636e-05 0 -0.0096196112552831801 -0.00024690080854110368 0 -0.0125316786475674 -8.9749613552095547e-05 0 -0.012510787157246886 -6.2361397063561699e-05 0 -0.012559851238651274 -5.6981620632722578e-05 0 -0.010784354072294843 -2.1491264671500196e-05 0 -0.01113661540743921 -0.00017861477267117165 0 -0.0094651965918132221 0.0002100282240546344 0 -0.0094631585009530648 0.00015766178978668396 0 -0.0094929893979827634 0.00019793474129432972 0 -0.010784354072294843 -2.1491264671500196e-05 0 -0.00902005556583803 6.702452007288794e-05 0 -0.0094631585009530648 0.00015766178978668396 0 -0.0094929893979827634 0.00019793474129432972 0 -0.0095780662699687658 8.2485434323529636e-05 0 -0.0094898092008304496 0.00021772580592445333 0 -0.0094929893979827634 0.00019793474129432972 0 -0.0095451512220013288 0.0002240667406903112 0 -0.0094929893979827634 0.00019793474129432972 0 -0.0095451512220013288 0.0002240667406903112 0 -0.0095780662699687658 8.2485434323529636e-05 0 -0.0095451512220013288 0.0002240667406903112 0 -0.0095780662699687658 8.2485434323529636e-05 0 -0.0098746448606509656 0.00018687718804113443 0 -0.0095780662699687658 8.2485434323529636e-05 0 -0.009870410606632669 -0.00010064720328574865 0 -0.0098746448606509656 0.00018687718804113443 0 -0.0095780662699687658 8.2485434323529636e-05 0 -0.0096196112552831801 -0.00024690080854110368 0 -0.009870410606632669 -0.00010064720328574865 0 -0.012510787157246886 -6.2361397063561699e-05 0 -0.012540644074695028 -2.9860624513119202e-05 0 -0.012559851238651274 -5.6981620632722578e-05 0 -0.014999821822501227 -1.7540830941615879e-08 0 -0.015000250989416521 -1.3024009185370118e-07 0 -0.014996085121215775 -2.9375894709201166e-05 0 -0.012510787157246886 -6.2361397063561699e-05 0 -0.012519676978718027 -4.8867225930866461e-05 0 -0.012540644074695028 -2.9860624513119202e-05 0 -0.013738948698421015 -2.9578651137483366e-05 0 -0.013863964772260359 -8.3598007778425671e-06 0 -0.014985844565482073 -1.7434578921028476e-05 0 -0.014988549093445861 -3.3155029376792289e-05 0 -0.014996085121215775 -2.9375894709201166e-05 0 -0.012519676978718027 -4.8867225930866461e-05 0 -0.012540644074695028 -2.9860624513119202e-05 0 -0.012523687309708886 -5.1055202773592227e-05 0 -0.014985844565482073 -1.7434578921028476e-05 0 -0.014999821822501227 -1.7540830941615879e-08 0 -0.014996085121215775 -2.9375894709201166e-05 0 -0.014999821822501227 -1.7540830941615879e-08 0 -0.014985517368650666 -7.8305261203733125e-06 0 -0.014987220226654489 -3.4789306150207761e-06 0 -0.014985844565482073 -1.7434578921028476e-05 0 -0.014999821822501227 -1.7540830941615879e-08 0 -0.014985517368650666 -7.8305261203733125e-06 0 -0.013738948698421015 -2.9578651137483366e-05 0 -0.013791929310358688 -8.1534113257477421e-06 0 -0.012540644074695028 -2.9860624513119202e-05 0 -0.012585982591333481 -1.0631321125745412e-05 0 -0.012559851238651274 -5.6981620632722578e-05 0 -0.012585982591333481 -1.0631321125745412e-05 0 -0.012559851238651274 -5.6981620632722578e-05 0 -0.012614777864093128 -5.5044742096227069e-05 0 -0.012585830917209898 -0.00010260107140416875 0 -0.012559851238651274 -5.6981620632722578e-05 0 -0.012614777864093128 -5.5044742096227069e-05 0 -0.014999821822501227 -1.7540830941615879e-08 0 -0.014987220226654489 -3.4789306150207761e-06 0 -0.014988766225895414 -1.7480833285873374e-06 0 -0.014999821822501227 -1.7540830941615879e-08 0 -0.014988766225895414 -1.7480833285873374e-06 0 -0.015000301237602352 8.5992722385706027e-08 0 -0.012614777864093128 -5.5044742096227069e-05 0 -0.01268764869743101 -5.5637282792447197e-05 0 -0.01265181087573925 -0.00012069597387046632 0 -0.012614777864093128 -5.5044742096227069e-05 0 -0.01268764869743101 -5.5637282792447197e-05 0 -0.012650048188988176 1.8296606076978629e-05 0 -0.01268764869743101 -5.5637282792447197e-05 0 -0.012650048188988176 1.8296606076978629e-05 0 -0.0127657913204087 7.2850948746893679e-05 0 -0.013791929310358688 -8.1534113257477421e-06 0 -0.013819033861533804 8.1020043719701708e-06 0 -0.012585982591333481 -1.0631321125745412e-05 0 -0.012614777864093128 -5.5044742096227069e-05 0 -0.012650048188988176 1.8296606076978629e-05 0 -0.013819033861533804 8.1020043719701708e-06 0 -0.013880339592325737 3.570818371412504e-05 0 -0.013880339592325737 3.570818371412504e-05 0 -0.01398190623337224 6.4389452561664084e-05 0 -0.0127657913204087 7.2850948746893679e-05 0 -0.012808097695985642 -2.6935584590206953e-05 0 -0.01297128361003012 0.00013050340905427046 0 -0.01268764869743101 -5.5637282792447197e-05 0 -0.0127657913204087 7.2850948746893679e-05 0 -0.012808097695985642 -2.6935584590206953e-05 0 -0.01268764869743101 -5.5637282792447197e-05 0 -0.012808097695985642 -2.6935584590206953e-05 0 -0.012720671377174345 -0.00016114134521445994 0 -0.012808097695985642 -2.6935584590206953e-05 0 -0.012720671377174345 -0.00016114134521445994 0 -0.012951688530635039 -9.5632159237356857e-05 0 -0.012720671377174345 -0.00016114134521445994 0 -0.01275235326458349 -0.00047736970274095901 0 -0.012900693195978393 -0.00026186359034613882 0 -0.012720671377174345 -0.00016114134521445994 0 -0.012516726623050659 -0.00039280818418533373 0 -0.01275235326458349 -0.00047736970274095901 0 -0.012732438480704072 -0.00015015832455744356 0 -0.012431882343606029 -0.00013061535234567458 0 -0.01268764869743101 -5.5637282792447197e-05 0 -0.012720671377174345 -0.00016114134521445994 0 -0.01265181087573925 -0.00012069597387046632 0 -0.012720671377174345 -0.00016114134521445994 0 -0.012516726623050659 -0.00039280818418533373 0 -0.012331000579326949 -0.00012970096972915316 0 -0.012585830917209898 -0.00010260107140416875 0 -0.012614777864093128 -5.5044742096227069e-05 0 -0.01265181087573925 -0.00012069597387046632 0 -0.011908719925297491 -0.00012450744874486483 0 -0.012331000579326949 -0.00012970096972915316 0 -0.012067417373853246 -0.00030478646211750239 0 -0.012509313690709355 -0.00011636651315427891 0 -0.012431882343606029 -0.00013061535234567458 0 -0.012331000579326949 -0.00012970096972915316 0 -0.012067417373853246 -0.00030478646211750239 0 -0.012170227668693741 -0.00052984298653385741 0 -0.011811776200285441 -0.00037061771077898711 0 -0.012067417373853246 -0.00030478646211750239 0 -0.012170227668693741 -0.00052984298653385741 0 -0.012516726623050659 -0.00039280818418533373 0 -0.012331000579326949 -0.00012970096972915316 0 -0.012170227668693741 -0.00052984298653385741 0 -0.01083427758409534 -0.00016728696264561402 0 -0.010957053831108281 -0.00021418721921758502 0 -0.012516726623050659 -0.00039280818418533373 0 -0.012170227668693741 -0.00052984298653385741 0 -0.012471243357631133 -0.00064998366824001673 0 -0.009467787673011414 0.00020869354348967837 0 -0.009461122575111152 0.00021018953607699229 0 -0.0094725333870881515 0.00020719527473997686 0 -0.009467787673011414 0.00020869354348967837 0 -0.0094565244917705817 0.00021176166359668895 0 -0.009461122575111152 0.00021018953607699229 0 -0.0094650799101210249 0.00021292834667204744 0 -0.009467787673011414 0.00020869354348967837 0 -0.0094758368443512639 0.0002043002594023349 0 -0.009467787673011414 0.00020869354348967837 0 -0.0094725333870881515 0.00020719527473997686 0 -0.0094758368443512639 0.0002043002594023349 0 -0.010957053831108281 -0.00021418721921758502 0 -0.011133791389235094 -0.00029596823448220592 0 -0.012471243357631133 -0.00064998366824001673 0 -0.012707933199290077 -0.00074797376171775677 0 -0.01275235326458349 -0.00047736970274095901 0 -0.0094650799101210249 0.00021292834667204744 0 -0.0094758368443512639 0.0002043002594023349 0 -0.0094607988097743026 0.0002140125777136181 0 -0.012707933199290077 -0.00074797376171775677 0 -0.01275235326458349 -0.00047736970274095901 0 -0.01291476737945293 -0.00064583223223372806 0 -0.012516726623050659 -0.00039280818418533373 0 -0.012471243357631133 -0.00064998366824001673 0 -0.01275235326458349 -0.00047736970274095901 0 -0.013056797842013747 -0.00057338568879190561 0 -0.013204270380419653 -0.00048186546102937092 0 -0.012976651050476615 -0.0004334989334735974 0 -0.013056797842013747 -0.00057338568879190561 0 -0.01291476737945293 -0.00064583223223372806 0 -0.012976651050476615 -0.0004334989334735974 0 -0.01275235326458349 -0.00047736970274095901 0 -0.01291476737945293 -0.00064583223223372806 0 -0.012976651050476615 -0.0004334989334735974 0 -0.013056797842013747 -0.00057338568879190561 0 -0.01291476737945293 -0.00064583223223372806 0 -0.013123798139404997 -0.00068397470374136396 0 -0.01291182148576799 -0.00084626064505416985 0 -0.01291476737945293 -0.00064583223223372806 0 -0.013123798139404997 -0.00068397470374136396 0 -0.013123798139404997 -0.00068397470374136396 0 -0.013294308205853698 -0.00064968274478242969 0 -0.013204270380419653 -0.00048186546102937092 0 -0.013123063223567689 -0.00084166687385814831 0 -0.013123798139404997 -0.00068397470374136396 0 -0.013294308205853698 -0.00064968274478242969 0 -0.012374802135942182 0.00015085660048101571 0 -0.01241257619387643 2.3477341852249432e-05 0 -0.012280069831490917 3.382185659174552e-05 0 -0.013019160111175154 -0.00029899215582677134 0 -0.012860915390117364 -0.0002929816338589208 0 -0.013294308205853698 -0.00064968274478242969 0 -0.013204270380419653 -0.00048186546102937092 0 -0.013452486731322497 -0.00046942021583487538 0 -0.013056797842013747 -0.00057338568879190561 0 -0.013123798139404997 -0.00068397470374136396 0 -0.013204270380419653 -0.00048186546102937092 0 -0.013204270380419653 -0.00048186546102937092 0 -0.013348806583150033 -0.00032767350331851805 0 -0.013122795040197695 -0.00026129745309580492 0 -0.013204270380419653 -0.00048186546102937092 0 -0.013348806583150033 -0.00032767350331851805 0 -0.013452486731322497 -0.00046942021583487538 0 -0.013348806583150033 -0.00032767350331851805 0 -0.013122795040197695 -0.00026129745309580492 0 -0.013347322235839756 -0.00012888659848515492 0 -0.013122795040197695 -0.00026129745309580492 0 -0.012976651050476615 -0.0004334989334735974 0 -0.012900693195978393 -0.00026186359034613882 0 -0.013204270380419653 -0.00048186546102937092 0 -0.013122795040197695 -0.00026129745309580492 0 -0.012976651050476615 -0.0004334989334735974 0 -0.01275235326458349 -0.00047736970274095901 0 -0.012976651050476615 -0.0004334989334735974 0 -0.012900693195978393 -0.00026186359034613882 0 -0.013122795040197695 -0.00026129745309580492 0 -0.012900693195978393 -0.00026186359034613882 0 -0.012951688530635039 -9.5632159237356857e-05 0 -0.012720671377174345 -0.00016114134521445994 0 -0.012900693195978393 -0.00026186359034613882 0 -0.012951688530635039 -9.5632159237356857e-05 0 -0.013122795040197695 -0.00026129745309580492 0 -0.012951688530635039 -9.5632159237356857e-05 0 -0.013151297941854189 -3.0361074713042386e-05 0 -0.012951688530635039 -9.5632159237356857e-05 0 -0.01297128361003012 0.00013050340905427046 0 -0.013151297941854189 -3.0361074713042386e-05 0 -0.012808097695985642 -2.6935584590206953e-05 0 -0.012951688530635039 -9.5632159237356857e-05 0 -0.01297128361003012 0.00013050340905427046 0 -0.014988766225895414 -1.7480833285873374e-06 0 -0.014989865089479604 2.7888536453552885e-07 0 -0.015000301237602352 8.5992722385706027e-08 0 -0.01398190623337224 6.4389452561664084e-05 0 -0.014107669868750727 8.0272345340416033e-05 0 -0.014989865089479604 2.7888536453552885e-07 0 -0.015000301237602352 8.5992722385706027e-08 0 -0.014987861294762607 2.0519564011250108e-06 0 -0.01297128361003012 0.00013050340905427046 0 -0.013228597291291415 0.00016039291552131642 0 -0.013151297941854189 -3.0361074713042386e-05 0 -0.015000301237602352 8.5992722385706027e-08 0 -0.014987861294762607 2.0519564011250108e-06 0 -0.01498283943991704 5.2510685077814019e-07 0 -0.014107669868750727 8.0272345340416033e-05 0 -0.014238191712779371 8.3975480395282088e-05 0 -0.013228597291291415 0.00016039291552131642 0 -0.01336833894232245 4.0010190102656617e-05 0 -0.013493657919207905 0.00016727829781168507 0 -0.01336833894232245 4.0010190102656617e-05 0 -0.013151297941854189 -3.0361074713042386e-05 0 -0.013347322235839756 -0.00012888659848515492 0 -0.013228597291291415 0.00016039291552131642 0 -0.01336833894232245 4.0010190102656617e-05 0 -0.013151297941854189 -3.0361074713042386e-05 0 -0.013122795040197695 -0.00026129745309580492 0 -0.013151297941854189 -3.0361074713042386e-05 0 -0.013347322235839756 -0.00012888659848515492 0 -0.015000301237602352 8.5992722385706027e-08 0 -0.01498283943991704 5.2510685077814019e-07 0 -0.014998649444301917 -3.3672650505975447e-07 0 -0.013347322235839756 -0.00012888659848515492 0 -0.013589689304430344 -3.2204565204634389e-05 0 -0.013609119397229025 -0.00030136521868016539 0 -0.013589689304430344 -3.2204565204634389e-05 0 -0.013764895628919036 -0.00013956694229858401 0 -0.013609119397229025 -0.00030136521868016539 0 -0.013589689304430344 -3.2204565204634389e-05 0 -0.013758055676980501 -7.3555119969377561e-06 0 -0.013764895628919036 -0.00013956694229858401 0 -0.013589689304430344 -3.2204565204634389e-05 0 -0.013766626779860318 0.00014966191780387662 0 -0.013758055676980501 -7.3555119969377561e-06 0 -0.01336833894232245 4.0010190102656617e-05 0 -0.013347322235839756 -0.00012888659848515492 0 -0.013589689304430344 -3.2204565204634389e-05 0 -0.01336833894232245 4.0010190102656617e-05 0 -0.013589689304430344 -3.2204565204634389e-05 0 -0.013493657919207905 0.00016727829781168507 0 -0.013589689304430344 -3.2204565204634389e-05 0 -0.013493657919207905 0.00016727829781168507 0 -0.013766626779860318 0.00014966191780387662 0 -0.014238191712779371 8.3975480395282088e-05 0 -0.014362584374989237 6.996156068126108e-05 0 -0.01498283943991704 5.2510685077814019e-07 0 -0.014998649444301917 -3.3672650505975447e-07 0 -0.014973787984425316 3.1239275257447186e-06 0 -0.014568641789844558 5.331681453975097e-07 0 -0.014998649444301917 -3.3672650505975447e-07 0 -0.014973787984425316 3.1239275257447186e-06 0 -0.013766626779860318 0.00014966191780387662 0 -0.013891498228387523 -1.4536337505628604e-05 0 -0.013758055676980501 -7.3555119969377561e-06 0 -0.014564908291783411 6.0064413033685019e-07 0 -0.013835237358632287 -1.0043330202035078e-07 0 -0.013891498228387523 -1.4536337505628604e-05 0 -0.014566396792465221 2.9572948490331339e-08 0 -0.014362584374989237 6.996156068126108e-05 0 -0.014564908291783411 6.0064413033685019e-07 0 -0.013766626779860318 0.00014966191780387662 0 -0.013891498228387523 -1.4536337505628604e-05 0 -0.013835237358632287 -1.0043330202035078e-07 0 -0.013891498228387523 -1.4536337505628604e-05 0 -0.012860055561747344 5.4363186697581373e-05 0 -0.013891498228387523 -1.4536337505628604e-05 0 -0.013758055676980501 -7.3555119969377561e-06 0 -0.013764895628919036 -0.00013956694229858401 0 -0.013785809593779692 -1.194043510041052e-05 0 -0.013323771563446879 -8.0931865791634541e-05 0 -0.013835237358632287 -1.0043330202035078e-07 0 -0.012860055561747344 5.4363186697581373e-05 0 -0.013103087650624486 -9.5506677263212447e-08 0 -0.012860055561747344 5.4363186697581373e-05 0 -0.013103087650624486 -9.5506677263212447e-08 0 -0.012385962574522767 -0.00012836311463052333 0 -0.012860055561747344 5.4363186697581373e-05 0 -0.012385962574522767 -0.00012836311463052333 0 -0.012360750685316252 -0.00010213918198775262 0 -0.012385962574522767 -0.00012836311463052333 0 -0.012360750685316252 -0.00010213918198775262 0 -0.012162410755836614 -8.9333405961622764e-05 0 -0.013103087650624486 -9.5506677263212447e-08 0 -0.012371894241243778 -7.0960705168162164e-08 0 -0.012385962574522767 -0.00012836311463052333 0 -0.012360750685316252 -0.00010213918198775262 0 -0.01232146724133093 -9.6062000267090579e-05 0 -0.012162410755836614 -8.9333405961622764e-05 0 -0.013323771563446879 -8.0931865791634541e-05 0 -0.012995238703683262 -0.00020317633307779886 0 -0.013348806583150033 -0.00032767350331851805 0 -0.013347322235839756 -0.00012888659848515492 0 -0.013609119397229025 -0.00030136521868016539 0 -0.012995238703683262 -0.00020317633307779886 0 -0.012860915390117364 -0.0002929816338589208 0 -0.013348806583150033 -0.00032767350331851805 0 -0.013609119397229025 -0.00030136521868016539 0 -0.013452486731322497 -0.00046942021583487538 0 -0.01232146724133093 -9.6062000267090579e-05 0 -0.012280069831490917 3.382185659174552e-05 0 -0.012162410755836614 -8.9333405961622764e-05 0 -0.01241257619387643 2.3477341852249432e-05 0 -0.01232146724133093 -9.6062000267090579e-05 0 -0.012280069831490917 3.382185659174552e-05 0 -0.012280069831490917 3.382185659174552e-05 0 -0.012107293187946035 7.0389537854101595e-05 0 -0.012162410755836614 -8.9333405961622764e-05 0 -0.011771583840170779 -7.4039249986104691e-06 0 -0.011640334894054189 -4.751438122907256e-07 0 -0.012162410755836614 -8.9333405961622764e-05 0 -0.012107293187946035 7.0389537854101595e-05 0 -0.011771583840170779 -7.4039249986104691e-06 0 -0.012162410755836614 -8.9333405961622764e-05 0 -0.010910058644830255 9.4709879283805034e-07 0 -0.011771583840170779 -7.4039249986104691e-06 0 -0.011640334894054189 -4.751438122907256e-07 0 -0.012371894241243778 -7.0960705168162164e-08 0 -0.012385962574522767 -0.00012836311463052333 0 -0.011640334894054189 -4.751438122907256e-07 0 -0.012385962574522767 -0.00012836311463052333 0 -0.011640334894054189 -4.751438122907256e-07 0 -0.012162410755836614 -8.9333405961622764e-05 0 -0.0096046401619263901 -3.0046691781162828e-06 0 -0.0096096920206662825 -1.1029769882506754e-05 0 -0.0096032858019493867 7.504874719930864e-06 0 -0.0096046401619263901 -3.0046691781162828e-06 0 -0.0096114518964522319 1.100974917213373e-07 0 -0.0096121402026737406 5.8191317119282961e-07 0 -0.0096121402026737406 5.8191317119282961e-07 0 -0.0096122430611665609 -5.1316860731207421e-07 0 -0.0096121475251506119 1.4479631518232457e-06 0 -0.0096046401619263901 -3.0046691781162828e-06 0 -0.0096121402026737406 5.8191317119282961e-07 0 -0.0096122430611665609 -5.1316860731207421e-07 0 -0.0096046401619263901 -3.0046691781162828e-06 0 -0.0096067584601482372 -1.8800316818055703e-05 0 -0.0096122430611665609 -5.1316860731207421e-07 0 -0.0096067584601482372 -1.8800316818055703e-05 0 -0.0095875355807781264 -3.3874556578888129e-05 0 -0.0096052049523900548 -3.681543548145069e-05 0 -0.0096052049523900548 -3.681543548145069e-05 0 -0.0096165803049376719 -4.6725330524851701e-05 0 -0.0095645875340137215 -6.1768149984416009e-05 0 -0.0095875355807781264 -3.3874556578888129e-05 0 -0.0096052049523900548 -3.681543548145069e-05 0 -0.0095645875340137215 -6.1768149984416009e-05 0 -0.0096052049523900548 -3.681543548145069e-05 0 -0.0096247004037912191 -2.0641891682113466e-05 0 -0.0096165803049376719 -4.6725330524851701e-05 0 -0.0096052049523900548 -3.681543548145069e-05 0 -0.0096247004037912191 -2.0641891682113466e-05 0 -0.0096096920206662825 -1.1029769882506754e-05 0 -0.0096247004037912191 -2.0641891682113466e-05 0 -0.0096165803049376719 -4.6725330524851701e-05 0 -0.009657091947983339 -9.2698870414933474e-06 0 -0.0096046401619263901 -3.0046691781162828e-06 0 -0.0096067584601482372 -1.8800316818055703e-05 0 -0.0096096920206662825 -1.1029769882506754e-05 0 -0.0096067584601482372 -1.8800316818055703e-05 0 -0.0096052049523900548 -3.681543548145069e-05 0 -0.0096096920206662825 -1.1029769882506754e-05 0 -0.0096096920206662825 -1.1029769882506754e-05 0 -0.0096145691611914056 4.6178317708232976e-05 0 -0.0096032858019493867 7.504874719930864e-06 0 -0.0096096920206662825 -1.1029769882506754e-05 0 -0.0096145691611914056 4.6178317708232976e-05 0 -0.0096428501389566879 2.4398409174240015e-05 0 -0.0096247004037912191 -2.0641891682113466e-05 0 -0.0096428501389566879 2.4398409174240015e-05 0 -0.009657091947983339 -9.2698870414933474e-06 0 -0.0096247004037912191 -2.0641891682113466e-05 0 -0.0096096920206662825 -1.1029769882506754e-05 0 -0.0096428501389566879 2.4398409174240015e-05 0 -0.0096428501389566879 2.4398409174240015e-05 0 -0.0096418903313942386 9.255944889026344e-05 0 -0.0097028554060720178 7.2606433401575752e-05 0 -0.0096418903313942386 9.255944889026344e-05 0 -0.0097028554060720178 7.2606433401575752e-05 0 -0.0097414215545579864 0.00011610667798513943 0 -0.0096145691611914056 4.6178317708232976e-05 0 -0.0096428501389566879 2.4398409174240015e-05 0 -0.0096418903313942386 9.255944889026344e-05 0 -0.0096145691611914056 4.6178317708232976e-05 0 -0.0096418903313942386 9.255944889026344e-05 0 -0.0096056994161009771 9.1899055599640311e-05 0 -0.0096145691611914056 4.6178317708232976e-05 0 -0.0096056994161009771 9.1899055599640311e-05 0 -0.0096020651387270176 8.3101727074446469e-05 0 -0.0096862175016694634 5.4066265482129289e-05 0 -0.0094340160947570997 1.7431276355503727e-05 0 -0.0096046401619263901 -3.0046691781162828e-06 0 -0.0096032858019493867 7.504874719930864e-06 0 -0.0096001281227009738 5.6067590985284883e-06 0 -0.0096145691611914056 4.6178317708232976e-05 0 -0.0096032858019493867 7.504874719930864e-06 0 -0.0096001281227009738 5.6067590985284883e-06 0 -0.0096114518964522319 1.100974917213373e-07 0 -0.0096001281227009738 5.6067590985284883e-06 0 -0.0096167769296719476 -1.8963288113961414e-06 0 -0.0094340160947570997 1.7431276355503727e-05 0 -0.010401848984907045 0.00027340411582995168 0 -0.0096046401619263901 -3.0046691781162828e-06 0 -0.0096114518964522319 1.100974917213373e-07 0 -0.0096001281227009738 5.6067590985284883e-06 0 -0.0096056994161009771 9.1899055599640311e-05 0 -0.0096020651387270176 8.3101727074446469e-05 0 -0.0096053587227455644 9.1750473231090051e-05 0 -0.0096020651387270176 8.3101727074446469e-05 0 -0.0096053587227455644 9.1750473231090051e-05 0 -0.0096171383181836399 9.3196800970760427e-05 0 -0.010580754394072373 0.00038489183522609136 0 -0.010401848984907045 0.00027340411582995168 0 -0.01180278670651861 0.00068446811920178932 0 -0.011717535868579926 0.00060803211429816186 0 -0.011679942693853758 0.00084687243818279022 0 -0.01152544402357899 0.00060476918660942259 0 -0.011717535868579926 0.00060803211429816186 0 -0.011679942693853758 0.00084687243818279022 0 -0.01180278670651861 0.00068446811920178932 0 -0.011857035131316704 0.00076910814931688222 0 -0.011679942693853758 0.00084687243818279022 0 -0.01180278670651861 0.00068446811920178932 0 -0.011717535868579926 0.00060803211429816186 0 -0.01179962162700993 0.00061061831593688305 0 -0.011717535868579926 0.00060803211429816186 0 -0.01179962162700993 0.00061061831593688305 0 -0.011811086398352129 0.00054580915262543125 0 -0.011994480948647272 0.00064082430631226311 0 -0.012109951418823187 0.00071561698999038977 0 -0.011927085767069447 0.00050871961703635661 0 -0.01179962162700993 0.00061061831593688305 0 -0.011868867225871806 0.0005948962402051041 0 -0.011811086398352129 0.00054580915262543125 0 -0.011917140121102827 0.00059242888789028841 0 -0.012914207788018186 0.00042950221570213363 0 -0.01180278670651861 0.00068446811920178932 0 -0.01179962162700993 0.00061061831593688305 0 -0.011868867225871806 0.0005948962402051041 0 -0.011868867225871806 0.0005948962402051041 0 -0.011945359302440466 0.00059448058877366804 0 -0.011921851865032021 0.00056407158967190524 0 -0.011868867225871806 0.0005948962402051041 0 -0.011908733511453997 0.00067457510451905114 0 -0.011945359302440466 0.00059448058877366804 0 -0.01180278670651861 0.00068446811920178932 0 -0.011868867225871806 0.0005948962402051041 0 -0.011908733511453997 0.00067457510451905114 0 -0.011945359302440466 0.00059448058877366804 0 -0.011994480948647272 0.00064082430631226311 0 -0.011927085767069447 0.00050871961703635661 0 -0.011908733511453997 0.00067457510451905114 0 -0.011945359302440466 0.00059448058877366804 0 -0.011994480948647272 0.00064082430631226311 0 -0.011908733511453997 0.00067457510451905114 0 -0.011994480948647272 0.00064082430631226311 0 -0.011989660334631259 0.00075890538211572278 0 -0.011908733511453997 0.00067457510451905114 0 -0.011989660334631259 0.00075890538211572278 0 -0.011857035131316704 0.00076910814931688222 0 -0.01180278670651861 0.00068446811920178932 0 -0.011908733511453997 0.00067457510451905114 0 -0.011857035131316704 0.00076910814931688222 0 -0.011857035131316704 0.00076910814931688222 0 -0.01191563986370949 0.00086801665804959267 0 -0.011679942693853758 0.00084687243818279022 0 -0.011989660334631259 0.00075890538211572278 0 -0.01191563986370949 0.00086801665804959267 0 -0.012149529921173564 0.00087877306376301723 0 -0.010842404202283407 3.2295856431996313e-05 0 -0.011048795759610652 4.8906260902442211e-05 0 -0.010747154726685842 0.00018876936151781978 0 -0.011989660334631259 0.00075890538211572278 0 -0.011857035131316704 0.00076910814931688222 0 -0.01191563986370949 0.00086801665804959267 0 -0.010401848984907045 0.00027340411582995168 0 -0.010152898669530903 4.377184747265531e-05 0 -0.0096114518964522319 1.100974917213373e-07 0 -0.0096167769296719476 -1.8963288113961414e-06 0 -0.0096204620108527438 -6.3325079451349197e-07 0 -0.011513093671107547 0.0004532660261845037 0 -0.010401848984907045 0.00027340411582995168 0 -0.010842404202283407 3.2295856431996313e-05 0 -0.010635111013403043 1.6995032627642113e-05 0 -0.010747154726685842 0.00018876936151781978 0 -0.013582236064858023 0.00017732699305729745 0 -0.014002276840876538 0.00022440457267726766 0 -0.013616137260265034 0.00085123632559265386 0 -0.013582236064858023 0.00017732699305729745 0 -0.014002276840876538 0.00022440457267726766 0 -0.01337600177618126 -0.0002599935109191744 0 -0.013360315028697783 0.00021672107286607536 0 -0.012914207788018186 0.00042950221570213363 0 -0.012240973149635808 0.00071189471121849927 0 -0.012109951418823187 0.00071561698999038977 0 -0.011971987021134445 0.00052742546040309563 0 -0.014511518532538072 -7.9671813887586222e-05 0 -0.014563099645305272 -2.6996443131759352e-05 0 -0.014616782157010585 -4.2562043823786102e-06 0 -0.012240973149635808 0.00071189471121849927 0 -0.012109951418823187 0.00071561698999038977 0 -0.012149529921173564 0.00087877306376301723 0 -0.014511518532538072 -7.9671813887586222e-05 0 -0.01453289527663987 -4.5157733817620853e-05 0 -0.014563099645305272 -2.6996443131759352e-05 0 -0.014511518532538072 -7.9671813887586222e-05 0 -0.01453289527663987 -4.5157733817620853e-05 0 -0.014513022178452522 -3.7147002511875787e-05 0 -0.011994480948647272 0.00064082430631226311 0 -0.011989660334631259 0.00075890538211572278 0 -0.012109951418823187 0.00071561698999038977 0 -0.011989660334631259 0.00075890538211572278 0 -0.012109951418823187 0.00071561698999038977 0 -0.012149529921173564 0.00087877306376301723 0 -0.011513093671107547 0.0004532660261845037 0 -0.011556014300210001 8.5185775139164124e-05 0 -0.013360315028697783 0.00021672107286607536 0 -0.011556014300210001 8.5185775139164124e-05 0 -0.012052349742133371 -4.5545326660554433e-05 0 -0.011700693003763432 -0.00029941511113830318 0 -0.011725416199263219 -0.00032243982982449525 0 -0.011556014300210001 8.5185775139164124e-05 0 -0.011737843871511619 -0.00040607049696351897 0 -0.011058495567153317 -0.0003932617777812693 0 -0.011454844317866164 -0.000215643345990769 0 -0.011725416199263219 -0.00032243982982449525 0 -0.013360315028697783 0.00021672107286607536 0 -0.012309430484228846 -0.00056610283913648531 0 -0.011058495567153317 -0.0003932617777812693 0 -0.011454844317866164 -0.000215643345990769 0 -0.011267201150716747 0.00012125065810072774 0 -0.012052349742133371 -4.5545326660554433e-05 0 -0.012187412143147948 -0.00028061467449845264 0 -0.011725416199263219 -0.00032243982982449525 0 -0.011454844317866164 -0.000215643345990769 0 -0.011725416199263219 -0.00032243982982449525 0 -0.011758311208719379 -0.00026977352835116589 0 -0.0099421342189233101 -0.00059965504217709433 0 -0.010226204643119753 -0.00081684981916520358 0 -0.010178915101960126 -0.00038049786119412837 0 -0.010548259545904886 -0.00017071503041464137 0 -0.0113576076835663 -0.00086698669424777205 0 -0.011454844317866164 -0.000215643345990769 0 -0.011267201150716747 0.00012125065810072774 0 -0.011758311208719379 -0.00026977352835116589 0 -0.011058495567153317 -0.0003932617777812693 0 -0.011267201150716747 0.00012125065810072774 0 -0.010636345357223504 0.00030868807609791274 0 -0.011556014300210001 8.5185775139164124e-05 0 -0.010267373436194658 0.0001571553697084288 0 -0.0099240449888623895 -0.00034974916121381254 0 -0.0096718059998212019 -0.00038727039701198578 0 -0.0098280437193235259 -0.00014315221024333179 0 -0.010548259545904886 -0.00017071503041464137 0 -0.010041900599742463 -8.1355237029534559e-05 0 -0.0099421342189233101 -0.00059965504217709433 0 -0.0099240449888623895 -0.00034974916121381254 0 -0.0096718059998212019 -0.00038727039701198578 0 -0.011267201150716747 0.00012125065810072774 0 -0.010636345357223504 0.00030868807609791274 0 -0.010760755465185201 0.0005039592532770867 0 -0.0099421342189233101 -0.00059965504217709433 0 -0.0099240449888623895 -0.00034974916121381254 0 -0.010178915101960126 -0.00038049786119412837 0 -0.0099240449888623895 -0.00034974916121381254 0 -0.0099993633888983934 -0.00018088589916769612 0 -0.010178915101960126 -0.00038049786119412837 0 -0.0096114518964522319 1.100974917213373e-07 0 -0.0096187169413482296 7.6681461950219736e-07 0 -0.0096204620108527438 -6.3325079451349197e-07 0 -0.0096114518964522319 1.100974917213373e-07 0 -0.0096121402026737406 5.8191317119282961e-07 0 -0.0096187169413482296 7.6681461950219736e-07 0 -0.011048795759610652 4.8906260902442211e-05 0 -0.010747154726685842 0.00018876936151781978 0 -0.010856920491135845 0.00036161440262562995 0 -0.0096187169413482296 7.6681461950219736e-07 0 -0.0096204620108527438 -6.3325079451349197e-07 0 -0.0096253986521776559 1.3105006403377861e-06 0 -0.010152898669530903 4.377184747265531e-05 0 -0.010267373436194658 0.0001571553697084288 0 -0.010041900599742463 -8.1355237029534559e-05 0 -0.0095780869782366076 -3.2838527445310199e-05 0 -0.0096187169413482296 7.6681461950219736e-07 0 -0.0096241761290998974 1.7656998330683994e-06 0 -0.0096253986521776559 1.3105006403377861e-06 0 -0.0096241761290998974 1.7656998330683994e-06 0 -0.0096309600124669346 2.731022559000875e-06 0 -0.0096168607512739195 4.54014120739359e-06 0 -0.0099675647854478074 0.00017501865756840108 0 -0.010267373436194658 0.0001571553697084288 0 -0.0096241761290998974 1.7656998330683994e-06 0 -0.00962926018260425 -2.506596561181459e-06 0 -0.0096309600124669346 2.731022559000875e-06 0 -0.010267373436194658 0.0001571553697084288 0 -0.010041900599742463 -8.1355237029534559e-05 0 -0.0096121402026737406 5.8191317119282961e-07 0 -0.0096162255970005019 1.8602960672812397e-06 0 -0.0096121475251506119 1.4479631518232457e-06 0 -0.0096241761290998974 1.7656998330683994e-06 0 -0.0096162255970005019 1.8602960672812397e-06 0 -0.0096168607512739195 4.54014120739359e-06 0 -0.0096187169413482296 7.6681461950219736e-07 0 -0.0096241761290998974 1.7656998330683994e-06 0 -0.0096162255970005019 1.8602960672812397e-06 0 -0.0096121402026737406 5.8191317119282961e-07 0 -0.0096187169413482296 7.6681461950219736e-07 0 -0.0096162255970005019 1.8602960672812397e-06 0 -0.0096316051335735529 -0.00011228993983859978 0 -0.0096276555568158961 -1.1806546270845963e-05 0 -0.0096085359845058723 7.7638174455280509e-07 0 -0.0096168607512739195 4.54014120739359e-06 0 -0.0096085359845058723 7.7638174455280509e-07 0 -0.0096121475251506119 1.4479631518232457e-06 0 -0.0095780869782366076 -3.2838527445310199e-05 0 -0.0096274382832117096 -2.2717524173326718e-05 0 -0.0096162255970005019 1.8602960672812397e-06 0 -0.0096168607512739195 4.54014120739359e-06 0 -0.0096121475251506119 1.4479631518232457e-06 0 -0.0097417162782529512 -0.0002315217387891536 0 -0.0096316051335735529 -0.00011228993983859978 0 -0.0097215791876701339 -0.00013559826646811459 0 -0.0096316051335735529 -0.00011228993983859978 0 -0.0096985397593150578 -5.0325466262030474e-05 0 -0.0096276555568158961 -1.1806546270845963e-05 0 -0.0097215791876701339 -0.00013559826646811459 0 -0.0096985397593150578 -5.0325466262030474e-05 0 -0.0098280437193235259 -0.00014315221024333179 0 -0.0096316051335735529 -0.00011228993983859978 0 -0.0097215791876701339 -0.00013559826646811459 0 -0.0096985397593150578 -5.0325466262030474e-05 0 -0.0096985397593150578 -5.0325466262030474e-05 0 -0.0098350582946321128 4.7318019978435068e-05 0 -0.0096269049995785401 3.4093898422062582e-05 0 -0.0096073718110767595 0.00014275202723595061 0 -0.0096549066985796936 2.2963674708751848e-05 0 -0.0096985397593150578 -5.0325466262030474e-05 0 -0.0096276555568158961 -1.1806546270845963e-05 0 -0.0096269049995785401 3.4093898422062582e-05 0 -0.0096276555568158961 -1.1806546270845963e-05 0 -0.0096203776353563798 2.2998386804257656e-05 0 -0.0096269049995785401 3.4093898422062582e-05 0 -0.0096276555568158961 -1.1806546270845963e-05 0 -0.0096203776353563798 2.2998386804257656e-05 0 -0.0096085359845058723 7.7638174455280509e-07 0 -0.0099993633888983934 -0.00018088589916769612 0 -0.01011813045976092 6.9757301448526836e-06 0 -0.010178915101960126 -0.00038049786119412837 0 -0.0099993633888983934 -0.00018088589916769612 0 -0.0099461141271555593 -5.8808762783765259e-05 0 -0.01011813045976092 6.9757301448526836e-06 0 -0.0099993633888983934 -0.00018088589916769612 0 -0.0098280437193235259 -0.00014315221024333179 0 -0.0099461141271555593 -5.8808762783765259e-05 0 -0.0097417162782529512 -0.0002315217387891536 0 -0.0097215791876701339 -0.00013559826646811459 0 -0.0098280437193235259 -0.00014315221024333179 0 -0.010041900599742463 -8.1355237029534559e-05 0 -0.0097357406153996563 -0.00026306637553479207 0 -0.0099240449888623895 -0.00034974916121381254 0 -0.0099993633888983934 -0.00018088589916769612 0 -0.0098280437193235259 -0.00014315221024333179 0 -0.0096985397593150578 -5.0325466262030474e-05 0 -0.0098280437193235259 -0.00014315221024333179 0 -0.0098350582946321128 4.7318019978435068e-05 0 -0.0098280437193235259 -0.00014315221024333179 0 -0.0098350582946321128 4.7318019978435068e-05 0 -0.0099461141271555593 -5.8808762783765259e-05 0 -0.0098350582946321128 4.7318019978435068e-05 0 -0.0099461141271555593 -5.8808762783765259e-05 0 -0.01011813045976092 6.9757301448526836e-06 0 -0.0096073718110767595 0.00014275202723595061 0 -0.0097637640604797214 -0.00087010144100454611 0 -0.0094617736619529522 7.5162980259085407e-05 0 -0.0092718230645159831 0.00011486247869017718 0 -0.009362607495770555 2.2953618366703127e-05 0 -0.0092718230645159831 0.00011486247869017718 0 -0.0092739826543411941 -8.5048553137168816e-05 0 -0.009362607495770555 2.2953618366703127e-05 0 -0.0092739826543411941 -8.5048553137168816e-05 0 -0.009362607495770555 2.2953618366703127e-05 0 -0.0094392541845803157 -1.4910000365007442e-05 0 -0.0097637640604797214 -0.00087010144100454611 0 -0.0078512670668348782 -0.0011743029584780375 0 -0.0078512670668348782 -0.0011743029584780375 0 -0.0082544286394705992 -0.00069829908949771739 0 -0.0092739826543411941 -8.5048553137168816e-05 0 -0.0094392541845803157 -1.4910000365007442e-05 0 -0.0095281366803078044 -7.300895093195303e-05 0 -0.0094617736619529522 7.5162980259085407e-05 0 -0.009362607495770555 2.2953618366703127e-05 0 -0.0094392541845803157 -1.4910000365007442e-05 0 -0.0094617736619529522 7.5162980259085407e-05 0 -0.0094392541845803157 -1.4910000365007442e-05 0 -0.009564618710525552 -8.1612584774666103e-06 0 -0.0094392541845803157 -1.4910000365007442e-05 0 -0.0095281366803078044 -7.300895093195303e-05 0 -0.009564618710525552 -8.1612584774666103e-06 0 -0.0070554253673959779 -0.0015211599806105314 0 -0.0069076128390306892 -0.0015207720444961352 0 -0.0070455530475121396 -0.0013677634995249385 0 -0.0069076128390306892 -0.0015207720444961352 0 -0.0070455530475121396 -0.0013677634995249385 0 -0.0068002253739233515 -0.0014396459016474612 0 -0.0068002081998507586 -0.0013625850573086239 0 -0.0070455530475121396 -0.0013677634995249385 0 -0.0068002253739233515 -0.0014396459016474612 0 -0.0067993275281606046 -0.0015276238172509708 0 -0.0069076128390306892 -0.0015207720444961352 0 -0.0068002253739233515 -0.0014396459016474612 0 -0.0078512670668348782 -0.0011743029584780375 0 -0.0073287719888107923 -0.0013874871778569878 0 -0.0096203776353563798 2.2998386804257656e-05 0 -0.0096269049995785401 3.4093898422062582e-05 0 -0.0096304415016795226 2.5392901347127676e-05 0 -0.0098704338533655237 4.7717304868943483e-05 0 -0.0088063661014437071 -0.00044059502899334679 0 -0.0095281366803078044 -7.300895093195303e-05 0 -0.009564618710525552 -8.1612584774666103e-06 0 -0.0096785136171696623 -7.9661954078605476e-05 0 -0.0094617736619529522 7.5162980259085407e-05 0 -0.0096269049995785401 3.4093898422062582e-05 0 -0.009564618710525552 -8.1612584774666103e-06 0 -0.0096269049995785401 3.4093898422062582e-05 0 -0.009564618710525552 -8.1612584774666103e-06 0 -0.0096304415016795226 2.5392901347127676e-05 0 -0.0070455530475121396 -0.0013677634995249385 0 -0.0071713793486278352 -0.0014766822488247856 0 -0.0072887130103364371 -0.0013763963169142154 0 -0.0082544286394705992 -0.00069829908949771739 0 -0.0088063661014437071 -0.00044059502899334679 0 -0.0070554253673959779 -0.0015211599806105314 0 -0.0070455530475121396 -0.0013677634995249385 0 -0.0071713793486278352 -0.0014766822488247856 0 -0.0072912146107424981 -0.001502812831079163 0 -0.0071713793486278352 -0.0014766822488247856 0 -0.0072887130103364371 -0.0013763963169142154 0 -0.0072912146107424981 -0.001502812831079163 0 -0.0072887130103364371 -0.0013763963169142154 0 -0.0074080041399435023 -0.0014280075338475593 0 -0.0088063661014437071 -0.00044059502899334679 0 -0.0090738332368285671 -0.00019201417888017148 0 -0.0087764787243326189 -0.00046079570542000318 0 -0.0083965714009432233 -0.00028760626209520842 0 -0.0082769076190429211 -0.00041481772402303212 0 -0.0088063661014437071 -0.00044059502899334679 0 -0.0079834481985467109 -0.00087777655439818646 0 -0.0080078927229633012 -0.00018881601075882229 0 -0.0082769076190429211 -0.00041481772402303212 0 -0.0077861171065203997 -0.00036778461125392634 0 -0.0090738332368285671 -0.00019201417888017148 0 -0.0083693020559282068 7.4015748062828738e-05 0 -0.0096054677147179301 4.8378544943941355e-05 0 -0.0096037808112137552 5.5464107719478143e-05 0 -0.0095997300305658614 6.227212747831297e-05 0 -0.0080187391201579777 -0.00011918815911897319 0 -0.0080078927229633012 -0.00018881601075882229 0 -0.0077861171065203997 -0.00036778461125392634 0 -0.0069177064358006699 -0.0002059032730328316 0 -0.0070124181618761343 -0.00015997508328829491 0 -0.0083965714009432233 -0.00028760626209520842 0 -0.0080078927229633012 -0.00018881601075882229 0 -0.0082769076190429211 -0.00041481772402303212 0 -0.0080186780825862031 -0.00011774591192137673 0 -0.0083965714009432233 -0.00028760626209520842 0 -0.0080078927229633012 -0.00018881601075882229 0 -0.0069177064358006699 -0.0002059032730328316 0 -0.0079834481985467109 -0.00087777655439818646 0 -0.0096037808112137552 5.5464107719478143e-05 0 -0.0096124009361249312 3.2288726385584481e-05 0 -0.0096114747914502457 3.8211409249041343e-05 0 -0.0096054677147179301 4.8378544943941355e-05 0 -0.0096037808112137552 5.5464107719478143e-05 0 -0.0096124009361249312 3.2288726385584481e-05 0 -0.0096203776353563798 2.2998386804257656e-05 0 -0.0096304415016795226 2.5392901347127676e-05 0 -0.0096124009361249312 3.2288726385584481e-05 0 -0.0096304415016795226 2.5392901347127676e-05 0 -0.0096054677147179301 4.8378544943941355e-05 0 -0.0096124009361249312 3.2288726385584481e-05 0 -0.0096124009361249312 3.2288726385584481e-05 0 -0.0096085359845058723 7.7638174455280509e-07 0 -0.0096114747914502457 3.8211409249041343e-05 0 -0.0096203776353563798 2.2998386804257656e-05 0 -0.0096124009361249312 3.2288726385584481e-05 0 -0.0096085359845058723 7.7638174455280509e-07 0 -0.0096085359845058723 7.7638174455280509e-07 0 -0.0096114747914502457 3.8211409249041343e-05 0 -0.0096123425624597518 9.370764475983751e-06 0 -0.0096085359845058723 7.7638174455280509e-07 0 -0.0096123425624597518 9.370764475983751e-06 0 -0.0096122430611665609 -5.1316860731207421e-07 0 -0.0096067584601482372 -1.8800316818055703e-05 0 -0.0096123425624597518 9.370764475983751e-06 0 -0.0096122430611665609 -5.1316860731207421e-07 0 -0.0096085359845058723 7.7638174455280509e-07 0 -0.0096122430611665609 -5.1316860731207421e-07 0 -0.0096121475251506119 1.4479631518232457e-06 0 -0.0095875355807781264 -3.3874556578888129e-05 0 -0.0095403622571424967 3.8899679532148932e-06 0 -0.0095645875340137215 -6.1768149984416009e-05 0 -0.0095875355807781264 -3.3874556578888129e-05 0 -0.0095970475123625977 -4.8228128427921524e-06 0 -0.0095403622571424967 3.8899679532148932e-06 0 -0.0096067584601482372 -1.8800316818055703e-05 0 -0.0096123425624597518 9.370764475983751e-06 0 -0.0095970475123625977 -4.8228128427921524e-06 0 -0.0096123425624597518 9.370764475983751e-06 0 -0.0095970475123625977 -4.8228128427921524e-06 0 -0.0096063049375974263 4.030865242494074e-05 0 -0.0096067584601482372 -1.8800316818055703e-05 0 -0.0095875355807781264 -3.3874556578888129e-05 0 -0.0095970475123625977 -4.8228128427921524e-06 0 -0.0096114747914502457 3.8211409249041343e-05 0 -0.0096123425624597518 9.370764475983751e-06 0 -0.0096063049375974263 4.030865242494074e-05 0 -0.0096114747914502457 3.8211409249041343e-05 0 -0.0096063049375974263 4.030865242494074e-05 0 -0.0096012504999638364 0.00011505036604772013 0 -0.0095970475123625977 -4.8228128427921524e-06 0 -0.0096063049375974263 4.030865242494074e-05 0 -0.0095403622571424967 3.8899679532148932e-06 0 -0.0096063049375974263 4.030865242494074e-05 0 -0.0096012504999638364 0.00011505036604772013 0 -0.0095403622571424967 3.8899679532148932e-06 0 -0.0096012504999638364 0.00011505036604772013 0 -0.0094900988023971494 0.0003362303707016627 0 -0.0094608792204944232 0.00016961184141785411 0 -0.0096012504999638364 0.00011505036604772013 0 -0.0094608792204944232 0.00016961184141785411 0 -0.0095403622571424967 3.8899679532148932e-06 0 -0.0096037808112137552 5.5464107719478143e-05 0 -0.0096012504999638364 0.00011505036604772013 0 -0.0095997300305658614 6.227212747831297e-05 0 -0.0096037808112137552 5.5464107719478143e-05 0 -0.0096114747914502457 3.8211409249041343e-05 0 -0.0096012504999638364 0.00011505036604772013 0 -0.0099263514450606532 0.00031042071160447131 0 -0.0083693020559282068 7.4015748062828738e-05 0 -0.0063904047011264916 0.00042764240073396093 0 -0.0063875431264393259 0.00031070570352369437 0 -0.0067460709744261958 0.00043332349428518689 0 -0.0069177064358006699 -0.0002059032730328316 0 -0.0083693020559282068 7.4015748062828738e-05 0 -0.0062707141002844224 0.00029762283608349496 0 -0.0063904047011264916 0.00042764240073396093 0 -0.0063875431264393259 0.00031070570352369437 0 -0.0083693020559282068 7.4015748062828738e-05 0 -0.008044664488799461 0.00043171166315448688 0 -0.0096012504999638364 0.00011505036604772013 0 -0.0097287633043507075 0.00026951805057257283 0 -0.0094900988023971494 0.0003362303707016627 0 -0.0094900988023971494 0.0003362303707016627 0 -0.0094608792204944232 0.00016961184141785411 0 -0.0091472223292743907 0.00047653465329520014 0 -0.0091472223292743907 0.00047653465329520014 0 -0.0090177442522685145 0.00010716233129443933 0 -0.0093469294520698264 6.9074250572642696e-05 0 -0.0094608792204944232 0.00016961184141785411 0 -0.0091472223292743907 0.00047653465329520014 0 -0.0093469294520698264 6.9074250572642696e-05 0 -0.008044664488799461 0.00043171166315448688 0 -0.0081960456037763838 0.00046346466959111608 0 -0.0081960456037763838 0.00046346466959111608 0 -0.0081870353381612946 0.00043706188722971736 0 -0.0091472223292743907 0.00047653465329520014 0 -0.0086958549449674648 0.00029943481961025505 0 -0.0081862128713740216 0.00042177536202375298 0 -0.0086958549449674648 0.00029943481961025505 0 -0.0081862128713740216 0.00042177536202375298 0 -0.0085138102812440906 0.00026037148495107752 0 -0.0080199978684776883 0.00037436315670086404 0 -0.0081862128713740216 0.00042177536202375298 0 -0.0085138102812440906 0.00026037148495107752 0 -0.0086958549449674648 0.00029943481961025505 0 -0.0085138102812440906 0.00026037148495107752 0 -0.0090177442522685145 0.00010716233129443933 0 -0.0091472223292743907 0.00047653465329520014 0 -0.0086958549449674648 0.00029943481961025505 0 -0.0090177442522685145 0.00010716233129443933 0 -0.0090177442522685145 0.00010716233129443933 0 -0.0092629560831495681 -2.6368986766390609e-05 0 -0.0093469294520698264 6.9074250572642696e-05 0 -0.0090177442522685145 0.00010716233129443933 0 -0.0092629560831495681 -2.6368986766390609e-05 0 -0.0090450017840276783 -7.4553922682310848e-05 0 -0.0085138102812440906 0.00026037148495107752 0 -0.0090177442522685145 0.00010716233129443933 0 -0.0090450017840276783 -7.4553922682310848e-05 0 -0.0086521711100183245 8.9179980854469973e-05 0 -0.0088583767625413437 1.5984970552671978e-05 0 -0.0088583767625413437 1.5984970552671978e-05 0 -0.0094658740232979287 0.0001047096971569172 0 -0.0090450017840276783 -7.4553922682310848e-05 0 -0.0093542950722792454 -9.4818278063450099e-05 0 -0.009502454481523535 -0.00011689699801506324 0 -0.0092629560831495681 -2.6368986766390609e-05 0 -0.0090450017840276783 -7.4553922682310848e-05 0 -0.0093542950722792454 -9.4818278063450099e-05 0 -0.0092629560831495681 -2.6368986766390609e-05 0 -0.0093542950722792454 -9.4818278063450099e-05 0 -0.0094175719770084858 -6.9982343204201043e-05 0 -0.0093542950722792454 -9.4818278063450099e-05 0 -0.0094175719770084858 -6.9982343204201043e-05 0 -0.0094862649108622583 -9.4233721386324771e-05 0 -0.0092629560831495681 -2.6368986766390609e-05 0 -0.0094175719770084858 -6.9982343204201043e-05 0 -0.0094846588269592146 -3.9650552649601722e-05 0 -0.0094175719770084858 -6.9982343204201043e-05 0 -0.0094846588269592146 -3.9650552649601722e-05 0 -0.0095263891983455862 -8.3979435134255169e-05 0 -0.0094846588269592146 -3.9650552649601722e-05 0 -0.0095403622571424967 3.8899679532148932e-06 0 -0.0095645875340137215 -6.1768149984416009e-05 0 -0.0094846588269592146 -3.9650552649601722e-05 0 -0.0095645875340137215 -6.1768149984416009e-05 0 -0.0095263891983455862 -8.3979435134255169e-05 0 -0.0094846588269592146 -3.9650552649601722e-05 0 -0.0095403622571424967 3.8899679532148932e-06 0 -0.0093469294520698264 6.9074250572642696e-05 0 -0.0094608792204944232 0.00016961184141785411 0 -0.0095403622571424967 3.8899679532148932e-06 0 -0.0093469294520698264 6.9074250572642696e-05 0 -0.0092629560831495681 -2.6368986766390609e-05 0 -0.0094846588269592146 -3.9650552649601722e-05 0 -0.0093469294520698264 6.9074250572642696e-05 0 -0.0076312971056710201 -7.5184611237760497e-05 0 -0.0064032337720005975 -0.00036250443138737183 0 -0.0064140274297363603 -0.00019331166471228068 0 -0.006538311724082973 -0.00037721363367142403 0 -0.0064950888206078425 -0.00045976851049980735 0 -0.0068877446008677057 -2.5809421662681879e-05 0 -0.0064140274297363603 -0.00019331166471228068 0 -0.006538311724082973 -0.00037721363367142403 0 -0.0076312971056710201 -7.5184611237760497e-05 0 -0.0076878788632504238 -0.00029559273588624719 0 -0.0063789803400333758 -0.00016154039633352137 0 -0.0064030027008388172 -0.00032523464477827091 0 -0.0062779947348915116 -0.00036029767275096104 0 -0.0063537637059567645 -0.00042815067877654921 0 -0.0064030027008388172 -0.00032523464477827091 0 -0.0062779947348915116 -0.00036029767275096104 0 -0.009072076047442458 -0.00022510392672368143 0 -0.009023981962884434 -0.0001255035506944692 0 -0.0090743667879089676 -0.00011523262259491278 0 -0.0089760567064045751 -0.00026082431795852436 0 -0.009072076047442458 -0.00022510392672368143 0 -0.0089968856352969067 -0.00019709795726027238 0 -0.009072076047442458 -0.00022510392672368143 0 -0.009023981962884434 -0.0001255035506944692 0 -0.0089968856352969067 -0.00019709795726027238 0 -0.0091390779116806934 -7.4844602308226355e-05 0 -0.009072076047442458 -0.00022510392672368143 0 -0.0090743667879089676 -0.00011523262259491278 0 -0.0091390779116806934 -7.4844602308226355e-05 0 -0.0090743667879089676 -0.00011523262259491278 0 -0.0090647839984671925 -4.158730203998051e-05 0 -0.009023981962884434 -0.0001255035506944692 0 -0.0089679974831545061 -7.0065943681693485e-05 0 -0.0090647839984671925 -4.158730203998051e-05 0 -0.009023981962884434 -0.0001255035506944692 0 -0.0090743667879089676 -0.00011523262259491278 0 -0.0090647839984671925 -4.158730203998051e-05 0 -0.0089679974831545061 -7.0065943681693485e-05 0 -0.0088921164439129032 -0.00012568728110856679 0 -0.0088931811427047629 -1.236667521860221e-05 0 -0.0089679974831545061 -7.0065943681693485e-05 0 -0.0089597342054528566 -0.00014038895146964325 0 -0.0088921164439129032 -0.00012568728110856679 0 -0.009023981962884434 -0.0001255035506944692 0 -0.0089679974831545061 -7.0065943681693485e-05 0 -0.0089597342054528566 -0.00014038895146964325 0 -0.009023981962884434 -0.0001255035506944692 0 -0.0089597342054528566 -0.00014038895146964325 0 -0.0089968856352969067 -0.00019709795726027238 0 -0.0089597342054528566 -0.00014038895146964325 0 -0.0089968856352969067 -0.00019709795726027238 0 -0.0089230305226566092 -0.0002098009862542772 0 -0.0089760567064045751 -0.00026082431795852436 0 -0.0089968856352969067 -0.00019709795726027238 0 -0.0089230305226566092 -0.0002098009862542772 0 -0.0088958197433185969 -0.00029392489310603893 0 -0.0089760567064045751 -0.00026082431795852436 0 -0.0089230305226566092 -0.0002098009862542772 0 -0.0088958197433185969 -0.00029392489310603893 0 -0.0089230305226566092 -0.0002098009862542772 0 -0.0088538372757244656 -0.00020901274645105386 0 -0.0089597342054528566 -0.00014038895146964325 0 -0.0089230305226566092 -0.0002098009862542772 0 -0.0088921164439129032 -0.00012568728110856679 0 -0.0087904791378597032 -0.00030143997039496525 0 -0.0087837995019655456 -0.00011731378806658269 0 -0.0088538372757244656 -0.00020901274645105386 0 -0.0083934018473205523 4.4173416051449273e-05 0 -0.0086521711100183245 8.9179980854469973e-05 0 -0.0089230305226566092 -0.0002098009862542772 0 -0.0088538372757244656 -0.00020901274645105386 0 -0.0088921164439129032 -0.00012568728110856679 0 -0.0087837995019655456 -0.00011731378806658269 0 -0.0088921164439129032 -0.00012568728110856679 0 -0.0088931811427047629 -1.236667521860221e-05 0 -0.0087837995019655456 -0.00011731378806658269 0 -0.0088538372757244656 -0.00020901274645105386 0 -0.0088921164439129032 -0.00012568728110856679 0 -0.0087837995019655456 -0.00011731378806658269 0 -0.0087714482774611004 6.1380860978763976e-05 0 -0.0088931811427047629 -1.236667521860221e-05 0 -0.0088931811427047629 -1.236667521860221e-05 0 -0.0088868344917748844 0.00010510006033188241 0 -0.0089707577159152275 6.6605366722071794e-05 0 -0.0087714482774611004 6.1380860978763976e-05 0 -0.0088931811427047629 -1.236667521860221e-05 0 -0.0088868344917748844 0.00010510006033188241 0 -0.0087714482774611004 6.1380860978763976e-05 0 -0.0088868344917748844 0.00010510006033188241 0 -0.0088125347169059239 0.00017544958917793435 0 -0.0088868344917748844 0.00010510006033188241 0 -0.0089760008767177241 0.00014617906054132407 0 -0.0089024428759293464 0.00019108711610681291 0 -0.0088868344917748844 0.00010510006033188241 0 -0.0089760008767177241 0.00014617906054132407 0 -0.0089707577159152275 6.6605366722071794e-05 0 -0.0089760008767177241 0.00014617906054132407 0 -0.009039104295181663 9.8340371266743366e-05 0 -0.009063862850693185 0.00018877872253870073 0 -0.0089760008767177241 0.00014617906054132407 0 -0.0089707577159152275 6.6605366722071794e-05 0 -0.009039104295181663 9.8340371266743366e-05 0 -0.0089707577159152275 6.6605366722071794e-05 0 -0.0090529384067774971 3.1774199327813184e-05 0 -0.009039104295181663 9.8340371266743366e-05 0 -0.0089707577159152275 6.6605366722071794e-05 0 -0.0089887815151108268 -3.6013682783229231e-06 0 -0.0090529384067774971 3.1774199327813184e-05 0 -0.0088931811427047629 -1.236667521860221e-05 0 -0.0089707577159152275 6.6605366722071794e-05 0 -0.0089887815151108268 -3.6013682783229231e-06 0 -0.0089679974831545061 -7.0065943681693485e-05 0 -0.0088931811427047629 -1.236667521860221e-05 0 -0.0089887815151108268 -3.6013682783229231e-06 0 -0.0089679974831545061 -7.0065943681693485e-05 0 -0.0089887815151108268 -3.6013682783229231e-06 0 -0.0090647839984671925 -4.158730203998051e-05 0 -0.0090647839984671925 -4.158730203998051e-05 0 -0.0091043039868491382 -9.5981895724409109e-06 0 -0.0090529384067774971 3.1774199327813184e-05 0 -0.0089887815151108268 -3.6013682783229231e-06 0 -0.0090647839984671925 -4.158730203998051e-05 0 -0.0090529384067774971 3.1774199327813184e-05 0 -0.0091390779116806934 -7.4844602308226355e-05 0 -0.0090647839984671925 -4.158730203998051e-05 0 -0.0091043039868491382 -9.5981895724409109e-06 0 -0.0091043039868491382 -9.5981895724409109e-06 0 -0.0090529384067774971 3.1774199327813184e-05 0 -0.0091479481048173817 5.3610007538248959e-05 0 -0.009039104295181663 9.8340371266743366e-05 0 -0.0091479481048173817 5.3610007538248959e-05 0 -0.009063862850693185 0.00018877872253870073 0 -0.0091558398325750304 6.2975060542025927e-05 0 -0.0091546359201454455 0.00014041526213626386 0 -0.0091737866141902193 9.2367225739335378e-05 0 -0.0091479481048173817 5.3610007538248959e-05 0 -0.0092286643404276246 0.00012761389887092157 0 -0.0090529384067774971 3.1774199327813184e-05 0 -0.009039104295181663 9.8340371266743366e-05 0 -0.0091479481048173817 5.3610007538248959e-05 0 -0.0083999818551771625 9.5033096436442961e-05 0 -0.0084674320350092824 7.2193893309964024e-05 0 -0.0084160443410944766 4.0905748675860065e-05 0 -0.0091390779116806934 -7.4844602308226355e-05 0 -0.0091043039868491382 -9.5981895724409109e-06 0 -0.0091479481048173817 5.3610007538248959e-05 0 -0.0076312971056710201 -7.5184611237760497e-05 0 -0.0089662158337420993 9.0993247189401314e-05 0 -0.0091390779116806934 -7.4844602308226355e-05 0 -0.0091737866141902193 9.2367225739335378e-05 0 -0.0091479481048173817 5.3610007538248959e-05 0 -0.0068877446008677057 -2.5809421662681879e-05 0 -0.0067249547486343212 0.00049479280248659625 0 -0.0064140274297363603 -0.00019331166471228068 0 -0.0074717509373890927 0.00031752080390995164 0 -0.0076312971056710201 -7.5184611237760497e-05 0 -0.0083999818551771625 9.5033096436442961e-05 0 -0.0084271302142337953 0.00017121141373263834 0 -0.0084674320350092824 7.2193893309964024e-05 0 -0.0094082430185447111 0.00019657323234644654 0 -0.0093948807825396247 0.00018437292494321114 0 -0.0094075796056404364 0.00019875400371535435 0 -0.0089895639487296581 6.5468353750803814e-05 0 -0.0089949046781595977 6.5946833512347814e-05 0 -0.0094082430185447111 0.00019657323234644654 0 -0.0094063863091963414 0.00019982665495635514 0 -0.0093948807825396247 0.00018437292494321114 0 -0.0094048308251889808 0.00019747650229045064 0 -0.0094082430185447111 0.00019657323234644654 0 -0.0094105830150337851 0.00019797104829912692 0 -0.0094077461588452562 0.00020806006942295727 0 -0.0094082430185447111 0.00019657323234644654 0 -0.0094063863091963414 0.00019982665495635514 0 -0.0084674320350092824 7.2193893309964024e-05 0 -0.0084331567793038166 -1.6408453544167232e-05 0 -0.0085064948708444242 -4.2698583247313832e-05 0 -0.0084674320350092824 7.2193893309964024e-05 0 -0.0084331567793038166 -1.6408453544167232e-05 0 -0.0084160443410944766 4.0905748675860065e-05 0 -0.0091737866141902193 9.2367225739335378e-05 0 -0.0092286643404276246 0.00012761389887092157 0 -0.0092869764155352197 0.00015367254592132718 0 -0.0091546359201454455 0.00014041526213626386 0 -0.0091057446563491441 0.00026285524165240175 0 -0.0089662158337420993 9.0993247189401314e-05 0 -0.0089949046781595977 6.5946833512347814e-05 0 -0.0092286643404276246 0.00012761389887092157 0 -0.0092869764155352197 0.00015367254592132718 0 -0.0092956056009565573 0.00015810483084733194 0 -0.0092869764155352197 0.00015367254592132718 0 -0.0092956056009565573 0.00015810483084733194 0 -0.0093575103950466337 0.00019972620954486996 0 -0.0090047989719129629 0.00030239623988969662 0 -0.0089346567634050016 0.00033264796540146687 0 -0.008954154812185363 0.00041643145171220501 0 -0.0090047989719129629 0.00030239623988969662 0 -0.0089723125340064342 0.00022079395688969438 0 -0.0089236990516741548 0.0002690719736106202 0 -0.0090047989719129629 0.00030239623988969662 0 -0.0089236990516741548 0.0002690719736106202 0 -0.0089346567634050016 0.00033264796540146687 0 -0.009063862850693185 0.00018877872253870073 0 -0.0090047989719129629 0.00030239623988969662 0 -0.0089723125340064342 0.00022079395688969438 0 -0.0089760008767177241 0.00014617906054132407 0 -0.009063862850693185 0.00018877872253870073 0 -0.0089723125340064342 0.00022079395688969438 0 -0.0089760008767177241 0.00014617906054132407 0 -0.0089723125340064342 0.00022079395688969438 0 -0.0089024428759293464 0.00019108711610681291 0 -0.0089723125340064342 0.00022079395688969438 0 -0.0089024428759293464 0.00019108711610681291 0 -0.0089236990516741548 0.0002690719736106202 0 -0.0089024428759293464 0.00019108711610681291 0 -0.0088474459699929911 0.00024242883092999719 0 -0.0089236990516741548 0.0002690719736106202 0 -0.0089024428759293464 0.00019108711610681291 0 -0.0088474459699929911 0.00024242883092999719 0 -0.0088125347169059239 0.00017544958917793435 0 -0.0088868344917748844 0.00010510006033188241 0 -0.0089024428759293464 0.00019108711610681291 0 -0.0088125347169059239 0.00017544958917793435 0 -0.0088474459699929911 0.00024242883092999719 0 -0.0089236990516741548 0.0002690719736106202 0 -0.0088558487719622245 0.00034220564414603718 0 -0.0089236990516741548 0.0002690719736106202 0 -0.0089346567634050016 0.00033264796540146687 0 -0.0088558487719622245 0.00034220564414603718 0 -0.010978846603603824 4.8543895942374726e-05 0 -0.01098072700927972 8.6477794792535333e-06 0 -0.010891219993180986 5.9766280699180882e-05 0 -0.010963176054314551 0.00010513099902382927 0 -0.010978846603603824 4.8543895942374726e-05 0 -0.010891219993180986 5.9766280699180882e-05 0 -0.0099557210755061385 0.00026345422333697401 0 -0.0095839376836896872 0.00024544238305171666 0 -0.0089346567634050016 0.00033264796540146687 0 -0.0088558487719622245 0.00034220564414603718 0 -0.008954154812185363 0.00041643145171220501 0 -0.01098072700927972 8.6477794792535333e-06 0 -0.010891219993180986 5.9766280699180882e-05 0 -0.010959829945442225 -6.2183395547285868e-05 0 -0.0095839376836896872 0.00024544238305171666 0 -0.010715252022305772 0.00013589913746857359 0 -0.0095299389203165868 0.00027447216137886003 0 -0.0095395792343998375 0.00033063877546711149 0 -0.0095932455454456906 0.00023035014336000143 0 -0.0095299389203165868 0.00027447216137886003 0 -0.0094846926713625275 0.00028643023204260432 0 -0.0095050082049437604 0.00024936969746350046 0 -0.0095299389203165868 0.00027447216137886003 0 -0.0095395792343998375 0.00033063877546711149 0 -0.0094846926713625275 0.00028643023204260432 0 -0.0095839376836896872 0.00024544238305171666 0 -0.0094054758658668452 0.0002402499617427298 0 -0.0091057446563491441 0.00026285524165240175 0 -0.0095839376836896872 0.00024544238305171666 0 -0.0092956056009565573 0.00015810483084733194 0 -0.0093079616624195966 0.00019620239290827246 0 -0.0093575103950466337 0.00019972620954486996 0 -0.0093079616624195966 0.00019620239290827246 0 -0.0093575103950466337 0.00019972620954486996 0 -0.009358592477581508 0.00022461386728632999 0 -0.0093948807825396247 0.00018437292494321114 0 -0.0093902313439706113 0.00019641259672199211 0 -0.0094075796056404364 0.00019875400371535435 0 -0.0093948807825396247 0.00018437292494321114 0 -0.0093902313439706113 0.00019641259672199211 0 -0.0093575103950466337 0.00019972620954486996 0 -0.0089949046781595977 6.5946833512347814e-05 0 -0.0094218549047580119 0.00023047993228918787 0 -0.0093902313439706113 0.00019641259672199211 0 -0.0094063072505525726 0.00021328099540069957 0 -0.0094075796056404364 0.00019875400371535435 0 -0.0093902313439706113 0.00019641259672199211 0 -0.0093575103950466337 0.00019972620954486996 0 -0.0094063072505525726 0.00021328099540069957 0 -0.0094846926713625275 0.00028643023204260432 0 -0.0094352257314894664 0.00023402545703919025 0 -0.0095050082049437604 0.00024936969746350046 0 -0.0093575103950466337 0.00019972620954486996 0 -0.009358592477581508 0.00022461386728632999 0 -0.0094063072505525726 0.00021328099540069957 0 -0.009358592477581508 0.00022461386728632999 0 -0.0094063072505525726 0.00021328099540069957 0 -0.0094352257314894664 0.00023402545703919025 0 -0.0094054758658668452 0.0002402499617427298 0 -0.0094342075272011681 0.00024349571063199629 0 -0.0094063072505525726 0.00021328099540069957 0 -0.0094240916567189768 0.00021339633341092986 0 -0.0094075796056404364 0.00019875400371535435 0 -0.0094413353290064769 0.00021628524655256629 0 -0.0094240916567189768 0.00021339633341092986 0 -0.0094352257314894664 0.00023402545703919025 0 -0.0094413353290064769 0.00021628524655256629 0 -0.0094183644876568075 0.00020329816785449393 0 -0.0094240916567189768 0.00021339633341092986 0 -0.0094063072505525726 0.00021328099540069957 0 -0.0094240916567189768 0.00021339633341092986 0 -0.0094352257314894664 0.00023402545703919025 0 -0.0094183644876568075 0.00020329816785449393 0 -0.0094240916567189768 0.00021339633341092986 0 -0.0094075796056404364 0.00019875400371535435 0 -0.0094183644876568075 0.00020329816785449393 0 -0.0094075796056404364 0.00019875400371535435 0 -0.0094105830150337851 0.00019797104829912692 0 -0.0094082430185447111 0.00019657323234644654 0 -0.0094075796056404364 0.00019875400371535435 0 -0.0094105830150337851 0.00019797104829912692 0 -0.0096729635591682947 -4.1575532413803631e-05 0 -0.0095945328381855672 -7.162306995514617e-05 0 -0.0095867725458089383 -9.292990848538679e-05 0 -0.0096729635591682947 -4.1575532413803631e-05 0 -0.0095867725458089383 -9.292990848538679e-05 0 -0.0097028361138781251 -6.6087839627051296e-05 0 -0.0095867725458089383 -9.292990848538679e-05 0 -0.0096019285325307339 -9.0486878359125357e-05 0 -0.0097028361138781251 -6.6087839627051296e-05 0 -0.0096729635591682947 -4.1575532413803631e-05 0 -0.0097028361138781251 -6.6087839627051296e-05 0 -0.0097470316581587807 -2.3875335676774718e-05 0 -0.0096729635591682947 -4.1575532413803631e-05 0 -0.0096165803049376719 -4.6725330524851701e-05 0 -0.009657091947983339 -9.2698870414933474e-06 0 -0.0096729635591682947 -4.1575532413803631e-05 0 -0.0096165803049376719 -4.6725330524851701e-05 0 -0.0095945328381855672 -7.162306995514617e-05 0 -0.0096165803049376719 -4.6725330524851701e-05 0 -0.0095945328381855672 -7.162306995514617e-05 0 -0.0095645875340137215 -6.1768149984416009e-05 0 -0.0095945328381855672 -7.162306995514617e-05 0 -0.0095645875340137215 -6.1768149984416009e-05 0 -0.0095263891983455862 -8.3979435134255169e-05 0 -0.0095945328381855672 -7.162306995514617e-05 0 -0.0095263891983455862 -8.3979435134255169e-05 0 -0.0095867725458089383 -9.292990848538679e-05 0 -0.0095263891983455862 -8.3979435134255169e-05 0 -0.0095867725458089383 -9.292990848538679e-05 0 -0.0094862649108622583 -9.4233721386324771e-05 0 -0.0094175719770084858 -6.9982343204201043e-05 0 -0.0095263891983455862 -8.3979435134255169e-05 0 -0.0094862649108622583 -9.4233721386324771e-05 0 -0.0093542950722792454 -9.4818278063450099e-05 0 -0.0094862649108622583 -9.4233721386324771e-05 0 -0.0095214559132010441 -0.00010277882540201065 0 -0.0093542950722792454 -9.4818278063450099e-05 0 -0.0095214559132010441 -0.00010277882540201065 0 -0.009502454481523535 -0.00011689699801506324 0 -0.0095214559132010441 -0.00010277882540201065 0 -0.009502454481523535 -0.00011689699801506324 0 -0.0096388087992119766 -8.4990146286513242e-05 0 -0.0095867725458089383 -9.292990848538679e-05 0 -0.0094862649108622583 -9.4233721386324771e-05 0 -0.0095214559132010441 -0.00010277882540201065 0 -0.0095867725458089383 -9.292990848538679e-05 0 -0.0095214559132010441 -0.00010277882540201065 0 -0.0096019285325307339 -9.0486878359125357e-05 0 -0.0087714482774611004 6.1380860978763976e-05 0 -0.0088125347169059239 0.00017544958917793435 0 -0.0087579072760345898 0.0002354489146976077 0 -0.0087579072760345898 0.0002354489146976077 0 -0.0088036151812705861 0.00026211995487862035 0 -0.0087546286124095003 0.00026335573221751226 0 -0.0094658740232979287 0.0001047096971569172 0 -0.0099682104668986742 -4.0592791859663126e-06 0 -0.0088125347169059239 0.00017544958917793435 0 -0.0087579072760345898 0.0002354489146976077 0 -0.0088013740669698349 0.00022685595008762019 0 -0.0088474459699929911 0.00024242883092999719 0 -0.0088125347169059239 0.00017544958917793435 0 -0.0088013740669698349 0.00022685595008762019 0 -0.0087579072760345898 0.0002354489146976077 0 -0.0088013740669698349 0.00022685595008762019 0 -0.0088036151812705861 0.00026211995487862035 0 -0.0088474459699929911 0.00024242883092999719 0 -0.0088013740669698349 0.00022685595008762019 0 -0.0088036151812705861 0.00026211995487862035 0 -0.0099682104668986742 -4.0592791859663126e-06 0 -0.010507229909185628 4.350785478446849e-05 0 -0.0099557210755061385 0.00026345422333697401 0 -0.0099682104668986742 -4.0592791859663126e-06 0 -0.0088474459699929911 0.00024242883092999719 0 -0.0088558487719622245 0.00034220564414603718 0 -0.0088036151812705861 0.00026211995487862035 0 -0.0088558487719622245 0.00034220564414603718 0 -0.0088036151812705861 0.00026211995487862035 0 -0.0087546286124095003 0.00026335573221751226 0 -0.010963176054314551 0.00010513099902382927 0 -0.011021557863795878 0.00015254426962863952 0 -0.01101155243703128 9.4877945991472825e-05 0 -0.011021557863795878 0.00015254426962863952 0 -0.011050528625361589 5.7634344360383549e-05 0 -0.01101155243703128 9.4877945991472825e-05 0 -0.0095722539575679253 -9.8735228614518439e-05 0 -0.0097328609803699322 -5.679709456531467e-05 0 -0.0099109828893853349 -8.3838847268165484e-06 0 -0.0096388087992119766 -8.4990146286513242e-05 0 -0.0096019285325307339 -9.0486878359125357e-05 0 -0.0097028361138781251 -6.6087839627051296e-05 0 -0.0095214559132010441 -0.00010277882540201065 0 -0.0096388087992119766 -8.4990146286513242e-05 0 -0.0096019285325307339 -9.0486878359125357e-05 0 -0.009502454481523535 -0.00011689699801506324 0 -0.0096388087992119766 -8.4990146286513242e-05 0 -0.0097328609803699322 -5.679709456531467e-05 0 -0.009502454481523535 -0.00011689699801506324 0 -0.0095722539575679253 -9.8735228614518439e-05 0 -0.0097328609803699322 -5.679709456531467e-05 0 -0.0097328609803699322 -5.679709456531467e-05 0 -0.0097028361138781251 -6.6087839627051296e-05 0 -0.0098707611229143337 -2.5441962079837975e-06 0 -0.0096388087992119766 -8.4990146286513242e-05 0 -0.0097328609803699322 -5.679709456531467e-05 0 -0.0097028361138781251 -6.6087839627051296e-05 0 -0.0097328609803699322 -5.679709456531467e-05 0 -0.0098707611229143337 -2.5441962079837975e-06 0 -0.0099109828893853349 -8.3838847268165484e-06 0 -0.0098707611229143337 -2.5441962079837975e-06 0 -0.0099109828893853349 -8.3838847268165484e-06 0 -0.010179537957068736 -4.7099897745981115e-05 0 -0.010963176054314551 0.00010513099902382927 0 -0.010978846603603824 4.8543895942374726e-05 0 -0.011008267471033005 6.4733891089971849e-05 0 -0.010963176054314551 0.00010513099902382927 0 -0.01101155243703128 9.4877945991472825e-05 0 -0.011008267471033005 6.4733891089971849e-05 0 -0.011050528625361589 5.7634344360383549e-05 0 -0.01101155243703128 9.4877945991472825e-05 0 -0.011008267471033005 6.4733891089971849e-05 0 -0.011050528625361589 5.7634344360383549e-05 0 -0.011008267471033005 6.4733891089971849e-05 0 -0.011030191195256394 1.5050792149653183e-05 0 -0.010978846603603824 4.8543895942374726e-05 0 -0.011008267471033005 6.4733891089971849e-05 0 -0.011030191195256394 1.5050792149653183e-05 0 -0.010978846603603824 4.8543895942374726e-05 0 -0.01098072700927972 8.6477794792535333e-06 0 -0.011030191195256394 1.5050792149653183e-05 0 -0.011030191195256394 1.5050792149653183e-05 0 -0.011045487670544215 -2.2734547970210988e-05 0 -0.011060929440501266 -2.9151414828515748e-05 0 -0.01098072700927972 8.6477794792535333e-06 0 -0.011045487670544215 -2.2734547970210988e-05 0 -0.010959829945442225 -6.2183395547285868e-05 0 -0.01098072700927972 8.6477794792535333e-06 0 -0.011030191195256394 1.5050792149653183e-05 0 -0.011045487670544215 -2.2734547970210988e-05 0 -0.0098707611229143337 -2.5441962079837975e-06 0 -0.010179537957068736 -4.7099897745981115e-05 0 -0.010501666507269697 -8.166915446310872e-05 0 -0.010179537957068736 -4.7099897745981115e-05 0 -0.010501666507269697 -8.166915446310872e-05 0 -0.010465759603166144 -0.00014275672977169984 0 -0.010507229909185628 4.350785478446849e-05 0 -0.010761337980338726 -5.1708421559460334e-05 0 -0.0099109828893853349 -8.3838847268165484e-06 0 -0.010179537957068736 -4.7099897745981115e-05 0 -0.010465759603166144 -0.00014275672977169984 0 -0.011050528625361589 5.7634344360383549e-05 0 -0.011030191195256394 1.5050792149653183e-05 0 -0.011060929440501266 -2.9151414828515748e-05 0 -0.0099384798853864621 -1.308299611963663e-05 0 -0.010149366143327229 1.1672964271763709e-05 0 -0.0098100020889165182 0.00014896414870422438 0 -0.0097748109900509285 0.0001045027939342042 0 -0.0098743648469943341 0.00017360755569426387 0 -0.0098100020889165182 0.00014896414870422438 0 -0.0097582072103922415 4.760432230996914e-05 0 -0.0097748109900509285 0.0001045027939342042 0 -0.0098707611229143337 -2.5441962079837975e-06 0 -0.0098100020889165182 0.00014896414870422438 0 -0.0097582072103922415 4.760432230996914e-05 0 -0.0096729635591682947 -4.1575532413803631e-05 0 -0.0097582072103922415 4.760432230996914e-05 0 -0.0097122573411821383 4.0844676293113041e-05 0 -0.0096729635591682947 -4.1575532413803631e-05 0 -0.0097582072103922415 4.760432230996914e-05 0 -0.0097470316581587807 -2.3875335676774718e-05 0 -0.0097028361138781251 -6.6087839627051296e-05 0 -0.0098707611229143337 -2.5441962079837975e-06 0 -0.0097470316581587807 -2.3875335676774718e-05 0 -0.0098707611229143337 -2.5441962079837975e-06 0 -0.0097582072103922415 4.760432230996914e-05 0 -0.0097470316581587807 -2.3875335676774718e-05 0 -0.0096428501389566879 2.4398409174240015e-05 0 -0.0097122573411821383 4.0844676293113041e-05 0 -0.0097028554060720178 7.2606433401575752e-05 0 -0.0096428501389566879 2.4398409174240015e-05 0 -0.009657091947983339 -9.2698870414933474e-06 0 -0.0097122573411821383 4.0844676293113041e-05 0 -0.0096729635591682947 -4.1575532413803631e-05 0 -0.009657091947983339 -9.2698870414933474e-06 0 -0.0097122573411821383 4.0844676293113041e-05 0 -0.0097122573411821383 4.0844676293113041e-05 0 -0.0097028554060720178 7.2606433401575752e-05 0 -0.0097748109900509285 0.0001045027939342042 0 -0.0097582072103922415 4.760432230996914e-05 0 -0.0097122573411821383 4.0844676293113041e-05 0 -0.0097748109900509285 0.0001045027939342042 0 -0.0097748109900509285 0.0001045027939342042 0 -0.0097414215545579864 0.00011610667798513943 0 -0.0098743648469943341 0.00017360755569426387 0 -0.0097028554060720178 7.2606433401575752e-05 0 -0.0097748109900509285 0.0001045027939342042 0 -0.0097414215545579864 0.00011610667798513943 0 -0.0098743648469943341 0.00017360755569426387 0 -0.010080490690270213 0.00013970087803741766 0 -0.010191062535636642 0.00026813407632677303 0 -0.0097414215545579864 0.00011610667798513943 0 -0.0098743648469943341 0.00017360755569426387 0 -0.0096734179956389811 0.00015913121549656844 0 -0.0098860949496373442 0.00018566327149267581 0 -0.0099610184134250671 0.00020095114643411404 0 -0.0098743648469943341 0.00017360755569426387 0 -0.010080490690270213 0.00013970087803741766 0 -0.0099549386251497306 0.00013449265578436225 0 -0.0099549386251497306 0.00013449265578436225 0 -0.01023253504833168 9.181662889752526e-05 0 -0.010180753589471264 8.3169134890404269e-05 0 -0.010360724708303513 1.1177575357798507e-05 0 -0.010454317086813648 0.00010235055310798069 0 -0.010080490690270213 0.00013970087803741766 0 -0.0099549386251497306 0.00013449265578436225 0 -0.010180753589471264 8.3169134890404269e-05 0 -0.010788982350370201 -8.4446387758470553e-05 0 -0.011030410709870654 2.4630992082586942e-05 0 -0.010922159440158861 1.6258144808438064e-05 0 -0.010777223445554559 -0.00011591102060935652 0 -0.010788982350370201 -8.4446387758470553e-05 0 -0.010922159440158861 1.6258144808438064e-05 0 -0.010777223445554559 -0.00011591102060935652 0 -0.010788982350370201 -8.4446387758470553e-05 0 -0.010644352014444422 -0.00011205253151171374 0 -0.010788982350370201 -8.4446387758470553e-05 0 -0.010644352014444422 -0.00011205253151171374 0 -0.010465759603166144 -0.00014275672977169984 0 -0.010501666507269697 -8.166915446310872e-05 0 -0.010777223445554559 -0.00011591102060935652 0 -0.010644352014444422 -0.00011205253151171374 0 -0.010149366143327229 1.1672964271763709e-05 0 -0.010360724708303513 1.1177575357798507e-05 0 -0.0098100020889165182 0.00014896414870422438 0 -0.0098743648469943341 0.00017360755569426387 0 -0.0099549386251497306 0.00013449265578436225 0 -0.010501666507269697 -8.166915446310872e-05 0 -0.010644352014444422 -0.00011205253151171374 0 -0.010465759603166144 -0.00014275672977169984 0 -0.011073551154906517 -1.3208276891962026e-05 0 -0.011114616244085773 1.966214708892523e-05 0 -0.01109094830290484 -2.0899950819886957e-05 0 -0.011045487670544215 -2.2734547970210988e-05 0 -0.011073551154906517 -1.3208276891962026e-05 0 -0.01109094830290484 -2.0899950819886957e-05 0 -0.011098110937220408 1.4207927355192479e-05 0 -0.010715252022305772 0.00013589913746857359 0 -0.011045487670544215 -2.2734547970210988e-05 0 -0.011060929440501266 -2.9151414828515748e-05 0 -0.011073551154906517 -1.3208276891962026e-05 0 -0.011073551154906517 -1.3208276891962026e-05 0 -0.011114616244085773 1.966214708892523e-05 0 -0.011030410709870654 2.4630992082586942e-05 0 -0.011060929440501266 -2.9151414828515748e-05 0 -0.011073551154906517 -1.3208276891962026e-05 0 -0.011030410709870654 2.4630992082586942e-05 0 -0.010761337980338726 -5.1708421559460334e-05 0 -0.010979896266155765 3.7176885268921894e-05 0 -0.010788982350370201 -8.4446387758470553e-05 0 -0.010465759603166144 -0.00014275672977169984 0 -0.011030410709870654 2.4630992082586942e-05 0 -0.011030410709870654 2.4630992082586942e-05 0 -0.011131171814481094 0.00015891548694256852 0 -0.011317666848774287 0.00025416159443373155 0 -0.011168120098180401 0.00025137603918404299 0 -0.011186306771700875 0.00012948581753959124 0 -0.011193132166617947 0.00040945173406072607 0 -0.011232067886214583 0.00012276000000622662 0 -0.011065275894077308 0.00013824585482179313 0 -0.011114616244085773 1.966214708892523e-05 0 -0.011030410709870654 2.4630992082586942e-05 0 -0.011131171814481094 0.00015891548694256852 0 -0.011232067886214583 0.00012276000000622662 0 -0.011065275894077308 0.00013824585482179313 0 -0.011106390233950776 -9.2704609498170723e-05 0 -0.011131171814481094 0.00015891548694256852 0 -0.011317666848774287 0.00025416159443373155 0 -0.011336013693565902 -0.00016763629157246507 0 -0.011232067886214583 0.00012276000000622662 0 -0.011336013693565902 -0.00016763629157246507 0 -0.011106390233950776 -9.2704609498170723e-05 0 -0.011186306771700875 0.00012948581753959124 0 -0.011319799437992393 -0.00013602002732181358 0 -0.011317666848774287 0.00025416159443373155 0 -0.010894865338335443 0.00022499366941381674 0 -0.010799190861153326 0.00054284607930614481 0 -0.011490019131299377 0.00025128609842763516 0 -0.011691200886915115 0.0003195056493572896 0 -0.010454317086813648 0.00010235055310798069 0 -0.010355653628681452 0.00046971009056605745 0 -0.010894865338335443 0.00022499366941381674 0 -0.010799190861153326 0.00054284607930614481 0 -0.010362496966055531 0.0004828513887818759 0 -0.010894865338335443 0.00022499366941381674 0 -0.010713325586764645 4.9028829033967959e-05 0 -0.010362496966055531 0.0004828513887818759 0 -0.010777223445554559 -0.00011591102060935652 0 -0.010713325586764645 4.9028829033967959e-05 0 -0.010922159440158861 1.6258144808438064e-05 0 -0.010894865338335443 0.00022499366941381674 0 -0.010713325586764645 4.9028829033967959e-05 0 -0.010922159440158861 1.6258144808438064e-05 0 -0.011317666848774287 0.00025416159443373155 0 -0.010894865338335443 0.00022499366941381674 0 -0.010922159440158861 1.6258144808438064e-05 0 -0.011030410709870654 2.4630992082586942e-05 0 -0.011317666848774287 0.00025416159443373155 0 -0.010922159440158861 1.6258144808438064e-05 0 -0.0094904944469197481 0.00021581115591774044 0 -0.0094521495657838798 0.00021482274045799034 0 -0.009457363428314821 0.00021695040555710411 0 -0.0094413353290064769 0.00021628524655256629 0 -0.009457363428314821 0.00021695040555710411 0 -0.0094352257314894664 0.00023402545703919025 0 -0.0094521495657838798 0.00021482274045799034 0 -0.009457363428314821 0.00021695040555710411 0 -0.0094352257314894664 0.00023402545703919025 0 -0.0094352257314894664 0.00023402545703919025 0 -0.0094960582786041154 0.00020547419391187373 0 -0.0095050082049437604 0.00024936969746350046 0 -0.0094521495657838798 0.00021482274045799034 0 -0.0094352257314894664 0.00023402545703919025 0 -0.0094960582786041154 0.00020547419391187373 0 -0.0098045704280627279 0.00034770274382975254 0 -0.010007127941626155 0.00045381672957846411 0 -0.010137170710877219 0.00050200260302700223 0 -0.010652356555542933 0.00064107480014063956 0 -0.010672142417723922 0.0002282464098668162 0 -0.010652356555542933 0.00064107480014063956 0 -0.010929754484387141 0.00043637562941903715 0 -0.010672142417723922 0.0002282464098668162 0 -0.0094960582786041154 0.00020547419391187373 0 -0.0095050082049437604 0.00024936969746350046 0 -0.0095932455454456906 0.00023035014336000143 0 -0.010007127941626155 0.00045381672957846411 0 -0.010715252022305772 0.00013589913746857359 0 -0.0095299389203165868 0.00027447216137886003 0 -0.0095050082049437604 0.00024936969746350046 0 -0.0095932455454456906 0.00023035014336000143 0 -0.011168120098180401 0.00025137603918404299 0 -0.010715252022305772 0.00013589913746857359 0 -0.010652356555542933 0.00064107480014063956 0 -0.011045428661135609 0.00076913145885517439 0 -0.010929754484387141 0.00043637562941903715 0 -0.011193132166617947 0.00040945173406072607 0 -0.011045428661135609 0.00076913145885517439 0 -0.010929754484387141 0.00043637562941903715 0 -0.011193132166617947 0.00040945173406072607 0 -0.010929754484387141 0.00043637562941903715 0 -0.011065275894077308 0.00013824585482179313 0 -0.010929754484387141 0.00043637562941903715 0 -0.011065275894077308 0.00013824585482179313 0 -0.010672142417723922 0.0002282464098668162 0 -0.011060533292948524 -8.9683069796982621e-05 0 -0.011819616621597098 -0.00020820254227256181 0 -0.011065275894077308 0.00013824585482179313 0 -0.011004822678859959 -0.00010361645892115095 0 -0.011106390233950776 -9.2704609498170723e-05 0 -0.011065275894077308 0.00013824585482179313 0 -0.011004822678859959 -0.00010361645892115095 0 -0.010672142417723922 0.0002282464098668162 0 -0.011004822678859959 -0.00010361645892115095 0 -0.010672142417723922 0.0002282464098668162 0 -0.010485195263654481 -0.0002123438731283186 0 -0.010137170710877219 0.00050200260302700223 0 -0.010672142417723922 0.0002282464098668162 0 -0.010174729404510268 2.3334828433413649e-05 0 -0.010672142417723922 0.0002282464098668162 0 -0.010485195263654481 -0.0002123438731283186 0 -0.010174729404510268 2.3334828433413649e-05 0 -0.010485195263654481 -0.0002123438731283186 0 -0.010174729404510268 2.3334828433413649e-05 0 -0.010110456728354202 -0.00057551440507301458 0 -0.0096196112552831801 -0.00024690080854110368 0 -0.009870410606632669 -0.00010064720328574865 0 -0.010110456728354202 -0.00057551440507301458 0 -0.010174729404510268 2.3334828433413649e-05 0 -0.009870410606632669 -0.00010064720328574865 0 -0.010110456728354202 -0.00057551440507301458 0 -0.010174729404510268 2.3334828433413649e-05 0 -0.009870410606632669 -0.00010064720328574865 0 -0.0098746448606509656 0.00018687718804113443 0 -0.010137170710877219 0.00050200260302700223 0 -0.010174729404510268 2.3334828433413649e-05 0 -0.0098746448606509656 0.00018687718804113443 0 -0.0095451512220013288 0.0002240667406903112 0 -0.010137170710877219 0.00050200260302700223 0 -0.0098746448606509656 0.00018687718804113443 0 -0.0095539983335900993 0.00023547020612100782 0 -0.0098045704280627279 0.00034770274382975254 0 -0.01113661540743921 -0.00017861477267117165 0 -0.011018257774366129 -0.00027335512096213503 0 -0.012510787157246886 -6.2361397063561699e-05 0 -0.012519676978718027 -4.8867225930866461e-05 0 -0.012522884835822258 -4.3017286290705686e-05 0 -0.012519676978718027 -4.8867225930866461e-05 0 -0.012523687309708886 -5.1055202773592227e-05 0 -0.012522884835822258 -4.3017286290705686e-05 0 -0.011018257774366129 -0.00027335512096213503 0 -0.013310227169862356 -0.00028067835484269762 0 -0.010485195263654481 -0.0002123438731283186 0 -0.010110456728354202 -0.00057551440507301458 0 -0.010713980172921975 -0.0010603122334509167 0 -0.012523687309708886 -5.1055202773592227e-05 0 -0.012522884835822258 -4.3017286290705686e-05 0 -0.012562835746357673 -6.1312212540832805e-05 0 -0.013863964772260359 -8.3598007778425671e-06 0 -0.013310227169862356 -0.00028067835484269762 0 -0.014988549093445861 -3.3155029376792289e-05 0 -0.014987644686900378 -6.2314272660355516e-05 0 -0.014996085121215775 -2.9375894709201166e-05 0 -0.013310227169862356 -0.00028067835484269762 0 -0.015639542141462622 -0.0002549653796645774 0 -0.011004822678859959 -0.00010361645892115095 0 -0.010485195263654481 -0.0002123438731283186 0 -0.010713980172921975 -0.0010603122334509167 0 -0.011004822678859959 -0.00010361645892115095 0 -0.010713980172921975 -0.0010603122334509167 0 -0.011845316177232359 -0.001114838407267054 0 -0.011004822678859959 -0.00010361645892115095 0 -0.011845316177232359 -0.001114838407267054 0 -0.012552437490722441 -0.0002666990952218126 0 -0.01514125005953596 -0.00024122914593525805 0 -0.015000873635427046 -0.0002776799865928883 0 -0.015010380886979837 -0.00013796707506743172 0 -0.013310227169862356 -0.00028067835484269762 0 -0.01334657506517054 -0.00074338608513781635 0 -0.015000873635427046 -0.0002776799865928883 0 -0.015010380886979837 -0.00013796707506743172 0 -0.014974910822775273 -0.0002224834545891499 0 -0.015010380886979837 -0.00013796707506743172 0 -0.015000250989416521 -1.3024009185370118e-07 0 -0.014999296285535658 5.3266938945868772e-08 0 -0.015010380886979837 -0.00013796707506743172 0 -0.015000250989416521 -1.3024009185370118e-07 0 -0.014996819145787359 -6.1217181086465694e-05 0 -0.014987644686900378 -6.2314272660355516e-05 0 -0.015010380886979837 -0.00013796707506743172 0 -0.014996819145787359 -6.1217181086465694e-05 0 -0.014987644686900378 -6.2314272660355516e-05 0 -0.014996819145787359 -6.1217181086465694e-05 0 -0.014996085121215775 -2.9375894709201166e-05 0 -0.015000250989416521 -1.3024009185370118e-07 0 -0.014996819145787359 -6.1217181086465694e-05 0 -0.014996085121215775 -2.9375894709201166e-05 0 -0.014999296285535658 5.3266938945868772e-08 0 -0.014957192547198345 8.4779431925246087e-06 0 -0.015000114011284208 -1.2401166924882043e-08 0 -0.014421532791805617 -0.00038522142033768002 0 -0.013986079080946233 -0.00069617066033915789 0 -0.014837212821001094 -0.00051272715217302053 0 -0.014421532791805617 -0.00038522142033768002 0 -0.014014371350015523 -0.00053858213103513577 0 -0.014077947773426188 -0.00030895024176884735 0 -0.014774004767404838 -0.0001601967408573754 0 -0.012929029758000256 -0.00015328820439752862 0 -0.014014371350015523 -0.00053858213103513577 0 -0.014077947773426188 -0.00030895024176884735 0 -0.014031110690928519 -0.00073971905633061401 0 -0.014014371350015523 -0.00053858213103513577 0 -0.013935222226489364 -0.00071035045334726576 0 -0.014031110690928519 -0.00073971905633061401 0 -0.014014371350015523 -0.00053858213103513577 0 -0.013986079080946233 -0.00069617066033915789 0 -0.013935222226489364 -0.00071035045334726576 0 -0.014421532791805617 -0.00038522142033768002 0 -0.014014371350015523 -0.00053858213103513577 0 -0.013986079080946233 -0.00069617066033915789 0 -0.012853773762769288 7.2534056395153447e-05 0 -0.013935222226489364 -0.00071035045334726576 0 -0.014031110690928519 -0.00073971905633061401 0 -0.010799190861153326 0.00054284607930614481 0 -0.010362496966055531 0.0004828513887818759 0 -0.010358594930770232 0.00076784539433225572 0 -0.013845880724341487 -0.00071766382422576913 0 -0.012748383071774248 -0.00052548383144791842 0 -0.013986079080946233 -0.00069617066033915789 0 -0.013935222226489364 -0.00071035045334726576 0 -0.013848767968113592 -0.00067032791326511389 0 -0.012853773762769288 7.2534056395153447e-05 0 -0.013935222226489364 -0.00071035045334726576 0 -0.011594772805896559 -0.00043102111121020128 0 -0.011691200886915115 0.0003195056493572896 0 -0.012929029758000256 -0.00015328820439752862 0 -0.013986079080946233 -0.00069617066033915789 0 -0.013848767968113592 -0.00067032791326511389 0 -0.013320756118562043 -0.00097867783991047825 0 -0.011317666848774287 0.00025416159443373155 0 -0.012853773762769288 7.2534056395153447e-05 0 -0.011594772805896559 -0.00043102111121020128 0 -0.013978503308393137 -0.00071272584424095003 0 -0.014056340823592094 -0.00072571547845844814 0 -0.013848767968113592 -0.00067032791326511389 0 -0.012552437490722441 -0.0002666990952218126 0 -0.013320756118562043 -0.00097867783991047825 0 -0.012748383071774248 -0.00052548383144791842 0 -0.011819616621597098 -0.00020820254227256181 0 -0.011594772805896559 -0.00043102111121020128 0 -0.011336013693565902 -0.00016763629157246507 0 -0.011106390233950776 -9.2704609498170723e-05 0 -0.011317666848774287 0.00025416159443373155 0 -0.011594772805896559 -0.00043102111121020128 0 -0.011336013693565902 -0.00016763629157246507 0 -0.011845316177232359 -0.001114838407267054 0 -0.012552437490722441 -0.0002666990952218126 0 -0.013320756118562043 -0.00097867783991047825 0 -0.01334657506517054 -0.00074338608513781635 0 -0.014056340823592094 -0.00072571547845844814 0 -0.015000873635427046 -0.0002776799865928883 0 -0.014974910822775273 -0.0002224834545891499 0 -0.014837212821001094 -0.00051272715217302053 0 -0.014974910822775273 -0.0002224834545891499 0 -0.014837212821001094 -0.00051272715217302053 0 -0.014918682977701077 -0.00019593443004422968 0 -0.014421532791805617 -0.00038522142033768002 0 -0.014837212821001094 -0.00051272715217302053 0 -0.014775351144471635 -0.00030503540584223893 0 -0.014837212821001094 -0.00051272715217302053 0 -0.014775351144471635 -0.00030503540584223893 0 -0.014918682977701077 -0.00019593443004422968 0 -0.015010380886979837 -0.00013796707506743172 0 -0.014918682977701077 -0.00019593443004422968 0 -0.014999296285535658 5.3266938945868772e-08 0 -0.014773590281142201 -0.00017063052950323212 0 -0.014918682977701077 -0.00019593443004422968 0 -0.014999296285535658 5.3266938945868772e-08 0 -0.014775351144471635 -0.00030503540584223893 0 -0.014773590281142201 -0.00017063052950323212 0 -0.014918682977701077 -0.00019593443004422968 0 -0.015010380886979837 -0.00013796707506743172 0 -0.014974910822775273 -0.0002224834545891499 0 -0.014918682977701077 -0.00019593443004422968 0 -0.014773590281142201 -0.00017063052950323212 0 -0.014999296285535658 5.3266938945868772e-08 0 -0.014777365780038108 -9.7147146552377083e-05 0 -0.014957192547198345 8.4779431925246087e-06 0 -0.014777365780038108 -9.7147146552377083e-05 0 -0.014456138784890249 -0.00024296916766433928 0 -0.014999296285535658 5.3266938945868772e-08 0 -0.014957192547198345 8.4779431925246087e-06 0 -0.014777365780038108 -9.7147146552377083e-05 0 -0.014957192547198345 8.4779431925246087e-06 0 -0.014456138784890249 -0.00024296916766433928 0 -0.014077947773426188 -0.00030895024176884735 0 -0.014773590281142201 -0.00017063052950323212 0 -0.014777365780038108 -9.7147146552377083e-05 0 -0.014456138784890249 -0.00024296916766433928 0 -0.014421532791805617 -0.00038522142033768002 0 -0.014456138784890249 -0.00024296916766433928 0 -0.014077947773426188 -0.00030895024176884735 0 -0.014421532791805617 -0.00038522142033768002 0 -0.014775351144471635 -0.00030503540584223893 0 -0.014773590281142201 -0.00017063052950323212 0 -0.014421532791805617 -0.00038522142033768002 0 -0.014773590281142201 -0.00017063052950323212 0 -0.014456138784890249 -0.00024296916766433928 0 -0.014957192547198345 8.4779431925246087e-06 0 -0.014972062524098516 -1.4294637093313866e-05 0 -0.014960323110531847 1.1368142586265962e-05 0 -0.014812046527825288 -3.9031053587869988e-05 0 -0.014774004767404838 -0.0001601967408573754 0 -0.014987589948962364 1.1606249573528448e-05 0 -0.014960323110531847 1.1368142586265962e-05 0 -0.015000114011284208 -1.2401166924882043e-08 0 -0.014957192547198345 8.4779431925246087e-06 0 -0.014960323110531847 1.1368142586265962e-05 0 -0.015000114011284208 -1.2401166924882043e-08 0 -0.014939748566654814 1.8097354917984884e-05 0 -0.014740163595606624 -6.0297039842309338e-05 0 -0.014987589948962364 1.1606249573528448e-05 0 -0.014978900564119459 1.7947037165160201e-05 0 -0.014994101570466689 2.1053132018069169e-05 0 -0.014852418174665209 1.1901596072979482e-05 0 -0.014819618614988638 -2.7919112767064981e-05 0 -0.014757750095537316 -9.8885872138618058e-06 0 -0.014819618614988638 -2.7919112767064981e-05 0 -0.014757750095537316 -9.8885872138618058e-06 0 -0.014770056919050631 -4.5431723878561137e-05 0 -0.014819618614988638 -2.7919112767064981e-05 0 -0.014870739821367681 -4.2793039062948638e-05 0 -0.014840289282891961 -4.9069711287497496e-05 0 -0.014852418174665209 1.1901596072979482e-05 0 -0.014819618614988638 -2.7919112767064981e-05 0 -0.014870739821367681 -4.2793039062948638e-05 0 -0.014987589948962364 1.1606249573528448e-05 0 -0.014978900564119459 1.7947037165160201e-05 0 -0.014960323110531847 1.1368142586265962e-05 0 -0.014852418174665209 1.1901596072979482e-05 0 -0.014870739821367681 -4.2793039062948638e-05 0 -0.014919136611352137 -1.5416447916269402e-05 0 -0.014870739821367681 -4.2793039062948638e-05 0 -0.014919136611352137 -1.5416447916269402e-05 0 -0.014909919211719807 -5.5124222112246451e-05 0 -0.014972062524098516 -1.4294637093313866e-05 0 -0.014919136611352137 -1.5416447916269402e-05 0 -0.014909919211719807 -5.5124222112246451e-05 0 -0.014852418174665209 1.1901596072979482e-05 0 -0.014960323110531847 1.1368142586265962e-05 0 -0.014919136611352137 -1.5416447916269402e-05 0 -0.014972062524098516 -1.4294637093313866e-05 0 -0.014960323110531847 1.1368142586265962e-05 0 -0.014919136611352137 -1.5416447916269402e-05 0 -0.014939748566654814 1.8097354917984884e-05 0 -0.014944018348295672 1.2504067194979428e-05 0 -0.014999999277786443 1.2748738790106613e-10 0 -0.014999474016451035 1.2039914567697132e-07 0 -0.014999820140687434 9.5449974049428246e-08 0 -0.014914605877022452 3.6426644412725616e-06 0 -0.014953384763389935 1.6739382355417107e-05 0 -0.014999999277786443 1.2748738790106613e-10 0 -0.014999999704978817 -7.1472550301322896e-11 0 -0.014999474016451035 1.2039914567697132e-07 0 -0.015000114011284208 -1.2401166924882043e-08 0 -0.014999349696282265 6.3590031255827788e-06 0 -0.015001931370002535 1.0827638366216301e-05 0 -0.015000069368484678 4.5016114939385698e-08 0 -0.014914605877022452 3.6426644412725616e-06 0 -0.014987589948962364 1.1606249573528448e-05 0 -0.015000114011284208 -1.2401166924882043e-08 0 -0.014999349696282265 6.3590031255827788e-06 0 -0.014999349696282265 6.3590031255827788e-06 0 -0.014993051303744962 1.3193940490420445e-05 0 -0.014995715249848498 1.383059653215868e-05 0 -0.014999349696282265 6.3590031255827788e-06 0 -0.014995715249848498 1.383059653215868e-05 0 -0.015001931370002535 1.0827638366216301e-05 0 -0.014985719044061806 3.2563165534432615e-07 0 -0.014740163595606624 -6.0297039842309338e-05 0 -0.014987589948962364 1.1606249573528448e-05 0 -0.014999349696282265 6.3590031255827788e-06 0 -0.014994101570466689 2.1053132018069169e-05 0 -0.01449239072072284 -0.00025883175207109269 0 -0.014455803471672569 -0.00015588471290717463 0 -0.014574137256700443 -0.00023742510838991199 0 -0.014255278333009984 -0.00026766535263874491 0 -0.014624399878241233 -0.00014103261024925521 0 -0.014740163595606624 -6.0297039842309338e-05 0 -0.014255278333009984 -0.00026766535263874491 0 -0.014740163595606624 -6.0297039842309338e-05 0 -0.014624399878241233 -0.00014103261024925521 0 -0.014624399878241233 -0.00014103261024925521 0 -0.014914605877022452 3.6426644412725616e-06 0 -0.014874612402824762 5.2365897216540081e-05 0 -0.014896570053191789 5.9019099526902804e-05 0 -0.014902631118260743 3.2289091327013567e-05 0 -0.014874612402824762 5.2365897216540081e-05 0 -0.014889812473536197 7.1803731519220066e-05 0 -0.014896570053191789 5.9019099526902804e-05 0 -0.01472655155860335 -5.4490255896084381e-05 0 -0.014753349668545454 -7.2377975280767524e-05 0 -0.014781721325490122 -3.9745742806409677e-05 0 -0.014624399878241233 -0.00014103261024925521 0 -0.014733399688159267 -1.5668906725127499e-05 0 -0.014914605877022452 3.6426644412725616e-06 0 -0.014733399688159267 -1.5668906725127499e-05 0 -0.014395622025528895 -0.00018759980856123358 0 -0.014521325462403081 -7.0097640453004598e-05 0 -0.014569021796951272 -0.00013380639873533095 0 -0.014521325462403081 -7.0097640453004598e-05 0 -0.014576744720637301 -3.4139528094519232e-05 0 -0.014569021796951272 -0.00013380639873533095 0 -0.014395622025528895 -0.00018759980856123358 0 -0.0144464009731608 -6.3830202203274758e-05 0 -0.014383883122760606 -8.2113089101853586e-05 0 -0.014395622025528895 -0.00018759980856123358 0 -0.014521325462403081 -7.0097640453004598e-05 0 -0.0144464009731608 -6.3830202203274758e-05 0 -0.014345565736139494 -0.00015594772661967012 0 -0.014383883122760606 -8.2113089101853586e-05 0 -0.014309497218044278 -6.7668636259285604e-05 0 -0.014345565736139494 -0.00015594772661967012 0 -0.014395622025528895 -0.00018759980856123358 0 -0.014383883122760606 -8.2113089101853586e-05 0 -0.012606480223929635 -0.00042724157941693454 0 -0.012721648836545311 -0.00030411865717320282 0 -0.0144464009731608 -6.3830202203274758e-05 0 -0.014383883122760606 -8.2113089101853586e-05 0 -0.014427074771091493 5.4597863571034695e-05 0 -0.010708477392598328 -0.0010480677658020051 0 -0.010715178316383174 -0.00059882155992270307 0 -0.011056773598724402 -0.00060438931435775336 0 -0.014383883122760606 -8.2113089101853586e-05 0 -0.014309497218044278 -6.7668636259285604e-05 0 -0.014427074771091493 5.4597863571034695e-05 0 -0.0144464009731608 -6.3830202203274758e-05 0 -0.014539157539595636 2.2296891781657066e-05 0 -0.014427074771091493 5.4597863571034695e-05 0 -0.014521325462403081 -7.0097640453004598e-05 0 -0.0144464009731608 -6.3830202203274758e-05 0 -0.014539157539595636 2.2296891781657066e-05 0 -0.014521325462403081 -7.0097640453004598e-05 0 -0.014539157539595636 2.2296891781657066e-05 0 -0.014576744720637301 -3.4139528094519232e-05 0 -0.014868379292102819 -7.7730986649246641e-05 0 -0.014824447787642924 -7.9128298041055776e-05 0 -0.014905439098061208 -0.00013214088585207203 0 -0.014972062524098516 -1.4294637093313866e-05 0 -0.014909919211719807 -5.5124222112246451e-05 0 -0.014905439098061208 -0.00013214088585207203 0 -0.013542260673549191 -0.0003193932954603945 0 -0.012929029758000256 -0.00015328820439752862 0 -0.014909919211719807 -5.5124222112246451e-05 0 -0.014868379292102819 -7.7730986649246641e-05 0 -0.014905439098061208 -0.00013214088585207203 0 -0.014870739821367681 -4.2793039062948638e-05 0 -0.014909919211719807 -5.5124222112246451e-05 0 -0.014878895296879049 -5.9298019377217103e-05 0 -0.014909919211719807 -5.5124222112246451e-05 0 -0.014868379292102819 -7.7730986649246641e-05 0 -0.014878895296879049 -5.9298019377217103e-05 0 -0.014868379292102819 -7.7730986649246641e-05 0 -0.014878895296879049 -5.9298019377217103e-05 0 -0.014858378400207355 -6.0665881468801301e-05 0 -0.014870739821367681 -4.2793039062948638e-05 0 -0.014878895296879049 -5.9298019377217103e-05 0 -0.014858378400207355 -6.0665881468801301e-05 0 -0.014870739821367681 -4.2793039062948638e-05 0 -0.014840289282891961 -4.9069711287497496e-05 0 -0.014858378400207355 -6.0665881468801301e-05 0 -0.014840289282891961 -4.9069711287497496e-05 0 -0.014858378400207355 -6.0665881468801301e-05 0 -0.014824447787642924 -7.9128298041055776e-05 0 -0.014819618614988638 -2.7919112767064981e-05 0 -0.014840289282891961 -4.9069711287497496e-05 0 -0.014824447787642924 -7.9128298041055776e-05 0 -0.014868379292102819 -7.7730986649246641e-05 0 -0.014858378400207355 -6.0665881468801301e-05 0 -0.014824447787642924 -7.9128298041055776e-05 0 -0.012390166503718476 -0.00033173256198208142 0 -0.012401128240546139 -0.00031409868792604324 0 -0.01233964370546139 -0.00029860883789841857 0 -0.014255278333009984 -0.00026766535263874491 0 -0.012606480223929635 -0.00042724157941693454 0 -0.014819618614988638 -2.7919112767064981e-05 0 -0.014770056919050631 -4.5431723878561137e-05 0 -0.014824447787642924 -7.9128298041055776e-05 0 -0.014255278333009984 -0.00026766535263874491 0 -0.013542260673549191 -0.0003193932954603945 0 -0.013562617650694305 -0.00047727093942221858 0 -0.013342045423919762 -0.00032651263542781789 0 -0.013454513308150463 -0.00018220432354589192 0 -0.013542260673549191 -0.0003193932954603945 0 -0.012606480223929635 -0.00042724157941693454 0 -0.010708477392598328 -0.0010480677658020051 0 -0.010467321056296294 -0.00043242849271236635 0 -0.010715178316383174 -0.00059882155992270307 0 -0.012606480223929635 -0.00042724157941693454 0 -0.010872406816490919 -0.00021144484923149709 0 -0.012401128240546139 -0.00031409868792604324 0 -0.01233964370546139 -0.00029860883789841857 0 -0.012362409318418663 -0.00024185074661736228 0 -0.012929029758000256 -0.00015328820439752862 0 -0.010872406816490919 -0.00021144484923149709 0 -0.010362496966055531 0.0004828513887818759 0 -0.010358594930770232 0.00076784539433225572 0 -0.010067559339917083 0.00030215033565329883 0 -0.01023253504833168 9.181662889752526e-05 0 -0.010362496966055531 0.0004828513887818759 0 -0.010207295572630597 0.00017974843061907255 0 -0.010362496966055531 0.0004828513887818759 0 -0.010207295572630597 0.00017974843061907255 0 -0.010067559339917083 0.00030215033565329883 0 -0.010220151196119454 3.8939424019857198e-05 0 -0.010872406816490919 -0.00021144484923149709 0 -0.01023253504833168 9.181662889752526e-05 0 -0.010207295572630597 0.00017974843061907255 0 -0.010180753589471264 8.3169134890404269e-05 0 -0.010207295572630597 0.00017974843061907255 0 -0.010154126097766836 0.00011447032187953073 0 -0.010067559339917083 0.00030215033565329883 0 -0.010207295572630597 0.00017974843061907255 0 -0.010154126097766836 0.00011447032187953073 0 -0.010180753589471264 8.3169134890404269e-05 0 -0.010534496867257942 -0.00028967264295946886 0 -0.010553570342445535 -0.00041147080024236385 0 -0.010663449282655316 -0.00010556007427850439 0 -0.010320707390674725 -0.00016974478002623641 0 -0.010534496867257942 -0.00028967264295946886 0 -0.010439049100268615 -0.00044720425299831103 0 -0.010553570342445535 -0.00041147080024236385 0 -0.01090897092996386 -0.00030117498551640641 0 -0.01088228162755173 3.2367119732582143e-05 0 -0.010550795973061697 -0.00040298840794521272 0 -0.010810088466705073 -1.1739210321492277e-05 0 -0.010482034983484545 -0.00013276223624327866 0 -0.010663449282655316 -0.00010556007427850439 0 -0.010458715705372349 2.0235606546585068e-05 0 -0.010320707390674725 -0.00016974478002623641 0 -0.010482034983484545 -0.00013276223624327866 0 -0.010458715705372349 2.0235606546585068e-05 0 -0.010320707390674725 -0.00016974478002623641 0 -0.010482034983484545 -0.00013276223624327866 0 -0.010534496867257942 -0.00028967264295946886 0 -0.010482034983484545 -0.00013276223624327866 0 -0.010534496867257942 -0.00028967264295946886 0 -0.010663449282655316 -0.00010556007427850439 0 -0.010553570342445535 -0.00041147080024236385 0 -0.010811418301344716 -0.0004803132554878801 0 -0.01090897092996386 -0.00030117498551640641 0 -0.01057582088274008 -0.00041255730366314674 0 -0.010872406816490919 -0.00021144484923149709 0 -0.010534496867257942 -0.00028967264295946886 0 -0.010553570342445535 -0.00041147080024236385 0 -0.010467321056296294 -0.00043242849271236635 0 -0.010553570342445535 -0.00041147080024236385 0 -0.010467321056296294 -0.00043242849271236635 0 -0.010715178316383174 -0.00059882155992270307 0 -0.010553570342445535 -0.00041147080024236385 0 -0.010715178316383174 -0.00059882155992270307 0 -0.010811418301344716 -0.0004803132554878801 0 -0.011056773598724402 -0.00060438931435775336 0 -0.01090897092996386 -0.00030117498551640641 0 -0.011410948192107471 -0.00015887779202110888 0 -0.010715178316383174 -0.00059882155992270307 0 -0.010811418301344716 -0.0004803132554878801 0 -0.011056773598724402 -0.00060438931435775336 0 -0.010811418301344716 -0.0004803132554878801 0 -0.011056773598724402 -0.00060438931435775336 0 -0.01090897092996386 -0.00030117498551640641 0 -0.012721648836545311 -0.00030411865717320282 0 -0.012979235857322184 -8.5042813859459805e-06 0 -0.014539157539595636 2.2296891781657066e-05 0 -0.014552426414220205 0.00014198184742375195 0 -0.01461644665627501 9.4157723051398133e-05 0 -0.014539157539595636 2.2296891781657066e-05 0 -0.014427074771091493 5.4597863571034695e-05 0 -0.014552426414220205 0.00014198184742375195 0 -0.011410948192107471 -0.00015887779202110888 0 -0.01088228162755173 3.2367119732582143e-05 0 -0.011411164916376382 0.00017386577742232022 0 -0.011410948192107471 -0.00015887779202110888 0 -0.011411164916376382 0.00017386577742232022 0 -0.011728115608813403 0.00025266799096543762 0 -0.01090897092996386 -0.00030117498551640641 0 -0.011410948192107471 -0.00015887779202110888 0 -0.01088228162755173 3.2367119732582143e-05 0 -0.010663449282655316 -0.00010556007427850439 0 -0.010843868723105702 0.00018873942368504063 0 -0.010524433627991514 0.00024433688877694034 0 -0.010810088466705073 -1.1739210321492277e-05 0 -0.010713767956957991 0.00021326380485993892 0 -0.01088228162755173 3.2367119732582143e-05 0 -0.01116710329100583 0.00043993805704857167 0 -0.011411164916376382 0.00017386577742232022 0 -0.011367098957954069 0.00036135978723836679 0 -0.011606945502463453 0.00041675062841170811 0 -0.011698755446140345 0.00031663268703109934 0 -0.01116710329100583 0.00043993805704857167 0 -0.011411164916376382 0.00017386577742232022 0 -0.011698755446140345 0.00031663268703109934 0 -0.010713767956957991 0.00021326380485993892 0 -0.011886756249181637 0.00034069501287879147 0 -0.010580754394072373 0.00038489183522609136 0 -0.010713767956957991 0.00021326380485993892 0 -0.01152544402357899 0.00060476918660942259 0 -0.011367098957954069 0.00036135978723836679 0 -0.011606945502463453 0.00041675062841170811 0 -0.0096056994161009771 9.1899055599640311e-05 0 -0.0096053587227455644 9.1750473231090051e-05 0 -0.0096068933398023044 0.00011290459539132075 0 -0.010713767956957991 0.00021326380485993892 0 -0.0099831483412770022 0.00019313103135687993 0 -0.0096056994161009771 9.1899055599640311e-05 0 -0.0096068933398023044 0.00011290459539132075 0 -0.0096205326916693583 0.00012512204466328899 0 -0.0099831483412770022 0.00019313103135687993 0 -0.0099610184134250671 0.00020095114643411404 0 -0.0096418903313942386 9.255944889026344e-05 0 -0.0096056994161009771 9.1899055599640311e-05 0 -0.0096205326916693583 0.00012512204466328899 0 -0.0096418903313942386 9.255944889026344e-05 0 -0.0097414215545579864 0.00011610667798513943 0 -0.0096734179956389811 0.00015913121549656844 0 -0.010524433627991514 0.00024433688877694034 0 -0.010191062535636642 0.00026813407632677303 0 -0.010197652279088464 8.6581896852970243e-05 0 -0.0096418903313942386 9.255944889026344e-05 0 -0.0096205326916693583 0.00012512204466328899 0 -0.0096734179956389811 0.00015913121549656844 0 -0.010154126097766836 0.00011447032187953073 0 -0.010197652279088464 8.6581896852970243e-05 0 -0.010180753589471264 8.3169134890404269e-05 0 -0.010320707390674725 -0.00016974478002623641 0 -0.010197652279088464 8.6581896852970243e-05 0 -0.010458715705372349 2.0235606546585068e-05 0 -0.010220151196119454 3.8939424019857198e-05 0 -0.010207659433397836 5.8195191741961902e-05 0 -0.010080490690270213 0.00013970087803741766 0 -0.010191062535636642 0.00026813407632677303 0 -0.010197652279088464 8.6581896852970243e-05 0 -0.010080490690270213 0.00013970087803741766 0 -0.010197652279088464 8.6581896852970243e-05 0 -0.010180753589471264 8.3169134890404269e-05 0 -0.010524433627991514 0.00024433688877694034 0 -0.010197652279088464 8.6581896852970243e-05 0 -0.010458715705372349 2.0235606546585068e-05 0 -0.010663449282655316 -0.00010556007427850439 0 -0.010524433627991514 0.00024433688877694034 0 -0.010458715705372349 2.0235606546585068e-05 0 -0.014544424686485341 5.1269216698870294e-05 0 -0.014562198346686074 4.2844135344227984e-05 0 -0.01456739114423921 7.1601203299790842e-05 0 -0.014544424686485341 5.1269216698870294e-05 0 -0.014545237680883836 3.3563439618905824e-05 0 -0.014525769155194724 2.3070617905686329e-05 0 -0.014545237680883836 3.3563439618905824e-05 0 -0.014562198346686074 4.2844135344227984e-05 0 -0.014548809796690119 1.8463151311781094e-05 0 -0.014544424686485341 5.1269216698870294e-05 0 -0.014545237680883836 3.3563439618905824e-05 0 -0.014562198346686074 4.2844135344227984e-05 0 -0.014574392698196428 4.4068520225671249e-05 0 -0.014585846173791295 4.4901417591680327e-05 0 -0.014579622562921191 5.9423203767263408e-05 0 -0.014562198346686074 4.2844135344227984e-05 0 -0.014574392698196428 4.4068520225671249e-05 0 -0.014569312023658942 2.903300228299961e-05 0 -0.014574392698196428 4.4068520225671249e-05 0 -0.014585846173791295 4.4901417591680327e-05 0 -0.014569312023658942 2.903300228299961e-05 0 -0.014562198346686074 4.2844135344227984e-05 0 -0.014574392698196428 4.4068520225671249e-05 0 -0.014579622562921191 5.9423203767263408e-05 0 -0.014585846173791295 4.4901417591680327e-05 0 -0.014595220082683723 6.9846912205207321e-05 0 -0.014598631509739274 5.9050714340168722e-05 0 -0.014595220082683723 6.9846912205207321e-05 0 -0.014579622562921191 5.9423203767263408e-05 0 -0.01459015111756558 8.2545086620497047e-05 0 -0.014585846173791295 4.4901417591680327e-05 0 -0.014595220082683723 6.9846912205207321e-05 0 -0.014579622562921191 5.9423203767263408e-05 0 -0.014562198346686074 4.2844135344227984e-05 0 -0.014579622562921191 5.9423203767263408e-05 0 -0.01456739114423921 7.1601203299790842e-05 0 -0.014579622562921191 5.9423203767263408e-05 0 -0.01459015111756558 8.2545086620497047e-05 0 -0.01456739114423921 7.1601203299790842e-05 0 -0.01459015111756558 8.2545086620497047e-05 0 -0.01456739114423921 7.1601203299790842e-05 0 -0.014593816643527378 0.00010292704955226138 0 -0.014595220082683723 6.9846912205207321e-05 0 -0.01459015111756558 8.2545086620497047e-05 0 -0.014608198836963505 9.3189953064095327e-05 0 -0.01459015111756558 8.2545086620497047e-05 0 -0.014608198836963505 9.3189953064095327e-05 0 -0.014593816643527378 0.00010292704955226138 0 -0.01456739114423921 7.1601203299790842e-05 0 -0.014553368261849591 8.7408150011845733e-05 0 -0.014593816643527378 0.00010292704955226138 0 -0.014544424686485341 5.1269216698870294e-05 0 -0.01456739114423921 7.1601203299790842e-05 0 -0.014553368261849591 8.7408150011845733e-05 0 -0.014544424686485341 5.1269216698870294e-05 0 -0.014553368261849591 8.7408150011845733e-05 0 -0.014509894821594716 7.0794469734122544e-05 0 -0.014553368261849591 8.7408150011845733e-05 0 -0.014509894821594716 7.0794469734122544e-05 0 -0.014543832109943037 0.00011727365199900055 0 -0.014509894821594716 7.0794469734122544e-05 0 -0.01444076821838358 8.2434043834968767e-05 0 -0.014455771586534815 0.0001377080541107685 0 -0.014509894821594716 7.0794469734122544e-05 0 -0.01444076821838358 8.2434043834968767e-05 0 -0.014482710827542185 2.8852396969620767e-05 0 -0.01444076821838358 8.2434043834968767e-05 0 -0.014482710827542185 2.8852396969620767e-05 0 -0.014451460000142103 -1.1889030568219276e-05 0 -0.014544424686485341 5.1269216698870294e-05 0 -0.014509894821594716 7.0794469734122544e-05 0 -0.014514207642948277 4.0006917608611873e-05 0 -0.014509894821594716 7.0794469734122544e-05 0 -0.014482710827542185 2.8852396969620767e-05 0 -0.014514207642948277 4.0006917608611873e-05 0 -0.014482710827542185 2.8852396969620767e-05 0 -0.014514207642948277 4.0006917608611873e-05 0 -0.014504340670647846 1.9582650128834404e-05 0 -0.014514207642948277 4.0006917608611873e-05 0 -0.014504340670647846 1.9582650128834404e-05 0 -0.014525769155194724 2.3070617905686329e-05 0 -0.014544424686485341 5.1269216698870294e-05 0 -0.014514207642948277 4.0006917608611873e-05 0 -0.014525769155194724 2.3070617905686329e-05 0 -0.014511518532538072 -7.9671813887586222e-05 0 -0.014451460000142103 -1.1889030568219276e-05 0 -0.014513022178452522 -3.7147002511875787e-05 0 -0.014507135436835638 3.16899756441257e-06 0 -0.014527580227319262 -4.6872981514997095e-07 0 -0.014525769155194724 2.3070617905686329e-05 0 -0.014507135436835638 3.16899756441257e-06 0 -0.014504340670647846 1.9582650128834404e-05 0 -0.014525769155194724 2.3070617905686329e-05 0 -0.014002276840876538 0.00022440457267726766 0 -0.01363597002899941 0.00088043378137260216 0 -0.013616137260265034 0.00085123632559265386 0 -0.013360315028697783 0.00021672107286607536 0 -0.014199968578869166 0.00034965736936268846 0 -0.014482710827542185 2.8852396969620767e-05 0 -0.014504340670647846 1.9582650128834404e-05 0 -0.014489412322383079 4.9571286653209853e-06 0 -0.014507135436835638 3.16899756441257e-06 0 -0.014504340670647846 1.9582650128834404e-05 0 -0.014489412322383079 4.9571286653209853e-06 0 -0.014507135436835638 3.16899756441257e-06 0 -0.014489412322383079 4.9571286653209853e-06 0 -0.014501895553738167 -1.1630140766912201e-05 0 -0.014507135436835638 3.16899756441257e-06 0 -0.014501895553738167 -1.1630140766912201e-05 0 -0.014527580227319262 -4.6872981514997095e-07 0 -0.014489412322383079 4.9571286653209853e-06 0 -0.014501895553738167 -1.1630140766912201e-05 0 -0.014451460000142103 -1.1889030568219276e-05 0 -0.014482710827542185 2.8852396969620767e-05 0 -0.014489412322383079 4.9571286653209853e-06 0 -0.014451460000142103 -1.1889030568219276e-05 0 -0.014501895553738167 -1.1630140766912201e-05 0 -0.014451460000142103 -1.1889030568219276e-05 0 -0.014513022178452522 -3.7147002511875787e-05 0 -0.014501895553738167 -1.1630140766912201e-05 0 -0.014513022178452522 -3.7147002511875787e-05 0 -0.014531725591222441 -1.911708935601282e-05 0 -0.01453289527663987 -4.5157733817620853e-05 0 -0.014513022178452522 -3.7147002511875787e-05 0 -0.014539506567776292 -2.8505488637790168e-05 0 -0.014513022178452522 -3.7147002511875787e-05 0 -0.014539506567776292 -2.8505488637790168e-05 0 -0.014531725591222441 -1.911708935601282e-05 0 -0.01453289527663987 -4.5157733817620853e-05 0 -0.014539506567776292 -2.8505488637790168e-05 0 -0.014563099645305272 -2.6996443131759352e-05 0 -0.014531725591222441 -1.911708935601282e-05 0 -0.014547758297606579 -1.0495862727871863e-06 0 -0.014555403652425169 -1.4059663631959024e-05 0 -0.014539506567776292 -2.8505488637790168e-05 0 -0.014531725591222441 -1.911708935601282e-05 0 -0.014555403652425169 -1.4059663631959024e-05 0 -0.014501895553738167 -1.1630140766912201e-05 0 -0.014531725591222441 -1.911708935601282e-05 0 -0.014527580227319262 -4.6872981514997095e-07 0 -0.014531725591222441 -1.911708935601282e-05 0 -0.014527580227319262 -4.6872981514997095e-07 0 -0.014547758297606579 -1.0495862727871863e-06 0 -0.014547758297606579 -1.0495862727871863e-06 0 -0.014548809796690119 1.8463151311781094e-05 0 -0.014559807596143549 1.3466125207993011e-05 0 -0.014527580227319262 -4.6872981514997095e-07 0 -0.014547758297606579 -1.0495862727871863e-06 0 -0.014548809796690119 1.8463151311781094e-05 0 -0.014548809796690119 1.8463151311781094e-05 0 -0.014569312023658942 2.903300228299961e-05 0 -0.014559807596143549 1.3466125207993011e-05 0 -0.014562198346686074 4.2844135344227984e-05 0 -0.014548809796690119 1.8463151311781094e-05 0 -0.014569312023658942 2.903300228299961e-05 0 -0.014527580227319262 -4.6872981514997095e-07 0 -0.014548809796690119 1.8463151311781094e-05 0 -0.014525769155194724 2.3070617905686329e-05 0 -0.014545237680883836 3.3563439618905824e-05 0 -0.014548809796690119 1.8463151311781094e-05 0 -0.014525769155194724 2.3070617905686329e-05 0 -0.014579597924946286 2.7173390361530927e-05 0 -0.014581494091734653 1.4643991327328326e-05 0 -0.01459037731722526 3.0668635536328295e-05 0 -0.014585846173791295 4.4901417591680327e-05 0 -0.014579597924946286 2.7173390361530927e-05 0 -0.01459037731722526 3.0668635536328295e-05 0 -0.014585846173791295 4.4901417591680327e-05 0 -0.01459037731722526 3.0668635536328295e-05 0 -0.014597716427117553 4.5235762393246695e-05 0 -0.014585846173791295 4.4901417591680327e-05 0 -0.014579597924946286 2.7173390361530927e-05 0 -0.014569312023658942 2.903300228299961e-05 0 -0.014569312023658942 2.903300228299961e-05 0 -0.014570961156729701 1.6762599695362315e-05 0 -0.014559807596143549 1.3466125207993011e-05 0 -0.014579597924946286 2.7173390361530927e-05 0 -0.014569312023658942 2.903300228299961e-05 0 -0.014570961156729701 1.6762599695362315e-05 0 -0.014547758297606579 -1.0495862727871863e-06 0 -0.014559807596143549 1.3466125207993011e-05 0 -0.014566309407280086 2.9850347755330317e-06 0 -0.014570961156729701 1.6762599695362315e-05 0 -0.014559807596143549 1.3466125207993011e-05 0 -0.014566309407280086 2.9850347755330317e-06 0 -0.014570961156729701 1.6762599695362315e-05 0 -0.014566309407280086 2.9850347755330317e-06 0 -0.014581494091734653 1.4643991327328326e-05 0 -0.014566309407280086 2.9850347755330317e-06 0 -0.014581494091734653 1.4643991327328326e-05 0 -0.01457937892690209 -6.6116296269261103e-07 0 -0.014579597924946286 2.7173390361530927e-05 0 -0.014570961156729701 1.6762599695362315e-05 0 -0.014581494091734653 1.4643991327328326e-05 0 -0.014581494091734653 1.4643991327328326e-05 0 -0.01457937892690209 -6.6116296269261103e-07 0 -0.014589989995822701 7.2784610378164888e-06 0 -0.01457937892690209 -6.6116296269261103e-07 0 -0.014588356262566847 -9.5372393390071096e-06 0 -0.014589989995822701 7.2784610378164888e-06 0 -0.014566309407280086 2.9850347755330317e-06 0 -0.01457937892690209 -6.6116296269261103e-07 0 -0.01456781574315783 -1.0176550098671373e-05 0 -0.01457937892690209 -6.6116296269261103e-07 0 -0.01457483023570001 -1.1274476894396666e-05 0 -0.01456781574315783 -1.0176550098671373e-05 0 -0.01457937892690209 -6.6116296269261103e-07 0 -0.01457483023570001 -1.1274476894396666e-05 0 -0.014588356262566847 -9.5372393390071096e-06 0 -0.014547758297606579 -1.0495862727871863e-06 0 -0.014566309407280086 2.9850347755330317e-06 0 -0.014555403652425169 -1.4059663631959024e-05 0 -0.014566309407280086 2.9850347755330317e-06 0 -0.01456781574315783 -1.0176550098671373e-05 0 -0.014555403652425169 -1.4059663631959024e-05 0 -0.01456781574315783 -1.0176550098671373e-05 0 -0.014555403652425169 -1.4059663631959024e-05 0 -0.014563099645305272 -2.6996443131759352e-05 0 -0.014539506567776292 -2.8505488637790168e-05 0 -0.014555403652425169 -1.4059663631959024e-05 0 -0.014563099645305272 -2.6996443131759352e-05 0 -0.01457483023570001 -1.1274476894396666e-05 0 -0.01456781574315783 -1.0176550098671373e-05 0 -0.014563099645305272 -2.6996443131759352e-05 0 -0.01457483023570001 -1.1274476894396666e-05 0 -0.014563099645305272 -2.6996443131759352e-05 0 -0.014588356262566847 -9.5372393390071096e-06 0 -0.014563099645305272 -2.6996443131759352e-05 0 -0.014588356262566847 -9.5372393390071096e-06 0 -0.014616782157010585 -4.2562043823786102e-06 0 -0.011927085767069447 0.00050871961703635661 0 -0.011823424255799632 0.00040853452146018038 0 -0.011728115608813403 0.00025266799096543762 0 -0.014616782157010585 -4.2562043823786102e-06 0 -0.014622099475130126 3.8122304655948559e-05 0 -0.014641080240286505 0.00011322278281586882 0 -0.012914207788018186 0.00042950221570213363 0 -0.013217157149719654 0.00016573470012842131 0 -0.014588356262566847 -9.5372393390071096e-06 0 -0.014604143804661119 -1.7687312949311191e-06 0 -0.014603651616004732 1.0686523652759035e-05 0 -0.014588356262566847 -9.5372393390071096e-06 0 -0.014589989995822701 7.2784610378164888e-06 0 -0.014603651616004732 1.0686523652759035e-05 0 -0.014588356262566847 -9.5372393390071096e-06 0 -0.014604143804661119 -1.7687312949311191e-06 0 -0.014616782157010585 -4.2562043823786102e-06 0 -0.014616782157010585 -4.2562043823786102e-06 0 -0.014617003956748732 1.0515178093677386e-05 0 -0.014610981614699911 1.088424527524836e-05 0 -0.014604143804661119 -1.7687312949311191e-06 0 -0.014603651616004732 1.0686523652759035e-05 0 -0.014610981614699911 1.088424527524836e-05 0 -0.014604143804661119 -1.7687312949311191e-06 0 -0.014616782157010585 -4.2562043823786102e-06 0 -0.014610981614699911 1.088424527524836e-05 0 -0.011945359302440466 0.00059448058877366804 0 -0.011927085767069447 0.00050871961703635661 0 -0.011921851865032021 0.00056407158967190524 0 -0.011927085767069447 0.00050871961703635661 0 -0.011921851865032021 0.00056407158967190524 0 -0.011897267931902985 0.0005204692140826923 0 -0.011868867225871806 0.0005948962402051041 0 -0.011863916912111137 0.00053943361880520843 0 -0.011895911093886822 0.00054986916375632667 0 -0.011868867225871806 0.0005948962402051041 0 -0.011921851865032021 0.00056407158967190524 0 -0.011895911093886822 0.00054986916375632667 0 -0.011863916912111137 0.00053943361880520843 0 -0.011895911093886822 0.00054986916375632667 0 -0.011897267931902985 0.0005204692140826923 0 -0.011921851865032021 0.00056407158967190524 0 -0.011895911093886822 0.00054986916375632667 0 -0.011897267931902985 0.0005204692140826923 0 -0.011868867225871806 0.0005948962402051041 0 -0.011863916912111137 0.00053943361880520843 0 -0.011811086398352129 0.00054580915262543125 0 -0.011863916912111137 0.00053943361880520843 0 -0.011811086398352129 0.00054580915262543125 0 -0.011836182316760691 0.0005135944301166615 0 -0.011836182316760691 0.0005135944301166615 0 -0.011824150975801587 0.00047727227984458928 0 -0.011774084988976767 0.00049520678547553183 0 -0.011863916912111137 0.00053943361880520843 0 -0.011836182316760691 0.0005135944301166615 0 -0.011869624435266783 0.00050763727689429018 0 -0.011836182316760691 0.0005135944301166615 0 -0.011824150975801587 0.00047727227984458928 0 -0.011869624435266783 0.00050763727689429018 0 -0.011824150975801587 0.00047727227984458928 0 -0.011869624435266783 0.00050763727689429018 0 -0.011854019630486093 0.000463787658429046 0 -0.011927085767069447 0.00050871961703635661 0 -0.011897267931902985 0.0005204692140826923 0 -0.011890958774496821 0.00048525896992130616 0 -0.011897267931902985 0.0005204692140826923 0 -0.011869624435266783 0.00050763727689429018 0 -0.011890958774496821 0.00048525896992130616 0 -0.011863916912111137 0.00053943361880520843 0 -0.011897267931902985 0.0005204692140826923 0 -0.011869624435266783 0.00050763727689429018 0 -0.011869624435266783 0.00050763727689429018 0 -0.011890958774496821 0.00048525896992130616 0 -0.011854019630486093 0.000463787658429046 0 -0.014616782157010585 -4.2562043823786102e-06 0 -0.014622099475130126 3.8122304655948559e-05 0 -0.014617003956748732 1.0515178093677386e-05 0 -0.011927085767069447 0.00050871961703635661 0 -0.011890958774496821 0.00048525896992130616 0 -0.011823424255799632 0.00040853452146018038 0 -0.014617614745932272 1.963033032890912e-05 0 -0.014622099475130126 3.8122304655948559e-05 0 -0.014617003956748732 1.0515178093677386e-05 0 -0.014617614745932272 1.963033032890912e-05 0 -0.014616452186488622 2.9728805183846261e-05 0 -0.014622099475130126 3.8122304655948559e-05 0 -0.011854019630486093 0.000463787658429046 0 -0.011820558149135995 0.00044876649461661364 0 -0.011823424255799632 0.00040853452146018038 0 -0.011890958774496821 0.00048525896992130616 0 -0.011854019630486093 0.000463787658429046 0 -0.011823424255799632 0.00040853452146018038 0 -0.011824150975801587 0.00047727227984458928 0 -0.011854019630486093 0.000463787658429046 0 -0.011820558149135995 0.00044876649461661364 0 -0.014622099475130126 3.8122304655948559e-05 0 -0.014622191211925333 4.621681768981395e-05 0 -0.01462784933785694 6.872456137095817e-05 0 -0.014616452186488622 2.9728805183846261e-05 0 -0.014616462761944417 4.0831036506266979e-05 0 -0.014622191211925333 4.621681768981395e-05 0 -0.014616452186488622 2.9728805183846261e-05 0 -0.014622099475130126 3.8122304655948559e-05 0 -0.014622191211925333 4.621681768981395e-05 0 -0.014616462761944417 4.0831036506266979e-05 0 -0.014622191211925333 4.621681768981395e-05 0 -0.014618022960945096 5.2176054317203835e-05 0 -0.014616462761944417 4.0831036506266979e-05 0 -0.014611766087334603 4.424266369757473e-05 0 -0.014618022960945096 5.2176054317203835e-05 0 -0.014616462761944417 4.0831036506266979e-05 0 -0.014611766087334603 4.424266369757473e-05 0 -0.014610299723699892 3.3782845051591253e-05 0 -0.014616452186488622 2.9728805183846261e-05 0 -0.014616462761944417 4.0831036506266979e-05 0 -0.014610299723699892 3.3782845051591253e-05 0 -0.014610299723699892 3.3782845051591253e-05 0 -0.014603406553403909 2.9677736106374254e-05 0 -0.014605766833783632 4.3128818497508944e-05 0 -0.014611766087334603 4.424266369757473e-05 0 -0.014605766833783632 4.3128818497508944e-05 0 -0.014613077661099729 5.469849987329009e-05 0 -0.014611766087334603 4.424266369757473e-05 0 -0.014610299723699892 3.3782845051591253e-05 0 -0.014605766833783632 4.3128818497508944e-05 0 -0.014605766833783632 4.3128818497508944e-05 0 -0.014598612333891672 3.4274074326568416e-05 0 -0.014597716427117553 4.5235762393246695e-05 0 -0.01459037731722526 3.0668635536328295e-05 0 -0.014598612333891672 3.4274074326568416e-05 0 -0.014597716427117553 4.5235762393246695e-05 0 -0.01459037731722526 3.0668635536328295e-05 0 -0.014598612333891672 3.4274074326568416e-05 0 -0.01459557281504009 2.2105667145723051e-05 0 -0.014603406553403909 2.9677736106374254e-05 0 -0.014598612333891672 3.4274074326568416e-05 0 -0.01459557281504009 2.2105667145723051e-05 0 -0.014603406553403909 2.9677736106374254e-05 0 -0.014605766833783632 4.3128818497508944e-05 0 -0.014598612333891672 3.4274074326568416e-05 0 -0.01459557281504009 2.2105667145723051e-05 0 -0.014603651616004732 1.0686523652759035e-05 0 -0.014604326316758972 1.9155858780542862e-05 0 -0.014603406553403909 2.9677736106374254e-05 0 -0.01459557281504009 2.2105667145723051e-05 0 -0.014604326316758972 1.9155858780542862e-05 0 -0.014581494091734653 1.4643991327328326e-05 0 -0.01459037731722526 3.0668635536328295e-05 0 -0.01459557281504009 2.2105667145723051e-05 0 -0.014581494091734653 1.4643991327328326e-05 0 -0.01459557281504009 2.2105667145723051e-05 0 -0.014589989995822701 7.2784610378164888e-06 0 -0.01459557281504009 2.2105667145723051e-05 0 -0.014589989995822701 7.2784610378164888e-06 0 -0.014603651616004732 1.0686523652759035e-05 0 -0.014603406553403909 2.9677736106374254e-05 0 -0.014610981614699911 1.088424527524836e-05 0 -0.014612049619103331 2.3571123793590293e-05 0 -0.014603651616004732 1.0686523652759035e-05 0 -0.014610981614699911 1.088424527524836e-05 0 -0.014604326316758972 1.9155858780542862e-05 0 -0.014603406553403909 2.9677736106374254e-05 0 -0.014610981614699911 1.088424527524836e-05 0 -0.014604326316758972 1.9155858780542862e-05 0 -0.014617614745932272 1.963033032890912e-05 0 -0.014610981614699911 1.088424527524836e-05 0 -0.014612049619103331 2.3571123793590293e-05 0 -0.014617614745932272 1.963033032890912e-05 0 -0.014617003956748732 1.0515178093677386e-05 0 -0.014610981614699911 1.088424527524836e-05 0 -0.014616452186488622 2.9728805183846261e-05 0 -0.014610299723699892 3.3782845051591253e-05 0 -0.014612049619103331 2.3571123793590293e-05 0 -0.014617614745932272 1.963033032890912e-05 0 -0.014616452186488622 2.9728805183846261e-05 0 -0.014612049619103331 2.3571123793590293e-05 0 -0.014610299723699892 3.3782845051591253e-05 0 -0.014603406553403909 2.9677736106374254e-05 0 -0.014612049619103331 2.3571123793590293e-05 0 -0.01152544402357899 0.00060476918660942259 0 -0.011701686877022988 0.00050823840750414268 0 -0.011606945502463453 0.00041675062841170811 0 -0.01152544402357899 0.00060476918660942259 0 -0.011717535868579926 0.00060803211429816186 0 -0.011701686877022988 0.00050823840750414268 0 -0.011717535868579926 0.00060803211429816186 0 -0.011811086398352129 0.00054580915262543125 0 -0.011701686877022988 0.00050823840750414268 0 -0.011811086398352129 0.00054580915262543125 0 -0.011701686877022988 0.00050823840750414268 0 -0.011774084988976767 0.00049520678547553183 0 -0.011701686877022988 0.00050823840750414268 0 -0.011774084988976767 0.00049520678547553183 0 -0.011780394906644785 0.00044529118262327057 0 -0.011811086398352129 0.00054580915262543125 0 -0.011836182316760691 0.0005135944301166615 0 -0.011774084988976767 0.00049520678547553183 0 -0.011824150975801587 0.00047727227984458928 0 -0.011774084988976767 0.00049520678547553183 0 -0.011780394906644785 0.00044529118262327057 0 -0.011824150975801587 0.00047727227984458928 0 -0.011820558149135995 0.00044876649461661364 0 -0.011780394906644785 0.00044529118262327057 0 -0.011820558149135995 0.00044876649461661364 0 -0.011823424255799632 0.00040853452146018038 0 -0.011780394906644785 0.00044529118262327057 0 -0.011823424255799632 0.00040853452146018038 0 -0.011740060296469457 0.00040740230146641462 0 -0.011728111376641268 0.00035805865698337457 0 -0.011823424255799632 0.00040853452146018038 0 -0.011780394906644785 0.00044529118262327057 0 -0.011740060296469457 0.00040740230146641462 0 -0.011740060296469457 0.00040740230146641462 0 -0.011693398121986859 0.00038780352067684407 0 -0.011728111376641268 0.00035805865698337457 0 -0.011740060296469457 0.00040740230146641462 0 -0.011701434614566842 0.00043702809752148097 0 -0.011693398121986859 0.00038780352067684407 0 -0.011780394906644785 0.00044529118262327057 0 -0.011740060296469457 0.00040740230146641462 0 -0.011701434614566842 0.00043702809752148097 0 -0.011701686877022988 0.00050823840750414268 0 -0.011780394906644785 0.00044529118262327057 0 -0.011701434614566842 0.00043702809752148097 0 -0.011701686877022988 0.00050823840750414268 0 -0.011701434614566842 0.00043702809752148097 0 -0.011606945502463453 0.00041675062841170811 0 -0.011701434614566842 0.00043702809752148097 0 -0.011693398121986859 0.00038780352067684407 0 -0.011606945502463453 0.00041675062841170811 0 -0.011693398121986859 0.00038780352067684407 0 -0.011606945502463453 0.00041675062841170811 0 -0.011698755446140345 0.00031663268703109934 0 -0.011823424255799632 0.00040853452146018038 0 -0.011728111376641268 0.00035805865698337457 0 -0.011728115608813403 0.00025266799096543762 0 -0.014632769189660423 9.2088815400439094e-05 0 -0.014641080240286505 0.00011322278281586882 0 -0.01462784933785694 6.872456137095817e-05 0 -0.011698755446140345 0.00031663268703109934 0 -0.011728111376641268 0.00035805865698337457 0 -0.011728115608813403 0.00025266799096543762 0 -0.011693398121986859 0.00038780352067684407 0 -0.011698755446140345 0.00031663268703109934 0 -0.011728111376641268 0.00035805865698337457 0 -0.014632769189660423 9.2088815400439094e-05 0 -0.014633432558648315 0.00010751983812707118 0 -0.014629344538987725 9.0423627947358552e-05 0 -0.014633432558648315 0.00010751983812707118 0 -0.014641080240286505 0.00011322278281586882 0 -0.014625517676481755 0.00012452293003135825 0 -0.014633432558648315 0.00010751983812707118 0 -0.014632269706423815 0.00011206301485225881 0 -0.014625517676481755 0.00012452293003135825 0 -0.014632769189660423 9.2088815400439094e-05 0 -0.014633432558648315 0.00010751983812707118 0 -0.014641080240286505 0.00011322278281586882 0 -0.011411164916376382 0.00017386577742232022 0 -0.011698755446140345 0.00031663268703109934 0 -0.011728115608813403 0.00025266799096543762 0 -0.014616083561900894 7.4884460589683265e-05 0 -0.014607767622777643 7.6715854404337143e-05 0 -0.014606546421104476 5.8720909204601127e-05 0 -0.014595220082683723 6.9846912205207321e-05 0 -0.014607767622777643 7.6715854404337143e-05 0 -0.014598631509739274 5.9050714340168722e-05 0 -0.014607767622777643 7.6715854404337143e-05 0 -0.014606546421104476 5.8720909204601127e-05 0 -0.014598631509739274 5.9050714340168722e-05 0 -0.014606546421104476 5.8720909204601127e-05 0 -0.014598631509739274 5.9050714340168722e-05 0 -0.014597716427117553 4.5235762393246695e-05 0 -0.014585846173791295 4.4901417591680327e-05 0 -0.014598631509739274 5.9050714340168722e-05 0 -0.014597716427117553 4.5235762393246695e-05 0 -0.014605766833783632 4.3128818497508944e-05 0 -0.014606546421104476 5.8720909204601127e-05 0 -0.014597716427117553 4.5235762393246695e-05 0 -0.014616083561900894 7.4884460589683265e-05 0 -0.014613077661099729 5.469849987329009e-05 0 -0.014620228318583768 6.6742367793053329e-05 0 -0.014616083561900894 7.4884460589683265e-05 0 -0.014606546421104476 5.8720909204601127e-05 0 -0.014613077661099729 5.469849987329009e-05 0 -0.014605766833783632 4.3128818497508944e-05 0 -0.014606546421104476 5.8720909204601127e-05 0 -0.014613077661099729 5.469849987329009e-05 0 -0.014611766087334603 4.424266369757473e-05 0 -0.014613077661099729 5.469849987329009e-05 0 -0.014618022960945096 5.2176054317203835e-05 0 -0.014622099475130126 3.8122304655948559e-05 0 -0.014641080240286505 0.00011322278281586882 0 -0.01462784933785694 6.872456137095817e-05 0 -0.014613077661099729 5.469849987329009e-05 0 -0.014618022960945096 5.2176054317203835e-05 0 -0.014620228318583768 6.6742367793053329e-05 0 -0.014618022960945096 5.2176054317203835e-05 0 -0.014622848136733702 6.1867105770224823e-05 0 -0.014620228318583768 6.6742367793053329e-05 0 -0.014622191211925333 4.621681768981395e-05 0 -0.014618022960945096 5.2176054317203835e-05 0 -0.014622848136733702 6.1867105770224823e-05 0 -0.014622848136733702 6.1867105770224823e-05 0 -0.014620228318583768 6.6742367793053329e-05 0 -0.014625504762012066 7.4780512455139859e-05 0 -0.014622191211925333 4.621681768981395e-05 0 -0.014622848136733702 6.1867105770224823e-05 0 -0.01462784933785694 6.872456137095817e-05 0 -0.01462784933785694 6.872456137095817e-05 0 -0.014628625177758385 7.7616332245851935e-05 0 -0.014625504762012066 7.4780512455139859e-05 0 -0.014622848136733702 6.1867105770224823e-05 0 -0.01462784933785694 6.872456137095817e-05 0 -0.014625504762012066 7.4780512455139859e-05 0 -0.014632769189660423 9.2088815400439094e-05 0 -0.01462784933785694 6.872456137095817e-05 0 -0.014628625177758385 7.7616332245851935e-05 0 -0.014632769189660423 9.2088815400439094e-05 0 -0.014628625177758385 7.7616332245851935e-05 0 -0.014629344538987725 9.0423627947358552e-05 0 -0.014628625177758385 7.7616332245851935e-05 0 -0.014625504762012066 7.4780512455139859e-05 0 -0.014629344538987725 9.0423627947358552e-05 0 -0.014625504762012066 7.4780512455139859e-05 0 -0.014629344538987725 9.0423627947358552e-05 0 -0.014624346299981142 8.5842948997264095e-05 0 -0.014620228318583768 6.6742367793053329e-05 0 -0.014625504762012066 7.4780512455139859e-05 0 -0.014624346299981142 8.5842948997264095e-05 0 -0.014616083561900894 7.4884460589683265e-05 0 -0.014620228318583768 6.6742367793053329e-05 0 -0.014624346299981142 8.5842948997264095e-05 0 -0.014616083561900894 7.4884460589683265e-05 0 -0.014624346299981142 8.5842948997264095e-05 0 -0.014623239177774774 9.9268141172289501e-05 0 -0.014624346299981142 8.5842948997264095e-05 0 -0.014629339730127101 0.00010038137591622405 0 -0.014623239177774774 9.9268141172289501e-05 0 -0.014633432558648315 0.00010751983812707118 0 -0.014629339730127101 0.00010038137591622405 0 -0.014632269706423815 0.00011206301485225881 0 -0.014633432558648315 0.00010751983812707118 0 -0.014629344538987725 9.0423627947358552e-05 0 -0.014629339730127101 0.00010038137591622405 0 -0.014629344538987725 9.0423627947358552e-05 0 -0.014624346299981142 8.5842948997264095e-05 0 -0.014629339730127101 0.00010038137591622405 0 -0.014629339730127101 0.00010038137591622405 0 -0.014632269706423815 0.00011206301485225881 0 -0.014623239177774774 9.9268141172289501e-05 0 -0.014632269706423815 0.00011206301485225881 0 -0.014623239177774774 9.9268141172289501e-05 0 -0.014634139810158868 0.00011789710421733311 0 -0.014608198836963505 9.3189953064095327e-05 0 -0.014623239177774774 9.9268141172289501e-05 0 -0.014630622649210355 0.0001196201784189189 0 -0.014616083561900894 7.4884460589683265e-05 0 -0.014607767622777643 7.6715854404337143e-05 0 -0.014623239177774774 9.9268141172289501e-05 0 -0.014595220082683723 6.9846912205207321e-05 0 -0.014608198836963505 9.3189953064095327e-05 0 -0.014607767622777643 7.6715854404337143e-05 0 -0.014608198836963505 9.3189953064095327e-05 0 -0.014607767622777643 7.6715854404337143e-05 0 -0.014623239177774774 9.9268141172289501e-05 0 -0.014630622649210355 0.0001196201784189189 0 -0.014634139810158868 0.00011789710421733311 0 -0.014643730584788272 0.00012771331144943309 0 -0.014623239177774774 9.9268141172289501e-05 0 -0.014630622649210355 0.0001196201784189189 0 -0.014634139810158868 0.00011789710421733311 0 -0.014632269706423815 0.00011206301485225881 0 -0.014634139810158868 0.00011789710421733311 0 -0.014632609222047697 0.0001254499301234572 0 -0.014634139810158868 0.00011789710421733311 0 -0.014643730584788272 0.00012771331144943309 0 -0.014632609222047697 0.0001254499301234572 0 -0.014643730584788272 0.00012771331144943309 0 -0.014632609222047697 0.0001254499301234572 0 -0.014637514050225883 0.00012462275951131873 0 -0.014643730584788272 0.00012771331144943309 0 -0.014637514050225883 0.00012462275951131873 0 -0.014670475348892346 0.00013028037684753642 0 -0.014630622649210355 0.0001196201784189189 0 -0.014651055254216632 0.00013020735929759208 0 -0.01465395703484957 0.00014070084189050764 0 -0.014630622649210355 0.0001196201784189189 0 -0.014643730584788272 0.00012771331144943309 0 -0.014651055254216632 0.00013020735929759208 0 -0.014643730584788272 0.00012771331144943309 0 -0.014651055254216632 0.00013020735929759208 0 -0.014670475348892346 0.00013028037684753642 0 -0.012979235857322184 -8.5042813859459805e-06 0 -0.013217157149719654 0.00016573470012842131 0 -0.014552426414220205 0.00014198184742375195 0 -0.014641080240286505 0.00011322278281586882 0 -0.014625517676481755 0.00012452293003135825 0 -0.014625517676481755 0.00012452293003135825 0 -0.014632609222047697 0.0001254499301234572 0 -0.014615455385084479 0.00012761934958323461 0 -0.014632269706423815 0.00011206301485225881 0 -0.014625517676481755 0.00012452293003135825 0 -0.014632609222047697 0.0001254499301234572 0 -0.014632609222047697 0.0001254499301234572 0 -0.014615455385084479 0.00012761934958323461 0 -0.014637514050225883 0.00012462275951131873 0 -0.014552426414220205 0.00014198184742375195 0 -0.014625517676481755 0.00012452293003135825 0 -0.014615455385084479 0.00012761934958323461 0 -0.01461644665627501 9.4157723051398133e-05 0 -0.014716912389181991 0.00012056267060684076 0 -0.014604337228367587 2.5990814344736057e-05 0 -0.014552426414220205 0.00014198184742375195 0 -0.014615455385084479 0.00012761934958323461 0 -0.01461644665627501 9.4157723051398133e-05 0 -0.014615455385084479 0.00012761934958323461 0 -0.014637514050225883 0.00012462275951131873 0 -0.01461644665627501 9.4157723051398133e-05 0 -0.01461644665627501 9.4157723051398133e-05 0 -0.014670475348892346 0.00013028037684753642 0 -0.014716912389181991 0.00012056267060684076 0 -0.014670475348892346 0.00013028037684753642 0 -0.014716912389181991 0.00012056267060684076 0 -0.01465395703484957 0.00014070084189050764 0 -0.014651055254216632 0.00013020735929759208 0 -0.014670475348892346 0.00013028037684753642 0 -0.01465395703484957 0.00014070084189050764 0 -0.014637514050225883 0.00012462275951131873 0 -0.01461644665627501 9.4157723051398133e-05 0 -0.014670475348892346 0.00013028037684753642 0 -0.014716912389181991 0.00012056267060684076 0 -0.014691820490776861 0.00019131114081709534 0 -0.01465395703484957 0.00014070084189050764 0 -0.014691820490776861 0.00019131114081709534 0 -0.014610669055376372 0.00015820486826865343 0 -0.01465395703484957 0.00014070084189050764 0 -0.014630622649210355 0.0001196201784189189 0 -0.01465395703484957 0.00014070084189050764 0 -0.014601913098368363 0.0001307896285779317 0 -0.014610669055376372 0.00015820486826865343 0 -0.01465395703484957 0.00014070084189050764 0 -0.014601913098368363 0.0001307896285779317 0 -0.014610669055376372 0.00015820486826865343 0 -0.014601913098368363 0.0001307896285779317 0 -0.014527940985466331 0.00015240787092829703 0 -0.014601913098368363 0.0001307896285779317 0 -0.014593816643527378 0.00010292704955226138 0 -0.014543832109943037 0.00011727365199900055 0 -0.014553368261849591 8.7408150011845733e-05 0 -0.014593816643527378 0.00010292704955226138 0 -0.014543832109943037 0.00011727365199900055 0 -0.014630622649210355 0.0001196201784189189 0 -0.014601913098368363 0.0001307896285779317 0 -0.014593816643527378 0.00010292704955226138 0 -0.014608198836963505 9.3189953064095327e-05 0 -0.014630622649210355 0.0001196201784189189 0 -0.014593816643527378 0.00010292704955226138 0 -0.014509894821594716 7.0794469734122544e-05 0 -0.014455771586534815 0.0001377080541107685 0 -0.014543832109943037 0.00011727365199900055 0 -0.014455771586534815 0.0001377080541107685 0 -0.014543832109943037 0.00011727365199900055 0 -0.014527940985466331 0.00015240787092829703 0 -0.014601913098368363 0.0001307896285779317 0 -0.014543832109943037 0.00011727365199900055 0 -0.014527940985466331 0.00015240787092829703 0 -0.014455771586534815 0.0001377080541107685 0 -0.014527940985466331 0.00015240787092829703 0 -0.014433146258890894 0.00018525379332538804 0 -0.014691820490776861 0.00019131114081709534 0 -0.014549310659376915 0.00018063410963799556 0 -0.014478551368338212 0.00022295368038783181 0 -0.014527940985466331 0.00015240787092829703 0 -0.014549310659376915 0.00018063410963799556 0 -0.014433146258890894 0.00018525379332538804 0 -0.014610669055376372 0.00015820486826865343 0 -0.014527940985466331 0.00015240787092829703 0 -0.014549310659376915 0.00018063410963799556 0 -0.014691820490776861 0.00019131114081709534 0 -0.014610669055376372 0.00015820486826865343 0 -0.014549310659376915 0.00018063410963799556 0 -0.014549310659376915 0.00018063410963799556 0 -0.014478551368338212 0.00022295368038783181 0 -0.014433146258890894 0.00018525379332538804 0 -0.014691820490776861 0.00019131114081709534 0 -0.014478551368338212 0.00022295368038783181 0 -0.014502618579738523 0.00035873676825528259 0 -0.014691820490776861 0.00019131114081709534 0 -0.014807619384330143 0.00012381105868906089 0 -0.014920291553866918 0.00011393124930927062 0 -0.014711943852042301 0.00018315517667591706 0 -0.014694156281311503 0.00024978387665700291 0 -0.014691820490776861 0.00019131114081709534 0 -0.014750254821052385 0.00014172734063033521 0 -0.014807619384330143 0.00012381105868906089 0 -0.014716912389181991 0.00012056267060684076 0 -0.014691820490776861 0.00019131114081709534 0 -0.014750254821052385 0.00014172734063033521 0 -0.014750254821052385 0.00014172734063033521 0 -0.014807619384330143 0.00012381105868906089 0 -0.014808565038733779 0.00011401384063385737 0 -0.014750254821052385 0.00014172734063033521 0 -0.014808565038733779 0.00011401384063385737 0 -0.01478305469607368 0.00012221690755561437 0 -0.014807619384330143 0.00012381105868906089 0 -0.014865049419774177 8.3711889279967493e-05 0 -0.014884905373590879 9.3192775239058154e-05 0 -0.014807619384330143 0.00012381105868906089 0 -0.014808565038733779 0.00011401384063385737 0 -0.014865049419774177 8.3711889279967493e-05 0 -0.014808565038733779 0.00011401384063385737 0 -0.014865049419774177 8.3711889279967493e-05 0 -0.014871414748382078 7.9950527223694883e-05 0 -0.014865049419774177 8.3711889279967493e-05 0 -0.014884905373590879 9.3192775239058154e-05 0 -0.014906415103898155 6.3307387723594085e-05 0 -0.014920291553866918 0.00011393124930927062 0 -0.014884905373590879 9.3192775239058154e-05 0 -0.014970220797987351 5.3099346948796977e-05 0 -0.014932962415945349 7.6029670252356546e-05 0 -0.014889009176587472 7.4003938421625146e-05 0 -0.014807619384330143 0.00012381105868906089 0 -0.014920291553866918 0.00011393124930927062 0 -0.014884905373590879 9.3192775239058154e-05 0 -0.014539157539595636 2.2296891781657066e-05 0 -0.014576744720637301 -3.4139528094519232e-05 0 -0.014604337228367587 2.5990814344736057e-05 0 -0.014539157539595636 2.2296891781657066e-05 0 -0.01461644665627501 9.4157723051398133e-05 0 -0.014604337228367587 2.5990814344736057e-05 0 -0.014576744720637301 -3.4139528094519232e-05 0 -0.014604337228367587 2.5990814344736057e-05 0 -0.014650948221517112 -2.0097804817932785e-05 0 -0.014716912389181991 0.00012056267060684076 0 -0.014604337228367587 2.5990814344736057e-05 0 -0.014650948221517112 -2.0097804817932785e-05 0 -0.014716912389181991 0.00012056267060684076 0 -0.014839784447044188 0.00010931448621812871 0 -0.01478305469607368 0.00012221690755561437 0 -0.014839784447044188 0.00010931448621812871 0 -0.01478305469607368 0.00012221690755561437 0 -0.014828947520237641 0.00010668668334947588 0 -0.014734456501859226 0.00011076110623929005 0 -0.014733448352936723 4.5898226304784421e-05 0 -0.014716912389181991 0.00012056267060684076 0 -0.014750254821052385 0.00014172734063033521 0 -0.01478305469607368 0.00012221690755561437 0 -0.014808565038733779 0.00011401384063385737 0 -0.01478305469607368 0.00012221690755561437 0 -0.014828947520237641 0.00010668668334947588 0 -0.014808565038733779 0.00011401384063385737 0 -0.014871414748382078 7.9950527223694883e-05 0 -0.014828947520237641 0.00010668668334947588 0 -0.014871414748382078 7.9950527223694883e-05 0 -0.014858482337928278 8.595301508608594e-05 0 -0.014828947520237641 0.00010668668334947588 0 -0.014871414748382078 7.9950527223694883e-05 0 -0.014858482337928278 8.595301508608594e-05 0 -0.014889040714901294 7.2006018756283718e-05 0 -0.014839784447044188 0.00010931448621812871 0 -0.014858482337928278 8.595301508608594e-05 0 -0.014828947520237641 0.00010668668334947588 0 -0.014733448352936723 4.5898226304784421e-05 0 -0.014733399688159267 -1.5668906725127499e-05 0 -0.014839784447044188 0.00010931448621812871 0 -0.014858482337928278 8.595301508608594e-05 0 -0.014825478825316299 7.6405094237773277e-05 0 -0.014858482337928278 8.595301508608594e-05 0 -0.014889812473536197 7.1803731519220066e-05 0 -0.014889040714901294 7.2006018756283718e-05 0 -0.014903580250360008 8.9180407036108849e-05 0 -0.014733399688159267 -1.5668906725127499e-05 0 -0.014576744720637301 -3.4139528094519232e-05 0 -0.014650948221517112 -2.0097804817932785e-05 0 -0.014569021796951272 -0.00013380639873533095 0 -0.014889812473536197 7.1803731519220066e-05 0 -0.014896570053191789 5.9019099526902804e-05 0 -0.014889040714901294 7.2006018756283718e-05 0 -0.014896570053191789 5.9019099526902804e-05 0 -0.014889040714901294 7.2006018756283718e-05 0 -0.014930246802428212 4.7697988006501524e-05 0 -0.014930246802428212 4.7697988006501524e-05 0 -0.014964643131986543 2.2903138110239639e-05 0 -0.014925614742583013 4.5910218595608404e-05 0 -0.014871414748382078 7.9950527223694883e-05 0 -0.014930246802428212 4.7697988006501524e-05 0 -0.014925614742583013 4.5910218595608404e-05 0 -0.014871414748382078 7.9950527223694883e-05 0 -0.014889040714901294 7.2006018756283718e-05 0 -0.014930246802428212 4.7697988006501524e-05 0 -0.014964643131986543 2.2903138110239639e-05 0 -0.014999728356227419 1.2569184381622428e-08 0 -0.014999943101139737 3.4701607824266024e-08 0 -0.014930246802428212 4.7697988006501524e-05 0 -0.014964643131986543 2.2903138110239639e-05 0 -0.014999728356227419 1.2569184381622428e-08 0 -0.014930246802428212 4.7697988006501524e-05 0 -0.014999728356227419 1.2569184381622428e-08 0 -0.014902631118260743 3.2289091327013567e-05 0 -0.014999999277786443 1.2748738790106613e-10 0 -0.015000000020786714 8.7903605920255791e-12 0 -0.014999820140687434 9.5449974049428246e-08 0 -0.014896570053191789 5.9019099526902804e-05 0 -0.014930246802428212 4.7697988006501524e-05 0 -0.014902631118260743 3.2289091327013567e-05 0 -0.014999974816545891 6.3458317821776678e-09 0 -0.014953384763389935 1.6739382355417107e-05 0 -0.014884905373590879 9.3192775239058154e-05 0 -0.014952150632235362 3.8373229938462937e-05 0 -0.014906415103898155 6.3307387723594085e-05 0 -0.014884905373590879 9.3192775239058154e-05 0 -0.014952150632235362 3.8373229938462937e-05 0 -0.015011684151611039 5.0251910978201257e-05 0 -0.014952150632235362 3.8373229938462937e-05 0 -0.014906415103898155 6.3307387723594085e-05 0 -0.014925614742583013 4.5910218595608404e-05 0 -0.014865049419774177 8.3711889279967493e-05 0 -0.014906415103898155 6.3307387723594085e-05 0 -0.014925614742583013 4.5910218595608404e-05 0 -0.014865049419774177 8.3711889279967493e-05 0 -0.014871414748382078 7.9950527223694883e-05 0 -0.014925614742583013 4.5910218595608404e-05 0 -0.014964643131986543 2.2903138110239639e-05 0 -0.014925614742583013 4.5910218595608404e-05 0 -0.014999943101139737 3.4701607824266024e-08 0 -0.014952150632235362 3.8373229938462937e-05 0 -0.014925614742583013 4.5910218595608404e-05 0 -0.014999943101139737 3.4701607824266024e-08 0 -0.014952150632235362 3.8373229938462937e-05 0 -0.014999943101139737 3.4701607824266024e-08 0 -0.014999991436932628 -1.5124476974704192e-08 0 -0.015000046566622564 -2.9158618779639423e-08 0 -0.014889009176587472 7.4003938421625146e-05 0 -0.014999996683334115 8.5739681262077558e-10 0 -0.014998755923727789 1.5704756528074397e-06 0 -0.014999302293793737 1.1803439562532232e-06 0 -0.014952150632235362 3.8373229938462937e-05 0 -0.014999991436932628 -1.5124476974704192e-08 0 -0.015011684151611039 5.0251910978201257e-05 0 -0.014884905373590879 9.3192775239058154e-05 0 -0.014967840672165588 4.5052157085080507e-05 0 -0.014970220797987351 5.3099346948796977e-05 0 -0.014744416928753293 0.00016071875309739539 0 -0.01490339967100964 3.0076438686475927e-05 0 -0.014889009176587472 7.4003938421625146e-05 0 -0.01490339967100964 3.0076438686475927e-05 0 -0.014800744304495609 6.9046355871239638e-05 0 -0.014808653480927796 9.6457380565463462e-05 0 -0.014870087732072665 2.3818636151583781e-05 0 -0.014889009176587472 7.4003938421625146e-05 0 -0.014744416928753293 0.00016071875309739539 0 -0.014777083358761699 8.9244535951082439e-05 0 -0.014726250445992095 0.00012179331811263717 0 -0.014761386929250714 0.0001456086737320471 0 -0.014777083358761699 8.9244535951082439e-05 0 -0.014726250445992095 0.00012179331811263717 0 -0.014711911531920363 6.5704570035535925e-05 0 -0.014683772780530903 0.00010088377861304367 0 -0.014726250445992095 0.00012179331811263717 0 -0.014711911531920363 6.5704570035535925e-05 0 -0.014777083358761699 8.9244535951082439e-05 0 -0.014711911531920363 6.5704570035535925e-05 0 -0.014833628169750205 1.9080625338308774e-05 0 -0.014999996683334115 8.5739681262077558e-10 0 -0.014999302293793737 1.1803439562532232e-06 0 -0.015000001360790027 3.1434889153930735e-10 0 -0.01490339967100964 3.0076438686475927e-05 0 -0.01500009507032928 -7.3316231613602152e-08 0 -0.014988223379702782 8.8907101623813102e-06 0 -0.014999988935202274 3.0481397454619367e-09 0 -0.014998427396049552 4.1799458371309629e-06 0 -0.01490339967100964 3.0076438686475927e-05 0 -0.014906822997314838 2.1070826425703698e-05 0 -0.014833628169750205 1.9080625338308774e-05 0 -0.014960165593211682 3.7385544841621169e-05 0 -0.014999675700650767 -7.4904495163390858e-08 0 -0.014999988935202274 3.0481397454619367e-09 0 -0.014998427396049552 4.1799458371309629e-06 0 -0.015000008643757655 -1.9989304179245766e-09 0 -0.014906822997314838 2.1070826425703698e-05 0 -0.01499996534347592 -1.2868147767963293e-09 0 -0.014960165593211682 3.7385544841621169e-05 0 -0.014999675700650767 -7.4904495163390858e-08 0 -0.015000032165159966 4.2130214422900253e-08 0 -0.014925563062419659 0.00010440185194427358 0 -0.014846971984902811 8.8769904973375172e-05 0 -0.01483219311587893 0.00015725025061340389 0 -0.014960165593211682 3.7385544841621169e-05 0 -0.014925563062419659 0.00010440185194427358 0 -0.014846971984902811 8.8769904973375172e-05 0 -0.014833628169750205 1.9080625338308774e-05 0 -0.014960165593211682 3.7385544841621169e-05 0 -0.014846971984902811 8.8769904973375172e-05 0 -0.014777083358761699 8.9244535951082439e-05 0 -0.014833628169750205 1.9080625338308774e-05 0 -0.014846971984902811 8.8769904973375172e-05 0 -0.014777083358761699 8.9244535951082439e-05 0 -0.014846971984902811 8.8769904973375172e-05 0 -0.014761386929250714 0.0001456086737320471 0 -0.014846971984902811 8.8769904973375172e-05 0 -0.01483219311587893 0.00015725025061340389 0 -0.014761386929250714 0.0001456086737320471 0 -0.01483219311587893 0.00015725025061340389 0 -0.014753277386529965 0.00022819322323295959 0 -0.014761386929250714 0.0001456086737320471 0 -0.014925563062419659 0.00010440185194427358 0 -0.01483219311587893 0.00015725025061340389 0 -0.014909639451560854 0.00017010493008799704 0 -0.01483219311587893 0.00015725025061340389 0 -0.014909639451560854 0.00017010493008799704 0 -0.014822131082528478 0.00022171595081479413 0 -0.014822131082528478 0.00022171595081479413 0 -0.014892358564260471 0.00024727979284899413 0 -0.014770798087672244 0.00031065042956770187 0 -0.014909639451560854 0.00017010493008799704 0 -0.014822131082528478 0.00022171595081479413 0 -0.014892358564260471 0.00024727979284899413 0 -0.014822131082528478 0.00022171595081479413 0 -0.014753277386529965 0.00022819322323295959 0 -0.014770798087672244 0.00031065042956770187 0 -0.01483219311587893 0.00015725025061340389 0 -0.014822131082528478 0.00022171595081479413 0 -0.014753277386529965 0.00022819322323295959 0 -0.014753277386529965 0.00022819322323295959 0 -0.014691192675298054 0.00021617134771704038 0 -0.014658222461229293 0.00033038837118455736 0 -0.014478551368338212 0.00022295368038783181 0 -0.014502618579738523 0.00035873676825528259 0 -0.014428099626544486 0.00029250019690927465 0 -0.014351513375740099 0.00029405529749341715 0 -0.014428099626544486 0.00029250019690927465 0 -0.014387380356431558 0.00019410525125645078 0 -0.014478551368338212 0.00022295368038783181 0 -0.014428099626544486 0.00029250019690927465 0 -0.014387380356431558 0.00019410525125645078 0 -0.014351513375740099 0.00029405529749341715 0 -0.014428099626544486 0.00029250019690927465 0 -0.014418569543814314 0.00036098065912278131 0 -0.014502618579738523 0.00035873676825528259 0 -0.014397455809420721 0.00046678837746873567 0 -0.014418569543814314 0.00036098065912278131 0 -0.014397455809420721 0.00046678837746873567 0 -0.014351513375740099 0.00029405529749341715 0 -0.014418569543814314 0.00036098065912278131 0 -0.014694156281311503 0.00024978387665700291 0 -0.014744416928753293 0.00016071875309739539 0 -0.014502618579738523 0.00035873676825528259 0 -0.014428099626544486 0.00029250019690927465 0 -0.014418569543814314 0.00036098065912278131 0 -0.014753277386529965 0.00022819322323295959 0 -0.014691192675298054 0.00021617134771704038 0 -0.014761386929250714 0.0001456086737320471 0 -0.014683772780530903 0.00010088377861304367 0 -0.014726250445992095 0.00012179331811263717 0 -0.014691192675298054 0.00021617134771704038 0 -0.014726250445992095 0.00012179331811263717 0 -0.014691192675298054 0.00021617134771704038 0 -0.014761386929250714 0.0001456086737320471 0 -0.014744416928753293 0.00016071875309739539 0 -0.01450323023948662 0.00027662282060939562 0 -0.015071255084003313 1.5575520262017016e-05 0 -0.015045108290838145 2.3816694285207078e-05 0 -0.015163332084945014 8.472192678960592e-05 0 -0.01511288169494771 9.0078934371928693e-05 0 -0.015083674472740933 3.8379691215618535e-05 0 -0.015163332084945014 8.472192678960592e-05 0 -0.01511288169494771 9.0078934371928693e-05 0 -0.015137689243611696 0.00013292091061836646 0 -0.015000711018720679 4.0938850349936204e-07 0 -0.015000000649093154 2.8139250308440298e-10 0 -0.015000000888365847 5.6504974676150281e-11 0 -0.015000711018720679 4.0938850349936204e-07 0 -0.015000195238885058 2.2870829502800195e-07 0 -0.015000000649093154 2.8139250308440298e-10 0 -0.015000195238885058 2.2870829502800195e-07 0 -0.015000000649093154 2.8139250308440298e-10 0 -0.014999999919982864 5.6037490968875848e-12 0 -0.01511288169494771 9.0078934371928693e-05 0 -0.015083674472740933 3.8379691215618535e-05 0 -0.01506651106387745 0.00010291307443669289 0 -0.015083674472740933 3.8379691215618535e-05 0 -0.01506651106387745 0.00010291307443669289 0 -0.015025738567853763 4.3278716395405212e-05 0 -0.01506651106387745 0.00010291307443669289 0 -0.015025738567853763 4.3278716395405212e-05 0 -0.014993521584466107 6.8911312004192303e-05 0 -0.01506651106387745 0.00010291307443669289 0 -0.014993521584466107 6.8911312004192303e-05 0 -0.014978150316222573 0.0001233422436312938 0 -0.015045108290838145 2.3816694285207078e-05 0 -0.015000004574085131 -4.1569894381974373e-10 0 -0.015083674472740933 3.8379691215618535e-05 0 -0.015025738567853763 4.3278716395405212e-05 0 -0.01500002488045976 -4.4361023865623868e-09 0 -0.015025738567853763 4.3278716395405212e-05 0 -0.01499348189613085 2.5892971372330528e-05 0 -0.014993521584466107 6.8911312004192303e-05 0 -0.015025738567853763 4.3278716395405212e-05 0 -0.01500002488045976 -4.4361023865623868e-09 0 -0.01499348189613085 2.5892971372330528e-05 0 -0.014960165593211682 3.7385544841621169e-05 0 -0.01499348189613085 2.5892971372330528e-05 0 -0.014993521584466107 6.8911312004192303e-05 0 -0.01500002488045976 -4.4361023865623868e-09 0 -0.015000032165159966 4.2130214422900253e-08 0 -0.01499348189613085 2.5892971372330528e-05 0 -0.014960165593211682 3.7385544841621169e-05 0 -0.015000032165159966 4.2130214422900253e-08 0 -0.01499348189613085 2.5892971372330528e-05 0 -0.014925563062419659 0.00010440185194427358 0 -0.014993521584466107 6.8911312004192303e-05 0 -0.014978150316222573 0.0001233422436312938 0 -0.014960165593211682 3.7385544841621169e-05 0 -0.014925563062419659 0.00010440185194427358 0 -0.014993521584466107 6.8911312004192303e-05 0 -0.014925563062419659 0.00010440185194427358 0 -0.014909639451560854 0.00017010493008799704 0 -0.014978150316222573 0.0001233422436312938 0 -0.014909639451560854 0.00017010493008799704 0 -0.014978150316222573 0.0001233422436312938 0 -0.014997305510114167 0.00018030354942207667 0 -0.014892358564260471 0.00024727979284899413 0 -0.014997305510114167 0.00018030354942207667 0 -0.014956616049319523 0.00027982184168494275 0 -0.014909639451560854 0.00017010493008799704 0 -0.014892358564260471 0.00024727979284899413 0 -0.014997305510114167 0.00018030354942207667 0 -0.014997305510114167 0.00018030354942207667 0 -0.015067645188127645 0.00021914168439925071 0 -0.015027837975596838 0.00027721739559258561 0 -0.014997305510114167 0.00018030354942207667 0 -0.015027837975596838 0.00027721739559258561 0 -0.014956616049319523 0.00027982184168494275 0 -0.01506651106387745 0.00010291307443669289 0 -0.014978150316222573 0.0001233422436312938 0 -0.014997305510114167 0.00018030354942207667 0 -0.01506651106387745 0.00010291307443669289 0 -0.014997305510114167 0.00018030354942207667 0 -0.015095225072450195 0.00016191276031711532 0 -0.01506651106387745 0.00010291307443669289 0 -0.015095225072450195 0.00016191276031711532 0 -0.015163414743053126 0.00014705504333217015 0 -0.01511288169494771 9.0078934371928693e-05 0 -0.01506651106387745 0.00010291307443669289 0 -0.015137689243611696 0.00013292091061836646 0 -0.014997305510114167 0.00018030354942207667 0 -0.015095225072450195 0.00016191276031711532 0 -0.015067645188127645 0.00021914168439925071 0 -0.015077781380271386 0.00011446556341450435 0 -0.015148056175594019 9.2148687158831842e-05 0 -0.015067645188127645 0.00021914168439925071 0 -0.015088071923666374 0.00026696748283784735 0 -0.015027837975596838 0.00027721739559258561 0 -0.015067645188127645 0.00021914168439925071 0 -0.015088071923666374 0.00026696748283784735 0 -0.015125689086799071 0.0002181891385828634 0 -0.015088071923666374 0.00026696748283784735 0 -0.015125689086799071 0.0002181891385828634 0 -0.015141552843545543 0.00028400238791520684 0 -0.015095225072450195 0.00016191276031711532 0 -0.015067645188127645 0.00021914168439925071 0 -0.015125689086799071 0.0002181891385828634 0 -0.013780947833531145 -0.00011291791744565485 0 -0.014383984061330742 -0.00024582623137626893 0 -0.015125689086799071 0.0002181891385828634 0 -0.015141552843545543 0.00028400238791520684 0 -0.015191672300123395 0.00016483211854055537 0 -0.012466958329125278 -0.00038852061490707133 0 -0.012942108196431204 -0.0013281909684752346 0 -0.013113921284944399 -0.00065752105641890383 0 -0.015125689086799071 0.0002181891385828634 0 -0.015154476650547973 0.0001487766045068313 0 -0.015191672300123395 0.00016483211854055537 0 -0.015148056175594019 9.2148687158831842e-05 0 -0.014383984061330742 -0.00024582623137626893 0 -0.015121565675134525 0.00021958710934599676 0 -0.015148056175594019 9.2148687158831842e-05 0 -0.015095225072450195 0.00016191276031711532 0 -0.015125689086799071 0.0002181891385828634 0 -0.015163414743053126 0.00014705504333217015 0 -0.015071255084003313 1.5575520262017016e-05 0 -0.015148056175594019 9.2148687158831842e-05 0 -0.015128968359754805 1.9687021486789842e-05 0 -0.015173612700889424 -7.2665427577315388e-05 0 -0.015129950058613272 -5.5494359676012777e-05 0 -0.015173612700889424 -7.2665427577315388e-05 0 -0.015129950058613272 -5.5494359676012777e-05 0 -0.015115292369993009 -9.8085327328055157e-05 0 -0.012544835962411469 -0.00014072549828580554 0 -0.01241786845195156 -0.00034979586612673063 0 -0.011979287587809161 -0.00021057380309972616 0 -0.012536358301948583 -0.00020321595529925103 0 -0.012544835962411469 -0.00014072549828580554 0 -0.01241786845195156 -0.00034979586612673063 0 -0.012544835962411469 -0.00014072549828580554 0 -0.012807288322356379 -0.00034914914032638467 0 -0.013162135983288737 -0.00019470503531482237 0 -0.012536358301948583 -0.00020321595529925103 0 -0.012544835962411469 -0.00014072549828580554 0 -0.012466958329125278 -0.00038852061490707133 0 -0.012544835962411469 -0.00014072549828580554 0 -0.012807288322356379 -0.00034914914032638467 0 -0.012466958329125278 -0.00038852061490707133 0 -0.012807288322356379 -0.00034914914032638467 0 -0.012466958329125278 -0.00038852061490707133 0 -0.013113921284944399 -0.00065752105641890383 0 -0.013780947833531145 -0.00011291791744565485 0 -0.01388232595162351 0.0001040200218674122 0 -0.015088071923666374 0.00026696748283784735 0 -0.015141552843545543 0.00028400238791520684 0 -0.015055996313080706 0.00034324238980461275 0 -0.015141552843545543 0.00028400238791520684 0 -0.015055996313080706 0.00034324238980461275 0 -0.015080514711874085 0.00043729149717132285 0 -0.015088071923666374 0.00026696748283784735 0 -0.015055996313080706 0.00034324238980461275 0 -0.015027837975596838 0.00027721739559258561 0 -0.012536358301948583 -0.00020321595529925103 0 -0.012603797924205025 -0.00020588326554625051 0 -0.01241786845195156 -0.00034979586612673063 0 -0.012536358301948583 -0.00020321595529925103 0 -0.012466958329125278 -0.00038852061490707133 0 -0.012603797924205025 -0.00020588326554625051 0 -0.015004688457495407 0.0004367938430888703 0 -0.014978983412641353 0.0003606565117204052 0 -0.01490308932748949 0.00047711494381331542 0 -0.015080514711874085 0.00043729149717132285 0 -0.015004688457495407 0.0004367938430888703 0 -0.01498135887607795 0.00053067277740819472 0 -0.015055996313080706 0.00034324238980461275 0 -0.015004688457495407 0.0004367938430888703 0 -0.014978983412641353 0.0003606565117204052 0 -0.015055996313080706 0.00034324238980461275 0 -0.015080514711874085 0.00043729149717132285 0 -0.015004688457495407 0.0004367938430888703 0 -0.015055996313080706 0.00034324238980461275 0 -0.015027837975596838 0.00027721739559258561 0 -0.014978983412641353 0.0003606565117204052 0 -0.015027837975596838 0.00027721739559258561 0 -0.014978983412641353 0.0003606565117204052 0 -0.014956616049319523 0.00027982184168494275 0 -0.014978983412641353 0.0003606565117204052 0 -0.014956616049319523 0.00027982184168494275 0 -0.01488438596074212 0.00034676851928735862 0 -0.014892358564260471 0.00024727979284899413 0 -0.014956616049319523 0.00027982184168494275 0 -0.01488438596074212 0.00034676851928735862 0 -0.014978983412641353 0.0003606565117204052 0 -0.01488438596074212 0.00034676851928735862 0 -0.01490308932748949 0.00047711494381331542 0 -0.01488438596074212 0.00034676851928735862 0 -0.01490308932748949 0.00047711494381331542 0 -0.014806475277949319 0.00040893105104064162 0 -0.01490308932748949 0.00047711494381331542 0 -0.014851803548913465 0.00064034538514153071 0 -0.014746601602982252 0.00055150942302243625 0 -0.01490308932748949 0.00047711494381331542 0 -0.014930269107510391 0.0005906022432751437 0 -0.014851803548913465 0.00064034538514153071 0 -0.01490308932748949 0.00047711494381331542 0 -0.014930269107510391 0.0005906022432751437 0 -0.01498135887607795 0.00053067277740819472 0 -0.014851803548913465 0.00064034538514153071 0 -0.014921445232524755 0.00067392615234132048 0 -0.014906543936846605 0.00078791453975720781 0 -0.014851803548913465 0.00064034538514153071 0 -0.014726594398470438 0.00079380033378442804 0 -0.014906543936846605 0.00078791453975720781 0 -0.014930269107510391 0.0005906022432751437 0 -0.014851803548913465 0.00064034538514153071 0 -0.014921445232524755 0.00067392615234132048 0 -0.01366935031908394 -4.7830506688659557e-05 0 -0.010229521361663637 -0.00026186853675163913 0 -0.014921445232524755 0.00067392615234132048 0 -0.015004096966816417 0.00063706504128765344 0 -0.014906543936846605 0.00078791453975720781 0 -0.012898799072055059 -0.00064435537870462885 0 -0.012715803748484078 -0.00079738987700807805 0 -0.012788078247555621 -0.0010402880758402077 0 -0.014930269107510391 0.0005906022432751437 0 -0.014921445232524755 0.00067392615234132048 0 -0.015004096966816417 0.00063706504128765344 0 -0.01366935031908394 -4.7830506688659557e-05 0 -0.010634197723661585 0.00058014986629464351 0 -0.012898799072055059 -0.00064435537870462885 0 -0.012642462280724033 -0.00058768900264645984 0 -0.012715803748484078 -0.00079738987700807805 0 -0.01388232595162351 0.0001040200218674122 0 -0.01366935031908394 -4.7830506688659557e-05 0 -0.015080514711874085 0.00043729149717132285 0 -0.014994154006590191 0.00060206408308942903 0 -0.01498135887607795 0.00053067277740819472 0 -0.014930269107510391 0.0005906022432751437 0 -0.015004096966816417 0.00063706504128765344 0 -0.01498135887607795 0.00053067277740819472 0 -0.01366935031908394 -4.7830506688659557e-05 0 -0.014717807676132047 0.0007991596860540041 0 -0.015004688457495407 0.0004367938430888703 0 -0.01490308932748949 0.00047711494381331542 0 -0.01498135887607795 0.00053067277740819472 0 -0.012603797924205025 -0.00020588326554625051 0 -0.012507805462970738 -0.00049659801374458447 0 -0.012642462280724033 -0.00058768900264645984 0 -0.012603797924205025 -0.00020588326554625051 0 -0.012507805462970738 -0.00049659801374458447 0 -0.01241786845195156 -0.00034979586612673063 0 -0.012603797924205025 -0.00020588326554625051 0 -0.012898799072055059 -0.00064435537870462885 0 -0.012642462280724033 -0.00058768900264645984 0 -0.012642462280724033 -0.00058768900264645984 0 -0.012603304953479231 -0.00077598590762954984 0 -0.012715803748484078 -0.00079738987700807805 0 -0.012603304953479231 -0.00077598590762954984 0 -0.012715803748484078 -0.00079738987700807805 0 -0.012646467834175079 -0.00094017859052660652 0 -0.012603304953479231 -0.00077598590762954984 0 -0.012414508127792672 -0.00088477326066746141 0 -0.012646467834175079 -0.00094017859052660652 0 -0.012603304953479231 -0.00077598590762954984 0 -0.01249178016306139 -0.00068604818076712455 0 -0.012414508127792672 -0.00088477326066746141 0 -0.012642462280724033 -0.00058768900264645984 0 -0.012603304953479231 -0.00077598590762954984 0 -0.01249178016306139 -0.00068604818076712455 0 -0.012507805462970738 -0.00049659801374458447 0 -0.012642462280724033 -0.00058768900264645984 0 -0.01249178016306139 -0.00068604818076712455 0 -0.012319027752174364 -0.00069496560060793282 0 -0.012414508127792672 -0.00088477326066746141 0 -0.012085563447807144 -0.00094169387865936603 0 -0.012507805462970738 -0.00049659801374458447 0 -0.01249178016306139 -0.00068604818076712455 0 -0.012319027752174364 -0.00069496560060793282 0 -0.01249178016306139 -0.00068604818076712455 0 -0.012319027752174364 -0.00069496560060793282 0 -0.012414508127792672 -0.00088477326066746141 0 -0.012507805462970738 -0.00049659801374458447 0 -0.012319027752174364 -0.00069496560060793282 0 -0.01241786845195156 -0.00034979586612673063 0 -0.012319027752174364 -0.00069496560060793282 0 -0.012195300234866589 -0.00052318972944026033 0 -0.01241786845195156 -0.00034979586612673063 0 -0.014526087954651637 0.00025660142489284196 0 -0.01456835455291969 0.00046454619416443055 0 -0.014256903630982561 0.00019371350222851006 0 -0.014385528355381455 0.00015033027674373975 0 -0.014565590301489875 0.00047064915674663619 0 -0.01444076821838358 8.2434043834968767e-05 0 -0.014455771586534815 0.0001377080541107685 0 -0.014256903630982561 0.00019371350222851006 0 -0.014455771586534815 0.0001377080541107685 0 -0.014256903630982561 0.00019371350222851006 0 -0.014433146258890894 0.00018525379332538804 0 -0.014256903630982561 0.00019371350222851006 0 -0.014433146258890894 0.00018525379332538804 0 -0.014387380356431558 0.00019410525125645078 0 -0.014478551368338212 0.00022295368038783181 0 -0.014433146258890894 0.00018525379332538804 0 -0.014387380356431558 0.00019410525125645078 0 -0.014256903630982561 0.00019371350222851006 0 -0.014387380356431558 0.00019410525125645078 0 -0.014385528355381455 0.00015033027674373975 0 -0.014351513375740099 0.00029405529749341715 0 -0.014387380356431558 0.00019410525125645078 0 -0.014385528355381455 0.00015033027674373975 0 -0.01450323023948662 0.00027662282060939562 0 -0.014526087954651637 0.00025660142489284196 0 -0.014658222461229293 0.00033038837118455736 0 -0.014770798087672244 0.00031065042956770187 0 -0.014698223984791522 0.00039571091058206962 0 -0.014753277386529965 0.00022819322323295959 0 -0.014658222461229293 0.00033038837118455736 0 -0.014770798087672244 0.00031065042956770187 0 -0.01488438596074212 0.00034676851928735862 0 -0.014770798087672244 0.00031065042956770187 0 -0.014806475277949319 0.00040893105104064162 0 -0.014892358564260471 0.00024727979284899413 0 -0.01488438596074212 0.00034676851928735862 0 -0.014770798087672244 0.00031065042956770187 0 -0.014806475277949319 0.00040893105104064162 0 -0.014698223984791522 0.00039571091058206962 0 -0.014746601602982252 0.00055150942302243625 0 -0.014770798087672244 0.00031065042956770187 0 -0.014806475277949319 0.00040893105104064162 0 -0.014698223984791522 0.00039571091058206962 0 -0.014658222461229293 0.00033038837118455736 0 -0.014698223984791522 0.00039571091058206962 0 -0.014565590301489875 0.00047064915674663619 0 -0.014565590301489875 0.00047064915674663619 0 -0.014746601602982252 0.00055150942302243625 0 -0.014625615321438202 0.00068628142676912846 0 -0.014698223984791522 0.00039571091058206962 0 -0.014565590301489875 0.00047064915674663619 0 -0.014746601602982252 0.00055150942302243625 0 -0.01490308932748949 0.00047711494381331542 0 -0.014806475277949319 0.00040893105104064162 0 -0.014746601602982252 0.00055150942302243625 0 -0.014851803548913465 0.00064034538514153071 0 -0.014746601602982252 0.00055150942302243625 0 -0.014726594398470438 0.00079380033378442804 0 -0.014746601602982252 0.00055150942302243625 0 -0.014625615321438202 0.00068628142676912846 0 -0.014726594398470438 0.00079380033378442804 0 -0.014565590301489875 0.00047064915674663619 0 -0.014625615321438202 0.00068628142676912846 0 -0.014418193382991678 0.00088951718271520271 0 -0.013094153757755727 0.0008371186828958605 0 -0.012826223637396566 0.00069904026221239953 0 -0.014625615321438202 0.00068628142676912846 0 -0.014418193382991678 0.00088951718271520271 0 -0.014726594398470438 0.00079380033378442804 0 -0.014418193382991678 0.00088951718271520271 0 -0.014290761557177029 0.00057639383061409478 0 -0.013983305844767584 0.00071131446084325158 0 -0.014256903630982561 0.00019371350222851006 0 -0.014565590301489875 0.00047064915674663619 0 -0.014290761557177029 0.00057639383061409478 0 -0.014565590301489875 0.00047064915674663619 0 -0.014418193382991678 0.00088951718271520271 0 -0.014290761557177029 0.00057639383061409478 0 -0.014256903630982561 0.00019371350222851006 0 -0.014290761557177029 0.00057639383061409478 0 -0.013983305844767584 0.00071131446084325158 0 -0.01444076821838358 8.2434043834968767e-05 0 -0.014451460000142103 -1.1889030568219276e-05 0 -0.014256903630982561 0.00019371350222851006 0 -0.014199968578869166 0.00034965736936268846 0 -0.014179391074689558 0.00026137997640942928 0 -0.01363597002899941 0.00088043378137260216 0 -0.014256903630982561 0.00019371350222851006 0 -0.013983305844767584 0.00071131446084325158 0 -0.014418193382991678 0.00088951718271520271 0 -0.013983305844767584 0.00071131446084325158 0 -0.013616137260265034 0.00085123632559265386 0 -0.01363597002899941 0.00088043378137260216 0 -0.013983305844767584 0.00071131446084325158 0 -0.013616137260265034 0.00085123632559265386 0 -0.011917725950401116 0.00084218360948306453 0 -0.013616137260265034 0.00085123632559265386 0 -0.013301161483400343 0.00042995246264150268 0 -0.013094153757755727 0.0008371186828958605 0 -0.013596452038090292 0.00086823597828693136 0 -0.013301161483400343 0.00042995246264150268 0 -0.012437230024137351 0.00012988904431853574 0 -0.012725084787462855 -0.00062506238516567942 0 -0.013582236064858023 0.00017732699305729745 0 -0.013616137260265034 0.00085123632559265386 0 -0.013301161483400343 0.00042995246264150268 0 -0.013301161483400343 0.00042995246264150268 0 -0.013236949795227727 -0.00075911694257167978 0 -0.012725084787462855 -0.00062506238516567942 0 -0.013393679808095929 0.00037197692336467253 0 -0.012309430484228846 -0.00056610283913648531 0 -0.013582236064858023 0.00017732699305729745 0 -0.013301161483400343 0.00042995246264150268 0 -0.01337600177618126 -0.0002599935109191744 0 -0.011917725950401116 0.00084218360948306453 0 -0.013301161483400343 0.00042995246264150268 0 -0.012437230024137351 0.00012988904431853574 0 -0.011917725950401116 0.00084218360948306453 0 -0.012437230024137351 0.00012988904431853574 0 -0.01173282470985175 -0.00024587539897358724 0 -0.012437230024137351 0.00012988904431853574 0 -0.012242059282635772 -0.00036900187392005735 0 -0.012725084787462855 -0.00062506238516567942 0 -0.012437230024137351 0.00012988904431853574 0 -0.01173282470985175 -0.00024587539897358724 0 -0.012242059282635772 -0.00036900187392005735 0 -0.012093843404002812 -0.00076264461856020256 0 -0.011885547357935171 -0.0015245071531796175 0 -0.01096088309946411 -0.00092952485774521832 0 -0.01173282470985175 -0.00024587539897358724 0 -0.012093843404002812 -0.00076264461856020256 0 -0.01096088309946411 -0.00092952485774521832 0 -0.012093843404002812 -0.00076264461856020256 0 -0.013050899512189833 -0.00088164590948969169 0 -0.011885547357935171 -0.0015245071531796175 0 -0.01173282470985175 -0.00024587539897358724 0 -0.012242059282635772 -0.00036900187392005735 0 -0.012093843404002812 -0.00076264461856020256 0 -0.012242059282635772 -0.00036900187392005735 0 -0.012093843404002812 -0.00076264461856020256 0 -0.012725084787462855 -0.00062506238516567942 0 -0.011958721769789293 -0.00096027067262577002 0 -0.011240767722012896 -0.0017146573397907932 0 -0.013236949795227727 -0.00075911694257167978 0 -0.012725084787462855 -0.00062506238516567942 0 -0.013054789424611688 -0.00088199957602797885 0 -0.012093843404002812 -0.00076264461856020256 0 -0.012725084787462855 -0.00062506238516567942 0 -0.013050899512189833 -0.00088164590948969169 0 -0.012473436542065576 -0.001028356091442059 0 -0.011958721769789293 -0.00096027067262577002 0 -0.010837169769560789 -0.0017070696490847405 0 -0.010872335273240477 -0.001737889086726045 0 -0.010772383263932686 -0.0018317139575426433 0 -0.011784901849211778 -0.0010048117345271782 0 -0.011836726887780235 -0.0009698949885774584 0 -0.011779268085758183 -0.00092596348136196659 0 -0.011958721769789293 -0.00096027067262577002 0 -0.0113576076835663 -0.00086698669424777205 0 -0.012309430484228846 -0.00056610283913648531 0 -0.011958721769789293 -0.00096027067262577002 0 -0.011700693003763432 -0.00029941511113830318 0 -0.011725416199263219 -0.00032243982982449525 0 -0.011758311208719379 -0.00026977352835116589 0 -0.012309430484228846 -0.00056610283913648531 0 -0.0113576076835663 -0.00086698669424777205 0 -0.010837169769560789 -0.0017070696490847405 0 -0.010772383263932686 -0.0018317139575426433 0 -0.01064150738374252 -0.0018625429789466256 0 -0.010872335273240477 -0.001737889086726045 0 -0.010772383263932686 -0.0018317139575426433 0 -0.01088556963297644 -0.0020432597542788867 0 -0.0113576076835663 -0.00086698669424777205 0 -0.010526796963532427 -0.0013710938311985699 0 -0.01064150738374252 -0.0018625429789466256 0 -0.010609619335416275 -0.0019638302904241185 0 -0.010618810662295405 -0.001980289873829864 0 -0.010772383263932686 -0.0018317139575426433 0 -0.01064150738374252 -0.0018625429789466256 0 -0.010704921906911032 -0.001992604742559724 0 -0.01064150738374252 -0.0018625429789466256 0 -0.010704921906911032 -0.001992604742559724 0 -0.010609619335416275 -0.0019638302904241185 0 -0.010704921906911032 -0.001992604742559724 0 -0.010576600714823674 -0.0020632817995155975 0 -0.010698589337891664 -0.0021831169847319832 0 -0.010609619335416275 -0.0019638302904241185 0 -0.010576600714823674 -0.0020632817995155975 0 -0.010559108543692703 -0.0020103871261182918 0 -0.010704921906911032 -0.001992604742559724 0 -0.010609619335416275 -0.0019638302904241185 0 -0.010576600714823674 -0.0020632817995155975 0 -0.010704921906911032 -0.001992604742559724 0 -0.01088556963297644 -0.0020432597542788867 0 -0.010698589337891664 -0.0021831169847319832 0 -0.010772383263932686 -0.0018317139575426433 0 -0.010704921906911032 -0.001992604742559724 0 -0.01088556963297644 -0.0020432597542788867 0 -0.0087437366260355275 -0.00031864802065326056 0 -0.0082626253529727734 -0.00098777000493117223 0 -0.010252599543888919 -0.0022064337578837122 0 -0.0082626253529727734 -0.00098777000493117223 0 -0.0077313601576096914 -0.00039234508721192144 0 -0.007581753284774043 -0.0016623641721313779 0 -0.0087437366260355275 -0.00031864802065326056 0 -0.0082626253529727734 -0.00098777000493117223 0 -0.0077313601576096914 -0.00039234508721192144 0 -0.010421354718864444 -0.0020737174312229203 0 -0.010455154821233475 -0.0020738861475874714 0 -0.010618810662295405 -0.001980289873829864 0 -0.010377624469639586 -0.0020319085776564498 0 -0.010421354718864444 -0.0020737174312229203 0 -0.010252599543888919 -0.0022064337578837122 0 -0.0096302852135739473 -0.0012562412711028125 0 -0.010199084936656076 -0.0021568876164971772 0 -0.010576600714823674 -0.0020632817995155975 0 -0.010517687236553467 -0.0020748944710177355 0 -0.010478238333029671 -0.0021511377030664935 0 -0.010517687236553467 -0.0020748944710177355 0 -0.010455154821233475 -0.0020738861475874714 0 -0.010478238333029671 -0.0021511377030664935 0 -0.010517687236553467 -0.0020748944710177355 0 -0.010455154821233475 -0.0020738861475874714 0 -0.010559108543692703 -0.0020103871261182918 0 -0.010576600714823674 -0.0020632817995155975 0 -0.010517687236553467 -0.0020748944710177355 0 -0.010559108543692703 -0.0020103871261182918 0 -0.010609619335416275 -0.0019638302904241185 0 -0.010559108543692703 -0.0020103871261182918 0 -0.010618810662295405 -0.001980289873829864 0 -0.010455154821233475 -0.0020738861475874714 0 -0.010559108543692703 -0.0020103871261182918 0 -0.010618810662295405 -0.001980289873829864 0 -0.010377624469639586 -0.0020319085776564498 0 -0.010421354718864444 -0.0020737174312229203 0 -0.010618810662295405 -0.001980289873829864 0 -0.010377624469639586 -0.0020319085776564498 0 -0.010618810662295405 -0.001980289873829864 0 -0.01069237437994195 -0.0015147019169686807 0 -0.011885547357935171 -0.0015245071531796175 0 -0.010618810662295405 -0.001980289873829864 0 -0.01069237437994195 -0.0015147019169686807 0 -0.011240767722012896 -0.0017146573397907932 0 -0.010719775805571293 -0.0019494558840982652 0 -0.011885547357935171 -0.0015245071531796175 0 -0.01069237437994195 -0.0015147019169686807 0 -0.01096088309946411 -0.00092952485774521832 0 -0.01069237437994195 -0.0015147019169686807 0 -0.010373859379322201 -0.0012382807909312873 0 -0.01096088309946411 -0.00092952485774521832 0 -0.010377624469639586 -0.0020319085776564498 0 -0.01069237437994195 -0.0015147019169686807 0 -0.010373859379322201 -0.0012382807909312873 0 -0.010377624469639586 -0.0020319085776564498 0 -0.010373859379322201 -0.0012382807909312873 0 -0.0096747178650790355 -0.00097670593200724722 0 -0.0096302852135739473 -0.0012562412711028125 0 -0.0083955682697032068 0.00010639125152169668 0 -0.0087437366260355275 -0.00031864802065326056 0 -0.0078161244228639095 0.00083709508274943105 0 -0.0077313601576096914 -0.00039234508721192144 0 -0.010227705260277388 -0.00059299813063989719 0 -0.0097458832796685491 -9.4206978028662044e-05 0 -0.0096747178650790355 -0.00097670593200724722 0 -0.010373859379322201 -0.0012382807909312873 0 -0.010227705260277388 -0.00059299813063989719 0 -0.0096747178650790355 -0.00097670593200724722 0 -0.010373859379322201 -0.0012382807909312873 0 -0.010227705260277388 -0.00059299813063989719 0 -0.01096088309946411 -0.00092952485774521832 0 -0.010227705260277388 -0.00059299813063989719 0 -0.01096088309946411 -0.00092952485774521832 0 -0.010867196991132333 -0.00025107224834824656 0 -0.01173282470985175 -0.00024587539897358724 0 -0.01096088309946411 -0.00092952485774521832 0 -0.010867196991132333 -0.00025107224834824656 0 -0.011917725950401116 0.00084218360948306453 0 -0.01173282470985175 -0.00024587539897358724 0 -0.010867196991132333 -0.00025107224834824656 0 -0.011917725950401116 0.00084218360948306453 0 -0.010867196991132333 -0.00025107224834824656 0 -0.010367280071472845 0.00055343913497373962 0 -0.010227705260277388 -0.00059299813063989719 0 -0.0097458832796685491 -9.4206978028662044e-05 0 -0.010367280071472845 0.00055343913497373962 0 -0.010227705260277388 -0.00059299813063989719 0 -0.010867196991132333 -0.00025107224834824656 0 -0.010367280071472845 0.00055343913497373962 0 -0.012826223637396566 0.00069904026221239953 0 -0.010634197723661585 0.00058014986629464351 0 -0.0097458832796685491 -9.4206978028662044e-05 0 -0.010367280071472845 0.00055343913497373962 0 -0.0089614672877788258 0.00029253051247569019 0 -0.0097458832796685491 -9.4206978028662044e-05 0 -0.0089614672877788258 0.00029253051247569019 0 -0.0096747178650790355 -0.00097670593200724722 0 -0.011586579243084165 -3.4627491261505087e-05 0 -0.011486069724997952 0.00012080757313494213 0 -0.011617386075362536 0.00014068005516788061 0 -0.010634197723661585 0.00058014986629464351 0 -0.010229521361663637 -0.00026186853675163913 0 -0.0073394317972997119 0.0015224680614017618 0 -0.0068405147777875876 0.0014319882826274166 0 -0.0070718878510450736 0.00096455212621539526 0 -0.0068405147777875876 0.0014319882826274166 0 -0.0070718878510450736 0.00096455212621539526 0 -0.0065709451802475199 0.00047606010375219238 0 -0.0073394317972997119 0.0015224680614017618 0 -0.0070718878510450736 0.00096455212621539526 0 -0.0073593101215841663 0.00085716292867704571 0 -0.0070718878510450736 0.00096455212621539526 0 -0.0065709451802475199 0.00047606010375219238 0 -0.0070803516903798023 0.00054921228021483927 0 -0.0070718878510450736 0.00096455212621539526 0 -0.0073593101215841663 0.00085716292867704571 0 -0.0070803516903798023 0.00054921228021483927 0 -0.0073593101215841663 0.00085716292867704571 0 -0.0078161244228639095 0.00083709508274943105 0 -0.007366476048947938 0.00041917501937168512 0 -0.010634197723661585 0.00058014986629464351 0 -0.0083955682697032068 0.00010639125152169668 0 -0.0073394317972997119 0.0015224680614017618 0 -0.0073593101215841663 0.00085716292867704571 0 -0.0078161244228639095 0.00083709508274943105 0 -0.012414508127792672 -0.00088477326066746141 0 -0.012265951966312628 -0.0011742155457385862 0 -0.012085563447807144 -0.00094169387865936603 0 -0.012414508127792672 -0.00088477326066746141 0 -0.012265951966312628 -0.0011742155457385862 0 -0.012491681411838283 -0.0010678663932862924 0 -0.012265951966312628 -0.0011742155457385862 0 -0.012491681411838283 -0.0010678663932862924 0 -0.012454018363968313 -0.0013173015799474047 0 -0.012491681411838283 -0.0010678663932862924 0 -0.012621012642981525 -0.0011594558689318431 0 -0.012454018363968313 -0.0013173015799474047 0 -0.012414508127792672 -0.00088477326066746141 0 -0.012491681411838283 -0.0010678663932862924 0 -0.012646467834175079 -0.00094017859052660652 0 -0.012715803748484078 -0.00079738987700807805 0 -0.012788078247555621 -0.0010402880758402077 0 -0.012646467834175079 -0.00094017859052660652 0 -0.012646467834175079 -0.00094017859052660652 0 -0.012695568399848502 -0.0010143300074736067 0 -0.012621012642981525 -0.0011594558689318431 0 -0.012788078247555621 -0.0010402880758402077 0 -0.012646467834175079 -0.00094017859052660652 0 -0.012695568399848502 -0.0010143300074736067 0 -0.012491681411838283 -0.0010678663932862924 0 -0.012646467834175079 -0.00094017859052660652 0 -0.012621012642981525 -0.0011594558689318431 0 -0.012788078247555621 -0.0010402880758402077 0 -0.012695568399848502 -0.0010143300074736067 0 -0.012621012642981525 -0.0011594558689318431 0 -0.012454018363968313 -0.0013173015799474047 0 -0.01222618621113826 -0.0016161522264045033 0 -0.012634698818435283 -0.0016301904986412749 0 -0.010229521361663637 -0.00026186853675163913 0 -0.0095198749047579519 -0.00050578609027354812 0 -0.012621012642981525 -0.0011594558689318431 0 -0.012454018363968313 -0.0013173015799474047 0 -0.012634698818435283 -0.0016301904986412749 0 -0.012788078247555621 -0.0010402880758402077 0 -0.012621012642981525 -0.0011594558689318431 0 -0.012634698818435283 -0.0016301904986412749 0 -0.012265951966312628 -0.0011742155457385862 0 -0.01222618621113826 -0.0016161522264045033 0 -0.011861634589135762 -0.0013274016884130796 0 -0.012265951966312628 -0.0011742155457385862 0 -0.012454018363968313 -0.0013173015799474047 0 -0.01222618621113826 -0.0016161522264045033 0 -0.01222618621113826 -0.0016161522264045033 0 -0.011964835437621012 -0.0021043924512857207 0 -0.011864584007079999 -0.0017180904203217941 0 -0.01222618621113826 -0.0016161522264045033 0 -0.012634698818435283 -0.0016301904986412749 0 -0.012462201663931555 -0.0023208699631518366 0 -0.0095198749047579519 -0.00050578609027354812 0 -0.0096554130280048674 -0.0013498868302389839 0 -0.0065709451802475199 0.00047606010375219238 0 -0.0069772970779737892 0.00012179470318957404 0 -0.0063410169567348438 -0.0004743568567225507 0 -0.01222618621113826 -0.0016161522264045033 0 -0.012462201663931555 -0.0023208699631518366 0 -0.011964835437621012 -0.0021043924512857207 0 -0.012462201663931555 -0.0023208699631518366 0 -0.011718981593052038 -0.0025219823224924588 0 -0.011964835437621012 -0.0021043924512857207 0 -0.0078161244228639095 0.00083709508274943105 0 -0.007366476048947938 0.00041917501937168512 0 -0.0077313601576096914 -0.00039234508721192144 0 -0.0073593101215841663 0.00085716292867704571 0 -0.007366476048947938 0.00041917501937168512 0 -0.0070803516903798023 0.00054921228021483927 0 -0.007366476048947938 0.00041917501937168512 0 -0.0070803516903798023 0.00054921228021483927 0 -0.0069772970779737892 0.00012179470318957404 0 -0.0065709451802475199 0.00047606010375219238 0 -0.0070803516903798023 0.00054921228021483927 0 -0.0069772970779737892 0.00012179470318957404 0 -0.0069772970779737892 0.00012179470318957404 0 -0.0071540678708344671 -0.00039691785479244586 0 -0.0063410169567348438 -0.0004743568567225507 0 -0.007366476048947938 0.00041917501937168512 0 -0.0069772970779737892 0.00012179470318957404 0 -0.0071540678708344671 -0.00039691785479244586 0 -0.0065588726523594411 -0.0011455333609610391 0 -0.0077313601576096914 -0.00039234508721192144 0 -0.007581753284774043 -0.0016623641721313779 0 -0.007366476048947938 0.00041917501937168512 0 -0.0065588726523594411 -0.0011455333609610391 0 -0.0077313601576096914 -0.00039234508721192144 0 -0.0072922863829717856 0.00027902889947908004 0 -0.0069358370351148124 -0.00063450002563638014 0 -0.007581753284774043 -0.0016623641721313779 0 -0.0068130994521980945 -0.0023663837528981229 0 -0.0078816586125511276 -0.0023027375597778205 0 -0.0065588726523594411 -0.0011455333609610391 0 -0.007581753284774043 -0.0016623641721313779 0 -0.0068130994521980945 -0.0023663837528981229 0 -0.0071540678708344671 -0.00039691785479244586 0 -0.0067722182898754613 -0.00073455669996702741 0 -0.0068863019863771077 -0.0012434897791426234 0 -0.0071540678708344671 -0.00039691785479244586 0 -0.0067722182898754613 -0.00073455669996702741 0 -0.0063410169567348438 -0.0004743568567225507 0 -0.0065588726523594411 -0.0011455333609610391 0 -0.0060086969910914658 -0.0025424271163937565 0 -0.0068130994521980945 -0.0023663837528981229 0 -0.0069358370351148124 -0.00063450002563638014 0 -0.0060598527812958727 -0.0024344703199933072 0 -0.0060598527812958727 -0.0024344703199933072 0 -0.0066534989618120353 -0.0024000431057607358 0 -0.0058938155666511975 -0.0026369594641184979 0 -0.0061847037950530761 -0.0029496205699535566 0 -0.0059335687240477716 -0.0032917664987769696 0 -0.0058938155666511975 -0.0026369594641184979 0 -0.0061847037950530761 -0.0029496205699535566 0 -0.0068130994521980945 -0.0023663837528981229 0 -0.006683271644968034 -0.0029233174020950239 0 -0.0074778233932973788 -0.0028148292805485965 0 -0.0068130994521980945 -0.0023663837528981229 0 -0.0074778233932973788 -0.0028148292805485965 0 -0.0068130994521980945 -0.0023663837528981229 0 -0.0078816586125511276 -0.0023027375597778205 0 -0.0061847037950530761 -0.0029496205699535566 0 -0.006683271644968034 -0.0029233174020950239 0 -0.0068130994521980945 -0.0023663837528981229 0 -0.012462201663931555 -0.0023208699631518366 0 -0.011874169918266658 -0.0029100378306593871 0 -0.011718981593052038 -0.0025219823224924588 0 -0.0067722182898754613 -0.00073455669996702741 0 -0.0063410169567348438 -0.0004743568567225507 0 -0.0061038884282166861 -0.0014257677375415162 0 -0.0096554130280048674 -0.0013498868302389839 0 -0.0074192065143301568 -0.0023937067720418894 0 -0.0060598527812958727 -0.0024344703199933072 0 -0.0074192065143301568 -0.0023937067720418894 0 -0.0067722182898754613 -0.00073455669996702741 0 -0.0068863019863771077 -0.0012434897791426234 0 -0.0061038884282166861 -0.0014257677375415162 0 -0.012462201663931555 -0.0023208699631518366 0 -0.012233574882878049 -0.0031269827353571978 0 -0.011874169918266658 -0.0029100378306593871 0 -0.0074192065143301568 -0.0023937067720418894 0 -0.005644981515191827 -0.0035036786179635845 0 -0.0056701382719786019 -0.0034824364664243169 0 -0.0056765134870697372 -0.0034969081279613203 0 -0.0056484801264202068 -0.0035006464551845247 0 -0.0058679952811170836 -0.0029252787806360271 0 -0.0058270644693913885 -0.0030823137709029649 0 -0.0057547477470816667 -0.0030301539543292262 0 -0.0060598527812958727 -0.0024344703199933072 0 -0.0055477175425022954 -0.0037443524540534457 0 -0.0056846701391247449 -0.0034666632404284328 0 -0.0056701382719786019 -0.0034824364664243169 0 -0.0056484801264202068 -0.0035006464551845247 0 -0.0056765134870697372 -0.0034969081279613203 0 -0.0056484801264202068 -0.0035006464551845247 0 -0.0056591676644724299 -0.003467133478721443 0 -0.0056484801264202068 -0.0035006464551845247 0 -0.0055956854969986701 -0.003537418934326823 0 -0.0056261866126427959 -0.0034750039301601615 0 -0.0056484801264202068 -0.0035006464551845247 0 -0.0056591676644724299 -0.003467133478721443 0 -0.0056261866126427959 -0.0034750039301601615 0 -0.005644981515191827 -0.0035036786179635845 0 -0.0057523921889313231 -0.0032920242324820915 0 -0.0058270644693913885 -0.0030823137709029649 0 -0.005647650036198465 -0.003112359899258382 0 -0.0057234743576469833 -0.0033852725170795419 0 -0.0056765134870697372 -0.0034969081279613203 0 -0.0056591676644724299 -0.003467133478721443 0 -0.0057234743576469833 -0.0033852725170795419 0 -0.0071785737532769327 -0.0034291797751054517 0 -0.0074301917832124533 -0.0025820663956214467 0 -0.0068574470419885949 -0.0034054532745838866 0 -0.0074011466326406074 -0.0043422862289421681 0 -0.0079821051366930195 -0.0034918303671611544 0 -0.0074778233932973788 -0.0028148292805485965 0 -0.0068574470419885949 -0.0034054532745838866 0 -0.007918179808356518 -0.0035082322582083076 0 -0.006683271644968034 -0.0029233174020950239 0 -0.0074778233932973788 -0.0028148292805485965 0 -0.0068574470419885949 -0.0034054532745838866 0 -0.006683271644968034 -0.0029233174020950239 0 -0.0068574470419885949 -0.0034054532745838866 0 -0.0061623830471014994 -0.003291654161180596 0 -0.0061847037950530761 -0.0029496205699535566 0 -0.0061623830471014994 -0.003291654161180596 0 -0.0059335687240477716 -0.0032917664987769696 0 -0.0061847037950530761 -0.0029496205699535566 0 -0.006683271644968034 -0.0029233174020950239 0 -0.0061623830471014994 -0.003291654161180596 0 -0.0058938155666511975 -0.0026369594641184979 0 -0.0056484801264202068 -0.0035006464551845247 0 -0.0059335687240477716 -0.0032917664987769696 0 -0.0061623830471014994 -0.003291654161180596 0 -0.0059335687240477716 -0.0032917664987769696 0 -0.0057817025013163163 -0.0034762570586073611 0 -0.0056484801264202068 -0.0035006464551845247 0 -0.0057817025013163163 -0.0034762570586073611 0 -0.0055956854969986701 -0.003537418934326823 0 -0.0061623830471014994 -0.003291654161180596 0 -0.0057817025013163163 -0.0034762570586073611 0 -0.0056033105727430234 -0.0035642732976930006 0 -0.0057817025013163163 -0.0034762570586073611 0 -0.0056033105727430234 -0.0035642732976930006 0 -0.0055956854969986701 -0.003537418934326823 0 -0.0056484801264202068 -0.0035006464551845247 0 -0.0059335687240477716 -0.0032917664987769696 0 -0.0057817025013163163 -0.0034762570586073611 0 -0.0062211056559002449 -0.0037643689798856372 0 -0.006041148861688452 -0.0033225040170686954 0 -0.0068574470419885949 -0.0034054532745838866 0 -0.0061623830471014994 -0.003291654161180596 0 -0.0068123773346445947 -0.0051977283529589472 0 -0.0068574470419885949 -0.0034054532745838866 0 -0.0074011466326406074 -0.0043422862289421681 0 -0.0068123773346445947 -0.0051977283529589472 0 -0.0068471918289996899 -0.0028861828181584079 0 -0.006041148861688452 -0.0033225040170686954 0 -0.0062706132636413895 -0.0014779326242262262 0 -0.0064031497675875919 -0.0015022929548177909 0 -0.0063016944468617048 -0.0015954769148336665 0 -0.0062706132636413895 -0.0014779326242262262 0 -0.0064031497675875919 -0.0015022929548177909 0 -0.0063461695708976092 -0.0013739682820646478 0 -0.0068471918289996899 -0.0028861828181584079 0 -0.0074301917832124533 -0.0025820663956214467 0 -0.0074778233932973788 -0.0028148292805485965 0 -0.007918179808356518 -0.0035082322582083076 0 -0.0084511505478820966 -0.002719642513969191 0 -0.0074301917832124533 -0.0025820663956214467 0 -0.0082728950640884955 -0.0022100449383392431 0 -0.0082992528437842682 -0.0018951425171173401 0 -0.0082889958955425103 -0.0017034959045523555 0 -0.0080824880302879046 -0.0017133554335575 0 -0.0074301917832124533 -0.0025820663956214467 0 -0.0073407294427303886 -0.0015670866207911857 0 -0.0079619512770355335 -0.0018819750127421317 0 -0.0082992528437842682 -0.0018951425171173401 0 -0.0080824880302879046 -0.0017133554335575 0 -0.0064031497675875919 -0.0015022929548177909 0 -0.0065691840089835947 -0.0013738580980712002 0 -0.0065524227652680716 -0.001578543173998221 0 -0.0064031497675875919 -0.0015022929548177909 0 -0.0063461695708976092 -0.0013739682820646478 0 -0.0065691840089835947 -0.0013738580980712002 0 -0.0067102270560016443 -0.0015165639833534536 0 -0.0065691840089835947 -0.0013738580980712002 0 -0.0065524227652680716 -0.001578543173998221 0 -0.0067996278764702002 -0.0013727580523960957 0 -0.0068002253739233515 -0.0014396459016474612 0 -0.0067102270560016443 -0.0015165639833534536 0 -0.0067996278764702002 -0.0013727580523960957 0 -0.0067102270560016443 -0.0015165639833534536 0 -0.0065691840089835947 -0.0013738580980712002 0 -0.0067993275281606046 -0.0015276238172509708 0 -0.0068002253739233515 -0.0014396459016474612 0 -0.0067102270560016443 -0.0015165639833534536 0 -0.0086140185195228564 -0.001649596641514999 0 -0.0086183446382569577 -0.0019068960826637783 0 -0.0084433508948394236 -0.0017549749658083945 0 -0.0086183446382569577 -0.0019068960826637783 0 -0.0082992528437842682 -0.0018951425171173401 0 -0.0084433508948394236 -0.0017549749658083945 0 -0.0078512670668348782 -0.0011743029584780375 0 -0.0073407294427303886 -0.0015670866207911857 0 -0.0082992528437842682 -0.0018951425171173401 0 -0.0082889958955425103 -0.0017034959045523555 0 -0.0084433508948394236 -0.0017549749658083945 0 -0.0082889958955425103 -0.0017034959045523555 0 -0.0084117227741489567 -0.0016028440914278761 0 -0.0082033082423305908 -0.0015516188207177187 0 -0.0082889958955425103 -0.0017034959045523555 0 -0.0084117227741489567 -0.0016028440914278761 0 -0.0084433508948394236 -0.0017549749658083945 0 -0.0086140185195228564 -0.001649596641514999 0 -0.0084117227741489567 -0.0016028440914278761 0 -0.0084433508948394236 -0.0017549749658083945 0 -0.0097637640604797214 -0.00087010144100454611 0 -0.0096047119230423875 -0.0020142385170694053 0 -0.010902454391814011 -0.0023719791571487274 0 -0.01088556963297644 -0.0020432597542788867 0 -0.010698589337891664 -0.0021831169847319832 0 -0.010902454391814011 -0.0023719791571487274 0 -0.010698923365624504 -0.0023435380996318996 0 -0.010698589337891664 -0.0021831169847319832 0 -0.0097637640604797214 -0.00087010144100454611 0 -0.010526796963532427 -0.0013710938311985699 0 -0.010698923365624504 -0.0023435380996318996 0 -0.010698589337891664 -0.0021831169847319832 0 -0.010447596183919425 -0.0023944524335720503 0 -0.010698589337891664 -0.0021831169847319832 0 -0.010478238333029671 -0.0021511377030664935 0 -0.010447596183919425 -0.0023944524335720503 0 -0.0096047119230423875 -0.0020142385170694053 0 -0.0091977844331001379 -0.0021125859951717958 0 -0.010576600714823674 -0.0020632817995155975 0 -0.010698589337891664 -0.0021831169847319832 0 -0.010478238333029671 -0.0021511377030664935 0 -0.007581753284774043 -0.0016623641721313779 0 -0.010252599543888919 -0.0022064337578837122 0 -0.010447596183919425 -0.0023944524335720503 0 -0.010455154821233475 -0.0020738861475874714 0 -0.010478238333029671 -0.0021511377030664935 0 -0.010252599543888919 -0.0022064337578837122 0 -0.010478238333029671 -0.0021511377030664935 0 -0.010252599543888919 -0.0022064337578837122 0 -0.010447596183919425 -0.0023944524335720503 0 -0.010421354718864444 -0.0020737174312229203 0 -0.010455154821233475 -0.0020738861475874714 0 -0.010252599543888919 -0.0022064337578837122 0 -0.0078726700338319841 -0.0017334766073945143 0 -0.0091977844331001379 -0.0021125859951717958 0 -0.0082626253529727734 -0.00098777000493117223 0 -0.007581753284774043 -0.0016623641721313779 0 -0.010252599543888919 -0.0022064337578837122 0 -0.007581753284774043 -0.0016623641721313779 0 -0.0088966762795073921 -0.0020328214460485789 0 -0.0078816586125511276 -0.0023027375597778205 0 -0.0074778233932973788 -0.0028148292805485965 0 -0.0078816586125511276 -0.0023027375597778205 0 -0.0084511505478820966 -0.002719642513969191 0 -0.0088966762795073921 -0.0020328214460485789 0 -0.0078816586125511276 -0.0023027375597778205 0 -0.0084511505478820966 -0.002719642513969191 0 -0.0082889958955425103 -0.0017034959045523555 0 -0.0082033082423305908 -0.0015516188207177187 0 -0.0080824880302879046 -0.0017133554335575 0 -0.0091977844331001379 -0.0021125859951717958 0 -0.0082728950640884955 -0.0022100449383392431 0 -0.0077350696444424506 -0.0027116356865260339 0 -0.0047049901828857205 -0.0027792158820983339 0 -0.0046621730755258576 -0.0028508815960512661 0 -0.0043152438287184054 -0.0026751854818467015 0 -0.0047317607717501948 -0.002258215264297841 0 -0.0070899484447336869 -0.002667348206941607 0 -0.0077350696444424506 -0.0027116356865260339 0 -0.0105579899010103 -0.0030671888064516734 0 -0.010168110862273214 -0.0029031812811801173 0 -0.010556389035973883 -0.0025614187268428448 0 -0.0065970803710091192 -0.0026884249461886609 0 -0.0061550599603668339 -0.002284808302347314 0 -0.0062526991456338301 -0.0027402133995855457 0 -0.0061550599603668339 -0.002284808302347314 0 -0.0059585057879533842 -0.0029338159583137389 0 -0.0062526991456338301 -0.0027402133995855457 0 -0.006754927425233005 -0.0025503658965859688 0 -0.0065970803710091192 -0.0026884249461886609 0 -0.0061550599603668339 -0.002284808302347314 0 -0.0091141585543616337 -0.0029340721750721129 0 -0.0077350696444424506 -0.0027116356865260339 0 -0.0091141585543616337 -0.0029340721750721129 0 -0.0083147090475604642 -0.0032467597262998884 0 -0.0077350696444424506 -0.0027116356865260339 0 -0.010793194839585638 -0.0023342511673307832 0 -0.010352248969150544 -0.0028388790414765447 0 -0.010656623260963944 -0.0025554892489584977 0 -0.010339056013484151 -0.0024657268240424156 0 -0.010656623260963944 -0.0025554892489584977 0 -0.010339056013484151 -0.0024657268240424156 0 -0.010661265821277927 -0.002266720010949914 0 -0.010339056013484151 -0.0024657268240424156 0 -0.010051229569783207 -0.0023596597323853339 0 -0.010385595350838351 -0.0021210376660083102 0 -0.0099797746213669079 -0.0026780927434381821 0 -0.010352248969150544 -0.0028388790414765447 0 -0.010339056013484151 -0.0024657268240424156 0 -0.0099797746213669079 -0.0026780927434381821 0 -0.010339056013484151 -0.0024657268240424156 0 -0.010051229569783207 -0.0023596597323853339 0 -0.0099797746213669079 -0.0026780927434381821 0 -0.010051229569783207 -0.0023596597323853339 0 -0.0096030692125481775 -0.0025217249594129115 0 -0.0070899484447336869 -0.002667348206941607 0 -0.0083210787196043665 -0.0035365249601213415 0 -0.0083210787196043665 -0.0035365249601213415 0 -0.0093155271220369019 -0.004850260655221485 0 -0.0057269291724592703 -0.0035848469552437084 0 -0.0068450514582643401 -0.0032266065911668294 0 -0.0067986315672793236 -0.004056091328261827 0 -0.0083210787196043665 -0.0035365249601213415 0 -0.0055939906172359742 -0.0027995776360992498 0 -0.0057269291724592703 -0.0035848469552437084 0 -0.0062626775831976962 -0.0026324936883009194 0 -0.0068450514582643401 -0.0032266065911668294 0 -0.0053494529203066124 -0.0027488502186828216 0 -0.0048848109188186356 -0.0025877995566379011 0 -0.0049339197857086684 -0.0021091782090460333 0 -0.0062626775831976962 -0.0026324936883009194 0 -0.0068450514582643401 -0.0032266065911668294 0 -0.0068788665055954752 -0.002461216021335309 0 -0.0046621730755258576 -0.0028508815960512661 0 -0.0048848109188186356 -0.0025877995566379011 0 -0.0047317607717501948 -0.002258215264297841 0 -0.0050295934361570538 -0.0030747518172447317 0 -0.0053494529203066124 -0.0027488502186828216 0 -0.0048848109188186356 -0.0025877995566379011 0 -0.0046621730755258576 -0.0028508815960512661 0 -0.0050295934361570538 -0.0030747518172447317 0 -0.0048848109188186356 -0.0025877995566379011 0 -0.0044153650831378188 -0.0030148062469162167 0 -0.0047049901828857205 -0.0027792158820983339 0 -0.0048848109188186356 -0.0025877995566379011 0 -0.0049339197857086684 -0.0021091782090460333 0 -0.0047317607717501948 -0.002258215264297841 0 -0.0049339197857086684 -0.0021091782090460333 0 -0.0048066177503062165 -0.0023821828762698514 0 -0.0047317607717501948 -0.002258215264297841 0 -0.0049339197857086684 -0.0021091782090460333 0 -0.0044437200635009224 -0.0023886179253737963 0 -0.0040088726329178901 -0.0023329871277087888 0 -0.0049339197857086684 -0.0021091782090460333 0 -0.0065752444543952498 -0.0016512237119282859 0 -0.0065681173760885649 -0.001213032415060798 0 -0.0048886072329595107 -0.0020964538268807191 0 -0.0054153619061561697 -0.0017260148024215937 0 -0.0053494529203066124 -0.0027488502186828216 0 -0.0049339197857086684 -0.0021091782090460333 0 -0.0065752444543952498 -0.0016512237119282859 0 -0.0055939906172359742 -0.0027995776360992498 0 -0.0065763550671208808 -0.0016154458435665103 0 -0.0036623013332309712 -0.0031440607738617656 0 -0.0039730476364371516 -0.0028481761354592827 0 -0.0035999066355204994 -0.0029836907603357447 0 -0.0044437200635009224 -0.0023886179253737963 0 -0.0040088726329178901 -0.0023329871277087888 0 -0.0040201651617232095 -0.0025976870469461041 0 -0.0044437200635009224 -0.0023886179253737963 0 -0.004442820934596527 -0.0025450382696494945 0 -0.0048066177503062165 -0.0023821828762698514 0 -0.0049339197857086684 -0.0021091782090460333 0 -0.0044437200635009224 -0.0023886179253737963 0 -0.0048066177503062165 -0.0023821828762698514 0 -0.0044153650831378188 -0.0030148062469162167 0 -0.0040554149261568554 -0.0028525996735926057 0 -0.004442820934596527 -0.0025450382696494945 0 -0.0048218845154720308 -0.0025323977940706565 0 -0.0039730476364371516 -0.0028481761354592827 0 -0.0045708176680486282 -0.0028044897330803059 0 -0.0044153650831378188 -0.0030148062469162167 0 -0.0044437200635009224 -0.0023886179253737963 0 -0.004442820934596527 -0.0025450382696494945 0 -0.0040201651617232095 -0.0025976870469461041 0 -0.004442820934596527 -0.0025450382696494945 0 -0.0040201651617232095 -0.0025976870469461041 0 -0.0039730476364371516 -0.0028481761354592827 0 -0.0036623013332309712 -0.0031440607738617656 0 -0.0034784460354377066 -0.0030384153294182219 0 -0.00331683994361063 -0.0030299548080857286 0 -0.004518532883916934 -0.0038140029844843867 0 -0.0056631209480050085 -0.0035733201066757794 0 -0.0053324063107353208 -0.0030504997836857729 0 -0.0044153650831378188 -0.0030148062469162167 0 -0.0044790891427710609 -0.0033463238082876616 0 -0.0036623013332309712 -0.0031440607738617656 0 -0.0034784460354377066 -0.0030384153294182219 0 -0.0035999066355204994 -0.0029836907603357447 0 -0.0034784460354377066 -0.0030384153294182219 0 -0.0035999066355204994 -0.0029836907603357447 0 -0.0034793806883699841 -0.0029898682776223514 0 -0.0034784460354377066 -0.0030384153294182219 0 -0.0034058869919861151 -0.0030281705253293214 0 -0.0034793806883699841 -0.0029898682776223514 0 -0.0034784460354377066 -0.0030384153294182219 0 -0.0034058869919861151 -0.0030281705253293214 0 -0.00331683994361063 -0.0030299548080857286 0 -0.0034058869919861151 -0.0030281705253293214 0 -0.0033947721013463249 -0.0030477143874201892 0 -0.00331683994361063 -0.0030299548080857286 0 -0.0033947721013463249 -0.0030477143874201892 0 -0.0034273028831091046 -0.003048402772408078 0 -0.0033886077903381709 -0.0030251838855557905 0 -0.0034273028831091046 -0.003048402772408078 0 -0.0033931311124460965 -0.0030286232232806256 0 -0.0033886077903381709 -0.0030251838855557905 0 -0.0034058869919861151 -0.0030281705253293214 0 -0.0033947721013463249 -0.0030477143874201892 0 -0.0033886077903381709 -0.0030251838855557905 0 -0.0033947721013463249 -0.0030477143874201892 0 -0.0034273028831091046 -0.003048402772408078 0 -0.0034652909498250448 -0.0030485886391134992 0 -0.00331683994361063 -0.0030299548080857286 0 -0.0035767273149100104 -0.0030315802957964987 0 -0.0034652909498250448 -0.0030485886391134992 0 -0.0033947721013463249 -0.0030477143874201892 0 -0.00331683994361063 -0.0030299548080857286 0 -0.0034652909498250448 -0.0030485886391134992 0 -0.0056631209480050085 -0.0035733201066757794 0 -0.0059585057879533842 -0.0029338159583137389 0 -0.0053324063107353208 -0.0030504997836857729 0 -0.0061550599603668339 -0.002284808302347314 0 -0.0059585057879533842 -0.0029338159583137389 0 -0.0053324063107353208 -0.0030504997836857729 0 -0.0056631209480050085 -0.0035733201066757794 0 -0.0059585057879533842 -0.0029338159583137389 0 -0.0062994413879245521 -0.0030518551070260109 0 -0.0044790891427710609 -0.0033463238082876616 0 -0.0051976262774555944 -0.0030069125204776246 0 -0.0056631209480050085 -0.0035733201066757794 0 -0.0062994413879245521 -0.0030518551070260109 0 -0.0068018559630111238 -0.0033172538961149241 0 -0.0067473286363928077 -0.0025562644439116474 0 -0.0065970803710091192 -0.0026884249461886609 0 -0.0068018559630111238 -0.0033172538961149241 0 -0.0065970803710091192 -0.0026884249461886609 0 -0.0062994413879245521 -0.0030518551070260109 0 -0.0068018559630111238 -0.0033172538961149241 0 -0.0065970803710091192 -0.0026884249461886609 0 -0.0062526991456338301 -0.0027402133995855457 0 -0.0062994413879245521 -0.0030518551070260109 0 -0.0059585057879533842 -0.0029338159583137389 0 -0.0062526991456338301 -0.0027402133995855457 0 -0.0062994413879245521 -0.0030518551070260109 0 -0.0038825256741942824 -0.0029541039503714803 0 -0.0036344824810143265 -0.0030665357440848632 0 -0.0035767273149100104 -0.0030315802957964987 0 -0.0038825256741942824 -0.0029541039503714803 0 -0.0035767273149100104 -0.0030315802957964987 0 -0.0039618567486192349 -0.0027059417284135546 0 -0.00331683994361063 -0.0030299548080857286 0 -0.0035767273149100104 -0.0030315802957964987 0 -0.0039618567486192349 -0.0027059417284135546 0 -0.0038825256741942824 -0.0029541039503714803 0 -0.0036344824810143265 -0.0030665357440848632 0 -0.0044157631483538809 -0.0034303331496440301 0 -0.0030155014880457525 -0.0038238990263657372 0 -0.0030381269614608839 -0.0037987781176576333 0 -0.0035767273149100104 -0.0030315802957964987 0 -0.0034830815126721763 -0.0030528496356259558 0 -0.0034992579111449216 -0.0030501867632979239 0 -0.0034905851292194212 -0.0030547954389018432 0 -0.0035767273149100104 -0.0030315802957964987 0 -0.0034992579111449216 -0.0030501867632979239 0 -0.0035767273149100104 -0.0030315802957964987 0 -0.0034652909498250448 -0.0030485886391134992 0 -0.0034830815126721763 -0.0030528496356259558 0 -0.0034905851292194212 -0.0030547954389018432 0 -0.0034453387767750228 -0.0030410665651425216 0 -0.0033385987989725803 -0.0030084766319735706 0 -0.0034273028831091046 -0.003048402772408078 0 -0.0034830815126721763 -0.0030528496356259558 0 -0.0034453387767750228 -0.0030410665651425216 0 -0.0034273028831091046 -0.003048402772408078 0 -0.0034652909498250448 -0.0030485886391134992 0 -0.0034830815126721763 -0.0030528496356259558 0 -0.0034830815126721763 -0.0030528496356259558 0 -0.0034992579111449216 -0.0030501867632979239 0 -0.0034453387767750228 -0.0030410665651425216 0 -0.0034905851292194212 -0.0030547954389018432 0 -0.0034992579111449216 -0.0030501867632979239 0 -0.0034453387767750228 -0.0030410665651425216 0 -0.0034273028831091046 -0.003048402772408078 0 -0.0034453387767750228 -0.0030410665651425216 0 -0.0033931311124460965 -0.0030286232232806256 0 -0.0038825256741942824 -0.0029541039503714803 0 -0.0043921144508441068 -0.0029892413464368659 0 -0.0044157631483538809 -0.0034303331496440301 0 -0.0030155014880457525 -0.0038238990263657372 0 -0.0031500519273164082 -0.0039067952884351866 0 -0.0038825256741942824 -0.0029541039503714803 0 -0.0043921144508441068 -0.0029892413464368659 0 -0.0039618567486192349 -0.0027059417284135546 0 -0.0043921144508441068 -0.0029892413464368659 0 -0.0048044456460584473 -0.0033600419310111729 0 -0.0044157631483538809 -0.0034303331496440301 0 -0.0050975387162005056 -0.0032024795085942577 0 -0.0048575864123100053 -0.0029508050868968091 0 -0.0053360107174170082 -0.0028297349332873046 0 -0.0043921144508441068 -0.0029892413464368659 0 -0.0048575864123100053 -0.0029508050868968091 0 -0.0048044456460584473 -0.0033600419310111729 0 -0.0050975387162005056 -0.0032024795085942577 0 -0.0048575864123100053 -0.0029508050868968091 0 -0.0048044456460584473 -0.0033600419310111729 0 -0.0043921144508441068 -0.0029892413464368659 0 -0.0048575864123100053 -0.0029508050868968091 0 -0.0048975235690393946 -0.002543980136909949 0 -0.0048575864123100053 -0.0029508050868968091 0 -0.0048975235690393946 -0.002543980136909949 0 -0.0053360107174170082 -0.0028297349332873046 0 -0.0043921144508441068 -0.0029892413464368659 0 -0.0048975235690393946 -0.002543980136909949 0 -0.0039618567486192349 -0.0027059417284135546 0 -0.0091141585543616337 -0.0029340721750721129 0 -0.0074228203709093736 -0.0031242125760651599 0 -0.0074228203709093736 -0.0031242125760651599 0 -0.0051976262774555944 -0.0030069125204776246 0 -0.0067473286363928077 -0.0025562644439116474 0 -0.007902113449397008 -0.0030714766210243154 0 -0.0068018559630111238 -0.0033172538961149241 0 -0.0055527848381271326 -0.0032806717987095089 0 -0.005647650036198465 -0.003112359899258382 0 -0.0057234743576469833 -0.0033852725170795419 0 -0.0055527848381271326 -0.0032806717987095089 0 -0.005647650036198465 -0.003112359899258382 0 -0.0053954113254535557 -0.0031408989244860381 0 -0.005647650036198465 -0.003112359899258382 0 -0.0053954113254535557 -0.0031408989244860381 0 -0.0053360107174170082 -0.0028297349332873046 0 -0.0057313131040948899 -0.0031107321389694086 0 -0.0051775663354177194 -0.0027958965869275512 0 -0.0055527848381271326 -0.0032806717987095089 0 -0.0053954113254535557 -0.0031408989244860381 0 -0.0053751156161373007 -0.0033357055551032242 0 -0.0050975387162005056 -0.0032024795085942577 0 -0.0053954113254535557 -0.0031408989244860381 0 -0.0053751156161373007 -0.0033357055551032242 0 -0.0050975387162005056 -0.0032024795085942577 0 -0.0053954113254535557 -0.0031408989244860381 0 -0.0053360107174170082 -0.0028297349332873046 0 -0.0074228203709093736 -0.0031242125760651599 0 -0.0090748332598417723 -0.0032040559215851254 0 -0.0056608179562150692 -0.0030520707364458497 0 -0.0056564882910390378 -0.0030512621638060073 0 -0.0056768631670247654 -0.0030066032918308269 0 -0.010723433310070068 -0.0035145708606794321 0 -0.011514792199835776 -0.0033178529483005002 0 -0.0111031360586453 -0.0030313854783903913 0 -0.0074228203709093736 -0.0031242125760651599 0 -0.0051775663354177194 -0.0027958965869275512 0 -0.0058270644693913885 -0.0030823137709029649 0 -0.005647650036198465 -0.003112359899258382 0 -0.0057547477470816667 -0.0030301539543292262 0 -0.005647650036198465 -0.003112359899258382 0 -0.0057547477470816667 -0.0030301539543292262 0 -0.0056768631670247654 -0.0030066032918308269 0 -0.005647650036198465 -0.003112359899258382 0 -0.0056564882910390378 -0.0030512621638060073 0 -0.0056768631670247654 -0.0030066032918308269 0 -0.0058679952811170836 -0.0029252787806360271 0 -0.0057547477470816667 -0.0030301539543292262 0 -0.0056768631670247654 -0.0030066032918308269 0 -0.0074192065143301568 -0.0023937067720418894 0 -0.0090748332598417723 -0.0032040559215851254 0 -0.012233574882878049 -0.0031269827353571978 0 -0.011514792199835776 -0.0033178529483005002 0 -0.011874169918266658 -0.0029100378306593871 0 -0.011514792199835776 -0.0033178529483005002 0 -0.011874169918266658 -0.0029100378306593871 0 -0.011486988960258787 -0.002885927639630297 0 -0.011486988960258787 -0.002885927639630297 0 -0.0111031360586453 -0.0030313854783903913 0 -0.011143070343361334 -0.0026912989831326885 0 -0.011514792199835776 -0.0033178529483005002 0 -0.011486988960258787 -0.002885927639630297 0 -0.0111031360586453 -0.0030313854783903913 0 -0.0111031360586453 -0.0030313854783903913 0 -0.011143070343361334 -0.0026912989831326885 0 -0.010762852610087354 -0.002944256271179971 0 -0.011486988960258787 -0.002885927639630297 0 -0.011143070343361334 -0.0026912989831326885 0 -0.011718981593052038 -0.0025219823224924588 0 -0.011143070343361334 -0.0026912989831326885 0 -0.011718981593052038 -0.0025219823224924588 0 -0.011196024247256693 -0.0021383314959742389 0 -0.011874169918266658 -0.0029100378306593871 0 -0.011486988960258787 -0.002885927639630297 0 -0.011718981593052038 -0.0025219823224924588 0 -0.0105579899010103 -0.0030671888064516734 0 -0.010556389035973883 -0.0025614187268428448 0 -0.011121802557352763 -0.0025484754583175789 0 -0.0099230807216448887 -0.0031684002126646156 0 -0.010443995366331341 -0.0031021464329835345 0 -0.010550000716632264 -0.0026309771100873989 0 -0.0099230807216448887 -0.0031684002126646156 0 -0.010723433310070068 -0.0035145708606794321 0 -0.010443995366331341 -0.0031021464329835345 0 -0.0091141585543616337 -0.0029340721750721129 0 -0.011011899348871338 -0.0025621910783666345 0 -0.010723433310070068 -0.0035145708606794321 0 -0.010443995366331341 -0.0031021464329835345 0 -0.010762852610087354 -0.002944256271179971 0 -0.010723433310070068 -0.0035145708606794321 0 -0.0111031360586453 -0.0030313854783903913 0 -0.010762852610087354 -0.002944256271179971 0 -0.010443995366331341 -0.0031021464329835345 0 -0.010762852610087354 -0.002944256271179971 0 -0.010550000716632264 -0.0026309771100873989 0 -0.011143070343361334 -0.0026912989831326885 0 -0.010550000716632264 -0.0026309771100873989 0 -0.011196024247256693 -0.0021383314959742389 0 -0.011011899348871338 -0.0025621910783666345 0 -0.011336479943074381 -0.0021391217195110969 0 -0.011143070343361334 -0.0026912989831326885 0 -0.010762852610087354 -0.002944256271179971 0 -0.010550000716632264 -0.0026309771100873989 0 -0.010556389035973883 -0.0025614187268428448 0 -0.011121802557352763 -0.0025484754583175789 0 -0.010931631361281838 -0.0022663367590872213 0 -0.010793194839585638 -0.0023342511673307832 0 -0.010817836255566734 -0.0023668841667045127 0 -0.010656623260963944 -0.0025554892489584977 0 -0.010931631361281838 -0.0022663367590872213 0 -0.010661265821277927 -0.002266720010949914 0 -0.010820656629369688 -0.0019394183772376168 0 -0.010931631361281838 -0.0022663367590872213 0 -0.010661265821277927 -0.002266720010949914 0 -0.010820656629369688 -0.0019394183772376168 0 -0.010931631361281838 -0.0022663367590872213 0 -0.011152771377575293 -0.0019949147283150189 0 -0.011152771377575293 -0.0019949147283150189 0 -0.01154266150197338 -0.0021012055118715968 0 -0.011467760119403829 -0.0016490889746098275 0 -0.011121802557352763 -0.0025484754583175789 0 -0.011152771377575293 -0.0019949147283150189 0 -0.01154266150197338 -0.0021012055118715968 0 -0.011121802557352763 -0.0025484754583175789 0 -0.010931631361281838 -0.0022663367590872213 0 -0.011152771377575293 -0.0019949147283150189 0 -0.011152771377575293 -0.0019949147283150189 0 -0.011467760119403829 -0.0016490889746098275 0 -0.011025401502573983 -0.0015422578982504439 0 -0.010820656629369688 -0.0019394183772376168 0 -0.011025401502573983 -0.0015422578982504439 0 -0.010520496837528861 -0.0017577409941801922 0 -0.010820656629369688 -0.0019394183772376168 0 -0.011152771377575293 -0.0019949147283150189 0 -0.011025401502573983 -0.0015422578982504439 0 -0.011025401502573983 -0.0015422578982504439 0 -0.010657991239550347 -0.0014154912530465562 0 -0.010520496837528861 -0.0017577409941801922 0 -0.011964835437621012 -0.0021043924512857207 0 -0.011196024247256693 -0.0021383314959742389 0 -0.011864584007079999 -0.0017180904203217941 0 -0.011718981593052038 -0.0025219823224924588 0 -0.011964835437621012 -0.0021043924512857207 0 -0.011196024247256693 -0.0021383314959742389 0 -0.011336479943074381 -0.0021391217195110969 0 -0.011836320573023676 -0.0017371214732229451 0 -0.01154266150197338 -0.0021012055118715968 0 -0.011467760119403829 -0.0016490889746098275 0 -0.011864584007079999 -0.0017180904203217941 0 -0.011467760119403829 -0.0016490889746098275 0 -0.011864584007079999 -0.0017180904203217941 0 -0.011861634589135762 -0.0013274016884130796 0 -0.01222618621113826 -0.0016161522264045033 0 -0.011864584007079999 -0.0017180904203217941 0 -0.011861634589135762 -0.0013274016884130796 0 -0.011467760119403829 -0.0016490889746098275 0 -0.011861634589135762 -0.0013274016884130796 0 -0.011418318906624161 -0.0012393198373819264 0 -0.011861634589135762 -0.0013274016884130796 0 -0.011716789677153523 -0.00098498719653875521 0 -0.011418318906624161 -0.0012393198373819264 0 -0.011716789677153523 -0.00098498719653875521 0 -0.011418318906624161 -0.0012393198373819264 0 -0.011369897955331894 -0.00084644366705912723 0 -0.012265951966312628 -0.0011742155457385862 0 -0.011861634589135762 -0.0013274016884130796 0 -0.012085563447807144 -0.00094169387865936603 0 -0.011861634589135762 -0.0013274016884130796 0 -0.011716789677153523 -0.00098498719653875521 0 -0.012085563447807144 -0.00094169387865936603 0 -0.011025401502573983 -0.0015422578982504439 0 -0.011017199411799421 -0.0010213745299750044 0 -0.010657991239550347 -0.0014154912530465562 0 -0.011052763031119746 -0.0015225156999419062 0 -0.010895157698458965 -0.0010265525785185163 0 -0.011467760119403829 -0.0016490889746098275 0 -0.011025401502573983 -0.0015422578982504439 0 -0.011418318906624161 -0.0012393198373819264 0 -0.011025401502573983 -0.0015422578982504439 0 -0.011418318906624161 -0.0012393198373819264 0 -0.011052693151681517 -0.0010873073209112496 0 -0.011418318906624161 -0.0012393198373819264 0 -0.011052693151681517 -0.0010873073209112496 0 -0.011369897955331894 -0.00084644366705912723 0 -0.011017199411799421 -0.0010213745299750044 0 -0.01060280309461643 -0.0010396038832452856 0 -0.010926138626341403 -0.00055390932939208956 0 -0.011017199411799421 -0.0010213745299750044 0 -0.01060280309461643 -0.0010396038832452856 0 -0.010657991239550347 -0.0014154912530465562 0 -0.014187235658067085 -0.0026986422899093741 0 -0.013167680537482591 -0.0026423971159273778 0 -0.013959269906743243 -0.0022169800943713197 0 -0.013182306470359336 -0.0026259177571575231 0 -0.0140634248883035 -0.0021836471816174606 0 -0.014187235658067085 -0.0026986422899093741 0 -0.013167680537482591 -0.0026423971159273778 0 -0.013646448302742059 -0.0036748564693382842 0 -0.013167680537482591 -0.0026423971159273778 0 -0.013646448302742059 -0.0036748564693382842 0 -0.012735687962336754 -0.0031765597338059282 0 -0.012309350936622684 -0.0018706251109996614 0 -0.011927464501647819 -0.0026193603005289739 0 -0.01060280309461643 -0.0010396038832452856 0 -0.010276585496419162 -0.001524034046895792 0 -0.010657991239550347 -0.0014154912530465562 0 -0.010276585496419162 -0.001524034046895792 0 -0.010657991239550347 -0.0014154912530465562 0 -0.010520496837528861 -0.0017577409941801922 0 -0.011927464501647819 -0.0026193603005289739 0 -0.01181045297614366 -0.0033468327076471393 0 -0.010276585496419162 -0.001524034046895792 0 -0.010520496837528861 -0.0017577409941801922 0 -0.0099422700320730816 -0.0020139000881554286 0 -0.013646448302742059 -0.0036748564693382842 0 -0.013051017865223993 -0.0047252891691688817 0 -0.012560784984701158 -0.0039036091664792758 0 -0.010520496837528861 -0.0017577409941801922 0 -0.010385595350838351 -0.0021210376660083102 0 -0.0099422700320730816 -0.0020139000881554286 0 -0.010051229569783207 -0.0023596597323853339 0 -0.010385595350838351 -0.0021210376660083102 0 -0.0099422700320730816 -0.0020139000881554286 0 -0.010339056013484151 -0.0024657268240424156 0 -0.010385595350838351 -0.0021210376660083102 0 -0.010661265821277927 -0.002266720010949914 0 -0.010820656629369688 -0.0019394183772376168 0 -0.010520496837528861 -0.0017577409941801922 0 -0.010385595350838351 -0.0021210376660083102 0 -0.010820656629369688 -0.0019394183772376168 0 -0.010385595350838351 -0.0021210376660083102 0 -0.010661265821277927 -0.002266720010949914 0 -0.012396483319829657 -0.0057724236502203884 0 -0.012117975303603968 -0.0047522391522342219 0 -0.011456493411285414 -0.0053907414679515743 0 -0.012117975303603968 -0.0047522391522342219 0 -0.01135093589433705 -0.0046700126675096564 0 -0.011456493411285414 -0.0053907414679515743 0 -0.010051229569783207 -0.0023596597323853339 0 -0.0096030692125481775 -0.0025217249594129115 0 -0.0099422700320730816 -0.0020139000881554286 0 -0.0083210787196043665 -0.0035365249601213415 0 -0.01181045297614366 -0.0033468327076471393 0 -0.012396483319829657 -0.0057724236502203884 0 -0.012117975303603968 -0.0047522391522342219 0 -0.013051017865223993 -0.0047252891691688817 0 -0.012117975303603968 -0.0047522391522342219 0 -0.013051017865223993 -0.0047252891691688817 0 -0.012560784984701158 -0.0039036091664792758 0 -0.012117975303603968 -0.0047522391522342219 0 -0.012560784984701158 -0.0039036091664792758 0 -0.011803011442699929 -0.0040361391604761725 0 -0.012117975303603968 -0.0047522391522342219 0 -0.011803011442699929 -0.0040361391604761725 0 -0.01135093589433705 -0.0046700126675096564 0 -0.012560784984701158 -0.0039036091664792758 0 -0.011803011442699929 -0.0040361391604761725 0 -0.012024889444891622 -0.0031683798342719604 0 -0.011803011442699929 -0.0040361391604761725 0 -0.012024889444891622 -0.0031683798342719604 0 -0.011347692427256943 -0.0034626398288124952 0 -0.012024889444891622 -0.0031683798342719604 0 -0.011347692427256943 -0.0034626398288124952 0 -0.011469565273318405 -0.0028695385082068477 0 -0.013646448302742059 -0.0036748564693382842 0 -0.012560784984701158 -0.0039036091664792758 0 -0.012735687962336754 -0.0031765597338059282 0 -0.012560784984701158 -0.0039036091664792758 0 -0.012024889444891622 -0.0031683798342719604 0 -0.012735687962336754 -0.0031765597338059282 0 -0.013167680537482591 -0.0026423971159273778 0 -0.012735687962336754 -0.0031765597338059282 0 -0.012290818523845622 -0.0025185910700658864 0 -0.013167680537482591 -0.0026423971159273778 0 -0.012290818523845622 -0.0025185910700658864 0 -0.012770789099237387 -0.0020390593852686362 0 -0.012024889444891622 -0.0031683798342719604 0 -0.011853980565561167 -0.0026223034037340721 0 -0.011469565273318405 -0.0028695385082068477 0 -0.012024889444891622 -0.0031683798342719604 0 -0.012290818523845622 -0.0025185910700658864 0 -0.011853980565561167 -0.0026223034037340721 0 -0.012024889444891622 -0.0031683798342719604 0 -0.012735687962336754 -0.0031765597338059282 0 -0.012290818523845622 -0.0025185910700658864 0 -0.011853980565561167 -0.0026223034037340721 0 -0.011914320287587932 -0.0022038157822098525 0 -0.011560539503765141 -0.0023762364437112621 0 -0.012290818523845622 -0.0025185910700658864 0 -0.011853980565561167 -0.0026223034037340721 0 -0.011914320287587932 -0.0022038157822098525 0 -0.012292109365493435 -0.0020246608866455085 0 -0.012597916264392831 -0.0013559270233961889 0 -0.011691884963863067 -0.0018863713157984802 0 -0.011914320287587932 -0.0022038157822098525 0 -0.012292109365493435 -0.0020246608866455085 0 -0.011691884963863067 -0.0018863713157984802 0 -0.012290818523845622 -0.0025185910700658864 0 -0.011914320287587932 -0.0022038157822098525 0 -0.012292109365493435 -0.0020246608866455085 0 -0.012044189448496773 -0.0012066540175554616 0 -0.012823906391424871 -0.0015501972693842527 0 -0.011691884963863067 -0.0018863713157984802 0 -0.012702934095708151 -0.0014478133187132425 0 -0.01176555026262925 -0.0018707668964205323 0 -0.012597916264392831 -0.0013559270233961889 0 -0.012770789099237387 -0.0020390593852686362 0 -0.013449443957655708 -0.001716664535374739 0 -0.012292109365493435 -0.0020246608866455085 0 -0.012597916264392831 -0.0013559270233961889 0 -0.012770789099237387 -0.0020390593852686362 0 -0.012290818523845622 -0.0025185910700658864 0 -0.012292109365493435 -0.0020246608866455085 0 -0.012770789099237387 -0.0020390593852686362 0 -0.013167680537482591 -0.0026423971159273778 0 -0.013449443957655708 -0.001716664535374739 0 -0.013898529639118225 -0.002201834807749659 0 -0.013167680537482591 -0.0026423971159273778 0 -0.012770789099237387 -0.0020390593852686362 0 -0.013449443957655708 -0.001716664535374739 0 -0.014187235658067085 -0.0026986422899093741 0 -0.013959269906743243 -0.0022169800943713197 0 -0.014701931569288848 -0.0017902934611148356 0 -0.013898529639118225 -0.002201834807749659 0 -0.014064107752301911 -0.0017140490895001536 0 -0.014601627477799492 -0.0017779017080630404 0 -0.0140634248883035 -0.0021836471816174606 0 -0.013581391938018559 -0.0013702959156465021 0 -0.013449443957655708 -0.001716664535374739 0 -0.013898529639118225 -0.002201834807749659 0 -0.014064107752301911 -0.0017140490895001536 0 -0.014064107752301911 -0.0017140490895001536 0 -0.014048281897182813 -0.0012550414842979595 0 -0.014413489541817346 -0.0014930359254180872 0 -0.013449443957655708 -0.001716664535374739 0 -0.014064107752301911 -0.0017140490895001536 0 -0.014048281897182813 -0.0012550414842979595 0 -0.013449443957655708 -0.001716664535374739 0 -0.014048281897182813 -0.0012550414842979595 0 -0.013629490923367762 -0.00078575051020173133 0 -0.012597916264392831 -0.0013559270233961889 0 -0.013449443957655708 -0.001716664535374739 0 -0.013629490923367762 -0.00078575051020173133 0 -0.012702934095708151 -0.0014478133187132425 0 -0.013724322941766415 -0.00091899518392794485 0 -0.013819695399841153 -0.0010720529059745523 0 -0.014021433473273724 -0.00039642030286013381 0 -0.013074956463654233 -0.00081104659412925518 0 -0.013724322941766415 -0.00091899518392794485 0 -0.01452971655834303 -0.00042011771963337239 0 -0.013629490923367762 -0.00078575051020173133 0 -0.014327877726772499 -0.00074992124022160852 0 -0.014586886953031722 -0.00037420259658107221 0 -0.014048281897182813 -0.0012550414842979595 0 -0.013629490923367762 -0.00078575051020173133 0 -0.014327877726772499 -0.00074992124022160852 0 -0.013819695399841153 -0.0010720529059745523 0 -0.014021433473273724 -0.00039642030286013381 0 -0.014586886953031722 -0.00037420259658107221 0 -0.014021433473273724 -0.00039642030286013381 0 -0.014586886953031722 -0.00037420259658107221 0 -0.014474978151739693 -0.00025686151202594361 0 -0.014021433473273724 -0.00039642030286013381 0 -0.013074956463654233 -0.00081104659412925518 0 -0.013294125197170931 -0.00017800350362717581 0 -0.012413136099792428 -0.00043827858586359083 0 -0.013074956463654233 -0.00081104659412925518 0 -0.013294125197170931 -0.00017800350362717581 0 -0.012044189448496773 -0.0012066540175554616 0 -0.012823906391424871 -0.0015501972693842527 0 -0.013074956463654233 -0.00081104659412925518 0 -0.012044189448496773 -0.0012066540175554616 0 -0.012413136099792428 -0.00043827858586359083 0 -0.013074956463654233 -0.00081104659412925518 0 -0.012823906391424871 -0.0015501972693842527 0 -0.013819695399841153 -0.0010720529059745523 0 -0.013074956463654233 -0.00081104659412925518 0 -0.012195300234866589 -0.00052318972944026033 0 -0.01241786845195156 -0.00034979586612673063 0 -0.011979287587809161 -0.00021057380309972616 0 -0.012195300234866589 -0.00052318972944026033 0 -0.011937044077200492 -0.00061844416951990539 0 -0.011979287587809161 -0.00021057380309972616 0 -0.012319027752174364 -0.00069496560060793282 0 -0.012085563447807144 -0.00094169387865936603 0 -0.011937044077200492 -0.00061844416951990539 0 -0.011716789677153523 -0.00098498719653875521 0 -0.012085563447807144 -0.00094169387865936603 0 -0.011937044077200492 -0.00061844416951990539 0 -0.012319027752174364 -0.00069496560060793282 0 -0.012195300234866589 -0.00052318972944026033 0 -0.011937044077200492 -0.00061844416951990539 0 -0.011716789677153523 -0.00098498719653875521 0 -0.011937044077200492 -0.00061844416951990539 0 -0.011629567754868403 -0.00071594256709277748 0 -0.011716789677153523 -0.00098498719653875521 0 -0.011629567754868403 -0.00071594256709277748 0 -0.011369897955331894 -0.00084644366705912723 0 -0.011937044077200492 -0.00061844416951990539 0 -0.011494968325185439 -0.00040416429307295126 0 -0.011979287587809161 -0.00021057380309972616 0 -0.011937044077200492 -0.00061844416951990539 0 -0.011629567754868403 -0.00071594256709277748 0 -0.011494968325185439 -0.00040416429307295126 0 -0.012810320726018449 0.00013138327345574364 0 -0.012669001616091703 -3.6925027307351435e-07 0 -0.012810320726018449 0.00013138327345574364 0 -0.012860899396604846 -0.00068045617335085696 0 -0.014060038518363214 0.00049951570747452663 0 -0.014639444321199348 0.0007833056610195235 0 -0.014679007632858903 0.00030103005056148049 0 -0.011629567754868403 -0.00071594256709277748 0 -0.011494968325185439 -0.00040416429307295126 0 -0.011369897955331894 -0.00084644366705912723 0 -0.011494968325185439 -0.00040416429307295126 0 -0.011369897955331894 -0.00084644366705912723 0 -0.011059645079238973 -0.00062762442543543278 0 -0.011052693151681517 -0.0010873073209112496 0 -0.011369897955331894 -0.00084644366705912723 0 -0.011059645079238973 -0.00062762442543543278 0 -0.010895157698458965 -0.0010265525785185163 0 -0.012860899396604846 -0.00068045617335085696 0 -0.011017199411799421 -0.0010213745299750044 0 -0.011018780337915033 -0.00050474218210470423 0 -0.010926138626341403 -0.00055390932939208956 0 -0.012309350936622684 -0.0018706251109996614 0 -0.013581391938018559 -0.0013702959156465021 0 -0.014684785756236234 -0.0016310186577359581 0 -0.014748982248397831 -0.0016904831832788864 0 -0.014591192840364984 -0.0017759641403609877 0 -0.012860899396604846 -0.00068045617335085696 0 -0.013581391938018559 -0.0013702959156465021 0 -0.014064107752301911 -0.0017140490895001536 0 -0.014601627477799492 -0.0017779017080630404 0 -0.014413489541817346 -0.0014930359254180872 0 -0.014684785756236234 -0.0016310186577359581 0 -0.014601627477799492 -0.0017779017080630404 0 -0.014413489541817346 -0.0014930359254180872 0 -0.013802036872438226 -0.0013392775746701759 0 -0.013581391938018559 -0.0013702959156465021 0 -0.014048281897182813 -0.0012550414842979595 0 -0.014413489541817346 -0.0014930359254180872 0 -0.014714758448613096 -0.0010311757683683072 0 -0.012860899396604846 -0.00068045617335085696 0 -0.014657411272607588 -0.00034813277215823933 0 -0.014048281897182813 -0.0012550414842979595 0 -0.014327877726772499 -0.00074992124022160852 0 -0.014714758448613096 -0.0010311757683683072 0 -0.014684785756236234 -0.0016310186577359581 0 -0.014748982248397831 -0.0016904831832788864 0 -0.014714758448613096 -0.0010311757683683072 0 -0.014684785756236234 -0.0016310186577359581 0 -0.014413489541817346 -0.0014930359254180872 0 -0.014714758448613096 -0.0010311757683683072 0 -0.014657411272607588 -0.00034813277215823933 0 -0.014663010211943878 -0.00036107591671359353 0 -0.014327877726772499 -0.00074992124022160852 0 -0.014714758448613096 -0.0010311757683683072 0 -0.014646232872570926 -0.00035732235410222029 0 -0.014679007632858903 0.00030103005056148049 0 -0.014646232872570926 -0.00035732235410222029 0 -0.014386949593956304 3.918349254833535e-05 0 -0.014646232872570926 -0.00035732235410222029 0 -0.01442497631023533 -0.00020883558863653612 0 -0.014386949593956304 3.918349254833535e-05 0 -0.014327877726772499 -0.00074992124022160852 0 -0.014586886953031722 -0.00037420259658107221 0 -0.014646232872570926 -0.00035732235410222029 0 -0.014586886953031722 -0.00037420259658107221 0 -0.014474978151739693 -0.00025686151202594361 0 -0.014578970658044825 -0.00032419734742461834 0 -0.014578970658044825 -0.00032419734742461834 0 -0.014579167807007623 -0.00033062401767441007 0 -0.014595532116636114 -0.00040419461378445553 0 -0.014586886953031722 -0.00037420259658107221 0 -0.014578970658044825 -0.00032419734742461834 0 -0.014579167807007623 -0.00033062401767441007 0 -0.014579167807007623 -0.00033062401767441007 0 -0.014646232872570926 -0.00035732235410222029 0 -0.01442497631023533 -0.00020883558863653612 0 -0.014586886953031722 -0.00037420259658107221 0 -0.014579167807007623 -0.00033062401767441007 0 -0.014646232872570926 -0.00035732235410222029 0 -0.014579167807007623 -0.00033062401767441007 0 -0.01442497631023533 -0.00020883558863653612 0 -0.014253442984112715 -0.00032637587160599051 0 -0.014579167807007623 -0.00033062401767441007 0 -0.014253442984112715 -0.00032637587160599051 0 -0.014595532116636114 -0.00040419461378445553 0 -0.01442497631023533 -0.00020883558863653612 0 -0.014253442984112715 -0.00032637587160599051 0 -0.014101080441087365 -5.4114576769753584e-05 0 -0.014060038518363214 0.00049951570747452663 0 -0.014101080441087365 -5.4114576769753584e-05 0 -0.014386949593956304 3.918349254833535e-05 0 -0.014060038518363214 0.00049951570747452663 0 -0.014679007632858903 0.00030103005056148049 0 -0.014386949593956304 3.918349254833535e-05 0 -0.01442497631023533 -0.00020883558863653612 0 -0.014101080441087365 -5.4114576769753584e-05 0 -0.014386949593956304 3.918349254833535e-05 0 -0.014060038518363214 0.00049951570747452663 0 -0.014101080441087365 -5.4114576769753584e-05 0 -0.013405951026188894 0.000279068113970559 0 -0.014101080441087365 -5.4114576769753584e-05 0 -0.0136670512588673 -0.00032745528500701515 0 -0.013405951026188894 0.000279068113970559 0 -0.014253442984112715 -0.00032637587160599051 0 -0.014101080441087365 -5.4114576769753584e-05 0 -0.0136670512588673 -0.00032745528500701515 0 -0.014253442984112715 -0.00032637587160599051 0 -0.0136670512588673 -0.00032745528500701515 0 -0.013770613984532356 -0.00096223066448695711 0 -0.0136670512588673 -0.00032745528500701515 0 -0.013162135983288737 -0.00019470503531482237 0 -0.013113921284944399 -0.00065752105641890383 0 -0.012807288322356379 -0.00034914914032638467 0 -0.013162135983288737 -0.00019470503531482237 0 -0.013113921284944399 -0.00065752105641890383 0 -0.012544835962411469 -0.00014072549828580554 0 -0.013162135983288737 -0.00019470503531482237 0 -0.013405951026188894 0.000279068113970559 0 -0.0136670512588673 -0.00032745528500701515 0 -0.013162135983288737 -0.00019470503531482237 0 -0.013405951026188894 0.000279068113970559 0 -0.012542663349655604 -0.00011726576467769054 0 -0.012669001616091703 -3.6925027307351435e-07 0 -0.015094804068218861 -5.9207361608834643e-05 0 -0.015122004787803841 -0.00010626026890236267 0 -0.014970918185311499 -6.4671368786875852e-05 0 -0.015128968359754805 1.9687021486789842e-05 0 -0.015094804068218861 -5.9207361608834643e-05 0 -0.014970918185311499 -6.4671368786875852e-05 0 -0.015122004787803841 -0.00010626026890236267 0 -0.014979291101526042 -0.00020047014541850085 0 -0.014970918185311499 -6.4671368786875852e-05 0 -0.015128968359754805 1.9687021486789842e-05 0 -0.015129950058613272 -5.5494359676012777e-05 0 -0.015094804068218861 -5.9207361608834643e-05 0 -0.015129950058613272 -5.5494359676012777e-05 0 -0.015094804068218861 -5.9207361608834643e-05 0 -0.015115292369993009 -9.8085327328055157e-05 0 -0.014693810932656587 -0.00026784466617502258 0 -0.014383984061330742 -0.00024582623137626893 0 -0.012942108196431204 -0.0013281909684752346 0 -0.013113921284944399 -0.00065752105641890383 0 -0.013770613984532356 -0.00096223066448695711 0 -0.014383984061330742 -0.00024582623137626893 0 -0.014272756194489257 -0.00064550725035737331 0 -0.0136670512588673 -0.00032745528500701515 0 -0.013113921284944399 -0.00065752105641890383 0 -0.013770613984532356 -0.00096223066448695711 0 -0.014979291101526042 -0.00020047014541850085 0 -0.014970918185311499 -6.4671368786875852e-05 0 -0.014851824878172106 -0.00011623112381517695 0 -0.014970918185311499 -6.4671368786875852e-05 0 -0.014851824878172106 -0.00011623112381517695 0 -0.014901706602762514 -2.7336871276975982e-05 0 -0.014722117367128898 -0.00010270461163528114 0 -0.014914043590961677 -9.2538455635082778e-06 0 -0.014901706602762514 -2.7336871276975982e-05 0 -0.014722117367128898 -0.00010270461163528114 0 -0.014851824878172106 -0.00011623112381517695 0 -0.014901706602762514 -2.7336871276975982e-05 0 -0.014979291101526042 -0.00020047014541850085 0 -0.014851824878172106 -0.00011623112381517695 0 -0.014595532116636114 -0.00040419461378445553 0 -0.014253442984112715 -0.00032637587160599051 0 -0.013770613984532356 -0.00096223066448695711 0 -0.014595532116636114 -0.00040419461378445553 0 -0.014722117367128898 -0.00010270461163528114 0 -0.014851824878172106 -0.00011623112381517695 0 -0.014595532116636114 -0.00040419461378445553 0 -0.014272756194489257 -0.00064550725035737331 0 -0.014615840489555217 -0.00040794810257046752 0 -0.014722117367128898 -0.00010270461163528114 0 -0.014595532116636114 -0.00040419461378445553 0 -0.014572503292965416 -0.00015514471932816175 0 -0.014572503292965416 -0.00015514471932816175 0 -0.014608305834170474 2.4999444542937731e-06 0 -0.014470627485873459 1.6853028778226126e-05 0 -0.014578970658044825 -0.00032419734742461834 0 -0.014595532116636114 -0.00040419461378445553 0 -0.014572503292965416 -0.00015514471932816175 0 -0.014474978151739693 -0.00025686151202594361 0 -0.014572503292965416 -0.00015514471932816175 0 -0.014470627485873459 1.6853028778226126e-05 0 -0.014474978151739693 -0.00025686151202594361 0 -0.014578970658044825 -0.00032419734742461834 0 -0.014572503292965416 -0.00015514471932816175 0 -0.014722117367128898 -0.00010270461163528114 0 -0.014572503292965416 -0.00015514471932816175 0 -0.014608305834170474 2.4999444542937731e-06 0 -0.014745060110175356 -0.00010011422462673764 0 -0.014802363735526198 1.4490741843185355e-05 0 -0.014722117367128898 -0.00010270461163528114 0 -0.014608305834170474 2.4999444542937731e-06 0 -0.014683305596513641 4.1706889214614834e-05 0 -0.014608305834170474 2.4999444542937731e-06 0 -0.014683305596513641 4.1706889214614834e-05 0 -0.014737622979483018 2.0177691776096225e-05 0 -0.014914043590961677 -9.2538455635082778e-06 0 -0.014999887123497192 -7.8285983909260863e-09 0 -0.01499996029470763 -7.4320317525413021e-10 0 -0.014802363735526198 1.4490741843185355e-05 0 -0.01499990612346651 3.4583572421574078e-08 0 -0.014914043590961677 -9.2538455635082778e-06 0 -0.014961433384890642 -5.3767096102070932e-06 0 -0.014999887123497192 -7.8285983909260863e-09 0 -0.014914043590961677 -9.2538455635082778e-06 0 -0.014961433384890642 -5.3767096102070932e-06 0 -0.014901706602762514 -2.7336871276975982e-05 0 -0.014970918185311499 -6.4671368786875852e-05 0 -0.014901706602762514 -2.7336871276975982e-05 0 -0.014984501901003191 -1.3175868776186977e-05 0 -0.014961433384890642 -5.3767096102070932e-06 0 -0.014901706602762514 -2.7336871276975982e-05 0 -0.014984501901003191 -1.3175868776186977e-05 0 -0.014961433384890642 -5.3767096102070932e-06 0 -0.014984501901003191 -1.3175868776186977e-05 0 -0.015000005261817863 3.230525754391196e-08 0 -0.014961433384890642 -5.3767096102070932e-06 0 -0.014999887123497192 -7.8285983909260863e-09 0 -0.015000005261817863 3.230525754391196e-08 0 -0.015017358415273621 -2.4747782538859746e-05 0 -0.014984501901003191 -1.3175868776186977e-05 0 -0.015000005261817863 3.230525754391196e-08 0 -0.015071255084003313 1.5575520262017016e-05 0 -0.014999963790238562 -1.44724600900386e-08 0 -0.015017358415273621 -2.4747782538859746e-05 0 -0.014970918185311499 -6.4671368786875852e-05 0 -0.014984501901003191 -1.3175868776186977e-05 0 -0.015071255084003313 1.5575520262017016e-05 0 -0.014974488092973796 -6.5990869979821415e-05 0 -0.014506455698595606 -1.866533972294718e-05 0 -0.014647341250791463 -1.5974051457778502e-05 0 -0.014592098283448651 1.8094636874230551e-05 0 -0.012474618414417861 0.00070871858231536704 0 -0.012723187696002867 0.00014838189995308552 0 -0.013407864027572155 0.00049970347369617191 0 -0.013317523971712762 0.00040131795940576565 0 -0.014067063820969158 0.00021318378262907375 0 -0.014647341250791463 -1.5974051457778502e-05 0 -0.014642723821487836 1.0124223188726671e-05 0 -0.014592098283448651 1.8094636874230551e-05 0 -0.012474618414417861 0.00070871858231536704 0 -0.012723187696002867 0.00014838189995308552 0 -0.012091907989442955 0.00014270186412519784 0 -0.012413136099792428 -0.00043827858586359083 0 -0.012723187696002867 0.00014838189995308552 0 -0.012091907989442955 0.00014270186412519784 0 -0.012413136099792428 -0.00043827858586359083 0 -0.012723187696002867 0.00014838189995308552 0 -0.013294125197170931 -0.00017800350362717581 0 -0.012723187696002867 0.00014838189995308552 0 -0.013294125197170931 -0.00017800350362717581 0 -0.013407864027572155 0.00049970347369617191 0 -0.013294125197170931 -0.00017800350362717581 0 -0.014470627485873459 1.6853028778226126e-05 0 -0.013407864027572155 0.00049970347369617191 0 -0.014021433473273724 -0.00039642030286013381 0 -0.013294125197170931 -0.00017800350362717581 0 -0.014470627485873459 1.6853028778226126e-05 0 -0.014021433473273724 -0.00039642030286013381 0 -0.014474978151739693 -0.00025686151202594361 0 -0.014470627485873459 1.6853028778226126e-05 0 -0.014608305834170474 2.4999444542937731e-06 0 -0.014470627485873459 1.6853028778226126e-05 0 -0.014685983056065732 -1.1887312846186749e-05 0 -0.014470627485873459 1.6853028778226126e-05 0 -0.014647341250791463 -1.5974051457778502e-05 0 -0.014685983056065732 -1.1887312846186749e-05 0 -0.014427083015659604 4.869743344719905e-05 0 -0.014067063820969158 0.00021318378262907375 0 -0.014647341250791463 -1.5974051457778502e-05 0 -0.014642723821487836 1.0124223188726671e-05 0 -0.014685983056065732 -1.1887312846186749e-05 0 -0.014685983056065732 -1.1887312846186749e-05 0 -0.014902381394940196 2.4041903393605415e-05 0 -0.014633975409544506 6.4487402202033852e-05 0 -0.014642723821487836 1.0124223188726671e-05 0 -0.014685983056065732 -1.1887312846186749e-05 0 -0.014633975409544506 6.4487402202033852e-05 0 -0.014608305834170474 2.4999444542937731e-06 0 -0.014685983056065732 -1.1887312846186749e-05 0 -0.014737622979483018 2.0177691776096225e-05 0 -0.014685983056065732 -1.1887312846186749e-05 0 -0.014737622979483018 2.0177691776096225e-05 0 -0.014902381394940196 2.4041903393605415e-05 0 -0.014683305596513641 4.1706889214614834e-05 0 -0.014737622979483018 2.0177691776096225e-05 0 -0.014902381394940196 2.4041903393605415e-05 0 -0.014683305596513641 4.1706889214614834e-05 0 -0.014999270955749485 6.1419868120467303e-08 0 -0.014902381394940196 2.4041903393605415e-05 0 -0.014999270955749485 6.1419868120467303e-08 0 -0.014902381394940196 2.4041903393605415e-05 0 -0.015000166386812076 -2.3327964328637786e-08 0 -0.014904325089158397 3.2680137277499432e-05 0 -0.014771774332401764 3.6983475506596712e-05 0 -0.014902381394940196 2.4041903393605415e-05 0 -0.014987194207751717 2.7201118642382281e-05 0 -0.015000166386812076 -2.3327964328637786e-08 0 -0.015000166386812076 -2.3327964328637786e-08 0 -0.014998939624576154 8.1905493267134467e-06 0 -0.014999948628544304 1.6780983152650674e-08 0 -0.014987194207751717 2.7201118642382281e-05 0 -0.014998939624576154 8.1905493267134467e-06 0 -0.015000084797998362 6.1835151366371755e-06 0 -0.014987194207751717 2.7201118642382281e-05 0 -0.015000166386812076 -2.3327964328637786e-08 0 -0.014998939624576154 8.1905493267134467e-06 0 -0.014633975409544506 6.4487402202033852e-05 0 -0.014592098283448651 1.8094636874230551e-05 0 -0.014504823642671933 6.9230628598690298e-05 0 -0.014771774332401764 3.6983475506596712e-05 0 -0.014920150685669294 3.502443755780828e-05 0 -0.014642723821487836 1.0124223188726671e-05 0 -0.014633975409544506 6.4487402202033852e-05 0 -0.014592098283448651 1.8094636874230551e-05 0 -0.014506455698595606 -1.866533972294718e-05 0 -0.014592098283448651 1.8094636874230551e-05 0 -0.014504823642671933 6.9230628598690298e-05 0 -0.014998939624576154 8.1905493267134467e-06 0 -0.015000084797998362 6.1835151366371755e-06 0 -0.014999948628544304 1.6780983152650674e-08 0 -0.015000084797998362 6.1835151366371755e-06 0 -0.014999948628544304 1.6780983152650674e-08 0 -0.014997753599167133 3.0537090601160172e-06 0 -0.014999948628544304 1.6780983152650674e-08 0 -0.014997753599167133 3.0537090601160172e-06 0 -0.015000027278415633 -3.4312229374144132e-09 0 -0.015000027278415633 -3.4312229374144132e-09 0 -0.014993031210497514 2.0017574954162563e-06 0 -0.01500178196718469 -2.2318759481318455e-06 0 -0.014997753599167133 3.0537090601160172e-06 0 -0.015000027278415633 -3.4312229374144132e-09 0 -0.014993031210497514 2.0017574954162563e-06 0 -0.013828191379004815 0.00021549750731610204 0 -0.012758296294702289 0.00037973022350119861 0 -0.013828191379004815 0.00021549750731610204 0 -0.015049502701646711 -6.4654724903849602e-05 0 -0.014920150685669294 3.502443755780828e-05 0 -0.013828191379004815 0.00021549750731610204 0 -0.014506455698595606 -1.866533972294718e-05 0 -0.014504823642671933 6.9230628598690298e-05 0 -0.014314600313727882 3.6976855792734874e-05 0 -0.015000084797998362 6.1835151366371755e-06 0 -0.014997753599167133 3.0537090601160172e-06 0 -0.014993031210497514 2.0017574954162563e-06 0 -0.013317523971712762 0.00040131795940576565 0 -0.013828191379004815 0.00021549750731610204 0 -0.012474618414417861 0.00070871858231536704 0 -0.011714595777468596 0.00085334929112294323 0 -0.012091907989442955 0.00014270186412519784 0 -0.011714595777468596 0.00085334929112294323 0 -0.011551666809926262 0.00025303101366128626 0 -0.012091907989442955 0.00014270186412519784 0 -0.011714595777468596 0.00085334929112294323 0 -0.011551666809926262 0.00025303101366128626 0 -0.011196663285862803 0.00029296944750829249 0 -0.011714595777468596 0.00085334929112294323 0 -0.011196663285862803 0.00029296944750829249 0 -0.011109238129918871 0.00062766069676003502 0 -0.011551666809926262 0.00025303101366128626 0 -0.012091907989442955 0.00014270186412519784 0 -0.011260858226776155 -0.00023337208855343257 0 -0.011551666809926262 0.00025303101366128626 0 -0.011196663285862803 0.00029296944750829249 0 -0.011260858226776155 -0.00023337208855343257 0 -0.010912550943396691 -6.123219288722834e-07 0 -0.010554565494424342 6.2478945061014018e-05 0 -0.010674321471002526 -0.00018288551571866204 0 -0.010912550943396691 -6.123219288722834e-07 0 -0.010863569656008253 0.00027290266754627319 0 -0.010554565494424342 6.2478945061014018e-05 0 -0.010912550943396691 -6.123219288722834e-07 0 -0.011196663285862803 0.00029296944750829249 0 -0.011260858226776155 -0.00023337208855343257 0 -0.010912550943396691 -6.123219288722834e-07 0 -0.011196663285862803 0.00029296944750829249 0 -0.010863569656008253 0.00027290266754627319 0 -0.011196663285862803 0.00029296944750829249 0 -0.010863569656008253 0.00027290266754627319 0 -0.011109238129918871 0.00062766069676003502 0 -0.010863569656008253 0.00027290266754627319 0 -0.010627662559724976 0.00041208255843706832 0 -0.011109238129918871 0.00062766069676003502 0 -0.010863569656008253 0.00027290266754627319 0 -0.010627662559724976 0.00041208255843706832 0 -0.010554565494424342 6.2478945061014018e-05 0 -0.01266589454372795 0.00029544105579662304 0 -0.012758296294702289 0.00037973022350119861 0 -0.014884665575641621 0.00011479195179697134 0 -0.014785368500892432 6.769870365341379e-05 0 -0.014865483415974873 3.2711999721204311e-05 0 -0.014884665575641621 0.00011479195179697134 0 -0.014785368500892432 6.769870365341379e-05 0 -0.014662105876712303 0.0001304715214911221 0 -0.014785368500892432 6.769870365341379e-05 0 -0.014865483415974873 3.2711999721204311e-05 0 -0.014709210688487169 -3.2411870399871276e-05 0 -0.01435288489219746 7.1556406736042284e-05 0 -0.014662105876712303 0.0001304715214911221 0 -0.014709210688487169 -3.2411870399871276e-05 0 -0.014785368500892432 6.769870365341379e-05 0 -0.014662105876712303 0.0001304715214911221 0 -0.014709210688487169 -3.2411870399871276e-05 0 -0.015000027278415633 -3.4312229374144132e-09 0 -0.01500178196718469 -2.2318759481318455e-06 0 -0.014999939934724963 -1.5417636321419876e-08 0 -0.015049502701646711 -6.4654724903849602e-05 0 -0.014881358437781532 6.1094046776470513e-06 0 -0.01500178196718469 -2.2318759481318455e-06 0 -0.014999939934724963 -1.5417636321419876e-08 0 -0.014978522800130298 -1.4732881804895451e-05 0 -0.014865483415974873 3.2711999721204311e-05 0 -0.014709210688487169 -3.2411870399871276e-05 0 -0.014978522800130298 -1.4732881804895451e-05 0 -0.014999939934724963 -1.5417636321419876e-08 0 -0.014978522800130298 -1.4732881804895451e-05 0 -0.014999960336906421 -4.1510957663580344e-09 0 -0.014978522800130298 -1.4732881804895451e-05 0 -0.014985017173218793 1.1256339626804069e-05 0 -0.014949087677861319 2.4716613190431335e-05 0 -0.014978522800130298 -1.4732881804895451e-05 0 -0.014999960336906421 -4.1510957663580344e-09 0 -0.014985017173218793 1.1256339626804069e-05 0 -0.014999960336906421 -4.1510957663580344e-09 0 -0.014985017173218793 1.1256339626804069e-05 0 -0.014993493689999747 1.5066482973408816e-05 0 -0.014985017173218793 1.1256339626804069e-05 0 -0.014980951502523782 3.2185055303227131e-05 0 -0.014993493689999747 1.5066482973408816e-05 0 -0.014985017173218793 1.1256339626804069e-05 0 -0.014980951502523782 3.2185055303227131e-05 0 -0.014961799597416539 5.49008199772946e-05 0 -0.014884665575641621 0.00011479195179697134 0 -0.014865483415974873 3.2711999721204311e-05 0 -0.014949087677861319 2.4716613190431335e-05 0 -0.014884665575641621 0.00011479195179697134 0 -0.014961799597416539 5.49008199772946e-05 0 -0.014949087677861319 2.4716613190431335e-05 0 -0.014865483415974873 3.2711999721204311e-05 0 -0.014978522800130298 -1.4732881804895451e-05 0 -0.014949087677861319 2.4716613190431335e-05 0 -0.014985017173218793 1.1256339626804069e-05 0 -0.014961799597416539 5.49008199772946e-05 0 -0.014949087677861319 2.4716613190431335e-05 0 -0.014999980896616923 -7.9598075435472281e-08 0 -0.015014928018223723 -7.3946303157570824e-05 0 -0.015000024270650784 1.6418023146595988e-08 0 -0.014993493689999747 1.5066482973408816e-05 0 -0.014999601446716465 1.6725281788215713e-05 0 -0.014999960336906421 -4.1510957663580344e-09 0 -0.015000024270650784 1.6418023146595988e-08 0 -0.014993493689999747 1.5066482973408816e-05 0 -0.014993493689999747 1.5066482973408816e-05 0 -0.014999601446716465 1.6725281788215713e-05 0 -0.014986829332038511 3.0049772356144308e-05 0 -0.014999601446716465 1.6725281788215713e-05 0 -0.014986829332038511 3.0049772356144308e-05 0 -0.014994470524450743 2.5466695103060089e-05 0 -0.014980951502523782 3.2185055303227131e-05 0 -0.014986829332038511 3.0049772356144308e-05 0 -0.014969486007089472 4.0664638500607159e-05 0 -0.014980951502523782 3.2185055303227131e-05 0 -0.014993493689999747 1.5066482973408816e-05 0 -0.014986829332038511 3.0049772356144308e-05 0 -0.014394861051723554 -0.00032811635887762866 0 -0.013263836225111363 -0.00024479034557644338 0 -0.013569529847315768 -0.00071494289984961506 0 -0.013199677584913225 -0.00048064457075769183 0 -0.012925786436255183 -0.00084446609778562605 0 -0.013569529847315768 -0.00071494289984961506 0 -0.01388946506995575 -0.00041528025989711546 0 -0.013475249575774889 -0.00010744425617134858 0 -0.013569529847315768 -0.00071494289984961506 0 -0.013199677584913225 -0.00048064457075769183 0 -0.013475249575774889 -0.00010744425617134858 0 -0.011659310892368012 -0.00031052760588228147 0 -0.012163671182027122 -0.00055970343462405706 0 -0.014394861051723554 -0.00032811635887762866 0 -0.014685612101754569 -0.00041376296799860724 0 -0.01388946506995575 -0.00041528025989711546 0 -0.013475249575774889 -0.00010744425617134858 0 -0.01428680242347859 -0.00025951546014493727 0 -0.013569529847315768 -0.00071494289984961506 0 -0.01388946506995575 -0.00041528025989711546 0 -0.014227958789751643 -0.00057821035515903197 0 -0.014884665575641621 0.00011479195179697134 0 -0.014961799597416539 5.49008199772946e-05 0 -0.014986176736724607 9.6963066446074161e-05 0 -0.010627662559724976 0.00041208255843706832 0 -0.010251433130657343 0.00024036417582573547 0 -0.010249840873712605 0.0002712491604508664 0 -0.010627662559724976 0.00041208255843706832 0 -0.010251433130657343 0.00024036417582573547 0 -0.010554565494424342 6.2478945061014018e-05 0 -0.01266589454372795 0.00029544105579662304 0 -0.013263836225111363 -0.00024479034557644338 0 -0.014980951502523782 3.2185055303227131e-05 0 -0.014961799597416539 5.49008199772946e-05 0 -0.014969486007089472 4.0664638500607159e-05 0 -0.014964443655716907 0.00043151693060297186 0 -0.013263836225111363 -0.00024479034557644338 0 -0.011659310892368012 -0.00031052760588228147 0 -0.013263836225111363 -0.00024479034557644338 0 -0.010179356522241095 0.0001312523200764891 0 -0.010251433130657343 0.00024036417582573547 0 -0.010249840873712605 0.0002712491604508664 0 -0.010339549246421558 0.00035698933855409328 0 -0.010009370297947786 -0.00053669266377048938 0 -0.010179356522241095 0.0001312523200764891 0 -0.010251433130657343 0.00024036417582573547 0 -0.010355083313572228 -4.5465216599675884e-05 0 -0.010554565494424342 6.2478945061014018e-05 0 -0.010346671763937988 -0.0003045943522545995 0 -0.010674321471002526 -0.00018288551571866204 0 -0.010251433130657343 0.00024036417582573547 0 -0.010554565494424342 6.2478945061014018e-05 0 -0.010346671763937988 -0.0003045943522545995 0 -0.010512300065634172 -0.0011727328705792382 0 -0.010460382399113587 -0.0012738380422223892 0 -0.010356490097659895 -0.0011394776315596937 0 -0.010009370297947786 -0.00053669266377048938 0 -0.012163671182027122 -0.00055970343462405706 0 -0.010179356522241095 0.0001312523200764891 0 -0.010355083313572228 -4.5465216599675884e-05 0 -0.010104745396867456 8.4957808032680757e-06 0 -0.010512300065634172 -0.0011727328705792382 0 -0.010460382399113587 -0.0012738380422223892 0 -0.010558944726575811 -0.0013463127901296652 0 -0.0096682068950323281 -0.00047945587403887854 0 -0.0099126831421957936 -0.0012918605146233519 0 -0.010080839776616701 -0.0010177389245422453 0 -0.010009370297947786 -0.00053669266377048938 0 -0.010103032915564386 -0.0013419331279291783 0 -0.010103032915564386 -0.0013419331279291783 0 -0.010091132585853922 -0.001128193617607443 0 -0.014896491678283563 -0.00081996047338661669 0 -0.014708017194034435 -0.00083336358841888322 0 -0.014721539528167219 -0.00094385711155724097 0 -0.012163671182027122 -0.00055970343462405706 0 -0.012575735085837382 -0.0012181408337175899 0 -0.012163671182027122 -0.00055970343462405706 0 -0.014979040393530466 -0.00059587897253999427 0 -0.014896491678283563 -0.00081996047338661669 0 -0.014715923658348578 -0.00077688742885701043 0 -0.014708017194034435 -0.00083336358841888322 0 -0.014896491678283563 -0.00081996047338661669 0 -0.014801930010627221 -0.0010252831744486501 0 -0.014721539528167219 -0.00094385711155724097 0 -0.010460382399113587 -0.0012738380422223892 0 -0.010356490097659895 -0.0011394776315596937 0 -0.010366387497445315 -0.0013378943258759788 0 -0.010356490097659895 -0.0011394776315596937 0 -0.010250739994067974 -0.0012818870439585558 0 -0.010366387497445315 -0.0013378943258759788 0 -0.010250739994067974 -0.0012818870439585558 0 -0.010238314243484611 -0.0014151572888790535 0 -0.010366387497445315 -0.0013378943258759788 0 -0.010238314243484611 -0.0014151572888790535 0 -0.010366387497445315 -0.0013378943258759788 0 -0.01031241385203922 -0.0014428179721195809 0 -0.010366387497445315 -0.0013378943258759788 0 -0.010368380984587896 -0.0014546019408447307 0 -0.01031241385203922 -0.0014428179721195809 0 -0.010366387497445315 -0.0013378943258759788 0 -0.010368380984587896 -0.0014546019408447307 0 -0.010422177529800472 -0.0015006224972275984 0 -0.010332666036615618 -0.0014887724410343438 0 -0.010393043084573565 -0.0015001326917849639 0 -0.010335198889506132 -0.0015417443957100978 0 -0.010368380984587896 -0.0014546019408447307 0 -0.010332666036615618 -0.0014887724410343438 0 -0.010393043084573565 -0.0015001326917849639 0 -0.010332666036615618 -0.0014887724410343438 0 -0.010251679019462175 -0.0015048064583154004 0 -0.010335198889506132 -0.0015417443957100978 0 -0.010332666036615618 -0.0014887724410343438 0 -0.01031241385203922 -0.0014428179721195809 0 -0.010251679019462175 -0.0015048064583154004 0 -0.010368380984587896 -0.0014546019408447307 0 -0.010332666036615618 -0.0014887724410343438 0 -0.01031241385203922 -0.0014428179721195809 0 -0.010238314243484611 -0.0014151572888790535 0 -0.010251679019462175 -0.0015048064583154004 0 -0.01014975377374361 -0.0014264594673026427 0 -0.010238314243484611 -0.0014151572888790535 0 -0.01031241385203922 -0.0014428179721195809 0 -0.010251679019462175 -0.0015048064583154004 0 -0.010103032915564386 -0.0013419331279291783 0 -0.0093377302395841258 -0.002259586087016405 0 -0.010558944726575811 -0.0013463127901296652 0 -0.010457248685278591 -0.0013915034734003349 0 -0.010462867922712366 -0.0014999791435316603 0 -0.0099084359470735413 -0.0013000865989110876 0 -0.010229621045328619 -0.0013953639487474295 0 -0.010080839776616701 -0.0010177389245422453 0 -0.010460382399113587 -0.0012738380422223892 0 -0.010558944726575811 -0.0013463127901296652 0 -0.010457248685278591 -0.0013915034734003349 0 -0.010460382399113587 -0.0012738380422223892 0 -0.010366387497445315 -0.0013378943258759788 0 -0.010457248685278591 -0.0013915034734003349 0 -0.010520128641162113 -0.0012331001519093857 0 -0.0098219730251722301 -0.0018960771335941847 0 -0.010366387497445315 -0.0013378943258759788 0 -0.010457248685278591 -0.0013915034734003349 0 -0.010438416450700606 -0.001500324403856536 0 -0.010393043084573565 -0.0015001326917849639 0 -0.010427985174003482 -0.0015198746029580189 0 -0.010335198889506132 -0.0015417443957100978 0 -0.010457248685278591 -0.0013915034734003349 0 -0.010438416450700606 -0.001500324403856536 0 -0.010462867922712366 -0.0014999791435316603 0 -0.010368380984587896 -0.0014546019408447307 0 -0.010422177529800472 -0.0015006224972275984 0 -0.010393043084573565 -0.0015001326917849639 0 -0.0098219730251722301 -0.0018960771335941847 0 -0.010182812361998817 -0.0018009995911152904 0 -0.010418783122523222 -0.0015016552210313735 0 -0.010393043084573565 -0.0015001326917849639 0 -0.010427985174003482 -0.0015198746029580189 0 -0.009440873287015164 -0.0019643545860643171 0 -0.0090993454071223168 -0.0021634001468445836 0 -0.0093326549429898695 -0.0018725427813969845 0 -0.0093827148289552954 -0.0018707732195180223 0 -0.0093549091678318801 -0.0019157480310855936 0 -0.0098219730251722301 -0.0018960771335941847 0 -0.0090993454071223168 -0.0021634001468445836 0 -0.0098219730251722301 -0.0018960771335941847 0 -0.009440873287015164 -0.0019643545860643171 0 -0.009440873287015164 -0.0019643545860643171 0 -0.0093377302395841258 -0.002259586087016405 0 -0.0096823010635236958 -0.0015580590128431828 0 -0.0094172934297649981 -0.0019844442030515401 0 -0.0098033801131760575 -0.0019726887190654012 0 -0.0085405774611960333 -0.0029634028977956329 0 -0.0091448970829288521 -0.0029469041806239999 0 -0.0088493476778784014 -0.0032295016835565812 0 -0.010103032915564386 -0.0013419331279291783 0 -0.009440873287015164 -0.0019643545860643171 0 -0.0093377302395841258 -0.002259586087016405 0 -0.010364907660717008 -0.0018731092860740602 0 -0.010116612511621407 -0.0019878470105503857 0 -0.010563111506802269 -0.0015174562116313942 0 -0.010970826649889933 -0.0019431361487677185 0 -0.0099084359470735413 -0.0013000865989110876 0 -0.010116612511621407 -0.0019878470105503857 0 -0.010229621045328619 -0.0013953639487474295 0 -0.010116612511621407 -0.0019878470105503857 0 -0.010229621045328619 -0.0013953639487474295 0 -0.010563111506802269 -0.0015174562116313942 0 -0.010229621045328619 -0.0013953639487474295 0 -0.010563111506802269 -0.0015174562116313942 0 -0.010477259794172749 -0.0011520492671883882 0 -0.010229621045328619 -0.0013953639487474295 0 -0.010080839776616701 -0.0010177389245422453 0 -0.010477259794172749 -0.0011520492671883882 0 -0.010968892031454305 -0.00127047082319332 0 -0.010563111506802269 -0.0015174562116313942 0 -0.010970826649889933 -0.0019431361487677185 0 -0.010968892031454305 -0.00127047082319332 0 -0.010563111506802269 -0.0015174562116313942 0 -0.010477259794172749 -0.0011520492671883882 0 -0.010970826649889933 -0.0019431361487677185 0 -0.011587541750630046 -0.0019434646636976947 0 -0.011335275886850599 -0.001569176398002715 0 -0.010364907660717008 -0.0018731092860740602 0 -0.011533927789448955 -0.0019400946942542277 0 -0.0098060979875148856 -0.0018626567122489522 0 -0.011587541750630046 -0.0019434646636976947 0 -0.010510786274081698 -0.0025953334187256774 0 -0.011698614199053747 -0.002117008974814716 0 -0.011587541750630046 -0.0019434646636976947 0 -0.011560539503765141 -0.0023762364437112621 0 -0.011698614199053747 -0.002117008974814716 0 -0.011587541750630046 -0.0019434646636976947 0 -0.011691884963863067 -0.0018863713157984802 0 -0.011914320287587932 -0.0022038157822098525 0 -0.011698614199053747 -0.002117008974814716 0 -0.011691884963863067 -0.0018863713157984802 0 -0.011914320287587932 -0.0022038157822098525 0 -0.011698614199053747 -0.002117008974814716 0 -0.011560539503765141 -0.0023762364437112621 0 -0.011587541750630046 -0.0019434646636976947 0 -0.011674039622113672 -0.0015517689523523994 0 -0.011335275886850599 -0.001569176398002715 0 -0.011587541750630046 -0.0019434646636976947 0 -0.011691884963863067 -0.0018863713157984802 0 -0.011674039622113672 -0.0015517689523523994 0 -0.012044189448496773 -0.0012066540175554616 0 -0.011674039622113672 -0.0015517689523523994 0 -0.011500998807497657 -0.0007849043339286792 0 -0.012044189448496773 -0.0012066540175554616 0 -0.011691884963863067 -0.0018863713157984802 0 -0.011674039622113672 -0.0015517689523523994 0 -0.011674039622113672 -0.0015517689523523994 0 -0.011335275886850599 -0.001569176398002715 0 -0.011500998807497657 -0.0007849043339286792 0 -0.010968892031454305 -0.00127047082319332 0 -0.010970826649889933 -0.0019431361487677185 0 -0.011335275886850599 -0.001569176398002715 0 -0.010968892031454305 -0.00127047082319332 0 -0.011335275886850599 -0.001569176398002715 0 -0.011500998807497657 -0.0007849043339286792 0 -0.012044189448496773 -0.0012066540175554616 0 -0.012413136099792428 -0.00043827858586359083 0 -0.011500998807497657 -0.0007849043339286792 0 -0.012413136099792428 -0.00043827858586359083 0 -0.012091907989442955 0.00014270186412519784 0 -0.011500998807497657 -0.0007849043339286792 0 -0.012091907989442955 0.00014270186412519784 0 -0.011500998807497657 -0.0007849043339286792 0 -0.011260858226776155 -0.00023337208855343257 0 -0.010912550943396691 -6.123219288722834e-07 0 -0.011260858226776155 -0.00023337208855343257 0 -0.010897787374481573 -0.0004892636795991983 0 -0.011500998807497657 -0.0007849043339286792 0 -0.011260858226776155 -0.00023337208855343257 0 -0.010897787374481573 -0.0004892636795991983 0 -0.010346671763937988 -0.0003045943522545995 0 -0.010674321471002526 -0.00018288551571866204 0 -0.010897787374481573 -0.0004892636795991983 0 -0.010912550943396691 -6.123219288722834e-07 0 -0.010674321471002526 -0.00018288551571866204 0 -0.010897787374481573 -0.0004892636795991983 0 -0.010009370297947786 -0.00053669266377048938 0 -0.01072912046911685 -0.00054783512825571376 0 -0.010534454806541655 -0.00063376142749320408 0 -0.010080839776616701 -0.0010177389245422453 0 -0.010477259794172749 -0.0011520492671883882 0 -0.0096682068950323281 -0.00047945587403887854 0 -0.010534454806541655 -0.00063376142749320408 0 -0.010080839776616701 -0.0010177389245422453 0 -0.011477045022509152 -0.00077403127297382063 0 -0.01072912046911685 -0.00054783512825571376 0 -0.010968892031454305 -0.00127047082319332 0 -0.011500998807497657 -0.0007849043339286792 0 -0.010534454806541655 -0.00063376142749320408 0 -0.010968892031454305 -0.00127047082319332 0 -0.010534454806541655 -0.00063376142749320408 0 -0.010477259794172749 -0.0011520492671883882 0 -0.013484957557045983 -1.6514121044675041e-07 0 -0.013605556258340772 -0.00016625275763628024 0 -0.013483973373295812 -8.1417353875983081e-07 0 -0.012909206348806587 2.3257710512573192e-05 0 -0.012728490334658969 3.9129223433461106e-07 0 -0.013483973373295812 -8.1417353875983081e-07 0 -0.012909206348806587 2.3257710512573192e-05 0 -0.01282956995921819 -0.0003793307720690151 0 -0.013605556258340772 -0.00016625275763628024 0 -0.012418610772267826 7.746229826456593e-05 0 -0.012524861788034946 -7.6648804965589914e-05 0 -0.012634366883038392 -0.00012836594388381141 0 -0.012541325589444577 3.5447220407227871e-05 0 -0.012909206348806587 2.3257710512573192e-05 0 -0.01282956995921819 -0.0003793307720690151 0 -0.012541325589444577 3.5447220407227871e-05 0 -0.012524861788034946 -7.6648804965589914e-05 0 -0.012424288416186851 -2.053110802498823e-05 0 -0.012541325589444577 3.5447220407227871e-05 0 -0.014912672665109601 -0.00011366030606835533 0 -0.014936590546065519 -7.4268697553086556e-05 0 -0.014974616592114506 -7.333348351456855e-05 0 -0.013605556258340772 -0.00016625275763628024 0 -0.013889672452448253 -0.00010996756581805803 0 -0.012524861788034946 -7.6648804965589914e-05 0 -0.012634366883038392 -0.00012836594388381141 0 -0.012465254917213911 -0.00020281056354734834 0 -0.013842969435496349 1.426252846701186e-05 0 -0.014103137209849273 1.8311832593218083e-07 0 -0.014093750178176309 -1.0764633436068796e-05 0 -0.013486176681041049 -1.8552322083480813e-07 0 -0.013842969435496349 1.426252846701186e-05 0 -0.014103137209849273 1.8311832593218083e-07 0 -0.014912672665109601 -0.00011366030606835533 0 -0.014890141812652247 -8.0901828295185224e-05 0 -0.014936590546065519 -7.4268697553086556e-05 0 -0.013605556258340772 -0.00016625275763628024 0 -0.014526329625258474 -2.7401107188200814e-05 0 -0.01499920593261451 2.381126432468513e-07 0 -0.014962928518921384 -4.4968910679617491e-06 0 -0.015000153604691771 -8.7201673410773373e-08 0 -0.014526329625258474 -2.7401107188200814e-05 0 -0.01472173154850699 1.1619899971277157e-07 0 -0.014890141812652247 -8.0901828295185224e-05 0 -0.014723212333023776 -3.4074763431190768e-07 0 -0.014892990943968201 -1.2327986172806381e-05 0 -0.014103137209849273 1.8311832593218083e-07 0 -0.014093750178176309 -1.0764633436068796e-05 0 -0.014721737359027333 -1.8376052947530337e-07 0 -0.014890141812652247 -8.0901828295185224e-05 0 -0.014892990943968201 -1.2327986172806381e-05 0 -0.014941939731417702 -4.3091509970793687e-05 0 -0.014892990943968201 -1.2327986172806381e-05 0 -0.01499920593261451 2.381126432468513e-07 0 -0.014962928518921384 -4.4968910679617491e-06 0 -0.014723212333023776 -3.4074763431190768e-07 0 -0.014892990943968201 -1.2327986172806381e-05 0 -0.01499920593261451 2.381126432468513e-07 0 -0.014892990943968201 -1.2327986172806381e-05 0 -0.014962928518921384 -4.4968910679617491e-06 0 -0.014941939731417702 -4.3091509970793687e-05 0 -0.014941939731417702 -4.3091509970793687e-05 0 -0.014958527569708018 -5.7157992448321768e-05 0 -0.014977356309584699 -2.2196797361600587e-05 0 -0.014962928518921384 -4.4968910679617491e-06 0 -0.014941939731417702 -4.3091509970793687e-05 0 -0.014977356309584699 -2.2196797361600587e-05 0 -0.014890141812652247 -8.0901828295185224e-05 0 -0.014941939731417702 -4.3091509970793687e-05 0 -0.014936590546065519 -7.4268697553086556e-05 0 -0.014941939731417702 -4.3091509970793687e-05 0 -0.014936590546065519 -7.4268697553086556e-05 0 -0.014958527569708018 -5.7157992448321768e-05 0 -0.014936590546065519 -7.4268697553086556e-05 0 -0.014958527569708018 -5.7157992448321768e-05 0 -0.014974616592114506 -7.333348351456855e-05 0 -0.014958527569708018 -5.7157992448321768e-05 0 -0.014975208775885578 -5.9517700866939341e-05 0 -0.014974616592114506 -7.333348351456855e-05 0 -0.014975208775885578 -5.9517700866939341e-05 0 -0.014985895808910717 -3.0769626037316371e-05 0 -0.014975410472198997 -6.5002710071759501e-05 0 -0.014975208775885578 -5.9517700866939341e-05 0 -0.014975248281562683 -4.2241353333214471e-05 0 -0.014985895808910717 -3.0769626037316371e-05 0 -0.014958527569708018 -5.7157992448321768e-05 0 -0.014975208775885578 -5.9517700866939341e-05 0 -0.014975248281562683 -4.2241353333214471e-05 0 -0.014975248281562683 -4.2241353333214471e-05 0 -0.014985895808910717 -3.0769626037316371e-05 0 -0.014977356309584699 -2.2196797361600587e-05 0 -0.014958527569708018 -5.7157992448321768e-05 0 -0.014975248281562683 -4.2241353333214471e-05 0 -0.014977356309584699 -2.2196797361600587e-05 0 -0.014985895808910717 -3.0769626037316371e-05 0 -0.014977356309584699 -2.2196797361600587e-05 0 -0.015000153604691771 -8.7201673410773373e-08 0 -0.014962928518921384 -4.4968910679617491e-06 0 -0.014977356309584699 -2.2196797361600587e-05 0 -0.015000153604691771 -8.7201673410773373e-08 0 -0.014985895808910717 -3.0769626037316371e-05 0 -0.015000153604691771 -8.7201673410773373e-08 0 -0.015001733933331539 -1.980547396607998e-05 0 -0.014985895808910717 -3.0769626037316371e-05 0 -0.015001733933331539 -1.980547396607998e-05 0 -0.014975410472198997 -6.5002710071759501e-05 0 -0.014629960239636586 -0.00011543063198344324 0 -0.013889672452448253 -0.00010996756581805803 0 -0.014069335839509882 -0.00021039537103437783 0 -0.013937502750553039 -0.00048982977419433028 0 -0.014164544095054427 -0.00056994253764125111 0 -0.014069335839509882 -0.00021039537103437783 0 -0.013937502750553039 -0.00048982977419433028 0 -0.013728235499279047 -0.00036280505518325419 0 -0.013937502750553039 -0.00048982977419433028 0 -0.013728235499279047 -0.00036280505518325419 0 -0.013774841500664201 -0.0006467950754940493 0 -0.013889672452448253 -0.00010996756581805803 0 -0.013036096184133403 -0.00035253246713048172 0 -0.014010710327328642 -0.00013275452862643989 0 -0.013889672452448253 -0.00010996756581805803 0 -0.012524861788034946 -7.6648804965589914e-05 0 -0.012465254917213911 -0.00020281056354734834 0 -0.012424288416186851 -2.053110802498823e-05 0 -0.013937502750553039 -0.00048982977419433028 0 -0.013774841500664201 -0.0006467950754940493 0 -0.013985237861633863 -0.00076248079313657275 0 -0.013937502750553039 -0.00048982977419433028 0 -0.014164544095054427 -0.00056994253764125111 0 -0.013985237861633863 -0.00076248079313657275 0 -0.015000153604691771 -8.7201673410773373e-08 0 -0.015001121186890291 -4.0880950196735493e-06 0 -0.014999930238165293 3.2988262618161212e-08 0 -0.014164544095054427 -0.00056994253764125111 0 -0.014253421508493291 -0.00078567662186761482 0 -0.013985237861633863 -0.00076248079313657275 0 -0.014164544095054427 -0.00056994253764125111 0 -0.014516908196670191 -0.00061477898729673857 0 -0.014253421508493291 -0.00078567662186761482 0 -0.014164544095054427 -0.00056994253764125111 0 -0.014377920184279861 -0.00036083726294088443 0 -0.014516908196670191 -0.00061477898729673857 0 -0.014069335839509882 -0.00021039537103437783 0 -0.014164544095054427 -0.00056994253764125111 0 -0.014377920184279861 -0.00036083726294088443 0 -0.015000153604691771 -8.7201673410773373e-08 0 -0.015001733933331539 -1.980547396607998e-05 0 -0.015001121186890291 -4.0880950196735493e-06 0 -0.014629960239636586 -0.00011543063198344324 0 -0.014714808035340841 -3.7394982122411786e-05 0 -0.014377920184279861 -0.00036083726294088443 0 -0.014472170141893802 -4.8572325089801319e-05 0 -0.014666429314912953 -0.00032748049037424609 0 -0.014069335839509882 -0.00021039537103437783 0 -0.014377920184279861 -0.00036083726294088443 0 -0.014472170141893802 -4.8572325089801319e-05 0 -0.014472170141893802 -4.8572325089801319e-05 0 -0.014666429314912953 -0.00032748049037424609 0 -0.01485148470958886 -0.00014143490007107056 0 -0.014714808035340841 -3.7394982122411786e-05 0 -0.014999944869543105 8.5599724651333989e-09 0 -0.014472170141893802 -4.8572325089801319e-05 0 -0.014999112822587706 5.0654950590895071e-08 0 -0.01485148470958886 -0.00014143490007107056 0 -0.015000613449361627 -6.9375647177810885e-09 0 -0.014979811290777542 -0.00022987362524575799 0 -0.01485148470958886 -0.00014143490007107056 0 -0.015000613449361627 -6.9375647177810885e-09 0 -0.014999112822587706 5.0654950590895071e-08 0 -0.01485148470958886 -0.00014143490007107056 0 -0.014979811290777542 -0.00022987362524575799 0 -0.014666429314912953 -0.00032748049037424609 0 -0.01485148470958886 -0.00014143490007107056 0 -0.014979811290777542 -0.00022987362524575799 0 -0.014666429314912953 -0.00032748049037424609 0 -0.01474565201913383 -0.00049351555000772137 0 -0.014979811290777542 -0.00022987362524575799 0 -0.01474565201913383 -0.00049351555000772137 0 -0.014856426059546393 -0.00057493651268781447 0 -0.015014928018223723 -7.3946303157570824e-05 0 -0.014685612101754569 -0.00041376296799860724 0 -0.014377920184279861 -0.00036083726294088443 0 -0.014666429314912953 -0.00032748049037424609 0 -0.014516908196670191 -0.00061477898729673857 0 -0.014666429314912953 -0.00032748049037424609 0 -0.01474565201913383 -0.00049351555000772137 0 -0.014516908196670191 -0.00061477898729673857 0 -0.01474565201913383 -0.00049351555000772137 0 -0.014657332879390909 -0.0006334975109993211 0 -0.014516908196670191 -0.00061477898729673857 0 -0.014657332879390909 -0.0006334975109993211 0 -0.014516908196670191 -0.00061477898729673857 0 -0.014598752316526268 -0.0007676606096131567 0 -0.014657332879390909 -0.0006334975109993211 0 -0.014679815910038006 -0.00071151377558768358 0 -0.014598752316526268 -0.0007676606096131567 0 -0.014657332879390909 -0.0006334975109993211 0 -0.014679815910038006 -0.00071151377558768358 0 -0.014733269629849496 -0.00067171350866532199 0 -0.014733269629849496 -0.00067171350866532199 0 -0.014749073174217406 -0.00071547395537725398 0 -0.014789326061934562 -0.00072019411876806218 0 -0.014679815910038006 -0.00071151377558768358 0 -0.014733269629849496 -0.00067171350866532199 0 -0.014749073174217406 -0.00071547395537725398 0 -0.014679815910038006 -0.00071151377558768358 0 -0.014749073174217406 -0.00071547395537725398 0 -0.014674564476873448 -0.00077801266793428385 0 -0.01388946506995575 -0.00041528025989711546 0 -0.01428680242347859 -0.00025951546014493727 0 -0.014227958789751643 -0.00057821035515903197 0 -0.014979040393530466 -0.00059587897253999427 0 -0.014685612101754569 -0.00041376296799860724 0 -0.014733269629849496 -0.00067171350866532199 0 -0.014789326061934562 -0.00072019411876806218 0 -0.014803374634862775 -0.00058564691902477576 0 -0.014935247338546558 -0.00059756376428121607 0 -0.014979040393530466 -0.00059587897253999427 0 -0.01474565201913383 -0.00049351555000772137 0 -0.014856426059546393 -0.00057493651268781447 0 -0.014803374634862775 -0.00058564691902477576 0 -0.014789326061934562 -0.00072019411876806218 0 -0.014846830316388218 -0.00057594300965615737 0 -0.014803374634862775 -0.00058564691902477576 0 -0.014685612101754569 -0.00041376296799860724 0 -0.014721768807586355 -0.0004263207674763984 0 -0.014657332879390909 -0.0006334975109993211 0 -0.014733269629849496 -0.00067171350866532199 0 -0.014803374634862775 -0.00058564691902477576 0 -0.01474565201913383 -0.00049351555000772137 0 -0.014657332879390909 -0.0006334975109993211 0 -0.014803374634862775 -0.00058564691902477576 0 -0.014631597068276724 -0.00086860768547242326 0 -0.014708017194034435 -0.00083336358841888322 0 -0.014721539528167219 -0.00094385711155724097 0 -0.014979040393530466 -0.00059587897253999427 0 -0.014836040512066502 -0.00081134232512078061 0 -0.014749073174217406 -0.00071547395537725398 0 -0.01477681054703665 -0.00072212762671005368 0 -0.014708017194034435 -0.00083336358841888322 0 -0.014749073174217406 -0.00071547395537725398 0 -0.014708017194034435 -0.00083336358841888322 0 -0.014674564476873448 -0.00077801266793428385 0 -0.014631597068276724 -0.00086860768547242326 0 -0.014708017194034435 -0.00083336358841888322 0 -0.014674564476873448 -0.00077801266793428385 0 -0.014631597068276724 -0.00086860768547242326 0 -0.014674564476873448 -0.00077801266793428385 0 -0.014598752316526268 -0.0007676606096131567 0 -0.014679815910038006 -0.00071151377558768358 0 -0.014674564476873448 -0.00077801266793428385 0 -0.014598752316526268 -0.0007676606096131567 0 -0.014631597068276724 -0.00086860768547242326 0 -0.014598752316526268 -0.0007676606096131567 0 -0.014465051772647928 -0.00085406840372561201 0 -0.014516908196670191 -0.00061477898729673857 0 -0.014598752316526268 -0.0007676606096131567 0 -0.014465051772647928 -0.00085406840372561201 0 -0.014631597068276724 -0.00086860768547242326 0 -0.014465051772647928 -0.00085406840372561201 0 -0.0145952695152775 -0.0010380115065422881 0 -0.014456258492362428 -0.00086657319798425305 0 -0.01430775867690434 -0.001182712821794682 0 -0.014465051772647928 -0.00085406840372561201 0 -0.0145952695152775 -0.0010380115065422881 0 -0.014308652436405998 -0.00120085228218718 0 -0.014801930010627221 -0.0010252831744486501 0 -0.0145952695152775 -0.0010380115065422881 0 -0.014721539528167219 -0.00094385711155724097 0 -0.014631597068276724 -0.00086860768547242326 0 -0.0145952695152775 -0.0010380115065422881 0 -0.014721539528167219 -0.00094385711155724097 0 -0.014801930010627221 -0.0010252831744486501 0 -0.0145952695152775 -0.0010380115065422881 0 -0.014614221909015665 -0.0013460286019539537 0 -0.010250739994067974 -0.0012818870439585558 0 -0.010238314243484611 -0.0014151572888790535 0 -0.01014975377374361 -0.0014264594673026427 0 -0.012575735085837382 -0.0012181408337175899 0 -0.012394825501221157 -0.0013671043289689426 0 -0.010251679019462175 -0.0015048064583154004 0 -0.01014975377374361 -0.0014264594673026427 0 -0.010166455975199364 -0.0015798226409154609 0 -0.014614221909015665 -0.0013460286019539537 0 -0.014372004550838039 -0.0014467331834291514 0 -0.014342437322386756 -0.0017271235301009474 0 -0.012394825501221157 -0.0013671043289689426 0 -0.012081657335027267 -0.0016733627767551542 0 -0.014614221909015665 -0.0013460286019539537 0 -0.014372004550838039 -0.0014467331834291514 0 -0.014308652436405998 -0.00120085228218718 0 -0.0145952695152775 -0.0010380115065422881 0 -0.014614221909015665 -0.0013460286019539537 0 -0.014308652436405998 -0.00120085228218718 0 -0.014349115229933517 -0.0011539917441230356 0 -0.014172143776079803 -0.0012033887561307831 0 -0.014273109683928791 -0.00098196564566090431 0 -0.014349115229933517 -0.0011539917441230356 0 -0.014172143776079803 -0.0012033887561307831 0 -0.01423953148764563 -0.0014839025689039323 0 -0.014372004550838039 -0.0014467331834291514 0 -0.014150314052051286 -0.0016350388852390057 0 -0.014342437322386756 -0.0017271235301009474 0 -0.014372004550838039 -0.0014467331834291514 0 -0.014308652436405998 -0.00120085228218718 0 -0.014150314052051286 -0.0016350388852390057 0 -0.01430775867690434 -0.001182712821794682 0 -0.014370596832983589 -0.0015518009429142565 0 -0.014172143776079803 -0.0012033887561307831 0 -0.014111270497886729 -0.0013751994915643839 0 -0.01423953148764563 -0.0014839025689039323 0 -0.014111270497886729 -0.0013751994915643839 0 -0.014110337328589174 -0.0015037217827890568 0 -0.01423953148764563 -0.0014839025689039323 0 -0.013221470236319094 -0.00087670638566659089 0 -0.013386186583045695 -0.0012985589582597103 0 -0.014111270497886729 -0.0013751994915643839 0 -0.013988693266100593 -0.0012696367318249368 0 -0.01401358868344234 -0.0015319761476357198 0 -0.014172143776079803 -0.0012033887561307831 0 -0.014111270497886729 -0.0013751994915643839 0 -0.013988693266100593 -0.0012696367318249368 0 -0.014172143776079803 -0.0012033887561307831 0 -0.013988693266100593 -0.0012696367318249368 0 -0.01402776684818371 -0.0011651523318596544 0 -0.014172143776079803 -0.0012033887561307831 0 -0.01402776684818371 -0.0011651523318596544 0 -0.014120495460869553 -0.00092061234136605458 0 -0.013221470236319094 -0.00087670638566659089 0 -0.0134606455899691 -0.00091049817150290404 0 -0.014055631879025312 -0.0011113730971377548 0 -0.014120495460869553 -0.00092061234136605458 0 -0.01395725054729954 -0.00099827522015429678 0 -0.014172143776079803 -0.0012033887561307831 0 -0.014120495460869553 -0.00092061234136605458 0 -0.014273109683928791 -0.00098196564566090431 0 -0.0134606455899691 -0.00091049817150290404 0 -0.014171278512208462 -0.00099691892547950018 0 -0.014465051772647928 -0.00085406840372561201 0 -0.014349115229933517 -0.0011539917441230356 0 -0.014273109683928791 -0.00098196564566090431 0 -0.014465051772647928 -0.00085406840372561201 0 -0.014273109683928791 -0.00098196564566090431 0 -0.014253421508493291 -0.00078567662186761482 0 -0.014516908196670191 -0.00061477898729673857 0 -0.014465051772647928 -0.00085406840372561201 0 -0.014253421508493291 -0.00078567662186761482 0 -0.014120495460869553 -0.00092061234136605458 0 -0.014273109683928791 -0.00098196564566090431 0 -0.014253421508493291 -0.00078567662186761482 0 -0.014120495460869553 -0.00092061234136605458 0 -0.014253421508493291 -0.00078567662186761482 0 -0.013985237861633863 -0.00076248079313657275 0 -0.013985237861633863 -0.00076248079313657275 0 -0.013823843098255689 -0.00090052068613926349 0 -0.01395725054729954 -0.00099827522015429678 0 -0.012424288416186851 -2.053110802498823e-05 0 -0.012368717925527991 0.00013211592754726716 0 -0.012541325589444577 3.5447220407227871e-05 0 -0.013774841500664201 -0.0006467950754940493 0 -0.013985237861633863 -0.00076248079313657275 0 -0.013823843098255689 -0.00090052068613926349 0 -0.013036096184133403 -0.00035253246713048172 0 -0.013100367295288518 -0.00037799513205621427 0 -0.013100367295288518 -0.00037799513205621427 0 -0.013156401282023876 -0.00052902759784492445 0 -0.013823843098255689 -0.00090052068613926349 0 -0.01395725054729954 -0.00099827522015429678 0 -0.013864142040329902 -0.0011140254465706854 0 -0.014120495460869553 -0.00092061234136605458 0 -0.013985237861633863 -0.00076248079313657275 0 -0.01395725054729954 -0.00099827522015429678 0 -0.014055631879025312 -0.0011113730971377548 0 -0.013883521681701563 -0.0013064339568785244 0 -0.013864142040329902 -0.0011140254465706854 0 -0.014055631879025312 -0.0011113730971377548 0 -0.01395725054729954 -0.00099827522015429678 0 -0.013864142040329902 -0.0011140254465706854 0 -0.0134606455899691 -0.00091049817150290404 0 -0.012778412112297416 -0.00070732374080325982 0 -0.012443426323715827 -0.00048833613284771918 0 -0.012469372050491654 -0.00038448441794987289 0 -0.012233226022710262 -0.0006628299726333444 0 -0.012778412112297416 -0.00070732374080325982 0 -0.013156401282023876 -0.00052902759784492445 0 -0.012443426323715827 -0.00048833613284771918 0 -0.012233226022710262 -0.0006628299726333444 0 -0.012355106230586825 -0.00084772991889990709 0 -0.012449942558721274 -0.00017201339430834346 0 -0.012382405270167403 9.4279627286216727e-05 0 -0.012177005869251155 -9.3455714915122306e-05 0 -0.012368717925527991 0.00013211592754726716 0 -0.012382405270167403 9.4279627286216727e-05 0 -0.012258266209131801 0.00011025383141587129 0 -0.012382405270167403 9.4279627286216727e-05 0 -0.012258266209131801 0.00011025383141587129 0 -0.012177005869251155 -9.3455714915122306e-05 0 -0.012258266209131801 0.00011025383141587129 0 -0.01191904831598177 5.5878131256885538e-05 0 -0.012378869111781036 0.00012619742508089768 0 -0.012258266209131801 0.00011025383141587129 0 -0.012177005869251155 -9.3455714915122306e-05 0 -0.01191904831598177 5.5878131256885538e-05 0 -0.012177005869251155 -9.3455714915122306e-05 0 -0.01191904831598177 5.5878131256885538e-05 0 -0.011836776644154515 -0.00042319731438058525 0 -0.01191904831598177 5.5878131256885538e-05 0 -0.011971569021703333 4.5933910740746951e-07 0 -0.011216354015569007 -9.1326847315788121e-07 0 -0.01191904831598177 5.5878131256885538e-05 0 -0.011971569021703333 4.5933910740746951e-07 0 -0.012378869111781036 0.00012619742508089768 0 -0.011971569021703333 4.5933910740746951e-07 0 -0.012378869111781036 0.00012619742508089768 0 -0.012728490334658969 3.9129223433461106e-07 0 -0.012368717925527991 0.00013211592754726716 0 -0.012258266209131801 0.00011025383141587129 0 -0.012378869111781036 0.00012619742508089768 0 -0.012368717925527991 0.00013211592754726716 0 -0.012378869111781036 0.00012619742508089768 0 -0.012541325589444577 3.5447220407227871e-05 0 -0.012378869111781036 0.00012619742508089768 0 -0.012541325589444577 3.5447220407227871e-05 0 -0.012671155281917711 5.1718575094566819e-05 0 -0.012909206348806587 2.3257710512573192e-05 0 -0.012541325589444577 3.5447220407227871e-05 0 -0.012671155281917711 5.1718575094566819e-05 0 -0.012378869111781036 0.00012619742508089768 0 -0.012728490334658969 3.9129223433461106e-07 0 -0.012671155281917711 5.1718575094566819e-05 0 -0.012909206348806587 2.3257710512573192e-05 0 -0.012728490334658969 3.9129223433461106e-07 0 -0.012671155281917711 5.1718575094566819e-05 0 -0.0098394107598860272 8.4282726504984698e-08 0 -0.010141898460168046 -2.3972856860503677e-05 0 -0.0091523033841968311 -2.8223786311866031e-07 0 -0.0093068321761670299 -0.00024696272529863385 0 -0.0091519587759764012 1.1800597501970039e-07 0 -0.0087710136714969009 -0.00052551341077666802 0 -0.0084043706696756201 -0.00052292509202441092 0 -0.008426802652984202 -0.00031378933433007873 0 -0.0087710136714969009 -0.00052551341077666802 0 -0.008426802652984202 -0.00031378933433007873 0 -0.0085142221387092439 -6.8151998323358828e-05 0 -0.0093068321761670299 -0.00024696272529863385 0 -0.010397193865245985 -0.00059393050502709545 0 -0.0087710136714969009 -0.00052551341077666802 0 -0.0084997941469316801 -0.00091342303440221481 0 -0.0084043706696756201 -0.00052292509202441092 0 -0.010141898460168046 -2.3972856860503677e-05 0 -0.010297036756518396 4.3640838377474922e-05 0 -0.010355967155424797 3.2485576018039837e-05 0 -0.0098394107598860272 8.4282726504984698e-08 0 -0.010297036756518396 4.3640838377474922e-05 0 -0.010527286241707222 2.6772757637416841e-07 0 -0.0098394107598860272 8.4282726504984698e-08 0 -0.010141898460168046 -2.3972856860503677e-05 0 -0.010297036756518396 4.3640838377474922e-05 0 -0.010297036756518396 4.3640838377474922e-05 0 -0.010527286241707222 2.6772757637416841e-07 0 -0.010472180082235244 -1.9131209403163253e-05 0 -0.010527286241707222 2.6772757637416841e-07 0 -0.01121400574280693 -4.436313718868245e-07 0 -0.010472180082235244 -1.9131209403163253e-05 0 -0.011214751537123291 1.5426346701362808e-08 0 -0.011248990035539747 -0.00021825638953298622 0 -0.01191904831598177 5.5878131256885538e-05 0 -0.011216354015569007 -9.1326847315788121e-07 0 -0.011836776644154515 -0.00042319731438058525 0 -0.012177005869251155 -9.3455714915122306e-05 0 -0.011836776644154515 -0.00042319731438058525 0 -0.012120348693690535 -0.00039327616354103208 0 -0.011248990035539747 -0.00021825638953298622 0 -0.010397193865245985 -0.00059393050502709545 0 -0.011836776644154515 -0.00042319731438058525 0 -0.012120348693690535 -0.00039327616354103208 0 -0.012159718677015732 -0.00065147769017794607 0 -0.010297036756518396 4.3640838377474922e-05 0 -0.010472180082235244 -1.9131209403163253e-05 0 -0.010355967155424797 3.2485576018039837e-05 0 -0.011881512360027789 -0.0010218635461082502 0 -0.012095359336463704 -0.0010046781222913304 0 -0.012258766630157864 -0.0013027454144099446 0 -0.012095359336463704 -0.0010046781222913304 0 -0.012035778120459834 -0.00080772132129437746 0 -0.012238467297171228 -0.00089285981405637729 0 -0.012120348693690535 -0.00039327616354103208 0 -0.012159718677015732 -0.00065147769017794607 0 -0.012327372037921646 -0.00038626333715113017 0 -0.010397193865245985 -0.00059393050502709545 0 -0.012223934059695629 -0.00049192958189370607 0 -0.011881512360027789 -0.0010218635461082502 0 -0.012095359336463704 -0.0010046781222913304 0 -0.012035778120459834 -0.00080772132129437746 0 -0.012177005869251155 -9.3455714915122306e-05 0 -0.012120348693690535 -0.00039327616354103208 0 -0.012327372037921646 -0.00038626333715113017 0 -0.012449942558721274 -0.00017201339430834346 0 -0.012177005869251155 -9.3455714915122306e-05 0 -0.012327372037921646 -0.00038626333715113017 0 -0.012778412112297416 -0.00070732374080325982 0 -0.012223934059695629 -0.00049192958189370607 0 -0.012197729989058511 -0.00058198837758937543 0 -0.012035778120459834 -0.00080772132129437746 0 -0.012238467297171228 -0.00089285981405637729 0 -0.012233226022710262 -0.0006628299726333444 0 -0.012355106230586825 -0.00084772991889990709 0 -0.012238467297171228 -0.00089285981405637729 0 -0.012778412112297416 -0.00070732374080325982 0 -0.012215829105799688 -0.0008115299352492723 0 -0.012095359336463704 -0.0010046781222913304 0 -0.012238467297171228 -0.00089285981405637729 0 -0.012258766630157864 -0.0013027454144099446 0 -0.012355106230586825 -0.00084772991889990709 0 -0.012238467297171228 -0.00089285981405637729 0 -0.012258766630157864 -0.0013027454144099446 0 -0.013867490818912516 -0.0016182204356039278 0 -0.013778724636620927 -0.0018579522313540964 0 -0.013879035617754469 -0.0017334405000394456 0 -0.013386186583045695 -0.0012985589582597103 0 -0.011057949994167893 -0.0011671319132967189 0 -0.013778724636620927 -0.0018579522313540964 0 -0.013897170203483083 -0.0017738855696364064 0 -0.013879035617754469 -0.0017334405000394456 0 -0.013778724636620927 -0.0018579522313540964 0 -0.013877451898300003 -0.0018345808179515387 0 -0.013897170203483083 -0.0017738855696364064 0 -0.013778724636620927 -0.0018579522313540964 0 -0.013859493389008416 -0.0019207500202360849 0 -0.013877451898300003 -0.0018345808179515387 0 -0.011057949994167893 -0.0011671319132967189 0 -0.011442003006034431 -0.0013797937058372333 0 -0.010397193865245985 -0.00059393050502709545 0 -0.011057949994167893 -0.0011671319132967189 0 -0.0084997941469316801 -0.00091342303440221481 0 -0.0080842195442369768 -0.00059863607563949634 0 -0.0084043706696756201 -0.00052292509202441092 0 -0.0080842195442369768 -0.00059863607563949634 0 -0.0084043706696756201 -0.00052292509202441092 0 -0.0081822819661600057 -0.00046889394332520241 0 -0.008322282934412728 -0.0003976770112560255 0 -0.0084043706696756201 -0.00052292509202441092 0 -0.0081822819661600057 -0.00046889394332520241 0 -0.008322282934412728 -0.0003976770112560255 0 -0.0082553512208798762 -0.00029415871179203139 0 -0.0081822819661600057 -0.00046889394332520241 0 -0.008322282934412728 -0.0003976770112560255 0 -0.0084043706696756201 -0.00052292509202441092 0 -0.008426802652984202 -0.00031378933433007873 0 -0.008322282934412728 -0.0003976770112560255 0 -0.008426802652984202 -0.00031378933433007873 0 -0.0082553512208798762 -0.00029415871179203139 0 -0.0082553512208798762 -0.00029415871179203139 0 -0.0081005082964770801 -0.00040186034369648304 0 -0.0081479205989147541 -0.0001190235642805022 0 -0.0087059006528305404 -0.00089733238955770514 0 -0.0087183911998958679 -0.00090737864373284613 0 -0.0087217386697816708 -0.00087073683337061069 0 -0.0088849496894341726 -0.00081003269859758584 0 -0.0082678493259334962 -0.00068272971448656938 0 -0.0092032399074393686 -0.001165552974698813 0 -0.0088849496894341726 -0.00081003269859758584 0 -0.0092032399074393686 -0.001165552974698813 0 -0.011442003006034431 -0.0013797937058372333 0 -0.010222162232940563 -0.0010546243465490409 0 -0.01020399930137976 -0.0011283680715871679 0 -0.010288384807442126 -0.0011050975817066349 0 -0.010241744181918812 -0.0011600372908422117 0 -0.01020399930137976 -0.0011283680715871679 0 -0.010288384807442126 -0.0011050975817066349 0 -0.0082553512208798762 -0.00029415871179203139 0 -0.0081822819661600057 -0.00046889394332520241 0 -0.0081005082964770801 -0.00040186034369648304 0 -0.011057949994167893 -0.0011671319132967189 0 -0.0088849496894341726 -0.00081003269859758584 0 -0.0080842195442369768 -0.00059863607563949634 0 -0.0081822819661600057 -0.00046889394332520241 0 -0.0081144786323226435 -0.00041200345457074984 0 -0.0084378922317456407 -0.00050378754672795751 0 -0.0088849496894341726 -0.00081003269859758584 0 -0.0098056915420031508 -0.0015644186490148971 0 -0.012386795188351979 -0.0017944774278907246 0 -0.010023349901882864 -0.001406337848503072 0 -0.0098402421669937998 -0.0016577527681964027 0 -0.0094210600194737405 -0.0013467857225124907 0 -0.011340071643539156 -0.0015214609886801313 0 -0.011087473529335593 -0.0013363159476682078 0 -0.011158279267308268 -0.0017739515503010183 0 -0.011442003006034431 -0.0013797937058372333 0 -0.0098056915420031508 -0.0015644186490148971 0 -0.0099594391217399415 -0.0018165636100955236 0 -0.010025698630722344 -0.0017614925482762678 0 -0.010023101794847116 -0.0018179934416667337 0 -0.0099594391217399415 -0.0018165636100955236 0 -0.010025698630722344 -0.0017614925482762678 0 -0.0099960527539653329 -0.0017258437280835779 0 -0.0099594391217399415 -0.0018165636100955236 0 -0.0099960527539653329 -0.0017258437280835779 0 -0.0099623525349443777 -0.0017119369889571987 0 -0.010025698630722344 -0.0017614925482762678 0 -0.0099960527539653329 -0.0017258437280835779 0 -0.010031510920560035 -0.0016836076183828236 0 -0.0099960527539653329 -0.0017258437280835779 0 -0.0099978510721203031 -0.0016931283864113017 0 -0.010031510920560035 -0.0016836076183828236 0 -0.0099960527539653329 -0.0017258437280835779 0 -0.009985485749248315 -0.0017025228446890346 0 -0.0099623525349443777 -0.0017119369889571987 0 -0.0099960527539653329 -0.0017258437280835779 0 -0.0099978510721203031 -0.0016931283864113017 0 -0.009985485749248315 -0.0017025228446890346 0 -0.0099978510721203031 -0.0016931283864113017 0 -0.009985485749248315 -0.0017025228446890346 0 -0.0099863031118344308 -0.0016763820303394828 0 -0.009985485749248315 -0.0017025228446890346 0 -0.0099623525349443777 -0.0017119369889571987 0 -0.0099863031118344308 -0.0016763820303394828 0 -0.012386795188351979 -0.0017944774278907246 0 -0.012742759703357207 -0.0019386483480311723 0 -0.013859493389008416 -0.0019207500202360849 0 -0.01396095175616041 -0.0018081932430507911 0 -0.013877451898300003 -0.0018345808179515387 0 -0.011442003006034431 -0.0013797937058372333 0 -0.012386795188351979 -0.0017944774278907246 0 -0.01396095175616041 -0.0018081932430507911 0 -0.013877451898300003 -0.0018345808179515387 0 -0.013897170203483083 -0.0017738855696364064 0 -0.013897170203483083 -0.0017738855696364064 0 -0.013879035617754469 -0.0017334405000394456 0 -0.013974609011471529 -0.0016831865508201034 0 -0.01396095175616041 -0.0018081932430507911 0 -0.013897170203483083 -0.0017738855696364064 0 -0.013974609011471529 -0.0016831865508201034 0 -0.014045706270140507 -0.0019800531389947396 0 -0.014032290343154194 -0.0017581641346788011 0 -0.014135781258140549 -0.0018698275581128371 0 -0.012386795188351979 -0.0017944774278907246 0 -0.013949821654234052 -0.0017684931636973212 0 -0.013867490818912516 -0.0016182204356039278 0 -0.013879035617754469 -0.0017334405000394456 0 -0.013974609011471529 -0.0016831865508201034 0 -0.013988693266100593 -0.0012696367318249368 0 -0.013867490818912516 -0.0016182204356039278 0 -0.01401358868344234 -0.0015319761476357198 0 -0.014032290343154194 -0.0017581641346788011 0 -0.014110337328589174 -0.0015037217827890568 0 -0.01401358868344234 -0.0015319761476357198 0 -0.013867490818912516 -0.0016182204356039278 0 -0.013974609011471529 -0.0016831865508201034 0 -0.01401358868344234 -0.0015319761476357198 0 -0.013949821654234052 -0.0017684931636973212 0 -0.013996968732891094 -0.0015423061496337375 0 -0.014111270497886729 -0.0013751994915643839 0 -0.014110337328589174 -0.0015037217827890568 0 -0.01401358868344234 -0.0015319761476357198 0 -0.014370596832983589 -0.0015518009429142565 0 -0.012742759703357207 -0.0019386483480311723 0 -0.014032290343154194 -0.0017581641346788011 0 -0.014110337328589174 -0.0015037217827890568 0 -0.01423953148764563 -0.0014839025689039323 0 -0.014150314052051286 -0.0016350388852390057 0 -0.014005671809574209 -0.0021439789271643452 0 -0.014342437322386756 -0.0017271235301009474 0 -0.014032290343154194 -0.0017581641346788011 0 -0.01423953148764563 -0.0014839025689039323 0 -0.014135781258140549 -0.0018698275581128371 0 -0.0099863031118344308 -0.0016763820303394828 0 -0.010031510920560035 -0.0016836076183828236 0 -0.01006052072320964 -0.0015603702037368253 0 -0.012742759703357207 -0.0019386483480311723 0 -0.012081657335027267 -0.0016733627767551542 0 -0.0099978510721203031 -0.0016931283864113017 0 -0.0099863031118344308 -0.0016763820303394828 0 -0.010031510920560035 -0.0016836076183828236 0 -0.010031510920560035 -0.0016836076183828236 0 -0.010091066984043259 -0.0016505392331356667 0 -0.01006052072320964 -0.0015603702037368253 0 -0.010031510920560035 -0.0016836076183828236 0 -0.010091066984043259 -0.0016505392331356667 0 -0.010058998348529248 -0.0017215940980291006 0 -0.010091066984043259 -0.0016505392331356667 0 -0.01006052072320964 -0.0015603702037368253 0 -0.010166455975199364 -0.0015798226409154609 0 -0.01014975377374361 -0.0014264594673026427 0 -0.01006052072320964 -0.0015603702037368253 0 -0.010166455975199364 -0.0015798226409154609 0 -0.010166455975199364 -0.0015798226409154609 0 -0.010153251709096221 -0.0016608491976372439 0 -0.010234070441644916 -0.0016593487324201969 0 -0.010091066984043259 -0.0016505392331356667 0 -0.010166455975199364 -0.0015798226409154609 0 -0.010153251709096221 -0.0016608491976372439 0 -0.010091066984043259 -0.0016505392331356667 0 -0.010153251709096221 -0.0016608491976372439 0 -0.010108683418991411 -0.001703573488054043 0 -0.010153251709096221 -0.0016608491976372439 0 -0.010169153293374566 -0.001707732709008656 0 -0.010108683418991411 -0.001703573488054043 0 -0.010169153293374566 -0.001707732709008656 0 -0.010132222744350959 -0.0017564399851623185 0 -0.010108683418991411 -0.001703573488054043 0 -0.010132222744350959 -0.0017564399851623185 0 -0.010108683418991411 -0.001703573488054043 0 -0.010058998348529248 -0.0017215940980291006 0 -0.010025698630722344 -0.0017614925482762678 0 -0.010031510920560035 -0.0016836076183828236 0 -0.010058998348529248 -0.0017215940980291006 0 -0.010025698630722344 -0.0017614925482762678 0 -0.010058998348529248 -0.0017215940980291006 0 -0.010077513483458998 -0.0018001021890554558 0 -0.010132222744350959 -0.0017564399851623185 0 -0.010058998348529248 -0.0017215940980291006 0 -0.010077513483458998 -0.0018001021890554558 0 -0.010091066984043259 -0.0016505392331356667 0 -0.010108683418991411 -0.001703573488054043 0 -0.010058998348529248 -0.0017215940980291006 0 -0.010025698630722344 -0.0017614925482762678 0 -0.010023101794847116 -0.0018179934416667337 0 -0.010077513483458998 -0.0018001021890554558 0 -0.010132222744350959 -0.0017564399851623185 0 -0.010077513483458998 -0.0018001021890554558 0 -0.010148212699328397 -0.0018537991605355785 0 -0.0077381200988041856 -0.0024046115628298973 0 -0.0080513931361155151 -0.0021561011736295627 0 -0.010077513483458998 -0.0018001021890554558 0 -0.010148212699328397 -0.0018537991605355785 0 -0.010031083481438049 -0.0018927464624098232 0 -0.0056699143210678935 -0.0027965624644537604 0 -0.0056508546695531459 -0.002913076198112157 0 -0.0062543773842559736 -0.0028207357777589597 0 -0.0056508546695531459 -0.002913076198112157 0 -0.0056408709555696886 -0.0030318990297298096 0 -0.0062543773842559736 -0.0028207357777589597 0 -0.0056408709555696886 -0.0030318990297298096 0 -0.0056118167803282824 -0.0030788334348984705 0 -0.0062543773842559736 -0.0028207357777589597 0 -0.0056699143210678935 -0.0027965624644537604 0 -0.0056508546695531459 -0.002913076198112157 0 -0.0055371753461606584 -0.0029408076822203424 0 -0.0075146098643898047 -0.002625368717788405 0 -0.0077381200988041856 -0.0024046115628298973 0 -0.010023101794847116 -0.0018179934416667337 0 -0.010077513483458998 -0.0018001021890554558 0 -0.010031083481438049 -0.0018927464624098232 0 -0.0060307575121477186 -0.0016868427233139908 0 -0.0075185473678153246 -0.0014787536698424382 0 -0.0062784209883614195 -0.0012091337709776151 0 -0.006491275318304149 -0.0012642586764830552 0 -0.0065268296367454537 -0.0014074462123789405 0 -0.0070391624889421141 -0.0022465709278109971 0 -0.0068771867955156139 -0.0018323670335788217 0 -0.0063206134642149556 -0.0017117484947099541 0 -0.0068771867955156139 -0.0018323670335788217 0 -0.0066337900338483873 -0.0013298566134016638 0 -0.0075141667717221576 -0.0020415413382466707 0 -0.0070391624889421141 -0.0022465709278109971 0 -0.0068771867955156139 -0.0018323670335788217 0 -0.0075141667717221576 -0.0020415413382466707 0 -0.0080513931361155151 -0.0021561011736295627 0 -0.0057309669400813015 -0.0020534443888901607 0 -0.0062543773842559736 -0.0028207357777589597 0 -0.0056666024485282672 -0.00267486813185241 0 -0.0057153528905756696 -0.002561710487134862 0 -0.0056699143210678935 -0.0027965624644537604 0 -0.0062543773842559736 -0.0028207357777589597 0 -0.0056666024485282672 -0.00267486813185241 0 -0.0062543773842559736 -0.0028207357777589597 0 -0.0057153528905756696 -0.002561710487134862 0 -0.0057759875990394801 -0.0024878500713356494 0 -0.0068771867955156139 -0.0018323670335788217 0 -0.0063206134642149556 -0.0017117484947099541 0 -0.0066337900338483873 -0.0013298566134016638 0 -0.0056699143210678935 -0.0027965624644537604 0 -0.0056666024485282672 -0.00267486813185241 0 -0.0055590429295311293 -0.0027699601735380898 0 -0.0056666024485282672 -0.00267486813185241 0 -0.0056186405586333985 -0.0025797606857422728 0 -0.0055326127115990949 -0.0026428174275767153 0 -0.0056666024485282672 -0.00267486813185241 0 -0.0056186405586333985 -0.0025797606857422728 0 -0.0057153528905756696 -0.002561710487134862 0 -0.0056186405586333985 -0.0025797606857422728 0 -0.0057153528905756696 -0.002561710487134862 0 -0.0056454421774878418 -0.0024972347712983898 0 -0.0056186405586333985 -0.0025797606857422728 0 -0.0056454421774878418 -0.0024972347712983898 0 -0.0055358553742687125 -0.0025277056860438496 0 -0.0057153528905756696 -0.002561710487134862 0 -0.0057477762917461199 -0.0025080869655538279 0 -0.0056454421774878418 -0.0024972347712983898 0 -0.0056644662462678958 -0.0021953024552792046 0 -0.0057309669400813015 -0.0020534443888901607 0 -0.0057477762917461199 -0.0025080869655538279 0 -0.0056454421774878418 -0.0024972347712983898 0 -0.0056867567176265843 -0.002403693559447822 0 -0.0056454421774878418 -0.0024972347712983898 0 -0.0056867567176265843 -0.002403693559447822 0 -0.0055565766760864825 -0.002436863395766555 0 -0.0056867567176265843 -0.002403693559447822 0 -0.0055565766760864825 -0.002436863395766555 0 -0.0055225079136485087 -0.0023135468963393115 0 -0.0056867567176265843 -0.002403693559447822 0 -0.0056819640969809756 -0.0022665276283323106 0 -0.0055225079136485087 -0.0023135468963393115 0 -0.0057477762917461199 -0.0025080869655538279 0 -0.0056867567176265843 -0.002403693559447822 0 -0.005913791783887761 -0.0022999907668442851 0 -0.0056867567176265843 -0.002403693559447822 0 -0.005913791783887761 -0.0022999907668442851 0 -0.0056819640969809756 -0.0022665276283323106 0 -0.0057309669400813015 -0.0020534443888901607 0 -0.0060307575121477186 -0.0016868427233139908 0 -0.0060307575121477186 -0.0016868427233139908 0 -0.0054778638587965204 -0.0019772242441396868 0 -0.0054578089379275175 -0.0019469912494908415 0 -0.0053631359626677951 -0.0018810956097017981 0 -0.0054559938746096912 -0.0018719048569345331 0 -0.005913791783887761 -0.0022999907668442851 0 -0.0056819640969809756 -0.0022665276283323106 0 -0.0056072052762745732 -0.0020638945599502322 0 -0.0056819640969809756 -0.0022665276283323106 0 -0.0056072052762745732 -0.0020638945599502322 0 -0.0055225079136485087 -0.0023135468963393115 0 -0.0053631359626677951 -0.0018810956097017981 0 -0.0054544358407926357 -0.0017966830016885311 0 -0.0053927740328120399 -0.001731420103961312 0 -0.0053631359626677951 -0.0018810956097017981 0 -0.0053217626977622645 -0.0017380653127006072 0 -0.0053927740328120399 -0.001731420103961312 0 -0.0053631359626677951 -0.0018810956097017981 0 -0.0054559938746096912 -0.0018719048569345331 0 -0.0054544358407926357 -0.0017966830016885311 0 -0.0055333163917052775 -0.0018515285590318558 0 -0.0056261394068387689 -0.0017383595971388675 0 -0.0055249899617255014 -0.0017406472970592645 0 -0.0054544358407926357 -0.0017966830016885311 0 -0.0055333163917052775 -0.0018515285590318558 0 -0.0055249899617255014 -0.0017406472970592645 0 -0.0054559938746096912 -0.0018719048569345331 0 -0.0054544358407926357 -0.0017966830016885311 0 -0.0055333163917052775 -0.0018515285590318558 0 -0.0062784209883614195 -0.0012091337709776151 0 -0.0064032546919148992 -0.0010644368629650657 0 -0.006420081981135267 -0.001184762545621232 0 -0.0062784209883614195 -0.0012091337709776151 0 -0.006420081981135267 -0.001184762545621232 0 -0.006491275318304149 -0.0012642586764830552 0 -0.0064032546919148992 -0.0010644368629650657 0 -0.006420081981135267 -0.001184762545621232 0 -0.0064649343316168402 -0.0011367307441703721 0 -0.0060307575121477186 -0.0016868427233139908 0 -0.0059489041274977551 -0.0014807038524281284 0 -0.0054578089379275175 -0.0019469912494908415 0 -0.0054559938746096912 -0.0018719048569345331 0 -0.0055333163917052775 -0.0018515285590318558 0 -0.006420081981135267 -0.001184762545621232 0 -0.006491275318304149 -0.0012642586764830552 0 -0.0064649343316168402 -0.0011367307441703721 0 -0.0063909137791222604 -0.0011430589684192267 0 -0.0073183004129562541 -0.0012337249611470513 0 -0.006491275318304149 -0.0012642586764830552 0 -0.0065392774700616463 -0.0011089206105285717 0 -0.0065927834897544207 -0.001379599993064008 0 -0.0065392774700616463 -0.0011089206105285717 0 -0.006622839968173538 -0.0011877920365602429 0 -0.0065752306272458053 -0.0012860550247809769 0 -0.006491275318304149 -0.0012642586764830552 0 -0.0065392774700616463 -0.0011089206105285717 0 -0.0064649343316168402 -0.0011367307441703721 0 -0.0064032546919148992 -0.0010644368629650657 0 -0.0064649343316168402 -0.0011367307441703721 0 -0.0064746393037889809 -0.0010706819247574256 0 -0.0065392774700616463 -0.0011089206105285717 0 -0.0064649343316168402 -0.0011367307441703721 0 -0.0064746393037889809 -0.0010706819247574256 0 -0.0065392774700616463 -0.0011089206105285717 0 -0.0064746393037889809 -0.0010706819247574256 0 -0.0065581571488123888 -0.0010260270695535822 0 -0.0065392774700616463 -0.0011089206105285717 0 -0.0065581571488123888 -0.0010260270695535822 0 -0.0066472900384212507 -0.0011075005034286126 0 -0.0065581571488123888 -0.0010260270695535822 0 -0.0066005865496698794 -0.0009468236615285655 0 -0.0065091127457868395 -0.00094693893741852912 0 -0.0064746393037889809 -0.0010706819247574256 0 -0.0065581571488123888 -0.0010260270695535822 0 -0.0065091127457868395 -0.00094693893741852912 0 -0.0064664082827313703 -0.00095919933231454664 0 -0.0060486715792669281 -0.0011321864684182815 0 -0.0059489041274977551 -0.0014807038524281284 0 -0.0060486715792669281 -0.0011321864684182815 0 -0.0064032546919148992 -0.0010644368629650657 0 -0.0064746393037889809 -0.0010706819247574256 0 -0.0065064095201764179 -0.00094391072274339623 0 -0.0065581571488123888 -0.0010260270695535822 0 -0.0066682610023990653 -0.0010046965383829209 0 -0.0066005865496698794 -0.0009468236615285655 0 -0.0065581571488123888 -0.0010260270695535822 0 -0.0066682610023990653 -0.0010046965383829209 0 -0.0066472900384212507 -0.0011075005034286126 0 -0.0066682610023990653 -0.0010046965383829209 0 -0.0066472900384212507 -0.0011075005034286126 0 -0.006757852239647099 -0.0010913945670267087 0 -0.0065392774700616463 -0.0011089206105285717 0 -0.0066472900384212507 -0.0011075005034286126 0 -0.006622839968173538 -0.0011877920365602429 0 -0.0066472900384212507 -0.0011075005034286126 0 -0.006622839968173538 -0.0011877920365602429 0 -0.0067352222301246024 -0.0012180373936677852 0 -0.006622839968173538 -0.0011877920365602429 0 -0.0065752306272458053 -0.0012860550247809769 0 -0.0067352222301246024 -0.0012180373936677852 0 -0.0080248506076765411 -0.00097353852562776183 0 -0.0080985048992288627 -0.00099180896949672579 0 -0.0079818149271353774 -0.0010416574575721187 0 -0.0073183004129562541 -0.0012337249611470513 0 -0.0074502238872168683 -0.0011080522204251352 0 -0.0080248506076765411 -0.00097353852562776183 0 -0.0080985048992288627 -0.00099180896949672579 0 -0.008095017459363146 -0.00094780040858730543 0 -0.006491275318304149 -0.0012642586764830552 0 -0.0065268296367454537 -0.0014074462123789405 0 -0.0065927834897544207 -0.001379599993064008 0 -0.0080513931361155151 -0.0021561011736295627 0 -0.0075185473678153246 -0.0014787536698424382 0 -0.0073183004129562541 -0.0012337249611470513 0 -0.0083952741633383753 -0.0012110990274758501 0 -0.0076954729094426202 -0.00124920459462709 0 -0.0078020450164931355 -0.001203515521478889 0 -0.0078235128191296334 -0.0013525049744493769 0 -0.0075185473678153246 -0.0014787536698424382 0 -0.0073183004129562541 -0.0012337249611470513 0 -0.0075185473678153246 -0.0014787536698424382 0 -0.0083952741633383753 -0.0012110990274758501 0 -0.0081550928542186672 -0.0015266740260724248 0 -0.0085060964623002756 -0.0013743491935351902 0 -0.008708860606792157 -0.0015373784202987581 0 -0.0099594391217399415 -0.0018165636100955236 0 -0.010023101794847116 -0.0018179934416667337 0 -0.010031083481438049 -0.0018927464624098232 0 -0.0087735519763523766 -0.0019831860216114072 0 -0.0081550928542186672 -0.0015266740260724248 0 -0.008708860606792157 -0.0015373784202987581 0 -0.0098056915420031508 -0.0015644186490148971 0 -0.0080513931361155151 -0.0021561011736295627 0 -0.0098056915420031508 -0.0015644186490148971 0 -0.0083952741633383753 -0.0012110990274758501 0 -0.0092032399074393686 -0.001165552974698813 0 -0.0083952741633383753 -0.0012110990274758501 0 -0.00798804742622484 -0.00085193194840997924 0 -0.008095017459363146 -0.00094780040858730543 0 -0.0080030054554833217 -0.00092986058151107282 0 -0.010023349901882864 -0.001406337848503072 0 -0.0094210600194737405 -0.0013467857225124907 0 -0.0093505046621828701 -0.00086478617767106252 0 -0.0080248506076765411 -0.00097353852562776183 0 -0.008095017459363146 -0.00094780040858730543 0 -0.0080030054554833217 -0.00092986058151107282 0 -0.0080030054554833217 -0.00092986058151107282 0 -0.0079380156445028553 -0.00090786323844765156 0 -0.0079671862623001254 -0.00096952648332418098 0 -0.00798804742622484 -0.00085193194840997924 0 -0.0080030054554833217 -0.00092986058151107282 0 -0.0079380156445028553 -0.00090786323844765156 0 -0.0092032399074393686 -0.001165552974698813 0 -0.0082678493259334962 -0.00068272971448656938 0 -0.0082553512208798762 -0.00029415871179203139 0 -0.0081479205989147541 -0.0001190235642805022 0 -0.0083490289522333942 -0.00010350871045537419 0 -0.0083490289522333942 -0.00010350871045537419 0 -0.008404394598761248 0.00022419126164064518 0 -0.0085142221387092439 -6.8151998323358828e-05 0 -0.0081479205989147541 -0.0001190235642805022 0 -0.0083490289522333942 -0.00010350871045537419 0 -0.008404394598761248 0.00022419126164064518 0 -0.008426802652984202 -0.00031378933433007873 0 -0.0082553512208798762 -0.00029415871179203139 0 -0.0083490289522333942 -0.00010350871045537419 0 -0.008426802652984202 -0.00031378933433007873 0 -0.0083490289522333942 -0.00010350871045537419 0 -0.0085142221387092439 -6.8151998323358828e-05 0 -0.0082678493259334962 -0.00068272971448656938 0 -0.0076359339417057187 -0.00039941655278770243 0 -0.007932939577644434 -0.00082359631759249495 0 -0.0077852196691738252 -0.001024630041104393 0 -0.0078941213911209052 -0.0010278474980543234 0 -0.0079380156445028553 -0.00090786323844765156 0 -0.0078941213911209052 -0.0010278474980543234 0 -0.0079671862623001254 -0.00096952648332418098 0 -0.0082678493259334962 -0.00068272971448656938 0 -0.0078355808779192512 -0.0011036377844259179 0 -0.0078941213911209052 -0.0010278474980543234 0 -0.0079671862623001254 -0.00096952648332418098 0 -0.0079818149271353774 -0.0010416574575721187 0 -0.0080248506076765411 -0.00097353852562776183 0 -0.0079671862623001254 -0.00096952648332418098 0 -0.0079818149271353774 -0.0010416574575721187 0 -0.0080248506076765411 -0.00097353852562776183 0 -0.0080030054554833217 -0.00092986058151107282 0 -0.0079671862623001254 -0.00096952648332418098 0 -0.0066472900384212507 -0.0011075005034286126 0 -0.0067352222301246024 -0.0012180373936677852 0 -0.006757852239647099 -0.0010913945670267087 0 -0.0074502238872168683 -0.0011080522204251352 0 -0.0068900950279959777 -0.0010554131558954906 0 -0.0078941213911209052 -0.0010278474980543234 0 -0.0079818149271353774 -0.0010416574575721187 0 -0.0078214222024761502 -0.0011115499180093598 0 -0.0067352222301246024 -0.0012180373936677852 0 -0.006757852239647099 -0.0010913945670267087 0 -0.0069039866284423251 -0.0011448353395466376 0 -0.0066682610023990653 -0.0010046965383829209 0 -0.006757852239647099 -0.0010913945670267087 0 -0.0068392934907838343 -0.00096196379730680655 0 -0.0060643985552188539 -0.00096769893035214799 0 -0.0062736513221191993 -0.00088799405080174489 0 -0.0062073838132223258 -0.00052192159571622717 0 -0.006757852239647099 -0.0010913945670267087 0 -0.0069039866284423251 -0.0011448353395466376 0 -0.0068392934907838343 -0.00096196379730680655 0 -0.0068900950279959777 -0.0010554131558954906 0 -0.0063501997301379899 -0.00071219018257027609 0 -0.0060643985552188539 -0.00096769893035214799 0 -0.0062073838132223258 -0.00052192159571622717 0 -0.0058994220862895073 -0.00043142409682022796 0 -0.0068900950279959777 -0.0010554131558954906 0 -0.0062411052458427509 -0.0010827488394213945 0 -0.0077852196691738252 -0.001024630041104393 0 -0.0078941213911209052 -0.0010278474980543234 0 -0.0078214222024761502 -0.0011115499180093598 0 -0.0076359339417057187 -0.00039941655278770243 0 -0.0068900950279959777 -0.0010554131558954906 0 -0.0061736513535832127 -0.0011564065291450162 0 -0.0061114824126992685 -0.00095652183712733728 0 -0.0062736513221191993 -0.00088799405080174489 0 -0.0084762710895679456 9.1097892819420106e-05 0 -0.0084111117333248372 6.3938118246559689e-05 0 -0.0082039821422532442 -4.1966121509664822e-05 0 -0.0061736513535832127 -0.0011564065291450162 0 -0.0062736513221191993 -0.00088799405080174489 0 -0.0065183658696188369 -0.00075845173490624246 0 -0.0076359339417057187 -0.00039941655278770243 0 -0.007304509343685749 -0.00039146674946411846 0 -0.0062736513221191993 -0.00088799405080174489 0 -0.0065183658696188369 -0.00075845173490624246 0 -0.0062073838132223258 -0.00052192159571622717 0 -0.0065183658696188369 -0.00075845173490624246 0 -0.0062073838132223258 -0.00052192159571622717 0 -0.0065190172144637603 -0.00037224485063320936 0 -0.0082039821422532442 -4.1966121509664822e-05 0 -0.0078180872141769067 5.295048392151622e-08 0 -0.0071519450198313421 -3.1173474335594696e-07 0 -0.0084111117333248372 6.3938118246559689e-05 0 -0.0082039821422532442 -4.1966121509664822e-05 0 -0.0078180872141769067 5.295048392151622e-08 0 -0.0084111117333248372 6.3938118246559689e-05 0 -0.0078180872141769067 5.295048392151622e-08 0 -0.0084850644868714239 3.2256038106220298e-07 0 -0.0084111117333248372 6.3938118246559689e-05 0 -0.0086116563424305931 6.8279279980530284e-05 0 -0.0084850644868714239 3.2256038106220298e-07 0 -0.0086116563424305931 6.8279279980530284e-05 0 -0.0084850644868714239 3.2256038106220298e-07 0 -0.0091503016414429001 -4.8710947138404401e-07 0 -0.0076359339417057187 -0.00039941655278770243 0 -0.0085983541937236629 8.645443480390513e-05 0 -0.0084762710895679456 9.1097892819420106e-05 0 -0.0084111117333248372 6.3938118246559689e-05 0 -0.0086116563424305931 6.8279279980530284e-05 0 -0.0084762710895679456 9.1097892819420106e-05 0 -0.0086116563424305931 6.8279279980530284e-05 0 -0.0085142221387092439 -6.8151998323358828e-05 0 -0.0086116563424305931 6.8279279980530284e-05 0 -0.0085142221387092439 -6.8151998323358828e-05 0 -0.0091503016414429001 -4.8710947138404401e-07 0 -0.0087710136714969009 -0.00052551341077666802 0 -0.0085142221387092439 -6.8151998323358828e-05 0 -0.0091503016414429001 -4.8710947138404401e-07 0 -0.0091714621659133855 -0.0041169202325269079 0 -0.0091896722686067769 -0.0042653091703706673 0 -0.0091706570589889496 -0.004472611609025067 0 -0.0089790289799998833 -0.0042216839175989234 0 -0.0091901094753093476 -0.0042931148432766124 0 -0.0091706570589889496 -0.004472611609025067 0 -0.00931358840300253 -0.0041423110437890749 0 -0.0089790289799998833 -0.0042216839175989234 0 -0.0091706570589889496 -0.004472611609025067 0 -0.00931358840300253 -0.0041423110437890749 0 -0.010032706607297829 -0.0043068112068464903 0 -0.00931358840300253 -0.0041423110437890749 0 -0.010032706607297829 -0.0043068112068464903 0 -0.0097724975695186456 -0.0038213993313813651 0 -0.00931358840300253 -0.0041423110437890749 0 -0.0089790289799998833 -0.0042216839175989234 0 -0.0093802184328596137 -0.0035824606315300301 0 -0.0093873373399853584 -0.0041010354038748913 0 -0.0092365341909893695 -0.0039839585995834759 0 -0.0092552881078593295 -0.0041095635672437382 0 -0.0092365341909893695 -0.0039839585995834759 0 -0.009110044401634378 -0.0039023741780769131 0 -0.009116039304119028 -0.0041577413029069863 0 -0.0092365341909893695 -0.0039839585995834759 0 -0.0092552881078593295 -0.0041095635672437382 0 -0.009116039304119028 -0.0041577413029069863 0 -0.0092552881078593295 -0.0041095635672437382 0 -0.0092602417425590167 -0.0041817515919009849 0 -0.009116039304119028 -0.0041577413029069863 0 -0.0093873373399853584 -0.0041010354038748913 0 -0.0092602417425590167 -0.0041817515919009849 0 -0.0092953992404490229 -0.0042202622020052509 0 -0.0093873373399853584 -0.0041010354038748913 0 -0.0092552881078593295 -0.0041095635672437382 0 -0.0092602417425590167 -0.0041817515919009849 0 -0.0092602417425590167 -0.0041817515919009849 0 -0.0094250850321251183 -0.0041895736062129716 0 -0.009116039304119028 -0.0041577413029069863 0 -0.0092602417425590167 -0.0041817515919009849 0 -0.0092953992404490229 -0.0042202622020052509 0 -0.0094250850321251183 -0.0041895736062129716 0 -0.0069742212883978413 -0.0034753037388283378 0 -0.0069655830126649785 -0.0032029275754947972 0 -0.0045462986425581836 -0.0027146309370941158 0 -0.0046276950754545968 -0.0028838492991219203 0 -0.004646171867806719 -0.0027648928851407035 0 -0.0093873373399853584 -0.0041010354038748913 0 -0.0092953992404490229 -0.0042202622020052509 0 -0.0091901094753093476 -0.0042931148432766124 0 -0.0045462986425581836 -0.0027146309370941158 0 -0.004646171867806719 -0.0027648928851407035 0 -0.0046076831083882094 -0.0026863845141303169 0 -0.0092953992404490229 -0.0042202622020052509 0 -0.0094250850321251183 -0.0041895736062129716 0 -0.0091901094753093476 -0.0042931148432766124 0 -0.0091706570589889496 -0.004472611609025067 0 -0.0091901094753093476 -0.0042931148432766124 0 -0.0080285907779593223 -0.004442491504171516 0 -0.0091706570589889496 -0.004472611609025067 0 -0.010441353196413337 -0.0050417111278969438 0 -0.010032706607297829 -0.0043068112068464903 0 -0.0091553165464300056 -0.0045313458034366774 0 -0.009172075689384664 -0.0046808658282983563 0 -0.0091901094753093476 -0.0042931148432766124 0 -0.0080285907779593223 -0.004442491504171516 0 -0.008453569654818964 -0.0037545375897838794 0 -0.009172075689384664 -0.0046808658282983563 0 -0.0093155271220369019 -0.004850260655221485 0 -0.010441353196413337 -0.0050417111278969438 0 -0.01135093589433705 -0.0046700126675096564 0 -0.011456493411285414 -0.0053907414679515743 0 -0.0080285907779593223 -0.004442491504171516 0 -0.0067986315672793236 -0.004056091328261827 0 -0.0075461956564867438 -0.0036480700450278827 0 -0.010441353196413337 -0.0050417111278969438 0 -0.01135093589433705 -0.0046700126675096564 0 -0.010883606486470318 -0.0041233708843656297 0 -0.011803011442699929 -0.0040361391604761725 0 -0.01135093589433705 -0.0046700126675096564 0 -0.010883606486470318 -0.0041233708843656297 0 -0.011803011442699929 -0.0040361391604761725 0 -0.010883606486470318 -0.0041233708843656297 0 -0.011347692427256943 -0.0034626398288124952 0 -0.010441353196413337 -0.0050417111278969438 0 -0.010883606486470318 -0.0041233708843656297 0 -0.010032706607297829 -0.0043068112068464903 0 -0.010883606486470318 -0.0041233708843656297 0 -0.010032706607297829 -0.0043068112068464903 0 -0.01030035890230468 -0.0038370025329913216 0 -0.010883606486470318 -0.0041233708843656297 0 -0.01030035890230468 -0.0038370025329913216 0 -0.01069021263009768 -0.0035077543384285327 0 -0.010032706607297829 -0.0043068112068464903 0 -0.01030035890230468 -0.0038370025329913216 0 -0.0097724975695186456 -0.0038213993313813651 0 -0.01030035890230468 -0.0038370025329913216 0 -0.010158906799656968 -0.0033121434788366175 0 -0.0097724975695186456 -0.0038213993313813651 0 -0.01030035890230468 -0.0038370025329913216 0 -0.01069021263009768 -0.0035077543384285327 0 -0.010158906799656968 -0.0033121434788366175 0 -0.01069021263009768 -0.0035077543384285327 0 -0.010158906799656968 -0.0033121434788366175 0 -0.010903152899081243 -0.0030299062622315999 0 -0.010883606486470318 -0.0041233708843656297 0 -0.01069021263009768 -0.0035077543384285327 0 -0.011347692427256943 -0.0034626398288124952 0 -0.01069021263009768 -0.0035077543384285327 0 -0.011347692427256943 -0.0034626398288124952 0 -0.010903152899081243 -0.0030299062622315999 0 -0.011347692427256943 -0.0034626398288124952 0 -0.011469565273318405 -0.0028695385082068477 0 -0.010903152899081243 -0.0030299062622315999 0 -0.011587541750630046 -0.0019434646636976947 0 -0.011190317666626128 -0.0025716573407220111 0 -0.010510786274081698 -0.0025953334187256774 0 -0.010903152899081243 -0.0030299062622315999 0 -0.011190317666626128 -0.0025716573407220111 0 -0.010510786274081698 -0.0025953334187256774 0 -0.011469565273318405 -0.0028695385082068477 0 -0.010903152899081243 -0.0030299062622315999 0 -0.011190317666626128 -0.0025716573407220111 0 -0.011587541750630046 -0.0019434646636976947 0 -0.011190317666626128 -0.0025716573407220111 0 -0.011560539503765141 -0.0023762364437112621 0 -0.011469565273318405 -0.0028695385082068477 0 -0.011190317666626128 -0.0025716573407220111 0 -0.011560539503765141 -0.0023762364437112621 0 -0.011853980565561167 -0.0026223034037340721 0 -0.011469565273318405 -0.0028695385082068477 0 -0.011560539503765141 -0.0023762364437112621 0 -0.010158906799656968 -0.0033121434788366175 0 -0.010510786274081698 -0.0025953334187256774 0 -0.0095332352738610234 -0.0028493769330073062 0 -0.0098060979875148856 -0.0018626567122489522 0 -0.010510786274081698 -0.0025953334187256774 0 -0.0095332352738610234 -0.0028493769330073062 0 -0.010158906799656968 -0.0033121434788366175 0 -0.010903152899081243 -0.0030299062622315999 0 -0.010510786274081698 -0.0025953334187256774 0 -0.0082588291225066512 -0.001929455577921003 0 -0.0098060979875148856 -0.0018626567122489522 0 -0.0095332352738610234 -0.0028493769330073062 0 -0.0095332352738610234 -0.0028493769330073062 0 -0.0093802184328596137 -0.0035824606315300301 0 -0.0085954685763647131 -0.0030657896613487702 0 -0.010158906799656968 -0.0033121434788366175 0 -0.0095332352738610234 -0.0028493769330073062 0 -0.0093802184328596137 -0.0035824606315300301 0 -0.010158906799656968 -0.0033121434788366175 0 -0.0093802184328596137 -0.0035824606315300301 0 -0.0097724975695186456 -0.0038213993313813651 0 -0.00931358840300253 -0.0041423110437890749 0 -0.0093802184328596137 -0.0035824606315300301 0 -0.0097724975695186456 -0.0038213993313813651 0 -0.0093873373399853584 -0.0041010354038748913 0 -0.0092365341909893695 -0.0039839585995834759 0 -0.0093091745019484133 -0.0035487156588007709 0 -0.0091714621659133855 -0.0041169202325269079 0 -0.0089105257643329657 -0.0033202589812993308 0 -0.0092365341909893695 -0.0039839585995834759 0 -0.0093091745019484133 -0.0035487156588007709 0 -0.009110044401634378 -0.0039023741780769131 0 -0.0089790289799998833 -0.0042216839175989234 0 -0.0093802184328596137 -0.0035824606315300301 0 -0.0085954685763647131 -0.0030657896613487702 0 -0.0093377302395841258 -0.002259586087016405 0 -0.0089105257643329657 -0.0033202589812993308 0 -0.0082588291225066512 -0.001929455577921003 0 -0.0095332352738610234 -0.0028493769330073062 0 -0.0085954685763647131 -0.0030657896613487702 0 -0.0091448970829288521 -0.0029469041806239999 0 -0.0093091745019484133 -0.0035487156588007709 0 -0.0088493476778784014 -0.0032295016835565812 0 -0.0084802601542718296 -0.0030602718271484732 0 -0.0088493476778784014 -0.0032295016835565812 0 -0.0087820633116216656 -0.0036365865073315871 0 -0.0093091745019484133 -0.0035487156588007709 0 -0.0088493476778784014 -0.0032295016835565812 0 -0.0087820633116216656 -0.0036365865073315871 0 -0.0085405774611960333 -0.0029634028977956329 0 -0.0084802601542718296 -0.0030602718271484732 0 -0.0088493476778784014 -0.0032295016835565812 0 -0.0090993454071223168 -0.0021634001468445836 0 -0.0083793572220008661 -0.0032670449443340044 0 -0.0090993454071223168 -0.0021634001468445836 0 -0.0090428192347681152 -0.0021169410737806333 0 -0.0077951818540422145 -0.0025631397709125472 0 -0.0077849562448839256 -0.002575703915191809 0 -0.0077803789594664248 -0.0025696980874795054 0 -0.0077849562448839256 -0.002575703915191809 0 -0.0077803789594664248 -0.0025696980874795054 0 -0.0077723961731806209 -0.0025754537548563572 0 -0.0093091745019484133 -0.0035487156588007709 0 -0.009110044401634378 -0.0039023741780769131 0 -0.0087820633116216656 -0.0036365865073315871 0 -0.0083793572220008661 -0.0032670449443340044 0 -0.0069655830126649785 -0.0032029275754947972 0 -0.009110044401634378 -0.0039023741780769131 0 -0.0087820633116216656 -0.0036365865073315871 0 -0.009116039304119028 -0.0041577413029069863 0 -0.010166455975199364 -0.0015798226409154609 0 -0.010264020664700457 -0.0015857080008358432 0 -0.010234070441644916 -0.0016593487324201969 0 -0.010251679019462175 -0.0015048064583154004 0 -0.010166455975199364 -0.0015798226409154609 0 -0.010264020664700457 -0.0015857080008358432 0 -0.010251679019462175 -0.0015048064583154004 0 -0.010264020664700457 -0.0015857080008358432 0 -0.010335198889506132 -0.0015417443957100978 0 -0.010264020664700457 -0.0015857080008358432 0 -0.010335198889506132 -0.0015417443957100978 0 -0.01034506670151567 -0.001646389774840874 0 -0.010427985174003482 -0.0015198746029580189 0 -0.010335198889506132 -0.0015417443957100978 0 -0.01034506670151567 -0.001646389774840874 0 -0.010264020664700457 -0.0015857080008358432 0 -0.01034506670151567 -0.001646389774840874 0 -0.010234070441644916 -0.0016593487324201969 0 -0.01034506670151567 -0.001646389774840874 0 -0.010234070441644916 -0.0016593487324201969 0 -0.010249450241754625 -0.0017897666954290684 0 -0.010153251709096221 -0.0016608491976372439 0 -0.010169153293374566 -0.001707732709008656 0 -0.010234070441644916 -0.0016593487324201969 0 -0.010169153293374566 -0.001707732709008656 0 -0.010132222744350959 -0.0017564399851623185 0 -0.010232213743847144 -0.0017498360554046603 0 -0.010169153293374566 -0.001707732709008656 0 -0.010234070441644916 -0.0016593487324201969 0 -0.010232213743847144 -0.0017498360554046603 0 -0.010306840508849108 -0.0016387142357016154 0 -0.0091597569744907466 -0.0020476629233442314 0 -0.0077678287634663562 -0.0025746603480454231 0 -0.0077723961731806209 -0.0025754537548563572 0 -0.0077590543045153249 -0.0025811220639964621 0 -0.0077803789594664248 -0.0025696980874795054 0 -0.0077678287634663562 -0.0025746603480454231 0 -0.0077723961731806209 -0.0025754537548563572 0 -0.0090428192347681152 -0.0021169410737806333 0 -0.0091597569744907466 -0.0020476629233442314 0 -0.0063858126188557742 -0.0027834922894083639 0 -0.0061543075403408644 -0.0026686181623742193 0 -0.0049810139367322034 -0.0027702487030704633 0 -0.0047864844677049413 -0.0028272380042046702 0 -0.0048094979046136976 -0.0026613579131278724 0 -0.0077723961731806209 -0.0025754537548563572 0 -0.0077590543045153249 -0.0025811220639964621 0 -0.0077672652059749226 -0.0025810190411358659 0 -0.0077381200988041856 -0.0024046115628298973 0 -0.0063858126188557742 -0.0027834922894083639 0 -0.0077381200988041856 -0.0024046115628298973 0 -0.0091597569744907466 -0.0020476629233442314 0 -0.0077181970899829703 -0.0025910058160885964 0 -0.0079263385390444131 -0.0022616848810695818 0 -0.0079686771869361527 -0.0024839073789829987 0 -0.010132222744350959 -0.0017564399851623185 0 -0.010148212699328397 -0.0018537991605355785 0 -0.010232213743847144 -0.0017498360554046603 0 -0.0091597569744907466 -0.0020476629233442314 0 -0.0063858126188557742 -0.0027834922894083639 0 -0.0069655830126649785 -0.0032029275754947972 0 -0.0061543075403408644 -0.0026686181623742193 0 -0.0077849562448839256 -0.002575703915191809 0 -0.0077734277352742532 -0.0025834254753737264 0 -0.0077672652059749226 -0.0025810190411358659 0 -0.0077849562448839256 -0.002575703915191809 0 -0.0077723961731806209 -0.0025754537548563572 0 -0.0077672652059749226 -0.0025810190411358659 0 -0.0047864844677049413 -0.0028272380042046702 0 -0.0046678772608397525 -0.0026708804488576191 0 -0.0048094979046136976 -0.0026613579131278724 0 -0.0047864844677049413 -0.0028272380042046702 0 -0.004646171867806719 -0.0027648928851407035 0 -0.0046678772608397525 -0.0026708804488576191 0 -0.0046276950754545968 -0.0028838492991219203 0 -0.0047864844677049413 -0.0028272380042046702 0 -0.004646171867806719 -0.0027648928851407035 0 -0.004646171867806719 -0.0027648928851407035 0 -0.0046076831083882094 -0.0026863845141303169 0 -0.0046678772608397525 -0.0026708804488576191 0 -0.0046076831083882094 -0.0026863845141303169 0 -0.0046678772608397525 -0.0026708804488576191 0 -0.0045703688882417813 -0.0025956785944099918 0 -0.0046678772608397525 -0.0026708804488576191 0 -0.0046541941451842253 -0.0025868447049667499 0 -0.0045703688882417813 -0.0025956785944099918 0 -0.0046678772608397525 -0.0026708804488576191 0 -0.0048094979046136976 -0.0026613579131278724 0 -0.0046541941451842253 -0.0025868447049667499 0 -0.0048094979046136976 -0.0026613579131278724 0 -0.004798834599870707 -0.0024789133913463201 0 -0.0046541941451842253 -0.0025868447049667499 0 -0.004798834599870707 -0.0024789133913463201 0 -0.0046541941451842253 -0.0025868447049667499 0 -0.0045414194933836929 -0.0024814506586669166 0 -0.0046541941451842253 -0.0025868447049667499 0 -0.0045414194933836929 -0.0024814506586669166 0 -0.0045703688882417813 -0.0025956785944099918 0 -0.0056135945608410736 -0.0030726512671367446 0 -0.0052250019833716323 -0.0032310503294089811 0 -0.0055371753461606584 -0.0029408076822203424 0 -0.0052250019833716323 -0.0032310503294089811 0 -0.0055371753461606584 -0.0029408076822203424 0 -0.0053922144023917894 -0.0027949562041758034 0 -0.0056699143210678935 -0.0027965624644537604 0 -0.0055371753461606584 -0.0029408076822203424 0 -0.0055590429295311293 -0.0027699601735380898 0 -0.0055371753461606584 -0.0029408076822203424 0 -0.0053922144023917894 -0.0027949562041758034 0 -0.0055590429295311293 -0.0027699601735380898 0 -0.0056508546695531459 -0.002913076198112157 0 -0.0056408709555696886 -0.0030318990297298096 0 -0.0055371753461606584 -0.0029408076822203424 0 -0.0056408709555696886 -0.0030318990297298096 0 -0.0056135945608410736 -0.0030726512671367446 0 -0.0055371753461606584 -0.0029408076822203424 0 -0.0049810139367322034 -0.0027702487030704633 0 -0.0048094979046136976 -0.0026613579131278724 0 -0.004951708770289432 -0.0025792624496636242 0 -0.0063858126188557742 -0.0027834922894083639 0 -0.0049090828435750496 -0.0026507091950196278 0 -0.0052250019833716323 -0.0032310503294089811 0 -0.0053922144023917894 -0.0027949562041758034 0 -0.0050962421120855196 -0.0027245890222473298 0 -0.0049090828435750496 -0.0026507091950196278 0 -0.0049820990352093149 -0.0022676910112279548 0 -0.0048094979046136976 -0.0026613579131278724 0 -0.004798834599870707 -0.0024789133913463201 0 -0.004951708770289432 -0.0025792624496636242 0 -0.004798834599870707 -0.0024789133913463201 0 -0.004951708770289432 -0.0025792624496636242 0 -0.0049627588207667222 -0.0022423577393196632 0 -0.0050962421120855196 -0.0027245890222473298 0 -0.005197547127264209 -0.0024444725595090277 0 -0.0049627588207667222 -0.0022423577393196632 0 -0.0050962421120855196 -0.0027245890222473298 0 -0.0053767349247158926 -0.0025475262073440547 0 -0.005197547127264209 -0.0024444725595090277 0 -0.0053922144023917894 -0.0027949562041758034 0 -0.0050962421120855196 -0.0027245890222473298 0 -0.0053767349247158926 -0.0025475262073440547 0 -0.0053767349247158926 -0.0025475262073440547 0 -0.005343298936810412 -0.0023707183831642186 0 -0.005197547127264209 -0.0024444725595090277 0 -0.0053767349247158926 -0.0025475262073440547 0 -0.005446561605255063 -0.0024441875006195992 0 -0.005343298936810412 -0.0023707183831642186 0 -0.0053767349247158926 -0.0025475262073440547 0 -0.0055358553742687125 -0.0025277056860438496 0 -0.0055326127115990949 -0.0026428174275767153 0 -0.0053767349247158926 -0.0025475262073440547 0 -0.005446561605255063 -0.0024441875006195992 0 -0.0055358553742687125 -0.0025277056860438496 0 -0.005446561605255063 -0.0024441875006195992 0 -0.0055565766760864825 -0.002436863395766555 0 -0.0055358553742687125 -0.0025277056860438496 0 -0.0056454421774878418 -0.0024972347712983898 0 -0.0055565766760864825 -0.002436863395766555 0 -0.0055358553742687125 -0.0025277056860438496 0 -0.0056186405586333985 -0.0025797606857422728 0 -0.0055358553742687125 -0.0025277056860438496 0 -0.0055326127115990949 -0.0026428174275767153 0 -0.0053922144023917894 -0.0027949562041758034 0 -0.0053767349247158926 -0.0025475262073440547 0 -0.0055326127115990949 -0.0026428174275767153 0 -0.0053922144023917894 -0.0027949562041758034 0 -0.0055326127115990949 -0.0026428174275767153 0 -0.0055590429295311293 -0.0027699601735380898 0 -0.0056666024485282672 -0.00267486813185241 0 -0.0055326127115990949 -0.0026428174275767153 0 -0.0055590429295311293 -0.0027699601735380898 0 -0.0056072052762745732 -0.0020638945599502322 0 -0.0053839462695169753 -0.0022242880576820619 0 -0.0052320863630731075 -0.0020936360785738938 0 -0.0056072052762745732 -0.0020638945599502322 0 -0.0055225079136485087 -0.0023135468963393115 0 -0.0053839462695169753 -0.0022242880576820619 0 -0.0055225079136485087 -0.0023135468963393115 0 -0.005343298936810412 -0.0023707183831642186 0 -0.0053839462695169753 -0.0022242880576820619 0 -0.005446561605255063 -0.0024441875006195992 0 -0.0055225079136485087 -0.0023135468963393115 0 -0.005343298936810412 -0.0023707183831642186 0 -0.005446561605255063 -0.0024441875006195992 0 -0.0055565766760864825 -0.002436863395766555 0 -0.0055225079136485087 -0.0023135468963393115 0 -0.005343298936810412 -0.0023707183831642186 0 -0.0052168351865692604 -0.0022775815378193965 0 -0.005197547127264209 -0.0024444725595090277 0 -0.005343298936810412 -0.0023707183831642186 0 -0.0053839462695169753 -0.0022242880576820619 0 -0.0052168351865692604 -0.0022775815378193965 0 -0.0053839462695169753 -0.0022242880576820619 0 -0.0052168351865692604 -0.0022775815378193965 0 -0.0052320863630731075 -0.0020936360785738938 0 -0.0052168351865692604 -0.0022775815378193965 0 -0.0049627588207667222 -0.0022423577393196632 0 -0.0052320863630731075 -0.0020936360785738938 0 -0.0052168351865692604 -0.0022775815378193965 0 -0.005197547127264209 -0.0024444725595090277 0 -0.0049627588207667222 -0.0022423577393196632 0 -0.0051070273209491632 -0.0019610554045223112 0 -0.0048557218507653804 -0.0020264437913997857 0 -0.0052221424260775534 -0.0016875297985391403 0 -0.0045647252869801397 -0.0023273823264551245 0 -0.0047550038288942265 -0.0021345140112609944 0 -0.0051070273209491632 -0.0019610554045223112 0 -0.0052657481691909414 -0.0018375685681230312 0 -0.0052221424260775534 -0.0016875297985391403 0 -0.0049627588207667222 -0.0022423577393196632 0 -0.0051070273209491632 -0.0019610554045223112 0 -0.0048557218507653804 -0.0020264437913997857 0 -0.0049627588207667222 -0.0022423577393196632 0 -0.0051070273209491632 -0.0019610554045223112 0 -0.0052320863630731075 -0.0020936360785738938 0 -0.0051070273209491632 -0.0019610554045223112 0 -0.0052320863630731075 -0.0020936360785738938 0 -0.0052657481691909414 -0.0018375685681230312 0 -0.0053631359626677951 -0.0018810956097017981 0 -0.0052657481691909414 -0.0018375685681230312 0 -0.0053217626977622645 -0.0017380653127006072 0 -0.0056072052762745732 -0.0020638945599502322 0 -0.0052320863630731075 -0.0020936360785738938 0 -0.0052657481691909414 -0.0018375685681230312 0 -0.0054778638587965204 -0.0019772242441396868 0 -0.0052957229039921486 -0.0018473882784332068 0 -0.0045414194933836929 -0.0024814506586669166 0 -0.0045219225976558981 -0.002542867018741346 0 -0.0045559869757187434 -0.0025422462890169906 0 -0.0045414194933836929 -0.0024814506586669166 0 -0.0045219225976558981 -0.002542867018741346 0 -0.0043810430860579735 -0.0025778590494833723 0 -0.004798834599870707 -0.0024789133913463201 0 -0.0045414194933836929 -0.0024814506586669166 0 -0.0049627588207667222 -0.0022423577393196632 0 -0.0045274322388330979 -0.0024673467212596801 0 -0.0045647252869801397 -0.0023273823264551245 0 -0.0045414194933836929 -0.0024814506586669166 0 -0.0049627588207667222 -0.0022423577393196632 0 -0.0048557218507653804 -0.0020264437913997857 0 -0.0045414194933836929 -0.0024814506586669166 0 -0.0043810430860579735 -0.0025778590494833723 0 -0.0042515217091597607 -0.0026116006495702873 0 -0.0043810430860579735 -0.0025778590494833723 0 -0.0042515217091597607 -0.0026116006495702873 0 -0.0042685523262297621 -0.0026060721327698906 0 -0.0042515217091597607 -0.0026116006495702873 0 -0.0042551833006238436 -0.0026026172914943666 0 -0.0042685523262297621 -0.0026060721327698906 0 -0.0042515217091597607 -0.0026116006495702873 0 -0.0042551833006238436 -0.0026026172914943666 0 -0.0042619787862058483 -0.0025903904494607309 0 -0.0043594605211186464 -0.0025773097083701432 0 -0.004396703155973956 -0.0026036697983560812 0 -0.0043810430860579735 -0.0025778590494833723 0 -0.0042685523262297621 -0.0026060721327698906 0 -0.0041921113837701442 -0.0026200761982635213 0 -0.0045219225976558981 -0.002542867018741346 0 -0.0043810430860579735 -0.0025778590494833723 0 -0.0045570255124159171 -0.0026004771017788019 0 -0.004396703155973956 -0.0026036697983560812 0 -0.0042228093392133311 -0.0026606405086590829 0 -0.0045570255124159171 -0.0026004771017788019 0 -0.004577119112845634 -0.0025818328457236279 0 -0.0045559869757187434 -0.0025422462890169906 0 -0.0045570255124159171 -0.0026004771017788019 0 -0.004577119112845634 -0.0025818328457236279 0 -0.0045848962571043983 -0.0026054089136356424 0 -0.004577119112845634 -0.0025818328457236279 0 -0.0046138848230444698 -0.0025895070000377619 0 -0.0045848962571043983 -0.0026054089136356424 0 -0.004577119112845634 -0.0025818328457236279 0 -0.0045559869757187434 -0.0025422462890169906 0 -0.0045871652501296607 -0.0025585865333318867 0 -0.0045219225976558981 -0.002542867018741346 0 -0.0045570255124159171 -0.0026004771017788019 0 -0.0045559869757187434 -0.0025422462890169906 0 -0.0045559869757187434 -0.0025422462890169906 0 -0.0045422567197745426 -0.0025790748648782374 0 -0.0045703688882417813 -0.0025956785944099918 0 -0.0045414194933836929 -0.0024814506586669166 0 -0.0045559869757187434 -0.0025422462890169906 0 -0.0045703688882417813 -0.0025956785944099918 0 -0.0067872686395001238 -0.0028788386266555173 0 -0.006571817730209188 -0.0021770212757845787 0 -0.0045559869757187434 -0.0025422462890169906 0 -0.0045422567197745426 -0.0025790748648782374 0 -0.0045871652501296607 -0.0025585865333318867 0 -0.0069742212883978413 -0.0034753037388283378 0 -0.0067872686395001238 -0.0028788386266555173 0 -0.0094250850321251183 -0.0041895736062129716 0 -0.0091901094753093476 -0.0042931148432766124 0 -0.0090622580806551684 -0.0031622317635641396 0 -0.0091901094753093476 -0.0042931148432766124 0 -0.0090622580806551684 -0.0031622317635641396 0 -0.008453569654818964 -0.0037545375897838794 0 -0.0045462986425581836 -0.0027146309370941158 0 -0.0045422567197745426 -0.0025790748648782374 0 -0.0045703688882417813 -0.0025956785944099918 0 -0.0045462986425581836 -0.0027146309370941158 0 -0.0046076831083882094 -0.0026863845141303169 0 -0.0045703688882417813 -0.0025956785944099918 0 -0.0068450514582643401 -0.0032266065911668294 0 -0.0067986315672793236 -0.004056091328261827 0 -0.0075461956564867438 -0.0036480700450278827 0 -0.0075461956564867438 -0.0036480700450278827 0 -0.008453569654818964 -0.0037545375897838794 0 -0.0075580055440792136 -0.0027619693957593844 0 -0.0080285907779593223 -0.004442491504171516 0 -0.0075461956564867438 -0.0036480700450278827 0 -0.008453569654818964 -0.0037545375897838794 0 -0.0090622580806551684 -0.0031622317635641396 0 -0.0075580055440792136 -0.0027619693957593844 0 -0.0084105322384678306 -0.0019591493760136229 0 -0.0090622580806551684 -0.0031622317635641396 0 -0.008453569654818964 -0.0037545375897838794 0 -0.0075580055440792136 -0.0027619693957593844 0 -0.0068450514582643401 -0.0032266065911668294 0 -0.0075461956564867438 -0.0036480700450278827 0 -0.0075580055440792136 -0.0027619693957593844 0 -0.0075580055440792136 -0.0027619693957593844 0 -0.0068788665055954752 -0.002461216021335309 0 -0.0073728008200123025 -0.0020681328048889869 0 -0.0068450514582643401 -0.0032266065911668294 0 -0.0075580055440792136 -0.0027619693957593844 0 -0.0068788665055954752 -0.002461216021335309 0 -0.0068788665055954752 -0.002461216021335309 0 -0.0073728008200123025 -0.0020681328048889869 0 -0.0065752444543952498 -0.0016512237119282859 0 -0.0062626775831976962 -0.0026324936883009194 0 -0.0068788665055954752 -0.002461216021335309 0 -0.0065752444543952498 -0.0016512237119282859 0 -0.0073728008200123025 -0.0020681328048889869 0 -0.0073636068397995849 -0.001459041638713652 0 -0.0065752444543952498 -0.0016512237119282859 0 -0.0073636068397995849 -0.001459041638713652 0 -0.0065752444543952498 -0.0016512237119282859 0 -0.0065681173760885649 -0.001213032415060798 0 -0.0075580055440792136 -0.0027619693957593844 0 -0.0073728008200123025 -0.0020681328048889869 0 -0.0084105322384678306 -0.0019591493760136229 0 -0.0073728008200123025 -0.0020681328048889869 0 -0.0073636068397995849 -0.001459041638713652 0 -0.0084105322384678306 -0.0019591493760136229 0 -0.006571817730209188 -0.0021770212757845787 0 -0.005225796344004832 -0.0023214744161824678 0 -0.0073636068397995849 -0.001459041638713652 0 -0.0084105322384678306 -0.0019591493760136229 0 -0.0077213357565739382 -0.0006215362848790314 0 -0.004577119112845634 -0.0025818328457236279 0 -0.0045871652501296607 -0.0025585865333318867 0 -0.0046138848230444698 -0.0025895070000377619 0 -0.005225796344004832 -0.0023214744161824678 0 -0.0054153619061561697 -0.0017260148024215937 0 -0.0073636068397995849 -0.001459041638713652 0 -0.0077213357565739382 -0.0006215362848790314 0 -0.0065681173760885649 -0.001213032415060798 0 -0.0037353854075248849 -0.0026761014142856745 0 -0.0040088726329178901 -0.0023329871277087888 0 -0.0040201651617232095 -0.0025976870469461041 0 -0.0037353854075248849 -0.0026761014142856745 0 -0.0040201651617232095 -0.0025976870469461041 0 -0.0039730476364371516 -0.0028481761354592827 0 -0.0044432577863499634 -0.0025927479602455036 0 -0.0044456725899949161 -0.0025224719877313794 0 -0.0043805333068931323 -0.0024908964122941088 0 -0.005225796344004832 -0.0023214744161824678 0 -0.0039511675606145888 -0.0026272739727203776 0 -0.0037353854075248849 -0.0026761014142856745 0 -0.0038109679190150921 -0.0028037174084976258 0 -0.0039730476364371516 -0.0028481761354592827 0 -0.0038330892721564944 -0.0027444617868474493 0 -0.0038817288390165239 -0.0026830562801714768 0 -0.0038999403702280389 -0.0027714668221062674 0 -0.005225796344004832 -0.0023214744161824678 0 -0.0042228093392133311 -0.0026606405086590829 0 -0.0044432577863499634 -0.0025927479602455036 0 -0.0044456725899949161 -0.0025224719877313794 0 -0.0045061466561662688 -0.0025545353742901849 0 -0.0041533020592904955 -0.0026468203036162708 0 -0.0042228093392133311 -0.0026606405086590829 0 -0.0038330892721564944 -0.0027444617868474493 0 -0.003817089960465792 -0.0027148635032335391 0 -0.0038817288390165239 -0.0026830562801714768 0 -0.003817089960465792 -0.0027148635032335391 0 -0.0038552467925067331 -0.0026307230937501831 0 -0.0038817288390165239 -0.0026830562801714768 0 -0.0038109679190150921 -0.0028037174084976258 0 -0.0038363966363802043 -0.002815078846532581 0 -0.0037934021573262111 -0.0027925295605453976 0 -0.0038109679190150921 -0.0028037174084976258 0 -0.0037715768653118144 -0.0027647256268735028 0 -0.0037934021573262111 -0.0027925295605453976 0 -0.0041533020592904955 -0.0026468203036162708 0 -0.0039511675606145888 -0.0026272739727203776 0 -0.0038330892721564944 -0.0027444617868474493 0 -0.003817089960465792 -0.0027148635032335391 0 -0.0038109679190150921 -0.0028037174084976258 0 -0.003817089960465792 -0.0027148635032335391 0 -0.0038109679190150921 -0.0028037174084976258 0 -0.0037893494827071473 -0.0027350188273150603 0 -0.003817089960465792 -0.0027148635032335391 0 -0.0037893494827071473 -0.0027350188273150603 0 -0.0037629379495205911 -0.0026705812737760435 0 -0.0037893494827071473 -0.0027350188273150603 0 -0.003777451832411629 -0.0027521249847770705 0 -0.0037508249385423153 -0.0027239450338721314 0 -0.0038109679190150921 -0.0028037174084976258 0 -0.0037893494827071473 -0.0027350188273150603 0 -0.003777451832411629 -0.0027521249847770705 0 -0.003777451832411629 -0.0027521249847770705 0 -0.0037715768653118144 -0.0027647256268735028 0 -0.0037508249385423153 -0.0027239450338721314 0 -0.0038109679190150921 -0.0028037174084976258 0 -0.003777451832411629 -0.0027521249847770705 0 -0.0037715768653118144 -0.0027647256268735028 0 -0.0037508249385423153 -0.0027239450338721314 0 -0.0037629379495205911 -0.0026705812737760435 0 -0.0036911159080458174 -0.0026460693970412194 0 -0.0037893494827071473 -0.0027350188273150603 0 -0.0037508249385423153 -0.0027239450338721314 0 -0.0037629379495205911 -0.0026705812737760435 0 -0.003817089960465792 -0.0027148635032335391 0 -0.0037629379495205911 -0.0026705812737760435 0 -0.0037927643146800807 -0.0026042884195024863 0 -0.0037629379495205911 -0.0026705812737760435 0 -0.0037025442753043894 -0.002585782837787804 0 -0.0036911159080458174 -0.0026460693970412194 0 -0.0037629379495205911 -0.0026705812737760435 0 -0.0037927643146800807 -0.0026042884195024863 0 -0.0037025442753043894 -0.002585782837787804 0 -0.003817089960465792 -0.0027148635032335391 0 -0.0038552467925067331 -0.0026307230937501831 0 -0.0037927643146800807 -0.0026042884195024863 0 -0.0038552467925067331 -0.0026307230937501831 0 -0.0037927643146800807 -0.0026042884195024863 0 -0.0038540742772918139 -0.0025652382198427569 0 -0.0037927643146800807 -0.0026042884195024863 0 -0.0038540742772918139 -0.0025652382198427569 0 -0.0037925417926451053 -0.0025259323311721776 0 -0.0038540742772918139 -0.0025652382198427569 0 -0.0037925417926451053 -0.0025259323311721776 0 -0.0038805250528313492 -0.0025095550307921589 0 -0.0037927643146800807 -0.0026042884195024863 0 -0.0037925417926451053 -0.0025259323311721776 0 -0.003682127870147068 -0.002501347075334255 0 -0.0037927643146800807 -0.0026042884195024863 0 -0.003682127870147068 -0.002501347075334255 0 -0.0037025442753043894 -0.002585782837787804 0 -0.003682127870147068 -0.002501347075334255 0 -0.0037025442753043894 -0.002585782837787804 0 -0.0036258097255215957 -0.0025542574672727347 0 -0.0039949955964724681 -0.0024262513712558238 0 -0.0037825458520372316 -0.0023327771239396102 0 -0.0040084019893071943 -0.0022936473809560681 0 -0.0039949955964724681 -0.0024262513712558238 0 -0.0037825458520372316 -0.0023327771239396102 0 -0.0039189594271001786 -0.0025513966361075191 0 -0.0038341312265226953 -0.0024178231683896017 0 -0.0039085061826428964 -0.0025448237387427856 0 -0.0038540742772918139 -0.0025652382198427569 0 -0.0038805250528313492 -0.0025095550307921589 0 -0.0039189594271001786 -0.0025513966361075191 0 -0.0038552467925067331 -0.0026307230937501831 0 -0.0039189594271001786 -0.0025513966361075191 0 -0.0038817288390165239 -0.0026830562801714768 0 -0.0038552467925067331 -0.0026307230937501831 0 -0.0038540742772918139 -0.0025652382198427569 0 -0.0039189594271001786 -0.0025513966361075191 0 -0.0039949955964724681 -0.0024262513712558238 0 -0.0039189594271001786 -0.0025513966361075191 0 -0.0040552146297694385 -0.0025331619816702567 0 -0.0039949955964724681 -0.0024262513712558238 0 -0.0040552146297694385 -0.0025331619816702567 0 -0.0041031029004447092 -0.0024411225645880152 0 -0.0039189594271001786 -0.0025513966361075191 0 -0.0040552146297694385 -0.0025331619816702567 0 -0.0039876107848645466 -0.0027118810531304043 0 -0.0040552146297694385 -0.0025331619816702567 0 -0.0039876107848645466 -0.0027118810531304043 0 -0.0041309967422084107 -0.0025986240127237794 0 -0.0041601499711108976 -0.0025916092248330492 0 -0.0041917444136258539 -0.0025917698307981242 0 -0.0041309967422084107 -0.0025986240127237794 0 -0.0040469986925891765 -0.0026664026614139661 0 -0.0041330565853276774 -0.0026043934738202807 0 -0.0039189594271001786 -0.0025513966361075191 0 -0.0038817288390165239 -0.0026830562801714768 0 -0.0039876107848645466 -0.0027118810531304043 0 -0.0038817288390165239 -0.0026830562801714768 0 -0.0038999403702280389 -0.0027714668221062674 0 -0.0039876107848645466 -0.0027118810531304043 0 -0.0042228093392133311 -0.0026606405086590829 0 -0.0040469986925891765 -0.0026664026614139661 0 -0.0041921113837701442 -0.0026200761982635213 0 -0.0041382237068429781 -0.0026057040658719987 0 -0.0041601499711108976 -0.0025916092248330492 0 -0.0041921113837701442 -0.0026200761982635213 0 -0.0041601499711108976 -0.0025916092248330492 0 -0.0041917444136258539 -0.0025917698307981242 0 -0.0042685523262297621 -0.0026060721327698906 0 -0.0041921113837701442 -0.0026200761982635213 0 -0.0041917444136258539 -0.0025917698307981242 0 -0.0042685523262297621 -0.0026060721327698906 0 -0.0041917444136258539 -0.0025917698307981242 0 -0.0042372133578204678 -0.0025832683661750401 0 -0.0042551833006238436 -0.0026026172914943666 0 -0.0042685523262297621 -0.0026060721327698906 0 -0.0042372133578204678 -0.0025832683661750401 0 -0.0042551833006238436 -0.0026026172914943666 0 -0.0042372133578204678 -0.0025832683661750401 0 -0.0042619787862058483 -0.0025903904494607309 0 -0.0041784990600181237 -0.002536789940571888 0 -0.0042592624324809987 -0.0025345528108109898 0 -0.0042286370493801713 -0.0024691823511533671 0 -0.0042372133578204678 -0.0025832683661750401 0 -0.0041784990600181237 -0.002536789940571888 0 -0.0042592624324809987 -0.0025345528108109898 0 -0.0041917444136258539 -0.0025917698307981242 0 -0.0042372133578204678 -0.0025832683661750401 0 -0.0041784990600181237 -0.002536789940571888 0 -0.0041917444136258539 -0.0025917698307981242 0 -0.0041784990600181237 -0.002536789940571888 0 -0.0041309967422084107 -0.0025986240127237794 0 -0.0040552146297694385 -0.0025331619816702567 0 -0.0041784990600181237 -0.002536789940571888 0 -0.0041309967422084107 -0.0025986240127237794 0 -0.0053217626977622645 -0.0017380653127006072 0 -0.0052221424260775534 -0.0016875297985391403 0 -0.0053668940529847968 -0.0015724785321415105 0 -0.0052657481691909414 -0.0018375685681230312 0 -0.0053217626977622645 -0.0017380653127006072 0 -0.0052221424260775534 -0.0016875297985391403 0 -0.0042515217091597607 -0.0026116006495702873 0 -0.0043008882419578766 -0.0025776954915669027 0 -0.0042619787862058483 -0.0025903904494607309 0 -0.0043008882419578766 -0.0025776954915669027 0 -0.0042706174650248762 -0.0025699838035658611 0 -0.0042592624324809987 -0.0025345528108109898 0 -0.0043008882419578766 -0.0025776954915669027 0 -0.0042619787862058483 -0.0025903904494607309 0 -0.0042706174650248762 -0.0025699838035658611 0 -0.0042372133578204678 -0.0025832683661750401 0 -0.0042706174650248762 -0.0025699838035658611 0 -0.0042592624324809987 -0.0025345528108109898 0 -0.0042372133578204678 -0.0025832683661750401 0 -0.0042619787862058483 -0.0025903904494607309 0 -0.0042706174650248762 -0.0025699838035658611 0 -0.0042592624324809987 -0.0025345528108109898 0 -0.0042992140128277232 -0.002452693419378529 0 -0.0042286370493801713 -0.0024691823511533671 0 -0.0043008882419578766 -0.0025776954915669027 0 -0.0042592624324809987 -0.0025345528108109898 0 -0.0042992140128277232 -0.002452693419378529 0 -0.0043008882419578766 -0.0025776954915669027 0 -0.0042992140128277232 -0.002452693419378529 0 -0.0043798998618095079 -0.002461682684717918 0 -0.0047550038288942265 -0.0021345140112609944 0 -0.004871847765934436 -0.0020163465035116855 0 -0.0042992140128277232 -0.002452693419378529 0 -0.0043798998618095079 -0.002461682684717918 0 -0.0043672161869080092 -0.0023556455615651225 0 -0.0042992140128277232 -0.002452693419378529 0 -0.0042942885511150566 -0.0023241819885108034 0 -0.0043672161869080092 -0.0023556455615651225 0 -0.0042992140128277232 -0.002452693419378529 0 -0.0042286311888307011 -0.0023703766577862352 0 -0.0042286370493801713 -0.0024691823511533671 0 -0.0042286311888307011 -0.0023703766577862352 0 -0.0041462762645313646 -0.002297113471266285 0 -0.0042574593739740235 -0.002241537627797456 0 -0.0042992140128277232 -0.002452693419378529 0 -0.0042286311888307011 -0.0023703766577862352 0 -0.0042942885511150566 -0.0023241819885108034 0 -0.0042286311888307011 -0.0023703766577862352 0 -0.0042942885511150566 -0.0023241819885108034 0 -0.0042574593739740235 -0.002241537627797456 0 -0.0042942885511150566 -0.0023241819885108034 0 -0.0043672161869080092 -0.0023556455615651225 0 -0.0043503946480440824 -0.002261506875652965 0 -0.0040552146297694385 -0.0025331619816702567 0 -0.0041784990600181237 -0.002536789940571888 0 -0.0041031029004447092 -0.0024411225645880152 0 -0.0041784990600181237 -0.002536789940571888 0 -0.0041031029004447092 -0.0024411225645880152 0 -0.0041775688594526666 -0.0024266846252618867 0 -0.0041784990600181237 -0.002536789940571888 0 -0.0042286370493801713 -0.0024691823511533671 0 -0.0041775688594526666 -0.0024266846252618867 0 -0.0042286311888307011 -0.0023703766577862352 0 -0.0042286370493801713 -0.0024691823511533671 0 -0.0041775688594526666 -0.0024266846252618867 0 -0.0041031029004447092 -0.0024411225645880152 0 -0.0041775688594526666 -0.0024266846252618867 0 -0.0041462762645313646 -0.002297113471266285 0 -0.0042286311888307011 -0.0023703766577862352 0 -0.0041775688594526666 -0.0024266846252618867 0 -0.0041462762645313646 -0.002297113471266285 0 -0.0041031029004447092 -0.0024411225645880152 0 -0.0041462762645313646 -0.002297113471266285 0 -0.0040084019893071943 -0.0022936473809560681 0 -0.0039949955964724681 -0.0024262513712558238 0 -0.0041031029004447092 -0.0024411225645880152 0 -0.0040084019893071943 -0.0022936473809560681 0 -0.0040829791036745668 -0.0021977583853218488 0 -0.0040084019893071943 -0.0022936473809560681 0 -0.0039844679222304788 -0.0021262362685624692 0 -0.0041462762645313646 -0.002297113471266285 0 -0.0040829791036745668 -0.0021977583853218488 0 -0.0040084019893071943 -0.0022936473809560681 0 -0.0041462762645313646 -0.002297113471266285 0 -0.0041598148212622435 -0.0021459787633648295 0 -0.0042574593739740235 -0.002241537627797456 0 -0.0041462762645313646 -0.002297113471266285 0 -0.0041598148212622435 -0.0021459787633648295 0 -0.0040829791036745668 -0.0021977583853218488 0 -0.0041598148212622435 -0.0021459787633648295 0 -0.0040829791036745668 -0.0021977583853218488 0 -0.0040860935176416291 -0.0020682419504163374 0 -0.0040829791036745668 -0.0021977583853218488 0 -0.0040860935176416291 -0.0020682419504163374 0 -0.0039844679222304788 -0.0021262362685624692 0 -0.0042574593739740235 -0.002241537627797456 0 -0.0043295354650423491 -0.0021695750611282162 0 -0.0043503946480440824 -0.002261506875652965 0 -0.0042942885511150566 -0.0023241819885108034 0 -0.0042574593739740235 -0.002241537627797456 0 -0.0043503946480440824 -0.002261506875652965 0 -0.0041598148212622435 -0.0021459787633648295 0 -0.0042508439588899724 -0.0021195417348824708 0 -0.0041809143690873431 -0.00202598581834377 0 -0.0041598148212622435 -0.0021459787633648295 0 -0.0042574593739740235 -0.002241537627797456 0 -0.0042508439588899724 -0.0021195417348824708 0 -0.0042508439588899724 -0.0021195417348824708 0 -0.0043295354650423491 -0.0021695750611282162 0 -0.0043093527295914869 -0.0020876265740070632 0 -0.0042574593739740235 -0.002241537627797456 0 -0.0042508439588899724 -0.0021195417348824708 0 -0.0043295354650423491 -0.0021695750611282162 0 -0.0043093527295914869 -0.0020876265740070632 0 -0.0042896806560474643 -0.0020146525411558892 0 -0.0043487397790127396 -0.0020473738056938067 0 -0.0042508439588899724 -0.0021195417348824708 0 -0.0043093527295914869 -0.0020876265740070632 0 -0.0042460933724540418 -0.0020407091393337502 0 -0.0043093527295914869 -0.0020876265740070632 0 -0.0042460933724540418 -0.0020407091393337502 0 -0.0042896806560474643 -0.0020146525411558892 0 -0.0042460933724540418 -0.0020407091393337502 0 -0.0041809143690873431 -0.00202598581834377 0 -0.0042240682080144695 -0.001950377884963866 0 -0.0042508439588899724 -0.0021195417348824708 0 -0.0042460933724540418 -0.0020407091393337502 0 -0.0041809143690873431 -0.00202598581834377 0 -0.0041809143690873431 -0.00202598581834377 0 -0.0042240682080144695 -0.001950377884963866 0 -0.0041507376430494217 -0.0019311938621115151 0 -0.0042240682080144695 -0.001950377884963866 0 -0.0041507376430494217 -0.0019311938621115151 0 -0.0041621975204710884 -0.0018283714424709864 0 -0.004306341694400237 -0.0019431446545513521 0 -0.0042896806560474643 -0.0020146525411558892 0 -0.0043487397790127396 -0.0020473738056938067 0 -0.0042240682080144695 -0.001950377884963866 0 -0.004306341694400237 -0.0019431446545513521 0 -0.0042896806560474643 -0.0020146525411558892 0 -0.0042460933724540418 -0.0020407091393337502 0 -0.0042240682080144695 -0.001950377884963866 0 -0.0042896806560474643 -0.0020146525411558892 0 -0.0040860935176416291 -0.0020682419504163374 0 -0.0039827588821938599 -0.0019587910518412102 0 -0.0041076455413376718 -0.0019509303646528897 0 -0.0040860935176416291 -0.0020682419504163374 0 -0.0039827588821938599 -0.0019587910518412102 0 -0.0039844679222304788 -0.0021262362685624692 0 -0.0041598148212622435 -0.0021459787633648295 0 -0.0041809143690873431 -0.00202598581834377 0 -0.0040860935176416291 -0.0020682419504163374 0 -0.0041809143690873431 -0.00202598581834377 0 -0.0040860935176416291 -0.0020682419504163374 0 -0.0041076455413376718 -0.0019509303646528897 0 -0.0041809143690873431 -0.00202598581834377 0 -0.0041076455413376718 -0.0019509303646528897 0 -0.0041507376430494217 -0.0019311938621115151 0 -0.0041076455413376718 -0.0019509303646528897 0 -0.003972654999142752 -0.0018641009592062095 0 -0.0040881705458343312 -0.0018808315089172052 0 -0.0041076455413376718 -0.0019509303646528897 0 -0.0041507376430494217 -0.0019311938621115151 0 -0.0040881705458343312 -0.0018808315089172052 0 -0.0039827588821938599 -0.0019587910518412102 0 -0.0041076455413376718 -0.0019509303646528897 0 -0.0040412823372072536 -0.0017601424260001311 0 -0.0040733055280808362 -0.0019058824849676876 0 -0.0040717454143937327 -0.0018686071275930308 0 -0.0039827588821938599 -0.0019587910518412102 0 -0.0039235728132927163 -0.0018143416326245464 0 -0.0040412823372072536 -0.0017601424260001311 0 -0.0039827588821938599 -0.0019587910518412102 0 -0.0039235728132927163 -0.0018143416326245464 0 -0.0038159003171215097 -0.0018708339283095563 0 -0.0039235728132927163 -0.0018143416326245464 0 -0.0038159003171215097 -0.0018708339283095563 0 -0.0038409066375737692 -0.0017126338344595914 0 -0.0039827588821938599 -0.0019587910518412102 0 -0.0038235624386134589 -0.0020565802184304258 0 -0.0039844679222304788 -0.0021262362685624692 0 -0.0039827588821938599 -0.0019587910518412102 0 -0.0038235624386134589 -0.0020565802184304258 0 -0.0038159003171215097 -0.0018708339283095563 0 -0.0038235624386134589 -0.0020565802184304258 0 -0.0037081197677629372 -0.0019724520131483175 0 -0.003665274838446018 -0.0021410257852535388 0 -0.0038235624386134589 -0.0020565802184304258 0 -0.0037081197677629372 -0.0019724520131483175 0 -0.0038159003171215097 -0.0018708339283095563 0 -0.0037081197677629372 -0.0019724520131483175 0 -0.0038159003171215097 -0.0018708339283095563 0 -0.0036809587881241816 -0.001853130729118896 0 -0.0038159003171215097 -0.0018708339283095563 0 -0.0037265171985333837 -0.0017640938491779628 0 -0.0038409066375737692 -0.0017126338344595914 0 -0.0038159003171215097 -0.0018708339283095563 0 -0.0037265171985333837 -0.0017640938491779628 0 -0.0036809587881241816 -0.001853130729118896 0 -0.0037265171985333837 -0.0017640938491779628 0 -0.0036049625558958543 -0.0017338516739972029 0 -0.0036515508902018852 -0.0016898702632860835 0 -0.0037265171985333837 -0.0017640938491779628 0 -0.0036049625558958543 -0.0017338516739972029 0 -0.0036809587881241816 -0.001853130729118896 0 -0.0036049625558958543 -0.0017338516739972029 0 -0.0035116117188505086 -0.0016761282634553344 0 -0.0035390060773487424 -0.0016406157105770943 0 -0.0036049625558958543 -0.0017338516739972029 0 -0.0035116117188505086 -0.0016761282634553344 0 -0.003541701116035044 -0.0019329972320744403 0 -0.0036049625558958543 -0.0017338516739972029 0 -0.0036809587881241816 -0.001853130729118896 0 -0.003541701116035044 -0.0019329972320744403 0 -0.0036032192805772099 -0.0018980727367246437 0 -0.0034189626472702485 -0.001464633613098152 0 -0.0035116117188505086 -0.0016761282634553344 0 -0.003541701116035044 -0.0019329972320744403 0 -0.0033997964377519832 -0.0014230171288742786 0 -0.0034284558052461848 -0.001692378076517749 0 -0.0036727461013104272 -0.00188288071285424 0 -0.0033997964377519832 -0.0014230171288742786 0 -0.0033393298016436176 -0.0015510593963040204 0 -0.0032287267291407702 -0.0014053326312994266 0 -0.0032353765293932297 -0.0016485254285074932 0 -0.0033393298016436176 -0.0015510593963040204 0 -0.0034284558052461848 -0.001692378076517749 0 -0.0033997964377519832 -0.0014230171288742786 0 -0.0033393298016436176 -0.0015510593963040204 0 -0.0034284558052461848 -0.001692378076517749 0 -0.0032353765293932297 -0.0016485254285074932 0 -0.0034284558052461848 -0.001692378076517749 0 -0.0033664618085222572 -0.0018944387974889332 0 -0.0036727461013104272 -0.00188288071285424 0 -0.0034284558052461848 -0.001692378076517749 0 -0.0033664618085222572 -0.0018944387974889332 0 -0.0032353765293932297 -0.0016485254285074932 0 -0.0033664618085222572 -0.0018944387974889332 0 -0.0036006636957219597 -0.0021784811642814421 0 -0.0031917451194189332 -0.0021127440719905886 0 -0.0033664618085222572 -0.0018944387974889332 0 -0.0036727461013104272 -0.00188288071285424 0 -0.0036006636957219597 -0.0021784811642814421 0 -0.0036032192805772099 -0.0018980727367246437 0 -0.003742360598291603 -0.0022144132096311034 0 -0.0037081197677629372 -0.0019724520131483175 0 -0.003541701116035044 -0.0019329972320744403 0 -0.003665274838446018 -0.0021410257852535388 0 -0.0036727461013104272 -0.00188288071285424 0 -0.0038253422151839273 -0.0022964259314358494 0 -0.0036006636957219597 -0.0021784811642814421 0 -0.0037081197677629372 -0.0019724520131483175 0 -0.0036809587881241816 -0.001853130729118896 0 -0.003541701116035044 -0.0019329972320744403 0 -0.0038253422151839273 -0.0022964259314358494 0 -0.0036006636957219597 -0.0021784811642814421 0 -0.0037341737616281502 -0.0024367358852633737 0 -0.0035554207526229428 -0.0023831131841314693 0 -0.0036006636957219597 -0.0021784811642814421 0 -0.0031917451194189332 -0.0021127440719905886 0 -0.0035554207526229428 -0.0023831131841314693 0 -0.0036006636957219597 -0.0021784811642814421 0 -0.0037341737616281502 -0.0024367358852633737 0 -0.003682127870147068 -0.002501347075334255 0 -0.0035554207526229428 -0.0023831131841314693 0 -0.0035591813585800457 -0.0024248247304836717 0 -0.003682127870147068 -0.002501347075334255 0 -0.0035554207526229428 -0.0023831131841314693 0 -0.0037341737616281502 -0.0024367358852633737 0 -0.0038341312265226953 -0.0024178231683896017 0 -0.003742360598291603 -0.0022144132096311034 0 -0.0037925417926451053 -0.0025259323311721776 0 -0.0038805250528313492 -0.0025095550307921589 0 -0.0037341737616281502 -0.0024367358852633737 0 -0.0038805250528313492 -0.0025095550307921589 0 -0.0038253422151839273 -0.0022964259314358494 0 -0.0037341737616281502 -0.0024367358852633737 0 -0.0037925417926451053 -0.0025259323311721776 0 -0.003682127870147068 -0.002501347075334255 0 -0.0037341737616281502 -0.0024367358852633737 0 -0.0037825458520372316 -0.0023327771239396102 0 -0.003665274838446018 -0.0021410257852535388 0 -0.0038621569860353058 -0.0021968780466264143 0 -0.0040084019893071943 -0.0022936473809560681 0 -0.0039844679222304788 -0.0021262362685624692 0 -0.0038621569860353058 -0.0021968780466264143 0 -0.0037825458520372316 -0.0023327771239396102 0 -0.0040084019893071943 -0.0022936473809560681 0 -0.0038621569860353058 -0.0021968780466264143 0 -0.0038235624386134589 -0.0020565802184304258 0 -0.0039844679222304788 -0.0021262362685624692 0 -0.0038621569860353058 -0.0021968780466264143 0 -0.0038235624386134589 -0.0020565802184304258 0 -0.003665274838446018 -0.0021410257852535388 0 -0.0038621569860353058 -0.0021968780466264143 0 -0.0058508658318813982 6.6735620109618498e-05 0 -0.0056267929551647253 3.806381294133766e-08 0 -0.0063890754329188493 4.0937682361247041e-07 0 -0.0058508658318813982 6.6735620109618498e-05 0 -0.0057439234350876401 9.4782680872399871e-05 0 -0.0054613326125017483 8.2340044444122957e-05 0 -0.0058508658318813982 6.6735620109618498e-05 0 -0.0060720010471164328 3.6935105032648578e-05 0 -0.0057439234350876401 9.4782680872399871e-05 0 -0.0060673495855985303 3.8577965723347441e-05 0 -0.0058894737080225218 -3.0359737510656456e-05 0 -0.0060720010471164328 3.6935105032648578e-05 0 -0.0058220904291677476 3.1298241339947373e-05 0 -0.0057439234350876401 9.4782680872399871e-05 0 -0.0060720010471164328 3.6935105032648578e-05 0 -0.0057830427392378016 -9.5236152287373786e-05 0 -0.0058220904291677476 3.1298241339947373e-05 0 -0.0060720010471164328 3.6935105032648578e-05 0 -0.0063890754329188493 4.0937682361247041e-07 0 -0.0064813470296137049 2.454888629308209e-05 0 -0.0058508658318813982 6.6735620109618498e-05 0 -0.0060720010471164328 3.6935105032648578e-05 0 -0.0063890754329188493 4.0937682361247041e-07 0 -0.0063890754329188493 4.0937682361247041e-07 0 -0.0064813470296137049 2.454888629308209e-05 0 -0.0071497888817507746 -9.0086866547382543e-07 0 -0.0064813470296137049 2.454888629308209e-05 0 -0.0071497888817507746 -9.0086866547382543e-07 0 -0.0063587510911888136 -0.00016259658072823537 0 -0.0065183658696188369 -0.00075845173490624246 0 -0.0071497888817507746 -9.0086866547382543e-07 0 -0.0065190172144637603 -0.00037224485063320936 0 -0.0071497888817507746 -9.0086866547382543e-07 0 -0.0065190172144637603 -0.00037224485063320936 0 -0.0063587510911888136 -0.00016259658072823537 0 -0.007304509343685749 -0.00039146674946411846 0 -0.0071515134984047246 8.6610856475380567e-08 0 -0.0062073838132223258 -0.00052192159571622717 0 -0.0063587510911888136 -0.00016259658072823537 0 -0.006091075863632737 -0.00014827731818251643 0 -0.0062073838132223258 -0.00052192159571622717 0 -0.0065190172144637603 -0.00037224485063320936 0 -0.0063587510911888136 -0.00016259658072823537 0 -0.0063587510911888136 -0.00016259658072823537 0 -0.0062048464416723861 2.5137449434379603e-06 0 -0.006091075863632737 -0.00014827731818251643 0 -0.0060720010471164328 3.6935105032648578e-05 0 -0.0062048464416723861 2.5137449434379603e-06 0 -0.006080088449440909 6.4440690150013269e-05 0 -0.0064813470296137049 2.454888629308209e-05 0 -0.0063587510911888136 -0.00016259658072823537 0 -0.0062048464416723861 2.5137449434379603e-06 0 -0.0060720010471164328 3.6935105032648578e-05 0 -0.0064813470296137049 2.454888629308209e-05 0 -0.0062048464416723861 2.5137449434379603e-06 0 -0.0057830427392378016 -9.5236152287373786e-05 0 -0.0056821105620720744 -0.00012125019088851489 0 -0.0057106149058386117 -5.7066775129917743e-05 0 -0.0062048464416723861 2.5137449434379603e-06 0 -0.006080088449440909 6.4440690150013269e-05 0 -0.006091075863632737 -0.00014827731818251643 0 -0.0058894737080225218 -3.0359737510656456e-05 0 -0.0061174061232223886 -0.00029811285274739636 0 -0.006080088449440909 6.4440690150013269e-05 0 -0.006091075863632737 -0.00014827731818251643 0 -0.0058104335652997916 -1.8268260649330998e-05 0 -0.0058994220862895073 -0.00043142409682022796 0 -0.006091075863632737 -0.00014827731818251643 0 -0.0058104335652997916 -1.8268260649330998e-05 0 -0.0062073838132223258 -0.00052192159571622717 0 -0.0058994220862895073 -0.00043142409682022796 0 -0.006091075863632737 -0.00014827731818251643 0 -0.0068392934907838343 -0.00096196379730680655 0 -0.0067715739011546452 -0.00077448792483301662 0 -0.0066919726264407708 -0.0009039669941209458 0 -0.0066682610023990653 -0.0010046965383829209 0 -0.0068392934907838343 -0.00096196379730680655 0 -0.0066919726264407708 -0.0009039669941209458 0 -0.0063501997301379899 -0.00071219018257027609 0 -0.0061174061232223886 -0.00029811285274739636 0 -0.0061174061232223886 -0.00029811285274739636 0 -0.0056716982243492486 4.2902514724409258e-05 0 -0.0056614960619704967 -3.5988266037070711e-05 0 -0.0057288830704603829 3.1508629046336474e-05 0 -0.0056680838815544917 5.6553384896748858e-05 0 -0.0057014323095050667 -0.00012590821203286378 0 -0.0056614960619704967 -3.5988266037070711e-05 0 -0.0056433207650080988 -7.2961097101611631e-05 0 -0.0056614960619704967 -3.5988266037070711e-05 0 -0.0056433207650080988 -7.2961097101611631e-05 0 -0.0056255485796923924 4.4089050972185146e-06 0 -0.0056614960619704967 -3.5988266037070711e-05 0 -0.0056680838815544917 5.6553384896748858e-05 0 -0.0056255485796923924 4.4089050972185146e-06 0 -0.0056821105620720744 -0.00012125019088851489 0 -0.0056614960619704967 -3.5988266037070711e-05 0 -0.0057106149058386117 -5.7066775129917743e-05 0 -0.0056614960619704967 -3.5988266037070711e-05 0 -0.0057106149058386117 -5.7066775129917743e-05 0 -0.0057288830704603829 3.1508629046336474e-05 0 -0.0057830427392378016 -9.5236152287373786e-05 0 -0.0057106149058386117 -5.7066775129917743e-05 0 -0.0057288830704603829 3.1508629046336474e-05 0 -0.0057830427392378016 -9.5236152287373786e-05 0 -0.0058220904291677476 3.1298241339947373e-05 0 -0.0057288830704603829 3.1508629046336474e-05 0 -0.0057288830704603829 3.1508629046336474e-05 0 -0.0057056612081801891 8.8685741283553037e-05 0 -0.0057439234350876401 9.4782680872399871e-05 0 -0.0058220904291677476 3.1298241339947373e-05 0 -0.0057288830704603829 3.1508629046336474e-05 0 -0.0057439234350876401 9.4782680872399871e-05 0 -0.0057288830704603829 3.1508629046336474e-05 0 -0.0057056612081801891 8.8685741283553037e-05 0 -0.0056680838815544917 5.6553384896748858e-05 0 -0.0055518645236076304 -4.1922275193542212e-05 0 -0.0056255485796923924 4.4089050972185146e-06 0 -0.0056252857592009216 9.1229775297848291e-05 0 -0.005573491769537431 -0.0014361362972309831 0 -0.0056170496278291557 -0.0015257450991573566 0 -0.0056303386770427824 -0.0013844489104520271 0 -0.0056680838815544917 5.6553384896748858e-05 0 -0.0056255485796923924 4.4089050972185146e-06 0 -0.0056252857592009216 9.1229775297848291e-05 0 -0.0055571985599292932 -0.00078319693145772053 0 -0.005714865920053421 -0.00056561621286809198 0 -0.005573491769537431 -0.0014361362972309831 0 -0.0054713710339681886 -0.0014629698378489111 0 -0.0055592043723114758 -0.0013656797109449239 0 -0.005573491769537431 -0.0014361362972309831 0 -0.0056170496278291557 -0.0015257450991573566 0 -0.0054713710339681886 -0.0014629698378489111 0 -0.0056433207650080988 -7.2961097101611631e-05 0 -0.0055518645236076304 -4.1922275193542212e-05 0 -0.0056255485796923924 4.4089050972185146e-06 0 -0.0055419927339018767 6.5679525638401208e-06 0 -0.0059631843139496621 -0.00058460444097199358 0 -0.0056433207650080988 -7.2961097101611631e-05 0 -0.0055518645236076304 -4.1922275193542212e-05 0 -0.005534569364722206 -0.00023589303479612308 0 -0.0057014323095050667 -0.00012590821203286378 0 -0.0056433207650080988 -7.2961097101611631e-05 0 -0.0055514437605958915 -0.00020261942169132595 0 -0.0061174061232223886 -0.00029811285274739636 0 -0.0059631843139496621 -0.00058460444097199358 0 -0.0067715739011546452 -0.00077448792483301662 0 -0.0066919726264407708 -0.0009039669941209458 0 -0.006566905282717474 -0.00087423336472009319 0 -0.0066919726264407708 -0.0009039669941209458 0 -0.0066005865496698794 -0.0009468236615285655 0 -0.006566905282717474 -0.00087423336472009319 0 -0.0066682610023990653 -0.0010046965383829209 0 -0.0066919726264407708 -0.0009039669941209458 0 -0.0066005865496698794 -0.0009468236615285655 0 -0.0056518488813088758 -0.0010960565084338219 0 -0.0054423205727508134 -0.0017096238923715063 0 -0.0056261394068387689 -0.0017383595971388675 0 -0.0056421752760199371 -0.0016792705818002279 0 -0.0055249899617255014 -0.0017406472970592645 0 -0.0060486715792669281 -0.0011321864684182815 0 -0.0059631843139496621 -0.00058460444097199358 0 -0.0066005865496698794 -0.0009468236615285655 0 -0.0065091127457868395 -0.00094693893741852912 0 -0.006566905282717474 -0.00087423336472009319 0 -0.0060486715792669281 -0.0011321864684182815 0 -0.0056518488813088758 -0.0010960565084338219 0 -0.0056518488813088758 -0.0010960565084338219 0 -0.0059631843139496621 -0.00058460444097199358 0 -0.0058317747721111039 -0.0010562713347861731 0 -0.0058688821123695934 -0.00092187107299357602 0 -0.005985453873536997 -0.00086845604555930002 0 -0.0055925832758455087 -0.0016935488421252881 0 -0.0055396785286284406 -0.0016416032888572104 0 -0.0055249899617255014 -0.0017406472970592645 0 -0.0056170496278291557 -0.0015257450991573566 0 -0.0055925832758455087 -0.0016935488421252881 0 -0.0055396785286284406 -0.0016416032888572104 0 -0.0055571985599292932 -0.00078319693145772053 0 -0.0056518488813088758 -0.0010960565084338219 0 -0.0055518645236076304 -4.1922275193542212e-05 0 -0.0054924564094845328 -0.00025700119873985967 0 -0.005534569364722206 -0.00023589303479612308 0 -0.0056170496278291557 -0.0015257450991573566 0 -0.0055396785286284406 -0.0016416032888572104 0 -0.0054926712794830506 -0.0015787451021912302 0 -0.0055396785286284406 -0.0016416032888572104 0 -0.0054926712794830506 -0.0015787451021912302 0 -0.0054637839314850174 -0.001677186172235344 0 -0.0055396785286284406 -0.0016416032888572104 0 -0.0054637839314850174 -0.001677186172235344 0 -0.0055249899617255014 -0.0017406472970592645 0 -0.0054544358407926357 -0.0017966830016885311 0 -0.0054637839314850174 -0.001677186172235344 0 -0.0055249899617255014 -0.0017406472970592645 0 -0.0054544358407926357 -0.0017966830016885311 0 -0.0054637839314850174 -0.001677186172235344 0 -0.0053927740328120399 -0.001731420103961312 0 -0.0053217626977622645 -0.0017380653127006072 0 -0.0053927740328120399 -0.001731420103961312 0 -0.0053668940529847968 -0.0015724785321415105 0 -0.0054637839314850174 -0.001677186172235344 0 -0.0053927740328120399 -0.001731420103961312 0 -0.0053668940529847968 -0.0015724785321415105 0 -0.0054926712794830506 -0.0015787451021912302 0 -0.0054637839314850174 -0.001677186172235344 0 -0.0053668940529847968 -0.0015724785321415105 0 -0.0043798998618095079 -0.002461682684717918 0 -0.0044384167107233228 -0.0023224699576265221 0 -0.0043672161869080092 -0.0023556455615651225 0 -0.004871847765934436 -0.0020163465035116855 0 -0.0049469661805187576 -0.0018982768736277092 0 -0.0054926712794830506 -0.0015787451021912302 0 -0.0053668940529847968 -0.0015724785321415105 0 -0.0054713710339681886 -0.0014629698378489111 0 -0.0056170496278291557 -0.0015257450991573566 0 -0.0054926712794830506 -0.0015787451021912302 0 -0.0054713710339681886 -0.0014629698378489111 0 -0.0049469661805187576 -0.0018982768736277092 0 -0.0050358657038824181 -0.0017825824353220967 0 -0.0044384167107233228 -0.0023224699576265221 0 -0.0043672161869080092 -0.0023556455615651225 0 -0.0043503946480440824 -0.002261506875652965 0 -0.0044384167107233228 -0.0023224699576265221 0 -0.0043503946480440824 -0.002261506875652965 0 -0.0044064358141051056 -0.0022250642535106661 0 -0.0043295354650423491 -0.0021695750611282162 0 -0.0043503946480440824 -0.002261506875652965 0 -0.0044064358141051056 -0.0022250642535106661 0 -0.0044384167107233228 -0.0023224699576265221 0 -0.0044064358141051056 -0.0022250642535106661 0 -0.0044582283519831534 -0.0022141367294719904 0 -0.0044064358141051056 -0.0022250642535106661 0 -0.0044252356562316138 -0.0021837878641890909 0 -0.0044582283519831534 -0.0022141367294719904 0 -0.0044064358141051056 -0.0022250642535106661 0 -0.0044252356562316138 -0.0021837878641890909 0 -0.0043814234577783679 -0.0021278947838465592 0 -0.0044252356562316138 -0.0021837878641890909 0 -0.0044126720653899151 -0.0021224203077383169 0 -0.0043814234577783679 -0.0021278947838465592 0 -0.0043295354650423491 -0.0021695750611282162 0 -0.0044064358141051056 -0.0022250642535106661 0 -0.0043814234577783679 -0.0021278947838465592 0 -0.0043295354650423491 -0.0021695750611282162 0 -0.0043093527295914869 -0.0020876265740070632 0 -0.0043814234577783679 -0.0021278947838465592 0 -0.0043093527295914869 -0.0020876265740070632 0 -0.0043814234577783679 -0.0021278947838465592 0 -0.0043487397790127396 -0.0020473738056938067 0 -0.0043814234577783679 -0.0021278947838465592 0 -0.0043487397790127396 -0.0020473738056938067 0 -0.0043927891619023806 -0.0020765709810728638 0 -0.0016758230940584578 -0.0013155344556706489 0 -0.0030003167493821052 -0.0017609181457182831 0 -0.0027902688091476762 -0.0012094714582951724 0 -0.004306341694400237 -0.0019431446545513521 0 -0.0043487397790127396 -0.0020473738056938067 0 -0.0043959385705525812 -0.0020404264363522002 0 -0.002976076154842534 -0.0016234986745307205 0 -0.0037074461226572096 -0.0018851961867997937 0 -0.0030003167493821052 -0.0017609181457182831 0 -0.0040123545239011084 -0.0017377880492892284 0 -0.0027902688091476762 -0.0012094714582951724 0 -0.0043959385705525812 -0.0020404264363522002 0 -0.0043927891619023806 -0.0020765709810728638 0 -0.0044104642187683162 -0.0020604606378652247 0 -0.0043487397790127396 -0.0020473738056938067 0 -0.0043959385705525812 -0.0020404264363522002 0 -0.0043927891619023806 -0.0020765709810728638 0 -0.0044126720653899151 -0.0021224203077383169 0 -0.0043814234577783679 -0.0021278947838465592 0 -0.0043927891619023806 -0.0020765709810728638 0 -0.0044126720653899151 -0.0021224203077383169 0 -0.0043927891619023806 -0.0020765709810728638 0 -0.0044104642187683162 -0.0020604606378652247 0 -0.0044350266269063887 -0.0021089935324991363 0 -0.0044104642187683162 -0.0020604606378652247 0 -0.0044326972436469977 -0.0019886247802129273 0 -0.0044126720653899151 -0.0021224203077383169 0 -0.0044350266269063887 -0.0021089935324991363 0 -0.0044104642187683162 -0.0020604606378652247 0 -0.0043959385705525812 -0.0020404264363522002 0 -0.0044104642187683162 -0.0020604606378652247 0 -0.0044326972436469977 -0.0019886247802129273 0 -0.0030003167493821052 -0.0017609181457182831 0 -0.0040123545239011084 -0.0017377880492892284 0 -0.0044326972436469977 -0.0019886247802129273 0 -0.0037074461226572096 -0.0018851961867997937 0 -0.0043805344276031319 -0.0020013580753919782 0 -0.0023112853422586608 -0.001231866114149208 0 -0.0022294927893467226 -0.00092091600069807097 0 -0.0019384662784851974 -0.00097767564965308665 0 -0.0030903030477707595 -0.001529946374484483 0 -0.002381298661650925 -0.0011010855582155917 0 -0.0023112853422586608 -0.001231866114149208 0 -0.0024401174803168313 -0.0010260919162779715 0 -0.0022294927893467226 -0.00092091600069807097 0 -0.0024401174803168313 -0.0010260919162779715 0 -0.0025653556569188792 -0.0013058794646754195 0 -0.002748667239844617 -0.0010986569492420334 0 -0.0023112853422586608 -0.001231866114149208 0 -0.0024401174803168313 -0.0010260919162779715 0 -0.0025653556569188792 -0.0013058794646754195 0 -0.0025653556569188792 -0.0013058794646754195 0 -0.0027383517003095785 -0.0013027874102199376 0 -0.002748667239844617 -0.0010986569492420334 0 -0.0040123545239011084 -0.0017377880492892284 0 -0.0044326972436469977 -0.0019886247802129273 0 -0.0050189623446213394 -0.0021347269520687142 0 -0.0023112853422586608 -0.001231866114149208 0 -0.0025653556569188792 -0.0013058794646754195 0 -0.002748307157691551 -0.0015071929624196881 0 -0.0025653556569188792 -0.0013058794646754195 0 -0.002748307157691551 -0.0015071929624196881 0 -0.0027383517003095785 -0.0013027874102199376 0 -0.0030903030477707595 -0.001529946374484483 0 -0.0044094699038269257 -0.0013758865179242282 0 -0.0044350266269063887 -0.0021089935324991363 0 -0.0044326972436469977 -0.0019886247802129273 0 -0.0045542243366858345 -0.0021744324255143685 0 -0.0044326972436469977 -0.0019886247802129273 0 -0.0045542243366858345 -0.0021744324255143685 0 -0.0050189623446213394 -0.0021347269520687142 0 -0.0045542243366858345 -0.0021744324255143685 0 -0.0047407565164784699 -0.0022533787279851022 0 -0.0050189623446213394 -0.0021347269520687142 0 -0.0047407565164784699 -0.0022533787279851022 0 -0.0049497976112748742 -0.0022604411785047507 0 -0.0050189623446213394 -0.0021347269520687142 0 -0.0045542243366858345 -0.0021744324255143685 0 -0.0046649481764983441 -0.0022724396805469897 0 -0.0044432592950661856 -0.0021737100202867659 0 -0.0048969851896260496 -0.0017345142956171605 0 -0.0050358657038824181 -0.0017825824353220967 0 -0.0056225249180626088 -0.0012882873377331582 0 -0.0056145429728958179 -0.0013292292790551398 0 -0.0055592043723114758 -0.0013656797109449239 0 -0.0048969851896260496 -0.0017345142956171605 0 -0.0051081026651569033 -0.00092203905254556494 0 -0.0048969851896260496 -0.0017345142956171605 0 -0.004336611180696775 -0.0022323398098446053 0 -0.0056145429728958179 -0.0013292292790551398 0 -0.0056303386770427824 -0.0013844489104520271 0 -0.0056431770592387737 -0.0012789946139523103 0 -0.005714865920053421 -0.00056561621286809198 0 -0.0051081026651569033 -0.00092203905254556494 0 -0.0056225249180626088 -0.0012882873377331582 0 -0.0056145429728958179 -0.0013292292790551398 0 -0.0056431770592387737 -0.0012789946139523103 0 -0.0047407565164784699 -0.0022533787279851022 0 -0.0046888406925222831 -0.0023021354647191246 0 -0.0049497976112748742 -0.0022604411785047507 0 -0.0045542243366858345 -0.0021744324255143685 0 -0.0047407565164784699 -0.0022533787279851022 0 -0.0046649481764983441 -0.0022724396805469897 0 -0.0048576203020174839 -0.0017916499064457021 0 -0.0048969851896260496 -0.0017345142956171605 0 -0.0044350266269063887 -0.0021089935324991363 0 -0.0045542243366858345 -0.0021744324255143685 0 -0.0044432592950661856 -0.0021737100202867659 0 -0.0044881946151050841 -0.0021551531203610631 0 -0.0044432592950661856 -0.0021737100202867659 0 -0.0044582283519831534 -0.0022141367294719904 0 -0.0044252356562316138 -0.0021837878641890909 0 -0.0044126720653899151 -0.0021224203077383169 0 -0.0044432592950661856 -0.0021737100202867659 0 -0.0044126720653899151 -0.0021224203077383169 0 -0.0044350266269063887 -0.0021089935324991363 0 -0.0044432592950661856 -0.0021737100202867659 0 -0.0044252356562316138 -0.0021837878641890909 0 -0.0044432592950661856 -0.0021737100202867659 0 -0.0044582283519831534 -0.0022141367294719904 0 -0.005573491769537431 -0.0014361362972309831 0 -0.0055592043723114758 -0.0013656797109449239 0 -0.0056303386770427824 -0.0013844489104520271 0 -0.0056145429728958179 -0.0013292292790551398 0 -0.0055592043723114758 -0.0013656797109449239 0 -0.0056303386770427824 -0.0013844489104520271 0 -0.0057056612081801891 8.8685741283553037e-05 0 -0.0056680838815544917 5.6553384896748858e-05 0 -0.0056704743931982769 0.00010604783150555474 0 -0.0056680838815544917 5.6553384896748858e-05 0 -0.0056252857592009216 9.1229775297848291e-05 0 -0.0056704743931982769 0.00010604783150555474 0 -0.0056252857592009216 9.1229775297848291e-05 0 -0.0056704743931982769 0.00010604783150555474 0 -0.0056504952891071681 0.00012527399759329521 0 -0.0056869920543622145 7.4177692665367248e-05 0 -0.0057006043346815973 0.00019126292003405427 0 -0.0057056612081801891 8.8685741283553037e-05 0 -0.0056704743931982769 0.00010604783150555474 0 -0.0056971829155323993 0.0001109360717132455 0 -0.0057056612081801891 8.8685741283553037e-05 0 -0.0057439234350876401 9.4782680872399871e-05 0 -0.0056971829155323993 0.0001109360717132455 0 -0.0056971829155323993 0.0001109360717132455 0 -0.0056658466157361439 0.00012108723740058087 0 -0.0056690468448505589 0.00012666418036814036 0 -0.0057006043346815973 0.00019126292003405427 0 -0.0042341008525861971 -0.00051291221888586421 0 -0.0054590163390708301 7.7121471376246544e-05 0 -0.0053765783753795451 -0.0001147363916199606 0 -0.0052431387527974178 2.6263577591675411e-06 0 -0.0056704743931982769 0.00010604783150555474 0 -0.0056971829155323993 0.0001109360717132455 0 -0.0056658466157361439 0.00012108723740058087 0 -0.0056704743931982769 0.00010604783150555474 0 -0.0056658466157361439 0.00012108723740058087 0 -0.0056504952891071681 0.00012527399759329521 0 -0.0052833195110699857 -0.00045353965382624264 0 -0.0045977869122416394 -0.00073024278536866515 0 -0.0056658466157361439 0.00012108723740058087 0 -0.0056504952891071681 0.00012527399759329521 0 -0.0056562565720166529 0.0001257936345373808 0 -0.0046236452308331738 -0.0010273205054420022 0 -0.0046771499763315315 -0.0010102158222157537 0 -0.0046350005882072626 -0.00098447460282899868 0 -0.0056658466157361439 0.00012108723740058087 0 -0.0056555686333896035 0.00012176440329632903 0 -0.0056690468448505589 0.00012666418036814036 0 -0.0028374061305534281 -0.0015593551933702466 0 -0.0028907607863738467 -0.0013058500021638491 0 -0.0031732856695464453 -0.0014494140978678128 0 -0.0028374061305534281 -0.0015593551933702466 0 -0.002748307157691551 -0.0015071929624196881 0 -0.0028907607863738467 -0.0013058500021638491 0 -0.0051081026651569033 -0.00092203905254556494 0 -0.0044094699038269257 -0.0013758865179242282 0 -0.0045977869122416394 -0.00073024278536866515 0 -0.0042341008525861971 -0.00051291221888586421 0 -0.0051081026651569033 -0.00092203905254556494 0 -0.0045977869122416394 -0.00073024278536866515 0 -0.0045977869122416394 -0.00073024278536866515 0 -0.0044094699038269257 -0.0013758865179242282 0 -0.002748307157691551 -0.0015071929624196881 0 -0.0028907607863738467 -0.0013058500021638491 0 -0.0027383517003095785 -0.0013027874102199376 0 -0.0028907607863738467 -0.0013058500021638491 0 -0.002748667239844617 -0.0010986569492420334 0 -0.0030888093953809572 -0.00090469126416384141 0 -0.0028907607863738467 -0.0013058500021638491 0 -0.0027383517003095785 -0.0013027874102199376 0 -0.002748667239844617 -0.0010986569492420334 0 -0.0028907607863738467 -0.0013058500021638491 0 -0.0031732856695464453 -0.0014494140978678128 0 -0.0030888093953809572 -0.00090469126416384141 0 -0.0031878835025193611 -0.00040088410910375078 0 -0.0034382647050649521 -0.00031402882061705645 0 -0.0031073325570447645 -5.2157912453999269e-05 0 -0.0042341008525861971 -0.00051291221888586421 0 -0.0029467624539643023 -0.0005619067342997365 0 -0.0042341008525861971 -0.00051291221888586421 0 -0.0042455901984213805 -0.00017971112732801322 0 -0.0053765783753795451 -0.0001147363916199606 0 -0.005000495152757977 -0.0001427548816569096 0 -0.0052431387527974178 2.6263577591675411e-06 0 -0.0034382647050649521 -0.00031402882061705645 0 -0.003324748824915796 -1.6144404323444537e-05 0 -0.0031073325570447645 -5.2157912453999269e-05 0 -0.0034382647050649521 -0.00031402882061705645 0 -0.0041010832277080462 -8.5770299052491744e-07 0 -0.003324748824915796 -1.6144404323444537e-05 0 -0.0042455901984213805 -0.00017971112732801322 0 -0.0041023876770684654 -1.1397446354699668e-07 0 -0.005000495152757977 -0.0001427548816569096 0 -0.0048644326414163377 4.5510275367694611e-07 0 -0.0052431387527974178 2.6263577591675411e-06 0 -0.005000495152757977 -0.0001427548816569096 0 -0.0041037563326072855 -9.7818256643931732e-07 0 -0.0048644326414163377 4.5510275367694611e-07 0 -0.0048644326414163377 4.5510275367694611e-07 0 -0.0052431387527974178 2.6263577591675411e-06 0 -0.0054613326125017483 8.2340044444122957e-05 0 -0.0054590163390708301 7.7121471376246544e-05 0 -0.0052431387527974178 2.6263577591675411e-06 0 -0.0054613326125017483 8.2340044444122957e-05 0 -0.0057439234350876401 9.4782680872399871e-05 0 -0.0054590163390708301 7.7121471376246544e-05 0 -0.0054613326125017483 8.2340044444122957e-05 0 -0.0058508658318813982 6.6735620109618498e-05 0 -0.0056267929551647253 3.806381294133766e-08 0 -0.0054613326125017483 8.2340044444122957e-05 0 -0.0056267929551647253 3.806381294133766e-08 0 -0.0048644326414163377 4.5510275367694611e-07 0 -0.0054613326125017483 8.2340044444122957e-05 0 -0.0017162530674509238 -3.4584468565076187e-06 0 -0.0026630137458804252 -4.5327013872707578e-07 0 -0.00180057330661436 1.9787499345737078e-07 0 -0.0016236454469168223 5.8764275710180693e-06 0 -0.0017162530674509238 -3.4584468565076187e-06 0 -0.00180057330661436 1.9787499345737078e-07 0 -0.0023547938695077271 -3.679721459002215e-05 0 -0.0023759540267045717 4.9667020727372927e-05 0 -0.0029715518462412921 -0.00016956594522104265 0 -0.0029636127177535476 -8.1503970548483875e-05 0 -0.0029572874277802412 1.8415288013652569e-05 0 -0.0016236454469168223 5.8764275710180693e-06 0 -0.0017162530674509238 -3.4584468565076187e-06 0 -0.0017895653245304749 0.00010241725619526992 0 -0.0029949260642689835 -0.00013143888040614837 0 -0.0029715518462412921 -0.00016956594522104265 0 -0.0029636127177535476 -8.1503970548483875e-05 0 -0.0029949260642689835 -0.00013143888040614837 0 -0.0030620052623782086 -4.1795506044557599e-05 0 -0.0029710765973642436 -0.00014490393178866396 0 -0.0029949260642689835 -0.00013143888040614837 0 -0.0029715518462412921 -0.00016956594522104265 0 -0.0030620052623782086 -4.1795506044557599e-05 0 -0.0029715518462412921 -0.00016956594522104265 0 -0.0026655650671120836 -5.2892974734352241e-07 0 -0.0030620052623782086 -4.1795506044557599e-05 0 -0.0023547938695077271 -3.679721459002215e-05 0 -0.0026638650073517005 2.5095485008260268e-08 0 -0.0026655650671120836 -5.2892974734352241e-07 0 -0.003382948962119959 5.0765287509365037e-07 0 -0.0030620052623782086 -4.1795506044557599e-05 0 -0.0041010832277080462 -8.5770299052491744e-07 0 -0.003382948962119959 5.0765287509365037e-07 0 -0.003324748824915796 -1.6144404323444537e-05 0 -0.003382948962119959 5.0765287509365037e-07 0 -0.003324748824915796 -1.6144404323444537e-05 0 -0.0030620052623782086 -4.1795506044557599e-05 0 -0.003324748824915796 -1.6144404323444537e-05 0 -0.0030620052623782086 -4.1795506044557599e-05 0 -0.0031073325570447645 -5.2157912453999269e-05 0 -0.0030620052623782086 -4.1795506044557599e-05 0 -0.0031073325570447645 -5.2157912453999269e-05 0 -0.0029720298684456779 -0.00023367675916319223 0 -0.0029467624539643023 -0.0005619067342997365 0 -0.0030256972581560429 -0.00020194650035176739 0 -0.002748667239844617 -0.0010986569492420334 0 -0.0030888093953809572 -0.00090469126416384141 0 -0.0026834326914735931 -0.00072118703333917092 0 -0.0026834326914735931 -0.00072118703333917092 0 -0.0029720298684456779 -0.00023367675916319223 0 -0.0025916431660326727 -0.00033777541939652544 0 -0.0030888093953809572 -0.00090469126416384141 0 -0.0026834326914735931 -0.00072118703333917092 0 -0.0029720298684456779 -0.00023367675916319223 0 -0.0028267299729695123 -0.00016020088067397761 0 -0.0029720298684456779 -0.00023367675916319223 0 -0.0025916431660326727 -0.00033777541939652544 0 -0.0030620052623782086 -4.1795506044557599e-05 0 -0.0029720298684456779 -0.00023367675916319223 0 -0.0029710765973642436 -0.00014490393178866396 0 -0.0028267299729695123 -0.00016020088067397761 0 -0.0029720298684456779 -0.00023367675916319223 0 -0.0029710765973642436 -0.00014490393178866396 0 -0.0028267299729695123 -0.00016020088067397761 0 -0.0029710765973642436 -0.00014490393178866396 0 -0.002856058237713829 -6.8071316560428931e-05 0 -0.0029949260642689835 -0.00013143888040614837 0 -0.0029710765973642436 -0.00014490393178866396 0 -0.0029636127177535476 -8.1503970548483875e-05 0 -0.0029710765973642436 -0.00014490393178866396 0 -0.0029636127177535476 -8.1503970548483875e-05 0 -0.002856058237713829 -6.8071316560428931e-05 0 -0.0029636127177535476 -8.1503970548483875e-05 0 -0.002856058237713829 -6.8071316560428931e-05 0 -0.0029572874277802412 1.8415288013652569e-05 0 -0.002856058237713829 -6.8071316560428931e-05 0 -0.0026125447881574543 -5.5217055344809814e-05 0 -0.00274602695365875 4.7192653805604719e-05 0 -0.0028267299729695123 -0.00016020088067397761 0 -0.0026125447881574543 -5.5217055344809814e-05 0 -0.0025916431660326727 -0.00033777541939652544 0 -0.0028267299729695123 -0.00016020088067397761 0 -0.002856058237713829 -6.8071316560428931e-05 0 -0.0026125447881574543 -5.5217055344809814e-05 0 -0.0026125447881574543 -5.5217055344809814e-05 0 -0.0022909892077025455 -4.8608808079787769e-05 0 -0.0023153043767601515 -0.00026437320731478143 0 -0.0022909892077025455 -4.8608808079787769e-05 0 -0.0023153043767601515 -0.00026437320731478143 0 -0.0018335370364101142 -0.00023501914043377533 0 -0.0023153043767601515 -0.00026437320731478143 0 -0.0025916431660326727 -0.00033777541939652544 0 -0.0021899967748455077 -0.00051672463471540348 0 -0.0023153043767601515 -0.00026437320731478143 0 -0.0021899967748455077 -0.00051672463471540348 0 -0.0018335370364101142 -0.00023501914043377533 0 -0.0026125447881574543 -5.5217055344809814e-05 0 -0.0023153043767601515 -0.00026437320731478143 0 -0.0025916431660326727 -0.00033777541939652544 0 -0.0025916431660326727 -0.00033777541939652544 0 -0.0023635618972624637 -0.00071730544302024257 0 -0.0021899967748455077 -0.00051672463471540348 0 -0.0026834326914735931 -0.00072118703333917092 0 -0.0025916431660326727 -0.00033777541939652544 0 -0.0023635618972624637 -0.00071730544302024257 0 -0.0024401174803168313 -0.0010260919162779715 0 -0.002748667239844617 -0.0010986569492420334 0 -0.0026834326914735931 -0.00072118703333917092 0 -0.0024401174803168313 -0.0010260919162779715 0 -0.0026834326914735931 -0.00072118703333917092 0 -0.0023635618972624637 -0.00071730544302024257 0 -0.0022294927893467226 -0.00092091600069807097 0 -0.0023635618972624637 -0.00071730544302024257 0 -0.0020685547021966184 -0.00075436327929865211 0 -0.0024401174803168313 -0.0010260919162779715 0 -0.0022294927893467226 -0.00092091600069807097 0 -0.0023635618972624637 -0.00071730544302024257 0 -0.0023635618972624637 -0.00071730544302024257 0 -0.0021899967748455077 -0.00051672463471540348 0 -0.0020685547021966184 -0.00075436327929865211 0 -0.0021899967748455077 -0.00051672463471540348 0 -0.0018798798327351149 -0.00059778423202130589 0 -0.0020685547021966184 -0.00075436327929865211 0 -0.0018798798327351149 -0.00059778423202130589 0 -0.0020685547021966184 -0.00075436327929865211 0 -0.001852772181260029 -0.00078147374083179085 0 -0.0022294927893467226 -0.00092091600069807097 0 -0.0020685547021966184 -0.00075436327929865211 0 -0.0019384662784851974 -0.00097767564965308665 0 -0.0020685547021966184 -0.00075436327929865211 0 -0.0019384662784851974 -0.00097767564965308665 0 -0.001852772181260029 -0.00078147374083179085 0 -0.002381298661650925 -0.0011010855582155917 0 -0.001741124171876138 -0.00083243695660093549 0 -0.0016758230940584578 -0.0013155344556706489 0 -0.0027902688091476762 -0.0012094714582951724 0 -0.0016900647952687337 -0.00082734162658229288 0 -0.0019384662784851974 -0.00097767564965308665 0 -0.001852772181260029 -0.00078147374083179085 0 -0.0016900647952687337 -0.00082734162658229288 0 -0.001852772181260029 -0.00078147374083179085 0 -0.0017281785265528633 -0.00065753802214968751 0 -0.0016900647952687337 -0.00082734162658229288 0 -0.0018798798327351149 -0.00059778423202130589 0 -0.001852772181260029 -0.00078147374083179085 0 -0.0017281785265528633 -0.00065753802214968751 0 -0.0018798798327351149 -0.00059778423202130589 0 -0.0017281785265528633 -0.00065753802214968751 0 -0.0016824078864838073 -0.0004958624515005272 0 -0.0018798798327351149 -0.00059778423202130589 0 -0.0016824078864838073 -0.0004958624515005272 0 -0.0018335370364101142 -0.00023501914043377533 0 -0.0016824078864838073 -0.0004958624515005272 0 -0.0018335370364101142 -0.00023501914043377533 0 -0.0015943498613483541 -0.00033619868147466886 0 -0.0017281785265528633 -0.00065753802214968751 0 -0.0016824078864838073 -0.0004958624515005272 0 -0.0015246589851153124 -0.00056017840948925147 0 -0.0021899967748455077 -0.00051672463471540348 0 -0.0018798798327351149 -0.00059778423202130589 0 -0.0018335370364101142 -0.00023501914043377533 0 -0.0022909892077025455 -4.8608808079787769e-05 0 -0.0018335370364101142 -0.00023501914043377533 0 -0.0021444159250492119 0.00011896894571503665 0 -0.0018335370364101142 -0.00023501914043377533 0 -0.0015943498613483541 -0.00033619868147466886 0 -0.0015771114438692241 -0.00018123754640199993 0 -0.0015771114438692241 -0.00018123754640199993 0 -0.001651003094636329 -5.9697707866272367e-05 0 -0.0014523988564601564 -3.0799751325457396e-05 0 -0.0018335370364101142 -0.00023501914043377533 0 -0.0015771114438692241 -0.00018123754640199993 0 -0.001651003094636329 -5.9697707866272367e-05 0 -0.0018416863382619967 -0.00021062908744553063 0 -0.0019344138164431818 -2.8063461864472258e-05 0 -0.0018335370364101142 -0.00023501914043377533 0 -0.001651003094636329 -5.9697707866272367e-05 0 -0.0017800557669666076 -8.3575283690865096e-05 0 -0.001651003094636329 -5.9697707866272367e-05 0 -0.0017800557669666076 -8.3575283690865096e-05 0 -0.0017157781242420113 6.205944708303575e-05 0 -0.001651003094636329 -5.9697707866272367e-05 0 -0.0017157781242420113 6.205944708303575e-05 0 -0.0015692428586408077 9.0527857768449052e-05 0 -0.001651003094636329 -5.9697707866272367e-05 0 -0.0015692428586408077 9.0527857768449052e-05 0 -0.0014523988564601564 -3.0799751325457396e-05 0 -0.0015692428586408077 9.0527857768449052e-05 0 -0.0014523988564601564 -3.0799751325457396e-05 0 -0.0013999303288331436 7.9904788109145435e-05 0 -0.0015692428586408077 9.0527857768449052e-05 0 -0.0015466948736803971 0.00024719731579275891 0 -0.0014041636987823863 0.00019723870012109695 0 -0.0015692428586408077 9.0527857768449052e-05 0 -0.0014041636987823863 0.00019723870012109695 0 -0.0013999303288331436 7.9904788109145435e-05 0 -0.0015466948736803971 0.00024719731579275891 0 -0.0014041636987823863 0.00019723870012109695 0 -0.001391169310005523 0.0003061241534499478 0 -0.0015225236391837446 0.00039220331866693289 0 -0.0015466948736803971 0.00024719731579275891 0 -0.0016550032963716657 0.00029082787010760973 0 -0.0015225236391837446 0.00039220331866693289 0 -0.0015466948736803971 0.00024719731579275891 0 -0.001391169310005523 0.0003061241534499478 0 -0.0015466948736803971 0.00024719731579275891 0 -0.0016550032963716657 0.00029082787010760973 0 -0.0016809585136405903 0.00019070869264575097 0 -0.0016550032963716657 0.00029082787010760973 0 -0.0016809585136405903 0.00019070869264575097 0 -0.0017615962647184544 0.0002487415899264217 0 -0.0015692428586408077 9.0527857768449052e-05 0 -0.0015466948736803971 0.00024719731579275891 0 -0.0016809585136405903 0.00019070869264575097 0 -0.0017157781242420113 6.205944708303575e-05 0 -0.0015692428586408077 9.0527857768449052e-05 0 -0.0016809585136405903 0.00019070869264575097 0 -0.0017157781242420113 6.205944708303575e-05 0 -0.0016809585136405903 0.00019070869264575097 0 -0.0017747145605834637 0.00015771174266382537 0 -0.0017157781242420113 6.205944708303575e-05 0 -0.0017747145605834637 0.00015771174266382537 0 -0.0018296014799486034 7.5568026544530048e-05 0 -0.0017747145605834637 0.00015771174266382537 0 -0.0019060610532111587 0.00022929657026477549 0 -0.0018296014799486034 7.5568026544530048e-05 0 -0.0016809585136405903 0.00019070869264575097 0 -0.0017747145605834637 0.00015771174266382537 0 -0.0017615962647184544 0.0002487415899264217 0 -0.0017555241955404658 0.00036843866480082031 0 -0.0017615962647184544 0.0002487415899264217 0 -0.0019060610532111587 0.00022929657026477549 0 -0.0017747145605834637 0.00015771174266382537 0 -0.0017615962647184544 0.0002487415899264217 0 -0.0019060610532111587 0.00022929657026477549 0 -0.0017555241955404658 0.00036843866480082031 0 -0.0016550032963716657 0.00029082787010760973 0 -0.0017615962647184544 0.0002487415899264217 0 0.00046327351264928803 -0.00054978589805753156 0 0.00047519353333156094 -0.00064505952509135193 0 0.00044157369244467154 -0.00057223452889951969 0 0.0016446269037912336 -0.00098174522290492392 0 -0.0011084837275509708 -0.00014434415773317206 0 0.00059681404285193639 -0.00055301406815709997 0 0.00046327351264928803 -0.00054978589805753156 0 0.00047519353333156094 -0.00064505952509135193 0 -0.0011084837275509708 -0.00014434415773317206 0 0.00050983984494369704 -0.00093258848906673452 0 -0.0023560483295550537 0.00013797607464624458 0 -0.002352239461661557 0.00022675720462226787 0 -0.0020765669721265088 0.00016440045043152529 0 -0.0023560483295550537 0.00013797607464624458 0 -0.002352239461661557 0.00022675720462226787 0 -0.0023632445444786107 0.00027109715059701791 0 -0.0011084837275509708 -0.00014434415773317206 0 -0.002235668352033164 0.00027877278202991743 0 -0.0024675340931992304 0.00020923405934155064 0 -0.0023632445444786107 0.00027109715059701791 0 -0.0024260664356987815 0.00012506698076564501 0 -0.002352239461661557 0.00022675720462226787 0 -0.0024675340931992304 0.00020923405934155064 0 -0.0026732915709262108 0.00023078140912389475 0 -0.0024675340931992304 0.00020923405934155064 0 -0.0024260664356987815 0.00012506698076564501 0 -0.0025866606256606545 0.00011614447585052948 0 -0.002352239461661557 0.00022675720462226787 0 -0.0024675340931992304 0.00020923405934155064 0 -0.0023632445444786107 0.00027109715059701791 0 -0.0021444159250492119 0.00011896894571503665 0 -0.0023632445444786107 0.00027109715059701791 0 -0.0024260664356987815 0.00012506698076564501 0 -0.0017800557669666076 -8.3575283690865096e-05 0 -0.0017157781242420113 6.205944708303575e-05 0 -0.0018296014799486034 7.5568026544530048e-05 0 -0.0019344138164431818 -2.8063461864472258e-05 0 -0.002235668352033164 0.00027877278202991743 0 -0.0022909892077025455 -4.8608808079787769e-05 0 -0.0021444159250492119 0.00011896894571503665 0 -0.0024260664356987815 0.00012506698076564501 0 -0.0026125447881574543 -5.5217055344809814e-05 0 -0.0024260664356987815 0.00012506698076564501 0 -0.0025866606256606545 0.00011614447585052948 0 -0.0026125447881574543 -5.5217055344809814e-05 0 -0.0022909892077025455 -4.8608808079787769e-05 0 -0.0024260664356987815 0.00012506698076564501 0 -0.0026125447881574543 -5.5217055344809814e-05 0 -0.0025866606256606545 0.00011614447585052948 0 -0.00274602695365875 4.7192653805604719e-05 0 -0.0025866606256606545 0.00011614447585052948 0 -0.00274602695365875 4.7192653805604719e-05 0 -0.0026732915709262108 0.00023078140912389475 0 -0.002856058237713829 -6.8071316560428931e-05 0 -0.00274602695365875 4.7192653805604719e-05 0 -0.0029572874277802412 1.8415288013652569e-05 0 -0.00274602695365875 4.7192653805604719e-05 0 -0.0029572874277802412 1.8415288013652569e-05 0 -0.0026732915709262108 0.00023078140912389475 0 -0.0017895653245304749 0.00010241725619526992 0 -0.0018316608045083351 0.0001132979709918319 0 -0.0020314747715988813 0.0001998773479671507 0 -0.0023759540267045717 4.9667020727372927e-05 0 -0.0023637180782434069 0.00019245733584095229 0 -0.0010496079799465657 2.4433167914492736e-05 0 -0.00087649602688256664 -0.00015797831805874254 0 -0.0018316608045083351 0.0001132979709918319 0 -0.0018446182549243649 0.00012010391975829126 0 -0.0020314747715988813 0.0001998773479671507 0 0.00040632168017876202 -0.00055434819895971586 0 0.00041494618953366439 -0.00056278006460120777 0 0.00042173969682711741 -0.00056355642982407466 0 -0.00087649602688256664 -0.00015797831805874254 0 -0.00078455564858334224 -0.000191892922866172 0 -0.0018446182549243649 0.00012010391975829126 0 -0.0020314747715988813 0.0001998773479671507 0 -0.0020765669721265088 0.00016440045043152529 0 -0.00087649602688256664 -0.00015797831805874254 0 -0.00037336405565750633 -0.00017977500281001911 0 -0.0023704892047915322 0.00020975089767534427 0 -0.0023637180782434069 0.00019245733584095229 0 -0.002352239461661557 0.00022675720462226787 0 -0.0020314747715988813 0.0001998773479671507 0 -0.0020765669721265088 0.00016440045043152529 0 -0.0024675340931992304 0.00020923405934155064 0 -0.0025866606256606545 0.00011614447585052948 0 -0.0026732915709262108 0.00023078140912389475 0 -0.0011084837275509708 -0.00014434415773317206 0 -0.00078455564858334224 -0.000191892922866172 0 0.00041494618953366439 -0.00056278006460120777 0 0.00042547080815681356 -0.00056806679782059734 0 0.00042428413736776775 -0.00056849959215916478 0 0.00042006380153729881 -0.00056701507836854964 0 0.00041494618953366439 -0.00056278006460120777 0 0.00042547080815681356 -0.00056806679782059734 0 0.00042006380153729881 -0.00056701507836854964 0 0.00042547080815681356 -0.00056806679782059734 0 0.00044157369244467154 -0.00057223452889951969 0 0.00042941606707507158 -0.00057025511809339561 0 0.00044157369244467154 -0.00057223452889951969 0 0.00042428413736776775 -0.00056849959215916478 0 0.00042547080815681356 -0.00056806679782059734 0 0.00044157369244467154 -0.00057223452889951969 0 0.00042428413736776775 -0.00056849959215916478 0 0.00043232711541781916 -0.00057216122527082279 0 0.00042428413736776775 -0.00056849959215916478 0 0.00042173969682711741 -0.00056355642982407466 0 0.00041494618953366439 -0.00056278006460120777 0 0.00042428413736776775 -0.00056849959215916478 0 0.00042173969682711741 -0.00056355642982407466 0 -0.00087426993425524413 -0.00033949522480294393 0 -0.0010249190349824013 9.0336078957515639e-05 0 -0.00071110315494350295 -3.2875217463476551e-07 0 0.00078933310898455296 -0.00077609127636865725 0 -0.00037336405565750633 -0.00017977500281001911 0 -0.00052324569399911196 -0.00038400116662632035 0 -0.00071110315494350295 -3.2875217463476551e-07 0 -7.4723604320954954e-05 -8.1601865072310842e-07 0 -0.00071110315494350295 -3.2875217463476551e-07 0 -7.4723604320954954e-05 -8.1601865072310842e-07 0 -0.00093664788634118044 4.8286165053734158e-07 0 -0.0010249190349824013 9.0336078957515639e-05 0 -0.00071110315494350295 -3.2875217463476551e-07 0 -0.00093664788634118044 4.8286165053734158e-07 0 -0.0010249190349824013 9.0336078957515639e-05 0 -0.00093664788634118044 4.8286165053734158e-07 0 -0.0012802879137918401 7.2538107432704933e-05 0 -0.00093664788634118044 4.8286165053734158e-07 0 -0.001434814403657096 4.6131219644919802e-05 0 -0.00180057330661436 1.9787499345737078e-07 0 -0.00093664788634118044 4.8286165053734158e-07 0 -0.0012802879137918401 7.2538107432704933e-05 0 -0.001434814403657096 4.6131219644919802e-05 0 -0.0011794915046437332 5.1584618521666609e-05 0 -0.0010249190349824013 9.0336078957515639e-05 0 -0.0012802879137918401 7.2538107432704933e-05 0 -0.0017736778196551267 4.4854030721621883e-05 0 -0.00087649602688256664 -0.00015797831805874254 0 -0.0016236454469168223 5.8764275710180693e-06 0 -0.0018316608045083351 0.0001132979709918319 0 -0.0018349467351211519 0.00010654616888049729 0 -0.0016236454469168223 5.8764275710180693e-06 0 -0.0017895653245304749 0.00010241725619526992 0 -0.0018316608045083351 0.0001132979709918319 0 -0.0016236454469168223 5.8764275710180693e-06 0 -0.0011794915046437332 5.1584618521666609e-05 0 -0.0012802879137918401 7.2538107432704933e-05 0 -0.0016236454469168223 5.8764275710180693e-06 0 -0.001434814403657096 4.6131219644919802e-05 0 -0.00180057330661436 1.9787499345737078e-07 0 -0.0016236454469168223 5.8764275710180693e-06 0 -0.0012802879137918401 7.2538107432704933e-05 0 -0.001434814403657096 4.6131219644919802e-05 0 -0.00027117236533485327 -0.00078344102085334841 0 -0.0004014069581706415 -0.00076227391831270176 0 -0.00032689469854956145 -0.00069148077662401874 0 -0.00031005731856536704 -0.00089044752474624466 0 -0.00013225464698857952 -0.00070533517912536002 0 -9.1677322419583677e-05 -0.0008948953519495738 0 -0.00031005731856536704 -0.00089044752474624466 0 -0.00022098816189014371 -0.0009742382714099737 0 -9.1677322419583677e-05 -0.0008948953519495738 0 -0.00031005731856536704 -0.00089044752474624466 0 -0.00022098816189014371 -0.0009742382714099737 0 -0.0003199080491900227 -0.0010262965224808092 0 -0.00022098816189014371 -0.0009742382714099737 0 -0.00012924450348133538 -0.0010097833115033966 0 -0.0002526902501657242 -0.0010705703739641859 0 -0.00022098816189014371 -0.0009742382714099737 0 -0.0003199080491900227 -0.0010262965224808092 0 -0.0002526902501657242 -0.0010705703739641859 0 -0.00026538933770519854 -0.00079719364015321621 0 -0.00087103566681452432 -0.00095608374404714154 0 -0.00031005731856536704 -0.00089044752474624466 0 -0.0003199080491900227 -0.0010262965224808092 0 -0.00047732737134340236 -0.0010906814694683963 0 -0.00027117236533485327 -0.00078344102085334841 0 -0.0004014069581706415 -0.00076227391831270176 0 -0.00038160202882467408 -0.00087643848856364202 0 -0.0004014069581706415 -0.00076227391831270176 0 -0.00045963358756960677 -0.00067277589745726337 0 -0.00054075387955048143 -0.00080422908534320641 0 -0.0004014069581706415 -0.00076227391831270176 0 -0.00038160202882467408 -0.00087643848856364202 0 -0.00054075387955048143 -0.00080422908534320641 0 -0.0004014069581706415 -0.00076227391831270176 0 -0.00032689469854956145 -0.00069148077662401874 0 -0.00045963358756960677 -0.00067277589745726337 0 -0.00032689469854956145 -0.00069148077662401874 0 -0.00045963358756960677 -0.00067277589745726337 0 -0.00035818982543110771 -0.00057536317559805103 0 -0.00032689469854956145 -0.00069148077662401874 0 -0.00022707601436806871 -0.0006129413540895386 0 -0.00013225464698857952 -0.00070533517912536002 0 -0.00027117236533485327 -0.00078344102085334841 0 -0.00032689469854956145 -0.00069148077662401874 0 -0.00013225464698857952 -0.00070533517912536002 0 -0.00032689469854956145 -0.00069148077662401874 0 -0.00022707601436806871 -0.0006129413540895386 0 -0.00035818982543110771 -0.00057536317559805103 0 -0.00026538933770519854 -0.00079719364015321621 0 -0.00016767877326735153 -0.0007239131990069462 0 -0.00013225464698857952 -0.00070533517912536002 0 0.00018993815708571822 -0.00078873217860322693 0 -9.1677322419583677e-05 -0.0008948953519495738 0 -0.00013225464698857952 -0.00070533517912536002 0 0.00018993815708571822 -0.00078873217860322693 0 5.1109426279456559e-05 -0.0005820101152810861 0 0.00042837000394147103 -0.00061219699399732202 0 0.00020461502472939307 -0.00056438237165400498 0 0.00042837000394147103 -0.00061219699399732202 0 -0.0016186464190603518 -0.0010782961107915329 0 0.00026158783978417615 -0.00059864119521663703 0 0.00024533619885902226 -0.0005969860314866414 0 0.00025980920360860427 -0.00059271438229413866 0 0.00018993815708571822 -0.00078873217860322693 0 1.5261866433026825e-05 -0.0010008039877647333 0 0.00012471176337541543 -0.0011376098268808313 0 0.00018993815708571822 -0.00078873217860322693 0 -9.1677322419583677e-05 -0.0008948953519495738 0 1.5261866433026825e-05 -0.0010008039877647333 0 -9.1677322419583677e-05 -0.0008948953519495738 0 1.5261866433026825e-05 -0.0010008039877647333 0 -0.00012924450348133538 -0.0010097833115033966 0 -0.00022098816189014371 -0.0009742382714099737 0 -9.1677322419583677e-05 -0.0008948953519495738 0 -0.00012924450348133538 -0.0010097833115033966 0 -0.0035015186233394923 -0.0015854581522772265 0 -0.0035419192738611579 -0.0015628162711902071 0 -0.001802394236848913 -0.0013709274801807501 0 -0.0016186464190603518 -0.0010782961107915329 0 -0.00012924450348133538 -0.0010097833115033966 0 -9.7717826648610877e-05 -0.0011206313430004047 0 -0.0002526902501657242 -0.0010705703739641859 0 1.5261866433026825e-05 -0.0010008039877647333 0 -0.00012924450348133538 -0.0010097833115033966 0 -9.7717826648610877e-05 -0.0011206313430004047 0 1.5261866433026825e-05 -0.0010008039877647333 0 -9.7717826648610877e-05 -0.0011206313430004047 0 0.00012471176337541543 -0.0011376098268808313 0 -0.0034341331016828273 -0.0016647235417883888 0 -0.0035227420072293908 -0.0015941533141744127 0 -0.0032757711420247828 -0.001550654354088653 0 -0.0034341331016828273 -0.0016647235417883888 0 -0.0035076816619693915 -0.0015815719209405941 0 -0.0035227420072293908 -0.0015941533141744127 0 -0.0034488762777472076 -0.00097235818369314196 0 -0.0034213641639747987 -0.0013501581756450909 0 -0.0028818324124713413 -0.0010227972631402264 0 -0.0035116117188505086 -0.0016761282634553344 0 -0.0035076816619693915 -0.0015815719209405941 0 -0.0035390060773487424 -0.0016406157105770943 0 -0.0035116117188505086 -0.0016761282634553344 0 -0.0034488762777472076 -0.00097235818369314196 0 -0.0034213641639747987 -0.0013501581756450909 0 -0.0040351266400818374 -0.0017859932580935136 0 -0.0016186464190603518 -0.0010782961107915329 0 -0.0035116117188505086 -0.0016761282634553344 0 -0.0034213641639747987 -0.0013501581756450909 0 -0.0033997964377519832 -0.0014230171288742786 0 -0.0034213641639747987 -0.0013501581756450909 0 -0.0033997964377519832 -0.0014230171288742786 0 -0.0032287267291407702 -0.0014053326312994266 0 -0.0033393298016436176 -0.0015510593963040204 0 -0.0033997964377519832 -0.0014230171288742786 0 -0.0032287267291407702 -0.0014053326312994266 0 -0.0036314602899891238 -0.0016320508824701698 0 -0.0035227420072293908 -0.0015941533141744127 0 -0.0037274089185272202 -0.001569311798991078 0 -0.0035076816619693915 -0.0015815719209405941 0 -0.0035227420072293908 -0.0015941533141744127 0 -0.0035390060773487424 -0.0016406157105770943 0 -0.0036314602899891238 -0.0016320508824701698 0 -0.0035227420072293908 -0.0015941533141744127 0 -0.0035390060773487424 -0.0016406157105770943 0 -0.0036049625558958543 -0.0017338516739972029 0 -0.0035390060773487424 -0.0016406157105770943 0 -0.0036515508902018852 -0.0016898702632860835 0 -0.0036314602899891238 -0.0016320508824701698 0 -0.0035390060773487424 -0.0016406157105770943 0 -0.0036515508902018852 -0.0016898702632860835 0 -0.0037265171985333837 -0.0017640938491779628 0 -0.0036515508902018852 -0.0016898702632860835 0 -0.0037345025698307215 -0.0016647708575364389 0 -0.0036314602899891238 -0.0016320508824701698 0 -0.0036515508902018852 -0.0016898702632860835 0 -0.0037345025698307215 -0.0016647708575364389 0 -0.0037265171985333837 -0.0017640938491779628 0 -0.0037345025698307215 -0.0016647708575364389 0 -0.0038409066375737692 -0.0017126338344595914 0 -0.0037345025698307215 -0.0016647708575364389 0 -0.0038148052486641697 -0.0016333518761864022 0 -0.0038409066375737692 -0.0017126338344595914 0 -0.0037345025698307215 -0.0016647708575364389 0 -0.0038148052486641697 -0.0016333518761864022 0 -0.0037274089185272202 -0.001569311798991078 0 -0.0036314602899891238 -0.0016320508824701698 0 -0.0037345025698307215 -0.0016647708575364389 0 -0.0037274089185272202 -0.001569311798991078 0 -0.0034341331016828273 -0.0016647235417883888 0 -0.0032757711420247828 -0.001550654354088653 0 -0.0032045114377187052 -0.0017046823059699489 0 -0.001802394236848913 -0.0013709274801807501 0 -0.001498580304931492 -0.0012276240366376138 0 -9.7717826648610877e-05 -0.0011206313430004047 0 -0.00034526108420558464 -0.0011066528794192009 0 -0.0002526902501657242 -0.0010705703739641859 0 -0.0032757711420247828 -0.001550654354088653 0 -0.0032045114377187052 -0.0017046823059699489 0 -0.0030067851043586217 -0.0016390027467854641 0 -0.001498580304931492 -0.0012276240366376138 0 -0.00087103566681452432 -0.00095608374404714154 0 -0.0003199080491900227 -0.0010262965224808092 0 -0.00034260620426792166 -0.0011050919308154296 0 -0.00047732737134340236 -0.0010906814694683963 0 -0.001498580304931492 -0.0012276240366376138 0 -0.00062287126850157101 -0.0010031485558328174 0 -0.0003199080491900227 -0.0010262965224808092 0 -0.00034260620426792166 -0.0011050919308154296 0 -0.0002526902501657242 -0.0010705703739641859 0 -0.0032757711420247828 -0.001550654354088653 0 -0.0030067851043586217 -0.0016390027467854641 0 -0.0029473980921018899 -0.0015605509379820119 0 -0.0035419192738611579 -0.0015628162711902071 0 -0.0032208615966486322 -0.0015886505949105178 0 -0.00082201524550720554 -0.00080180109517177952 0 -0.00078262172539847322 -0.00078633235114690197 0 -0.00079946440989390295 -0.00080582580203526354 0 -0.00082201524550720554 -0.00080180109517177952 0 -0.00078262172539847322 -0.00078633235114690197 0 -0.00083236719913356281 -0.00078890952583451619 0 -0.00038160202882467408 -0.00087643848856364202 0 -0.000573417155497002 -0.00083406024194137998 0 -0.00054075387955048143 -0.00080422908534320641 0 -0.00078262172539847322 -0.00078633235114690197 0 -0.00084217448332669714 -0.00077068772414555487 0 -0.00083236719913356281 -0.00078890952583451619 0 -0.00087103566681452432 -0.00095608374404714154 0 -0.00067668246438981833 -0.00080746011082931119 0 -0.0013408659208544963 -0.0010951148637145644 0 -0.001485634610485767 -0.0010807271254967621 0 -0.0015565875358997464 -0.001173811626617683 0 -0.001498580304931492 -0.0012276240366376138 0 -0.0019965858540103324 -0.001247613716417824 0 -0.00087103566681452432 -0.00095608374404714154 0 -0.0019965858540103324 -0.001247613716417824 0 -0.00082201524550720554 -0.00080180109517177952 0 -0.00079946440989390295 -0.00080582580203526354 0 -0.00084384018457815799 -0.00083481210427418324 0 -0.0032208615966486322 -0.0015886505949105178 0 -0.0019424998219527985 -0.0012363364903658967 0 -0.0019965858540103324 -0.001247613716417824 0 -0.0019424998219527985 -0.0012363364903658967 0 -0.0024774161346074021 -0.0014429660779156663 0 -0.0024081230599302555 -0.0013535739408541937 0 -0.0022483339165279273 -0.001365602661568143 0 -0.0019965858540103324 -0.001247613716417824 0 -0.0032208615966486322 -0.0015886505949105178 0 -0.003933986335026376 -0.0015748103676239715 0 -0.0038756416353674153 -0.0016547712041297669 0 -0.0039310648067946534 -0.0017020420554539326 0 -0.0038148052486641697 -0.0016333518761864022 0 -0.0037274089185272202 -0.001569311798991078 0 -0.003933986335026376 -0.0015748103676239715 0 -0.003933986335026376 -0.0015748103676239715 0 -0.0039310648067946534 -0.0017020420554539326 0 -0.0040412823372072536 -0.0017601424260001311 0 -0.0038148052486641697 -0.0016333518761864022 0 -0.003933986335026376 -0.0015748103676239715 0 -0.0038756416353674153 -0.0016547712041297669 0 -0.0038148052486641697 -0.0016333518761864022 0 -0.0038756416353674153 -0.0016547712041297669 0 -0.0038409066375737692 -0.0017126338344595914 0 -0.0039235728132927163 -0.0018143416326245464 0 -0.0038409066375737692 -0.0017126338344595914 0 -0.0039310648067946534 -0.0017020420554539326 0 -0.0038756416353674153 -0.0016547712041297669 0 -0.0038409066375737692 -0.0017126338344595914 0 -0.0039310648067946534 -0.0017020420554539326 0 -0.0039235728132927163 -0.0018143416326245464 0 -0.0039310648067946534 -0.0017020420554539326 0 -0.0040412823372072536 -0.0017601424260001311 0 -0.0038474119526749179 -0.0017229667405173684 0 -0.003972654999142752 -0.0018641009592062095 0 -0.0039314110793336179 -0.0017189845035779383 0 -0.003972654999142752 -0.0018641009592062095 0 -0.0040881705458343312 -0.0018808315089172052 0 -0.0039314110793336179 -0.0017189845035779383 0 -0.0032208615966486322 -0.0015886505949105178 0 -0.0040717454143937327 -0.0018686071275930308 0 -0.0040881705458343312 -0.0018808315089172052 0 -0.0039314110793336179 -0.0017189845035779383 0 -0.0041621975204710884 -0.0018283714424709864 0 -0.0019424998219527985 -0.0012363364903658967 0 -0.0027350763449678467 -0.0014517889560503002 0 -0.0041507376430494217 -0.0019311938621115151 0 -0.0040881705458343312 -0.0018808315089172052 0 -0.0041621975204710884 -0.0018283714424709864 0 -0.0010184146755599748 -0.00086301776026930714 0 -0.0007911447839506207 -0.00086881225781814514 0 -0.0011196150641631765 -0.0010265765680724864 0 -0.0010072777755547745 -0.00084477419570770944 0 -0.0011031621711121886 -0.00068233730634227933 0 -0.00092789625789414841 -0.00073150603172390197 0 -0.0010072777755547745 -0.00084477419570770944 0 -0.00089209107671198238 -0.00079031433544398094 0 -0.00092789625789414841 -0.00073150603172390197 0 -0.00080923792769411118 -0.0008390988765269034 0 -0.0019424998219527985 -0.0012363364903658967 0 -0.000573417155497002 -0.00083406024194137998 0 -0.00054075387955048143 -0.00080422908534320641 0 -0.00092789625789414841 -0.00073150603172390197 0 -0.00067668246438981833 -0.00080746011082931119 0 -0.00090367513561318566 -0.00075301981036206907 0 -0.00089209107671198238 -0.00079031433544398094 0 -0.00084217448332669714 -0.00077068772414555487 0 -0.00092789625789414841 -0.00073150603172390197 0 -0.0010072777755547745 -0.00084477419570770944 0 -0.00089209107671198238 -0.00079031433544398094 0 -0.00084384018457815799 -0.00083481210427418324 0 -0.00089209107671198238 -0.00079031433544398094 0 -0.00084217448332669714 -0.00077068772414555487 0 -0.00085234303243250946 -0.00079892705322238836 0 -0.00084217448332669714 -0.00077068772414555487 0 -0.00083236719913356281 -0.00078890952583451619 0 -0.00085234303243250946 -0.00079892705322238836 0 -0.00082201524550720554 -0.00080180109517177952 0 -0.00083236719913356281 -0.00078890952583451619 0 -0.00085234303243250946 -0.00079892705322238836 0 -0.00089209107671198238 -0.00079031433544398094 0 -0.00085234303243250946 -0.00079892705322238836 0 -0.00084384018457815799 -0.00083481210427418324 0 -0.00082201524550720554 -0.00080180109517177952 0 -0.00085234303243250946 -0.00079892705322238836 0 -0.00084384018457815799 -0.00083481210427418324 0 -0.0016758230940584578 -0.0013155344556706489 0 -0.0016900647952687337 -0.00082734162658229288 0 -0.0013234621280075649 -0.00077700632994917715 0 -0.0042240682080144695 -0.001950377884963866 0 -0.004306341694400237 -0.0019431446545513521 0 -0.0041621975204710884 -0.0018283714424709864 0 -0.002976076154842534 -0.0016234986745307205 0 -0.0027350763449678467 -0.0014517889560503002 0 -0.0016758230940584578 -0.0013155344556706489 0 -0.0011196150641631765 -0.0010265765680724864 0 -0.0013234621280075649 -0.00077700632994917715 0 -0.0011031621711121886 -0.00068233730634227933 0 -0.0013234621280075649 -0.00077700632994917715 0 -0.001244190931860698 -0.00052614714061749326 0 -0.0010072777755547745 -0.00084477419570770944 0 -0.0011031621711121886 -0.00068233730634227933 0 -0.0013234621280075649 -0.00077700632994917715 0 -0.00080923792769411118 -0.0008390988765269034 0 -0.0013716641810646451 -0.00079211249787192433 0 -0.0010184146755599748 -0.00086301776026930714 0 -0.0011196150641631765 -0.0010265765680724864 0 -0.0013234621280075649 -0.00077700632994917715 0 -0.0016900647952687337 -0.00082734162658229288 0 -0.0013234621280075649 -0.00077700632994917715 0 -0.0015246589851153124 -0.00056017840948925147 0 -0.0017281785265528633 -0.00065753802214968751 0 -0.0016900647952687337 -0.00082734162658229288 0 -0.0015246589851153124 -0.00056017840948925147 0 -0.0015943498613483541 -0.00033619868147466886 0 -0.0015246589851153124 -0.00056017840948925147 0 -0.0013930543067842709 -0.00033709046587586156 0 -0.0015246589851153124 -0.00056017840948925147 0 -0.001244190931860698 -0.00052614714061749326 0 -0.0013930543067842709 -0.00033709046587586156 0 -0.0016824078864838073 -0.0004958624515005272 0 -0.0015943498613483541 -0.00033619868147466886 0 -0.0015246589851153124 -0.00056017840948925147 0 -0.0013234621280075649 -0.00077700632994917715 0 -0.0015246589851153124 -0.00056017840948925147 0 -0.001244190931860698 -0.00052614714061749326 0 -0.0011549158227145736 -0.00034712928984734947 0 -0.0013930543067842709 -0.00033709046587586156 0 -0.0012390419513151789 -0.00014266782484440596 0 -0.001244190931860698 -0.00052614714061749326 0 -0.0011549158227145736 -0.00034712928984734947 0 -0.0013930543067842709 -0.00033709046587586156 0 -0.0015943498613483541 -0.00033619868147466886 0 -0.0015771114438692241 -0.00018123754640199993 0 -0.0013930543067842709 -0.00033709046587586156 0 -0.0015771114438692241 -0.00018123754640199993 0 -0.0013930543067842709 -0.00033709046587586156 0 -0.0012390419513151789 -0.00014266782484440596 0 -0.00054075387955048143 -0.00080422908534320641 0 -0.0010165866629505223 -0.00045797400926839436 0 -0.0008582585708925383 -0.00026961440854049538 0 -0.00055215706137101434 -0.0007896653371696423 0 -0.00072898147220828622 -0.00047202117882021535 0 -0.00054075387955048143 -0.00080422908534320641 0 -0.00092789625789414841 -0.00073150603172390197 0 -0.0010165866629505223 -0.00045797400926839436 0 -0.0011031621711121886 -0.00068233730634227933 0 -0.00092789625789414841 -0.00073150603172390197 0 -0.0010165866629505223 -0.00045797400926839436 0 -0.0011031621711121886 -0.00068233730634227933 0 -0.001244190931860698 -0.00052614714061749326 0 -0.0010165866629505223 -0.00045797400926839436 0 -0.001244190931860698 -0.00052614714061749326 0 -0.0011549158227145736 -0.00034712928984734947 0 -0.0010165866629505223 -0.00045797400926839436 0 -0.0011549158227145736 -0.00034712928984734947 0 -0.0010165866629505223 -0.00045797400926839436 0 -0.0008582585708925383 -0.00026961440854049538 0 -0.0011549158227145736 -0.00034712928984734947 0 -0.0008582585708925383 -0.00026961440854049538 0 -0.0012390419513151789 -0.00014266782484440596 0 -0.00045963358756960677 -0.00067277589745726337 0 -0.00054075387955048143 -0.00080422908534320641 0 -0.00060181787907483369 -0.00065232538150111449 0 -0.00045963358756960677 -0.00067277589745726337 0 -0.00060181787907483369 -0.00065232538150111449 0 -0.00053143628651295945 -0.0004537683634850956 0 -0.00060181787907483369 -0.00065232538150111449 0 -0.00053143628651295945 -0.0004537683634850956 0 -0.00079117666556572123 -0.0003987410849532766 0 -0.0008582585708925383 -0.00026961440854049538 0 -0.0010578183351829733 -1.159535816775439e-05 0 -0.0012390419513151789 -0.00014266782484440596 0 -0.00072898147220828622 -0.00047202117882021535 0 -0.00092291582382161364 -0.00019388363498709413 0 -0.00079117666556572123 -0.0003987410849532766 0 -0.00062603310326353175 -0.00025348091199206189 0 -0.00086118296074963322 -4.579073992178135e-05 0 -0.00053143628651295945 -0.0004537683634850956 0 -0.00079117666556572123 -0.0003987410849532766 0 -0.00062603310326353175 -0.00025348091199206189 0 -0.00062603310326353175 -0.00025348091199206189 0 -0.0005335733278927973 -0.00015895214840479702 0 -0.00044933717526914507 -0.00029588108104304311 0 -0.00053143628651295945 -0.0004537683634850956 0 -0.00062603310326353175 -0.00025348091199206189 0 -0.00044933717526914507 -0.00029588108104304311 0 -0.0015771114438692241 -0.00018123754640199993 0 -0.0012390419513151789 -0.00014266782484440596 0 -0.0014523988564601564 -3.0799751325457396e-05 0 -0.0010578183351829733 -1.159535816775439e-05 0 -0.0012390419513151789 -0.00014266782484440596 0 -0.0012256893183640409 2.7245508730477775e-05 0 -0.0010578183351829733 -1.159535816775439e-05 0 -0.0012256893183640409 2.7245508730477775e-05 0 -0.0010821026464155326 0.00013202099232905833 0 -0.0012256893183640409 2.7245508730477775e-05 0 -0.0014523988564601564 -3.0799751325457396e-05 0 -0.0013999303288331436 7.9904788109145435e-05 0 -0.0012390419513151789 -0.00014266782484440596 0 -0.0012256893183640409 2.7245508730477775e-05 0 -0.0014523988564601564 -3.0799751325457396e-05 0 -0.0014041636987823863 0.00019723870012109695 0 -0.0013999303288331436 7.9904788109145435e-05 0 -0.0012724846945048444 0.00013244084342138782 0 -0.0012256893183640409 2.7245508730477775e-05 0 -0.0013999303288331436 7.9904788109145435e-05 0 -0.0012724846945048444 0.00013244084342138782 0 -0.0014041636987823863 0.00019723870012109695 0 -0.0012724846945048444 0.00013244084342138782 0 -0.0012426194792709757 0.00025684790131350461 0 -0.0012256893183640409 2.7245508730477775e-05 0 -0.0012724846945048444 0.00013244084342138782 0 -0.0010821026464155326 0.00013202099232905833 0 -0.0012724846945048444 0.00013244084342138782 0 -0.0010821026464155326 0.00013202099232905833 0 -0.0012426194792709757 0.00025684790131350461 0 -0.0010821026464155326 0.00013202099232905833 0 -0.0012426194792709757 0.00025684790131350461 0 -0.00094088005110901129 0.00034053974466572047 0 -0.0012043138844911145 0.00044810362348670339 0 -0.0012426194792709757 0.00025684790131350461 0 -0.00094088005110901129 0.00034053974466572047 0 -0.0012043138844911145 0.00044810362348670339 0 -0.0015225236391837446 0.00039220331866693289 0 -0.001391169310005523 0.0003061241534499478 0 -0.0012043138844911145 0.00044810362348670339 0 -0.0012426194792709757 0.00025684790131350461 0 -0.001391169310005523 0.0003061241534499478 0 -0.0014041636987823863 0.00019723870012109695 0 -0.0012426194792709757 0.00025684790131350461 0 -0.001391169310005523 0.0003061241534499478 0 -0.00067384729939623089 -6.832965859315007e-05 0 -0.00069514288809226698 5.8988003935509442e-05 0 -0.00048098624130308117 1.6414822072284932e-05 0 -0.00067384729939623089 -6.832965859315007e-05 0 -0.0005335733278927973 -0.00015895214840479702 0 -0.00048098624130308117 1.6414822072284932e-05 0 -0.00062603310326353175 -0.00025348091199206189 0 -0.00067384729939623089 -6.832965859315007e-05 0 -0.0005335733278927973 -0.00015895214840479702 0 -0.00079117666556572123 -0.0003987410849532766 0 -0.0010821026464155326 0.00013202099232905833 0 -0.00086118296074963322 -4.579073992178135e-05 0 -0.00092291582382161364 -0.00019388363498709413 0 -0.0010759763232512662 0.0001169906386074721 0 -0.00062603310326353175 -0.00025348091199206189 0 -0.00067384729939623089 -6.832965859315007e-05 0 -0.00086118296074963322 -4.579073992178135e-05 0 -0.0010821026464155326 0.00013202099232905833 0 -0.00086118296074963322 -4.579073992178135e-05 0 -0.00088019203841640896 0.00019284532824406179 0 -0.00067384729939623089 -6.832965859315007e-05 0 -0.00086118296074963322 -4.579073992178135e-05 0 -0.00069514288809226698 5.8988003935509442e-05 0 -0.00080928578425050251 -5.9041948231923024e-06 0 -0.00069385139157947804 -2.9634224832606589e-06 0 -0.00086118296074963322 -4.579073992178135e-05 0 -0.00068070991391414395 0.00021993650110316951 0 -0.00088019203841640896 0.00019284532824406179 0 -0.00068070991391414395 0.00021993650110316951 0 -0.00088019203841640896 0.00019284532824406179 0 -0.00075285271391434554 0.00032845182376298372 0 -0.00066688766936024043 0.00048170065795995692 0 -0.0012043138844911145 0.00044810362348670339 0 -0.00094088005110901129 0.00034053974466572047 0 -0.00088019203841640896 0.00019284532824406179 0 -0.00094088005110901129 0.00034053974466572047 0 -0.00075285271391434554 0.00032845182376298372 0 -0.0010821026464155326 0.00013202099232905833 0 -0.00088019203841640896 0.00019284532824406179 0 -0.00094088005110901129 0.00034053974466572047 0 -0.00066688766936024043 0.00048170065795995692 0 -0.00094088005110901129 0.00034053974466572047 0 -0.00075285271391434554 0.00032845182376298372 0 -0.00068070991391414395 0.00021993650110316951 0 -0.00075285271391434554 0.00032845182376298372 0 -0.00058217137934907313 0.00041413335810355122 0 -0.00066688766936024043 0.00048170065795995692 0 -0.00075285271391434554 0.00032845182376298372 0 -0.00058217137934907313 0.00041413335810355122 0 0.0016702810695719311 -0.00024521228707894679 0 -0.00069385139157947804 -2.9634224832606589e-06 0 0.0027689551102497109 -0.00094738691878599589 0 0.0011897711296806315 0.00015208437289406101 0 -0.00056837758162924857 0.00020855428422856872 0 -0.00069514288809226698 5.8988003935509442e-05 0 -0.00048098624130308117 1.6414822072284932e-05 0 -0.00048297800987226681 0.00046791205259530047 0 -0.00063943392176694805 0.00046807207978385274 0 -0.00058217137934907313 0.00041413335810355122 0 -0.00048297800987226681 0.00046791205259530047 0 -0.00068070991391414395 0.00021993650110316951 0 -0.00058217137934907313 0.00041413335810355122 0 -0.00028885109999811484 0.00018106868589222601 0 -0.00056837758162924857 0.00020855428422856872 0 -0.00048098624130308117 1.6414822072284932e-05 0 -0.00028885109999811484 0.00018106868589222601 0 -0.00048098624130308117 1.6414822072284932e-05 0 -0.00031913104373679755 -4.1899863359293897e-06 0 -0.00028885109999811484 0.00018106868589222601 0 -0.00015556823454856424 -9.2308696879515273e-05 0 1.733347200139306e-05 0.0001445810817520362 0 -0.00028885109999811484 0.00018106868589222601 0 -0.00031913104373679755 -4.1899863359293897e-06 0 -0.00015556823454856424 -9.2308696879515273e-05 0 0.00037996440207279151 0.00013760526464609872 0 0.00056875609112348941 9.2825075451727406e-05 0 -0.00015556823454856424 -9.2308696879515273e-05 0 -0.0002793811096902225 -0.00031196800600114319 0 -0.00010202132257655094 -0.00031969593156568624 0 -0.00015556823454856424 -9.2308696879515273e-05 0 -0.00010202132257655094 -0.00031969593156568624 0 6.7905241729539185e-05 -0.00025015441351306222 0 -0.00031913104373679755 -4.1899863359293897e-06 0 -0.00015556823454856424 -9.2308696879515273e-05 0 -0.00036861012385083888 -0.00014452958080302106 0 -0.00015556823454856424 -9.2308696879515273e-05 0 -0.00036861012385083888 -0.00014452958080302106 0 -0.0002793811096902225 -0.00031196800600114319 0 -0.00048098624130308117 1.6414822072284932e-05 0 -0.00031913104373679755 -4.1899863359293897e-06 0 -0.00036861012385083888 -0.00014452958080302106 0 -0.0005335733278927973 -0.00015895214840479702 0 -0.00048098624130308117 1.6414822072284932e-05 0 -0.00036861012385083888 -0.00014452958080302106 0 -0.0005335733278927973 -0.00015895214840479702 0 -0.00036861012385083888 -0.00014452958080302106 0 -0.00044933717526914507 -0.00029588108104304311 0 -0.00053143628651295945 -0.0004537683634850956 0 -0.00044933717526914507 -0.00029588108104304311 0 -0.00037136294107383201 -0.0004403807365644173 0 -0.00044933717526914507 -0.00029588108104304311 0 -0.0002793811096902225 -0.00031196800600114319 0 -0.00037136294107383201 -0.0004403807365644173 0 -0.00036861012385083888 -0.00014452958080302106 0 -0.00044933717526914507 -0.00029588108104304311 0 -0.0002793811096902225 -0.00031196800600114319 0 -0.0002793811096902225 -0.00031196800600114319 0 -0.0001289294912477096 -0.00048473685788629091 0 -0.00037136294107383201 -0.0004403807365644173 0 -0.0002793811096902225 -0.00031196800600114319 0 -0.00010202132257655094 -0.00031969593156568624 0 -0.0001289294912477096 -0.00048473685788629091 0 -0.00022707601436806871 -0.0006129413540895386 0 -0.00013225464698857952 -0.00070533517912536002 0 -0.0001289294912477096 -0.00048473685788629091 0 -0.00022707601436806871 -0.0006129413540895386 0 -0.0001289294912477096 -0.00048473685788629091 0 -0.00035818982543110771 -0.00057536317559805103 0 -0.0001289294912477096 -0.00048473685788629091 0 -0.00035818982543110771 -0.00057536317559805103 0 -0.00037136294107383201 -0.0004403807365644173 0 -0.00045963358756960677 -0.00067277589745726337 0 -0.00053143628651295945 -0.0004537683634850956 0 -0.00035818982543110771 -0.00057536317559805103 0 -0.00053143628651295945 -0.0004537683634850956 0 -0.00035818982543110771 -0.00057536317559805103 0 -0.00037136294107383201 -0.0004403807365644173 0 0.00018993815708571822 -0.00078873217860322693 0 0.00025188013683326771 -0.00051814821102653822 0 5.1109426279456559e-05 -0.0005820101152810861 0 0.00025188013683326771 -0.00051814821102653822 0 5.1109426279456559e-05 -0.0005820101152810861 0 6.3487537400556398e-05 -0.0004152957137613355 0 -0.00013225464698857952 -0.00070533517912536002 0 -0.0001289294912477096 -0.00048473685788629091 0 5.1109426279456559e-05 -0.0005820101152810861 0 -0.0001289294912477096 -0.00048473685788629091 0 5.1109426279456559e-05 -0.0005820101152810861 0 6.3487537400556398e-05 -0.0004152957137613355 0 6.3487537400556398e-05 -0.0004152957137613355 0 0.00023453457649611124 -0.00033673761262014655 0 6.7905241729539185e-05 -0.00025015441351306222 0 -0.00010202132257655094 -0.00031969593156568624 0 -0.0001289294912477096 -0.00048473685788629091 0 6.3487537400556398e-05 -0.0004152957137613355 0 -0.00010202132257655094 -0.00031969593156568624 0 6.3487537400556398e-05 -0.0004152957137613355 0 6.7905241729539185e-05 -0.00025015441351306222 0 0.00025188013683326771 -0.00051814821102653822 0 0.00023453457649611124 -0.00033673761262014655 0 0.0003172776305261424 -0.00042157586393443591 0 0.00025188013683326771 -0.00051814821102653822 0 6.3487537400556398e-05 -0.0004152957137613355 0 0.00023453457649611124 -0.00033673761262014655 0 0.00023453457649611124 -0.00033673761262014655 0 0.00028309915119473233 -0.00015295748365186547 0 0.00035701691388240284 -0.00025948234944277052 0 0.00023453457649611124 -0.00033673761262014655 0 0.00028309915119473233 -0.00015295748365186547 0 6.7905241729539185e-05 -0.00025015441351306222 0 -0.00015556823454856424 -9.2308696879515273e-05 0 6.7905241729539185e-05 -0.00025015441351306222 0 0.00012740379411580016 -7.2580336940218456e-05 0 0.00028309915119473233 -0.00015295748365186547 0 6.7905241729539185e-05 -0.00025015441351306222 0 0.00012740379411580016 -7.2580336940218456e-05 0 1.733347200139306e-05 0.0001445810817520362 0 0.00012740379411580016 -7.2580336940218456e-05 0 0.00044208396840523525 3.762628229361645e-05 0 0.00056875609112348941 9.2825075451727406e-05 0 0.00043063686464076521 5.6609129753262218e-05 0 -0.00015556823454856424 -9.2308696879515273e-05 0 1.733347200139306e-05 0.0001445810817520362 0 0.00012740379411580016 -7.2580336940218456e-05 0 0.00028309915119473233 -0.00015295748365186547 0 0.00044208396840523525 3.762628229361645e-05 0 0.00040460653950548402 -0.00010741129280735595 0 0.00028309915119473233 -0.00015295748365186547 0 0.00012740379411580016 -7.2580336940218456e-05 0 0.00044208396840523525 3.762628229361645e-05 0 0.00039358767187354783 -2.3312888595736207e-05 0 0.00044208396840523525 3.762628229361645e-05 0 0.00040460653950548402 -0.00010741129280735595 0 0.0017442576991863125 -0.0011797334007895813 0 0.0019484875160640978 -0.0011860726394664384 0 0.0019660358016178573 -0.0012277046205962803 0 0.00039358767187354783 -2.3312888595736207e-05 0 0.00040460653950548402 -0.00010741129280735595 0 0.00059025720666335045 -0.00013512847916784691 0 0.0010680210329045616 -0.00060393133145906282 0 0.0012786501091088401 -0.00068733398660623273 0 0.00059025720666335045 -0.00013512847916784691 0 0.00048473310653048153 -0.00022541133763255195 0 0.00059182964071028798 -0.0003433343291847953 0 0.00040460653950548402 -0.00010741129280735595 0 0.00059025720666335045 -0.00013512847916784691 0 0.00048473310653048153 -0.00022541133763255195 0 0.00028309915119473233 -0.00015295748365186547 0 0.00040460653950548402 -0.00010741129280735595 0 0.00035701691388240284 -0.00025948234944277052 0 0.00048473310653048153 -0.00022541133763255195 0 0.00035701691388240284 -0.00025948234944277052 0 0.00041690674912530696 -0.00036173807926217371 0 0.00040460653950548402 -0.00010741129280735595 0 0.00048473310653048153 -0.00022541133763255195 0 0.00035701691388240284 -0.00025948234944277052 0 0.0018907479196875702 -0.0011976152457384673 0 0.0019322676485688732 -0.001238314112318318 0 0.0018426909635085008 -0.001204220371723989 0 0.0018907479196875702 -0.0011976152457384673 0 0.0019322676485688732 -0.001238314112318318 0 0.0019333795410615487 -0.0012113108464906265 0 0.0019322676485688732 -0.001238314112318318 0 0.0019333795410615487 -0.0012113108464906265 0 0.0019692656248310059 -0.0012046698077615775 0 0.0019435701100145946 -0.001194115866688358 0 0.0019333795410615487 -0.0012113108464906265 0 0.0019692656248310059 -0.0012046698077615775 0 0.0018907479196875702 -0.0011976152457384673 0 0.0019435701100145946 -0.001194115866688358 0 0.0019333795410615487 -0.0012113108464906265 0 0.0020180096251532788 -0.0011412982011580087 0 0.0019322676485688732 -0.001238314112318318 0 0.0019692656248310059 -0.0012046698077615775 0 0.0019435701100145946 -0.001194115866688358 0 0.001980022458574043 -0.0012010256775359949 0 0.0019692656248310059 -0.0012046698077615775 0 0.0019435701100145946 -0.001194115866688358 0 0.001980022458574043 -0.0012010256775359949 0 0.0019733032461537602 -0.0011939398183911302 0 0.0020180096251532788 -0.0011412982011580087 0 0.0019692656248310059 -0.0012046698077615775 0 0.0019848668663902916 -0.001181698938000607 0 0.001980022458574043 -0.0012010256775359949 0 0.0019692656248310059 -0.0012046698077615775 0 0.0019848668663902916 -0.001181698938000607 0 0.0020180096251532788 -0.0011412982011580087 0 0.0019484875160640978 -0.0011860726394664384 0 0.0019848668663902916 -0.001181698938000607 0 0.0019484875160640978 -0.0011860726394664384 0 0.001980022458574043 -0.0012010256775359949 0 0.0019848668663902916 -0.001181698938000607 0 0.0019660358016178573 -0.0012277046205962803 0 0.001980022458574043 -0.0012010256775359949 0 0.0019733032461537602 -0.0011939398183911302 0 0.0019484875160640978 -0.0011860726394664384 0 0.0019660358016178573 -0.0012277046205962803 0 0.001980022458574043 -0.0012010256775359949 0 0.00059025720666335045 -0.00013512847916784691 0 0.00071016051797302986 -0.00024350390839973713 0 0.00059182964071028798 -0.0003433343291847953 0 0.00071016051797302986 -0.00024350390839973713 0 0.00080869387964684026 -0.0003539340419569817 0 0.00059182964071028798 -0.0003433343291847953 0 0.0019660358016178573 -0.0012277046205962803 0 0.001985127544198623 -0.0011568764314094863 0 0.0019733032461537602 -0.0011939398183911302 0 0.0012786501091088401 -0.00068733398660623273 0 0.0012276033874993103 -0.00060538117640171691 0 0.0012276033874993103 -0.00060538117640171691 0 0.00074088824804666034 -0.00023654999247013579 0 0.001985127544198623 -0.0011568764314094863 0 0.0019733032461537602 -0.0011939398183911302 0 0.0019235753531111079 -0.0011525373297938599 0 0.00074040660854843233 -0.00027929919899145666 0 0.00080869387964684026 -0.0003539340419569817 0 0.00098698660191114877 -0.00037759067079771205 0 0.0012276033874993103 -0.00060538117640171691 0 0.0015249721085722815 -0.00071590678335365081 0 0.001985127544198623 -0.0011568764314094863 0 0.0019235753531111079 -0.0011525373297938599 0 0.0018181847580083989 -0.001028677077419943 0 0.0019235753531111079 -0.0011525373297938599 0 0.0018833633906426008 -0.0011547849649276444 0 0.0018181847580083989 -0.001028677077419943 0 0.0019435701100145946 -0.001194115866688358 0 0.0019235753531111079 -0.0011525373297938599 0 0.0018833633906426008 -0.0011547849649276444 0 0.0019435701100145946 -0.001194115866688358 0 0.0019733032461537602 -0.0011939398183911302 0 0.0019235753531111079 -0.0011525373297938599 0 0.0018907479196875702 -0.0011976152457384673 0 0.0019435701100145946 -0.001194115866688358 0 0.0018833633906426008 -0.0011547849649276444 0 0.0018907479196875702 -0.0011976152457384673 0 0.0018833633906426008 -0.0011547849649276444 0 0.0018409513434086862 -0.0011763284373876636 0 0.00088613985190699892 -0.00042656833425395302 0 0.00080869387964684026 -0.0003539340419569817 0 0.00098698660191114877 -0.00037759067079771205 0 0.00088613985190699892 -0.00042656833425395302 0 0.00074591384340132053 -0.00051680229179343568 0 0.0009925116717242929 -0.00046636157397758187 0 0.00045994085107888536 -0.0006497013403078877 0 0.00040059681354296793 -0.00066142010354098809 0 0.00088613985190699892 -0.00042656833425395302 0 0.00080869387964684026 -0.0003539340419569817 0 0.00074591384340132053 -0.00051680229179343568 0 0.00080869387964684026 -0.0003539340419569817 0 0.00074591384340132053 -0.00051680229179343568 0 0.00059182964071028798 -0.0003433343291847953 0 0.0001802744422125428 -0.00078743360985816736 0 0.00027572035567109281 -0.0006171918644740375 0 0.0001571403169852911 -0.00068345419833830304 0 0.0001802744422125428 -0.00078743360985816736 0 3.0733478090172369e-05 -0.00078159382944154423 0 -0.00010505936278642964 -0.00090923317585036396 0 0.0001802744422125428 -0.00078743360985816736 0 3.0733478090172369e-05 -0.00078159382944154423 0 0.0001571403169852911 -0.00068345419833830304 0 0.0003172776305261424 -0.00042157586393443591 0 0.00041690674912530696 -0.00036173807926217371 0 0.00036245556204268195 -0.00057062059877620254 0 0.00023453457649611124 -0.00033673761262014655 0 0.00035701691388240284 -0.00025948234944277052 0 0.0003172776305261424 -0.00042157586393443591 0 0.00035701691388240284 -0.00025948234944277052 0 0.0003172776305261424 -0.00042157586393443591 0 0.00041690674912530696 -0.00036173807926217371 0 0.00048473310653048153 -0.00022541133763255195 0 0.00041690674912530696 -0.00036173807926217371 0 0.00059182964071028798 -0.0003433343291847953 0 0.00041690674912530696 -0.00036173807926217371 0 0.00059182964071028798 -0.0003433343291847953 0 0.00036245556204268195 -0.00057062059877620254 0 0.00074591384340132053 -0.00051680229179343568 0 0.00059182964071028798 -0.0003433343291847953 0 0.00036245556204268195 -0.00057062059877620254 0 0.0001802744422125428 -0.00078743360985816736 0 0.00036245556204268195 -0.00057062059877620254 0 0.00027572035567109281 -0.0006171918644740375 0 0.00045994085107888536 -0.0006497013403078877 0 0.0003557374775466716 -0.00058677986979540893 0 0.00036245556204268195 -0.00057062059877620254 0 0.00030323924282050791 -0.00059048448525864344 0 0.00027572035567109281 -0.0006171918644740375 0 0.00025188013683326771 -0.00051814821102653822 0 0.00036245556204268195 -0.00057062059877620254 0 0.00030323924282050791 -0.00059048448525864344 0 0.00025188013683326771 -0.00051814821102653822 0 0.0003172776305261424 -0.00042157586393443591 0 0.00036245556204268195 -0.00057062059877620254 0 0.00026158783978417615 -0.00059864119521663703 0 0.00030323924282050791 -0.00059048448525864344 0 0.00027685106474190205 -0.00058632649025108991 0 0.00026158783978417615 -0.00059864119521663703 0 0.00025188013683326771 -0.00051814821102653822 0 0.00030323924282050791 -0.00059048448525864344 0 0.00027685106474190205 -0.00058632649025108991 0 0.00025980920360860427 -0.00059271438229413866 0 0.00025681077750269298 -0.00058750220857448727 0 0.00026158783978417615 -0.00059864119521663703 0 0.00027685106474190205 -0.00058632649025108991 0 0.00025980920360860427 -0.00059271438229413866 0 0.00027685106474190205 -0.00058632649025108991 0 0.00023209835292451025 -0.00055316833957964038 0 0.00025681077750269298 -0.00058750220857448727 0 0.00027685106474190205 -0.00058632649025108991 0 0.00027572035567109281 -0.0006171918644740375 0 0.00023209835292451025 -0.00055316833957964038 0 0.00030323924282050791 -0.00059048448525864344 0 0.00027685106474190205 -0.00058632649025108991 0 0.00027572035567109281 -0.0006171918644740375 0 0.0001571403169852911 -0.00068345419833830304 0 2.3616018966671138e-05 -0.00064418732143245721 0 0.00023209835292451025 -0.00055316833957964038 0 0.00027572035567109281 -0.0006171918644740375 0 0.0001571403169852911 -0.00068345419833830304 0 0.00023209835292451025 -0.00055316833957964038 0 3.0733478090172369e-05 -0.00078159382944154423 0 0.0001571403169852911 -0.00068345419833830304 0 2.3616018966671138e-05 -0.00064418732143245721 0 -0.00030784345904834911 -0.00096252900064195789 0 -3.1829702218263914e-05 -0.00092860536943633785 0 -0.0005525262353849713 -0.0012386476583996899 0 -0.0005673302612733942 -0.0014517777156620158 0 -0.00076592199760684666 -0.0013854791660557145 0 -0.0005673302612733942 -0.0014517777156620158 0 -0.00076592199760684666 -0.0013854791660557145 0 -0.0007295696594684086 -0.0015799586790939803 0 -0.0005673302612733942 -0.0014517777156620158 0 -0.0007295696594684086 -0.0015799586790939803 0 -0.00041441790915153133 -0.0015767059827288758 0 -0.0016100709368385461 -0.0013427528605377301 0 -0.00098942879031828812 -0.0013682303470886226 0 -0.0020095422756988817 -0.0013888459152949955 0 -0.0015892718852085431 -0.0011498743458476218 0 -0.0016837679839378755 -0.0016018813324957032 0 -0.0023009712377780019 -0.0010476815303998479 0 -0.0020095422756988817 -0.0013888459152949955 0 -0.0015892718852085431 -0.0011498743458476218 0 -0.0023009712377780019 -0.0010476815303998479 0 -0.0023376390086285691 -0.0014112968025714765 0 -0.0026407543900713367 -0.0013032477258256342 0 -0.0023009712377780019 -0.0010476815303998479 0 -0.0020095422756988817 -0.0013888459152949955 0 -0.0023376390086285691 -0.0014112968025714765 0 -0.0026407543900713367 -0.0013032477258256342 0 -0.0029566342719191882 -0.0014620151338556378 0 -0.0029936906889641872 -0.0010049174843763339 0 -0.0023376390086285691 -0.0014112968025714765 0 -0.0026407543900713367 -0.0013032477258256342 0 -0.0026242639988879523 -0.0016094185064507048 0 -0.0026407543900713367 -0.0013032477258256342 0 -0.0029566342719191882 -0.0014620151338556378 0 -0.0026242639988879523 -0.0016094185064507048 0 -0.0034213641639747987 -0.0013501581756450909 0 -0.0032287267291407702 -0.0014053326312994266 0 -0.0029936906889641872 -0.0010049174843763339 0 -0.0029566342719191882 -0.0014620151338556378 0 -0.0032287267291407702 -0.0014053326312994266 0 -0.0029936906889641872 -0.0010049174843763339 0 -0.0038533074213758078 -0.0014549478028080393 0 -0.0015820934410192412 -0.0010310602101532272 0 -0.0016186464190603518 -0.0010782961107915329 0 -0.0015820934410192412 -0.0010310602101532272 0 0.00024533619885902226 -0.0005969860314866414 0 0.00025980920360860427 -0.00059271438229413866 0 0.00025681077750269298 -0.00058750220857448727 0 -0.00076592199760684666 -0.0013854791660557145 0 -0.0007295696594684086 -0.0015799586790939803 0 -0.0010351786635549442 -0.0015431880280762111 0 -0.0023009712377780019 -0.0010476815303998479 0 -0.0026407543900713367 -0.0013032477258256342 0 -0.0029936906889641872 -0.0010049174843763339 0 -3.1829702218263914e-05 -0.00092860536943633785 0 -0.0015820934410192412 -0.0010310602101532272 0 -0.0016100709368385461 -0.0013427528605377301 0 -0.0015820934410192412 -0.0010310602101532272 0 -9.511167351618082e-05 -0.0016305054772177362 0 1.3658609858386956e-05 -0.0018959596937841786 0 -0.00054995400396723308 -0.0015704837990742294 0 -9.511167351618082e-05 -0.0016305054772177362 0 -0.00029941156300331744 -0.0015319560070645669 0 -0.00054995400396723308 -0.0015704837990742294 0 -0.00029941156300331744 -0.0015319560070645669 0 8.8366492255781097e-06 -0.0015115848509356154 0 -0.00022333621498156074 -0.0014718016674475517 0 -9.511167351618082e-05 -0.0016305054772177362 0 -0.00029941156300331744 -0.0015319560070645669 0 8.8366492255781097e-06 -0.0015115848509356154 0 8.8366492255781097e-06 -0.0015115848509356154 0 0.00019929061046267393 -0.0016750815207932587 0 0.00025798438999089781 -0.0014731833882881634 0 -9.511167351618082e-05 -0.0016305054772177362 0 0.00019929061046267393 -0.0016750815207932587 0 1.3658609858386956e-05 -0.0018959596937841786 0 -9.511167351618082e-05 -0.0016305054772177362 0 8.8366492255781097e-06 -0.0015115848509356154 0 0.00019929061046267393 -0.0016750815207932587 0 -4.5607917375971153e-05 -0.0018328363846971268 0 -0.0025426330411297124 -0.0017867189763152928 0 0.00019929061046267393 -0.0016750815207932587 0 1.3658609858386956e-05 -0.0018959596937841786 0 0.00032550251092419301 -0.0020193770211355544 0 -0.00089828857993985223 -0.0015053316734752764 0 -0.000730514305465797 -0.0015670414270663494 0 -0.00090713460460172121 -0.0016544901909336909 0 -0.00089828857993985223 -0.0015053316734752764 0 -0.00088758856633985883 -0.0015531395746345334 0 -0.00090713460460172121 -0.0016544901909336909 0 -0.00089828857993985223 -0.0015053316734752764 0 -0.00068186981530644365 -0.0014826821059548312 0 -0.00054995400396723308 -0.0015704837990742294 0 -4.5607917375971153e-05 -0.0018328363846971268 0 -0.00068816970447134463 -0.0015307291367822017 0 -0.00089828857993985223 -0.0015053316734752764 0 -0.00088758856633985883 -0.0015531395746345334 0 -0.00068186981530644365 -0.0014826821059548312 0 -0.00088758856633985883 -0.0015531395746345334 0 -0.00068186981530644365 -0.0014826821059548312 0 -0.00099625749643609618 -0.0015763490725956759 0 -0.00071894512768914801 -0.0014646124292862956 0 -0.00098942879031828812 -0.0013682303470886226 0 -0.00068186981530644365 -0.0014826821059548312 0 -0.00041441790915153133 -0.0015767059827288758 0 -0.00054995400396723308 -0.0015704837990742294 0 -0.00099625749643609618 -0.0015763490725956759 0 -0.0015892718852085431 -0.0011498743458476218 0 -0.001316326584386452 -0.0015886747650212232 0 -0.00068186981530644365 -0.0014826821059548312 0 -0.00099625749643609618 -0.0015763490725956759 0 -0.0015892718852085431 -0.0011498743458476218 0 -0.0015892718852085431 -0.0011498743458476218 0 -0.0016837679839378755 -0.0016018813324957032 0 -0.001316326584386452 -0.0015886747650212232 0 -0.0005673302612733942 -0.0014517777156620158 0 -0.00041441790915153133 -0.0015767059827288758 0 -0.00041310404148353749 -0.0014436751693033519 0 -0.00041441790915153133 -0.0015767059827288758 0 -0.00040589313196336357 -0.0015322160762287174 0 -0.00041310404148353749 -0.0014436751693033519 0 -0.00041441790915153133 -0.0015767059827288758 0 -0.00054995400396723308 -0.0015704837990742294 0 -0.00040589313196336357 -0.0015322160762287174 0 -0.00029941156300331744 -0.0015319560070645669 0 -0.00054995400396723308 -0.0015704837990742294 0 -0.00040589313196336357 -0.0015322160762287174 0 -0.00029941156300331744 -0.0015319560070645669 0 -0.00040589313196336357 -0.0015322160762287174 0 -0.00022333621498156074 -0.0014718016674475517 0 -0.00040589313196336357 -0.0015322160762287174 0 -0.00027506468072258306 -0.0014137505219181312 0 -0.00022333621498156074 -0.0014718016674475517 0 -0.00040589313196336357 -0.0015322160762287174 0 -0.00027506468072258306 -0.0014137505219181312 0 -0.00041310404148353749 -0.0014436751693033519 0 -0.00027506468072258306 -0.0014137505219181312 0 -0.00041310404148353749 -0.0014436751693033519 0 -0.00025138901934502079 -0.0012727857846733634 0 -0.00027506468072258306 -0.0014137505219181312 0 -0.00025138901934502079 -0.0012727857846733634 0 -6.1780215956009322e-05 -0.0013427039551049368 0 -0.0005525262353849713 -0.0012386476583996899 0 -0.0005673302612733942 -0.0014517777156620158 0 -0.00041310404148353749 -0.0014436751693033519 0 -0.00030784345904834911 -0.00096252900064195789 0 -0.00013535998984091745 -0.00091921842451537757 0 -0.0005525262353849713 -0.0012386476583996899 0 -0.00025138901934502079 -0.0012727857846733634 0 -0.00015515567647921572 -0.00094065101706668468 0 -0.0005525262353849713 -0.0012386476583996899 0 -0.00041310404148353749 -0.0014436751693033519 0 -0.00025138901934502079 -0.0012727857846733634 0 -0.00025138901934502079 -0.0012727857846733634 0 -1.6192886753421367e-05 -0.0011576729716908313 0 -0.00015515567647921572 -0.00094065101706668468 0 -0.00025138901934502079 -0.0012727857846733634 0 -1.6192886753421367e-05 -0.0011576729716908313 0 -6.1780215956009322e-05 -0.0013427039551049368 0 -1.6192886753421367e-05 -0.0011576729716908313 0 0.00022420820460883353 -0.0012426050106677544 0 0.0002065455996615301 -0.001097893928960692 0 0.00022420820460883353 -0.0012426050106677544 0 -6.1780215956009322e-05 -0.0013427039551049368 0 0.00019748933303788071 -0.0013624112335827512 0 -1.6192886753421367e-05 -0.0011576729716908313 0 0.00022420820460883353 -0.0012426050106677544 0 -6.1780215956009322e-05 -0.0013427039551049368 0 -0.00027506468072258306 -0.0014137505219181312 0 -6.1780215956009322e-05 -0.0013427039551049368 0 -0.00022333621498156074 -0.0014718016674475517 0 -6.1780215956009322e-05 -0.0013427039551049368 0 -1.8604087109718771e-05 -0.0014199269978429892 0 0.00019748933303788071 -0.0013624112335827512 0 8.8366492255781097e-06 -0.0015115848509356154 0 -1.8604087109718771e-05 -0.0014199269978429892 0 -0.00022333621498156074 -0.0014718016674475517 0 8.8366492255781097e-06 -0.0015115848509356154 0 -1.8604087109718771e-05 -0.0014199269978429892 0 0.00019748933303788071 -0.0013624112335827512 0 -6.1780215956009322e-05 -0.0013427039551049368 0 -1.8604087109718771e-05 -0.0014199269978429892 0 -0.00022333621498156074 -0.0014718016674475517 0 0.00025798438999089781 -0.0014731833882881634 0 0.00019748933303788071 -0.0013624112335827512 0 0.00040011364687482075 -0.001338286839075299 0 8.8366492255781097e-06 -0.0015115848509356154 0 0.00025798438999089781 -0.0014731833882881634 0 0.00019748933303788071 -0.0013624112335827512 0 0.00022420820460883353 -0.0012426050106677544 0 0.00019748933303788071 -0.0013624112335827512 0 0.00051073451853478249 -0.0012753960328590257 0 0.00019748933303788071 -0.0013624112335827512 0 0.00051073451853478249 -0.0012753960328590257 0 0.00040011364687482075 -0.001338286839075299 0 0.00022420820460883353 -0.0012426050106677544 0 0.00051073451853478249 -0.0012753960328590257 0 0.00042645832813108302 -0.0011851116407842208 0 0.00051073451853478249 -0.0012753960328590257 0 0.00077468410733562258 -0.0010648439375052358 0 0.00098208020692923262 -0.0010873969790967974 0 0.00051073451853478249 -0.0012753960328590257 0 0.00077468410733562258 -0.0010648439375052358 0 0.00042645832813108302 -0.0011851116407842208 0 0.00077468410733562258 -0.0010648439375052358 0 0.00042645832813108302 -0.0011851116407842208 0 0.0002065455996615301 -0.001097893928960692 0 0.00077468410733562258 -0.0010648439375052358 0 0.0002065455996615301 -0.001097893928960692 0 -9.0232830124064939e-06 -0.0007842067212141552 0 0.00022420820460883353 -0.0012426050106677544 0 0.00042645832813108302 -0.0011851116407842208 0 0.0002065455996615301 -0.001097893928960692 0 -1.6192886753421367e-05 -0.0011576729716908313 0 0.0002065455996615301 -0.001097893928960692 0 -2.3011686737420871e-06 -0.00099747055854225832 0 0.0002065455996615301 -0.001097893928960692 0 -2.3011686737420871e-06 -0.00099747055854225832 0 -9.0232830124064939e-06 -0.0007842067212141552 0 0.0013992016406857489 -0.00087516993447058985 0 0.0015329352704695274 -0.00098466702397747132 0 0.0014178324261309577 -0.0011641412934085779 0 0.00054283560168502502 -0.0010380968026048793 0 0.00080983592277997847 -0.00078165747416831263 0 0.0013992016406857489 -0.00087516993447058985 0 0.0010909949468548975 -0.0010234269530847433 0 0.0014178324261309577 -0.0011641412934085779 0 0.0013992016406857489 -0.00087516993447058985 0 0.0010909949468548975 -0.0010234269530847433 0 0.00095167880820095079 -0.00098833484760427561 0 0.00080983592277997847 -0.00078165747416831263 0 0.0010218382442563529 -0.0010056204760290322 0 0.00077468410733562258 -0.0010648439375052358 0 0.00056029572501435068 -0.00098904601290977388 0 0.00095167880820095079 -0.00098833484760427561 0 0.0010909949468548975 -0.0010234269530847433 0 0.00095167880820095079 -0.00098833484760427561 0 0.001164350929930904 -0.00096833070226275142 0 0.00077468410733562258 -0.0010648439375052358 0 0.00095167880820095079 -0.00098833484760427561 0 0.00098208020692923262 -0.0010873969790967974 0 3.0733478090172369e-05 -0.00078159382944154423 0 2.3616018966671138e-05 -0.00064418732143245721 0 -0.00015515567647921572 -0.00094065101706668468 0 3.0733478090172369e-05 -0.00078159382944154423 0 -0.00015515567647921572 -0.00094065101706668468 0 -0.00010505936278642964 -0.00090923317585036396 0 -9.0232830124064939e-06 -0.0007842067212141552 0 -0.00015515567647921572 -0.00094065101706668468 0 -0.00010505936278642964 -0.00090923317585036396 0 -1.6192886753421367e-05 -0.0011576729716908313 0 -2.3011686737420871e-06 -0.00099747055854225832 0 -0.00015515567647921572 -0.00094065101706668468 0 -2.3011686737420871e-06 -0.00099747055854225832 0 -9.0232830124064939e-06 -0.0007842067212141552 0 -0.00015515567647921572 -0.00094065101706668468 0 0.0015329352704695274 -0.00098466702397747132 0 0.0018181847580083989 -0.001028677077419943 0 0.0017247481469996979 -0.0010764234359644255 0 0.00080983592277997847 -0.00078165747416831263 0 0.00040059681354296793 -0.00066142010354098809 0 0.0011778530983437801 -0.0004535884808325888 0 0.00098698660191114877 -0.00037759067079771205 0 0.0009925116717242929 -0.00046636157397758187 0 0.00080983592277997847 -0.00078165747416831263 0 0.0015249721085722815 -0.00071590678335365081 0 0.0013992016406857489 -0.00087516993447058985 0 0.0015329352704695274 -0.00098466702397747132 0 0.0018181847580083989 -0.001028677077419943 0 0.00088613985190699892 -0.00042656833425395302 0 0.00098698660191114877 -0.00037759067079771205 0 0.0009925116717242929 -0.00046636157397758187 0 0.0018833633906426008 -0.0011547849649276444 0 0.0018409513434086862 -0.0011763284373876636 0 0.0018236729390121859 -0.0011307044361406826 0 0.0017914412996330664 -0.0011702552242466189 0 0.0017546391816915161 -0.001224768080141214 0 0.0018426909635085008 -0.001204220371723989 0 0.0018409513434086862 -0.0011763284373876636 0 0.0017914412996330664 -0.0011702552242466189 0 0.0018426909635085008 -0.001204220371723989 0 0.0018409513434086862 -0.0011763284373876636 0 0.0018236729390121859 -0.0011307044361406826 0 0.0017914412996330664 -0.0011702552242466189 0 0.0018236729390121859 -0.0011307044361406826 0 0.0017816406217979709 -0.001116485915648934 0 0.0017914412996330664 -0.0011702552242466189 0 0.0018181847580083989 -0.001028677077419943 0 0.0018236729390121859 -0.0011307044361406826 0 0.0017816406217979709 -0.001116485915648934 0 0.0018833633906426008 -0.0011547849649276444 0 0.0018181847580083989 -0.001028677077419943 0 0.0018236729390121859 -0.0011307044361406826 0 0.0018181847580083989 -0.001028677077419943 0 0.0017816406217979709 -0.001116485915648934 0 0.0017247481469996979 -0.0010764234359644255 0 0.0017816406217979709 -0.001116485915648934 0 0.0017247481469996979 -0.0010764234359644255 0 0.0017133913597181282 -0.0011480619523160001 0 0.0017816406217979709 -0.001116485915648934 0 0.0017133913597181282 -0.0011480619523160001 0 0.0017914412996330664 -0.0011702552242466189 0 0.0017133913597181282 -0.0011480619523160001 0 0.0017914412996330664 -0.0011702552242466189 0 0.0017546391816915161 -0.001224768080141214 0 0.002823436726684335 -0.00097164016346170876 0 0.0021306774374148384 -0.0013080629153163984 0 0.002823436726684335 -0.00097164016346170876 0 0.0038641227990951011 -0.00079656443169820728 0 0.0017133913597181282 -0.0011480619523160001 0 0.0016502972782790905 -0.0010988877967173978 0 0.0015036028304077113 -0.0011313644668642562 0 0.0029082838339582586 -0.0014873227785324222 0 0.0027034940078000946 -0.0013680092555430532 0 0.0026929319650703964 -0.0014067058843724792 0 0.0017133913597181282 -0.0011480619523160001 0 0.0015036028304077113 -0.0011313644668642562 0 0.0017546391816915161 -0.001224768080141214 0 0.0017247481469996979 -0.0010764234359644255 0 0.0017133913597181282 -0.0011480619523160001 0 0.0016502972782790905 -0.0010988877967173978 0 0.0015329352704695274 -0.00098466702397747132 0 0.0017247481469996979 -0.0010764234359644255 0 0.0016502972782790905 -0.0010988877967173978 0 0.0015011703126878492 -0.0012245439701651633 0 0.0023175882644493355 -0.00070065165818717788 0 0.0015329352704695274 -0.00098466702397747132 0 0.0016502972782790905 -0.0010988877967173978 0 0.001555017938127837 -0.0010776963141292625 0 0.0015329352704695274 -0.00098466702397747132 0 0.001555017938127837 -0.0010776963141292625 0 0.0014651850450243342 -0.0011095977105133336 0 0.001555017938127837 -0.0010776963141292625 0 0.0015036028304077113 -0.0011313644668642562 0 0.0014651850450243342 -0.0011095977105133336 0 0.0016502972782790905 -0.0010988877967173978 0 0.001555017938127837 -0.0010776963141292625 0 0.0015036028304077113 -0.0011313644668642562 0 0.0044606962368332849 2.7624957468388255e-06 0 0.004675227780505194 -0.00012886904996274929 0 0.004464122152472912 -0.00021127125993020062 0 0.0046884953326539955 -0.00029984676113863171 0 0.004675227780505194 -0.00012886904996274929 0 0.004464122152472912 -0.00021127125993020062 0 0.0019322676485688732 -0.001238314112318318 0 0.0017546391816915161 -0.001224768080141214 0 0.0018426909635085008 -0.001204220371723989 0 0.0024224830055486792 -0.0011888089961341179 0 0.0023974587437959288 -0.0012928697845505806 0 0.0027034940078000946 -0.0013680092555430532 0 0.0046884953326539955 -0.00029984676113863171 0 0.004895590282743353 -0.00026688207678815604 0 0.004675227780505194 -0.00012886904996274929 0 0.0021687932738481196 -0.0012607029187155013 0 0.0021306774374148384 -0.0013080629153163984 0 0.0033490798358300658 -0.00066562357012248769 0 0.0038641227990951011 -0.00079656443169820728 0 0.0023974587437959288 -0.0012928697845505806 0 0.0027034940078000946 -0.0013680092555430532 0 0.0026929319650703964 -0.0014067058843724792 0 0.0018907479196875702 -0.0011976152457384673 0 0.0018409513434086862 -0.0011763284373876636 0 0.0018426909635085008 -0.001204220371723989 0 0.0010909949468548975 -0.0010234269530847433 0 0.001164350929930904 -0.00096833070226275142 0 0.00095362163223084752 -0.00095315152345378646 0 0.001164350929930904 -0.00096833070226275142 0 0.00095362163223084752 -0.00095315152345378646 0 0.0011277468879462335 -0.00071354614016048068 0 0.0044606962368332849 2.7624957468388255e-06 0 0.0044237688095125184 1.9452981118309554e-05 0 0.004464122152472912 -0.00021127125993020062 0 0.00078140804931142727 -0.00095169937311210769 0 0.0023175882644493355 -0.00070065165818717788 0 0.002823436726684335 -0.00097164016346170876 0 0.0023175882644493355 -0.00070065165818717788 0 0.0044237688095125184 1.9452981118309554e-05 0 0.004464122152472912 -0.00021127125993020062 0 0.0042441947423904874 -0.00023622365399684448 0 0.0023175882644493355 -0.00070065165818717788 0 0.0025590416309499587 -0.00051008022573271268 0 0.001164350929930904 -0.00096833070226275142 0 0.0011277468879462335 -0.00071354614016048068 0 0.0014196325773212146 -0.00083520007419380846 0 0.0016420829069284744 -0.00062477895332614186 0 0.0014196325773212146 -0.00083520007419380846 0 0.0016955465712697893 -0.00081912467516968791 0 0.0016420829069284744 -0.00062477895332614186 0 0.0011277468879462335 -0.00071354614016048068 0 0.0014196325773212146 -0.00083520007419380846 0 0.0014196325773212146 -0.00083520007419380846 0 0.0014612592107913164 -0.0009649290813657632 0 0.0016955465712697893 -0.00081912467516968791 0 0.001164350929930904 -0.00096833070226275142 0 0.0014196325773212146 -0.00083520007419380846 0 0.0014612592107913164 -0.0009649290813657632 0 0.001164350929930904 -0.00096833070226275142 0 0.0014612592107913164 -0.0009649290813657632 0 0.0011866732527460906 -0.0010123290230589215 0 0.0014612592107913164 -0.0009649290813657632 0 0.0017552421457058974 -0.00090542631430135044 0 0.0016955465712697893 -0.00081912467516968791 0 0.0014612592107913164 -0.0009649290813657632 0 0.0017552421457058974 -0.00090542631430135044 0 0.0017822006941601309 -0.0010565822620984165 0 0.0022337969498005417 -0.00074791306825893432 0 0.0018984024058863905 -0.00081734985647421207 0 0.0020635579937661832 -0.00077234373662854905 0 0.0022337969498005417 -0.00074791306825893432 0 0.0018984024058863905 -0.00081734985647421207 0 0.0016955465712697893 -0.00081912467516968791 0 0.0017552421457058974 -0.00090542631430135044 0 0.0018984024058863905 -0.00081734985647421207 0 0.0016955465712697893 -0.00081912467516968791 0 0.0017552421457058974 -0.00090542631430135044 0 0.0018984024058863905 -0.00081734985647421207 0 0.0020040648226926383 -0.00082748676050886151 0 0.0020846897138782346 -0.00076307446712045146 0 0.0020635579937661832 -0.00077234373662854905 0 0.0020040648226926383 -0.00082748676050886151 0 -0.002548747866860158 -0.00044724441206977936 0 -0.0025884910114772302 -8.8638449563130105e-05 0 -0.0023741676464580359 7.0432885313874937e-05 0 0.0011973766548781877 -0.0010073972002604215 0 -0.0001714148828400081 -0.00026288013407721586 0 -0.002548747866860158 -0.00044724441206977936 0 -0.0025884910114772302 -8.8638449563130105e-05 0 -0.0027669678590674664 -0.00015768083551681149 0 -0.0025884910114772302 -8.8638449563130105e-05 0 -0.0023741676464580359 7.0432885313874937e-05 0 -0.0026609639601020071 0.0001730923306694621 0 0.0018984024058863905 -0.00081734985647421207 0 0.0020635579937661832 -0.00077234373662854905 0 0.0020040648226926383 -0.00082748676050886151 0 -0.002548747866860158 -0.00044724441206977936 0 -0.0031226407426605696 -0.00021478351537423761 0 -0.0027669678590674664 -0.00015768083551681149 0 -0.0031226407426605696 -0.00021478351537423761 0 -0.0027669678590674664 -0.00015768083551681149 0 -0.0026609639601020071 0.0001730923306694621 0 -0.0030708798862057337 -0.00015645506287835203 0 -0.0033700368413558152 -0.00023553073914933006 0 -0.0025884910114772302 -8.8638449563130105e-05 0 -0.0027669678590674664 -0.00015768083551681149 0 -0.0026609639601020071 0.0001730923306694621 0 -0.0031226407426605696 -0.00021478351537423761 0 -0.003257681930702621 -0.00045468922417478896 0 -0.0036074040703598666 -0.00045015033415929905 0 -0.003257681930702621 -0.00045468922417478896 0 -0.0034478470246745107 -0.00066819748429755815 0 -0.0030865009702085696 -0.00072967974787964125 0 -0.0034478470246745107 -0.00066819748429755815 0 -0.0035268671941733332 -0.00092483780981627065 0 -0.0030865009702085696 -0.00072967974787964125 0 -0.003257681930702621 -0.00045468922417478896 0 -0.0036074040703598666 -0.00045015033415929905 0 -0.0034478470246745107 -0.00066819748429755815 0 -0.0001714148828400081 -0.00026288013407721586 0 -0.00099279760848619081 -0.00070456272599404152 0 -0.0036074040703598666 -0.00045015033415929905 0 -0.0034478470246745107 -0.00066819748429755815 0 -0.0040017243768970274 -0.00076695821365389773 0 -0.0023741676464580359 7.0432885313874937e-05 0 -0.0026609639601020071 0.0001730923306694621 0 -0.0022013219873107267 0.00056034677991677394 0 0.0017552421457058974 -0.00090542631430135044 0 0.0020040648226926383 -0.00082748676050886151 0 0.0017822006941601309 -0.0010565822620984165 0 -0.0033700368413558152 -0.00023553073914933006 0 -0.00099279760848619081 -0.00070456272599404152 0 -0.0034478470246745107 -0.00066819748429755815 0 -0.0040017243768970274 -0.00076695821365389773 0 -0.0035268671941733332 -0.00092483780981627065 0 -0.0040017243768970274 -0.00076695821365389773 0 -0.0038662994446887577 -0.0011287047788356922 0 -0.0035268671941733332 -0.00092483780981627065 0 -0.0040017243768970274 -0.00076695821365389773 0 -0.0038662994446887577 -0.0011287047788356922 0 -0.0041669652120265828 -0.0013106930190155577 0 -0.0038662994446887577 -0.0011287047788356922 0 -0.0035268671941733332 -0.00092483780981627065 0 -0.0035571658513999407 -0.0011934201040160854 0 -0.0035268671941733332 -0.00092483780981627065 0 -0.0035571658513999407 -0.0011934201040160854 0 -0.003241936121737855 -0.0010739086644232679 0 -0.0035571658513999407 -0.0011934201040160854 0 -0.003241936121737855 -0.0010739086644232679 0 -0.0032613879419606051 -0.0014700456969188574 0 -0.0039062651167071239 -0.0014288944426685656 0 -0.0035842070892812055 -0.0014344019794801008 0 -0.0035571658513999407 -0.0011934201040160854 0 -0.0039278997435074556 -0.0014295212258862242 0 -0.0032613879419606051 -0.0014700456969188574 0 -0.0038662994446887577 -0.0011287047788356922 0 -0.0039278997435074556 -0.0014295212258862242 0 -0.0041669652120265828 -0.0013106930190155577 0 -0.0039278997435074556 -0.0014295212258862242 0 -0.0041669652120265828 -0.0013106930190155577 0 -0.0040738947525348016 -0.0015332404343726049 0 -0.0038662994446887577 -0.0011287047788356922 0 -0.0035571658513999407 -0.0011934201040160854 0 -0.0039278997435074556 -0.0014295212258862242 0 0.00042357452016622874 -0.0012983236950731213 0 0.00045543370593424844 -0.00132163409977048 0 0.00046079893644351052 -0.0012903086585001971 0 0.00051073451853478249 -0.0012753960328590257 0 0.00045543370593424844 -0.00132163409977048 0 0.00046079893644351052 -0.0012903086585001971 0 0.00051073451853478249 -0.0012753960328590257 0 0.00098208020692923262 -0.0010873969790967974 0 0.0013161628303567203 -0.0011632807653788619 0 0.0004727750885542272 -0.0013270708180640586 0 0.0012019359441428829 -0.0011766267187184956 0 0.0014612592107913164 -0.0009649290813657632 0 0.0013161628303567203 -0.0011632807653788619 0 0.0011866732527460906 -0.0010123290230589215 0 0.00095167880820095079 -0.00098833484760427561 0 0.00098208020692923262 -0.0010873969790967974 0 0.0011866732527460906 -0.0010123290230589215 0 0.00098208020692923262 -0.0010873969790967974 0 0.0013161628303567203 -0.0011632807653788619 0 0.0011866732527460906 -0.0010123290230589215 0 0.00095167880820095079 -0.00098833484760427561 0 0.001164350929930904 -0.00096833070226275142 0 0.0011866732527460906 -0.0010123290230589215 0 -0.00099279760848619081 -0.00070456272599404152 0 -0.0019700931356090158 -0.0014052816083841868 0 -0.00099279760848619081 -0.00070456272599404152 0 0.0012019359441428829 -0.0011766267187184956 0 0.0014612592107913164 -0.0009649290813657632 0 0.0017822006941601309 -0.0010565822620984165 0 0.0013161628303567203 -0.0011632807653788619 0 0.00037003573477524228 -0.0013695580683764279 0 0.00042357452016622874 -0.0012983236950731213 0 0.00045543370593424844 -0.00132163409977048 0 -0.0023118209265315754 -0.00064668484441641593 0 -0.0021116974636817788 -0.00063446513326787706 0 -0.0022750628060650927 -0.00094766244361237605 0 -0.0023118209265315754 -0.00064668484441641593 0 -0.0021116974636817788 -0.00063446513326787706 0 -0.0022664466049794859 -0.00040763743536579271 0 -0.0018714468844245561 -0.00073295182583435622 0 0.001387640824680389 -0.00031676539044271748 0 0.0015326534663531342 -1.5544006427341287e-05 0 0.001387640824680389 -0.00031676539044271748 0 -0.0020038842964600753 -0.00046038419877063254 0 -0.0021116974636817788 -0.00063446513326787706 0 -0.0022664466049794859 -0.00040763743536579271 0 0.0049771953264151798 0.00019559885894494599 0 0.0048843434882314338 0.00046943190855847799 0 0.0051644726253762254 0.0003969869694908157 0 -0.0022577417262409356 -0.00035305160895234065 0 -0.0025396989813599043 -0.00051473886987997777 0 -0.0027149153559230025 -0.0002628522110683272 0 0.001387640824680389 -0.00031676539044271748 0 0.00091092504254576415 -0.00062039951306456294 0 0.0046572227519130257 -0.00069326289607355373 0 0.0047893644509614322 -0.00093637875148400347 0 0.0045203869753725409 -0.00090013842750688599 0 -0.0023118209265315754 -0.00064668484441641593 0 -0.0026280864542281728 -0.00078262553431523692 0 -0.0022750628060650927 -0.00094766244361237605 0 -0.0023118209265315754 -0.00064668484441641593 0 -0.0025396989813599043 -0.00051473886987997777 0 -0.0026280864542281728 -0.00078262553431523692 0 -0.0023118209265315754 -0.00064668484441641593 0 -0.0022577417262409356 -0.00035305160895234065 0 -0.0025396989813599043 -0.00051473886987997777 0 -0.0026280864542281728 -0.00078262553431523692 0 -0.0027823810765817917 -0.00051767030512269428 0 -0.0030865009702085696 -0.00072967974787964125 0 -0.0025396989813599043 -0.00051473886987997777 0 -0.0026280864542281728 -0.00078262553431523692 0 -0.0027823810765817917 -0.00051767030512269428 0 -0.0025396989813599043 -0.00051473886987997777 0 -0.0027823810765817917 -0.00051767030512269428 0 -0.0027149153559230025 -0.0002628522110683272 0 -0.0027823810765817917 -0.00051767030512269428 0 -0.0027149153559230025 -0.0002628522110683272 0 -0.0030308432280030471 -0.00041161070006607409 0 0.00035627806097930875 -0.00051548870936899143 0 0.00091092504254576415 -0.00062039951306456294 0 -0.0031802597823868371 -0.00023685563634233644 0 -0.0027149153559230025 -0.0002628522110683272 0 -0.0030308432280030471 -0.00041161070006607409 0 -0.0031802597823868371 -0.00023685563634233644 0 -0.0030308432280030471 -0.00041161070006607409 0 -0.0031398482503210163 -0.0003295300612595104 0 -0.0031802597823868371 -0.00023685563634233644 0 -0.0031226407426605696 -0.00021478351537423761 0 -0.0031398482503210163 -0.0003295300612595104 0 -0.003257681930702621 -0.00045468922417478896 0 -0.0030308432280030471 -0.00041161070006607409 0 -0.0031398482503210163 -0.0003295300612595104 0 -0.0031226407426605696 -0.00021478351537423761 0 -0.003257681930702621 -0.00045468922417478896 0 -0.0031398482503210163 -0.0003295300612595104 0 -0.003257681930702621 -0.00045468922417478896 0 -0.0030308432280030471 -0.00041161070006607409 0 -0.0030865009702085696 -0.00072967974787964125 0 -0.0027823810765817917 -0.00051767030512269428 0 -0.0030308432280030471 -0.00041161070006607409 0 -0.0030865009702085696 -0.00072967974787964125 0 -0.0030865009702085696 -0.00072967974787964125 0 -0.003241936121737855 -0.0010739086644232679 0 -0.0028746329080848987 -0.0010988188698114235 0 -0.0035268671941733332 -0.00092483780981627065 0 -0.0030865009702085696 -0.00072967974787964125 0 -0.003241936121737855 -0.0010739086644232679 0 -0.0032613879419606051 -0.0014700456969188574 0 -0.0028746329080848987 -0.0010988188698114235 0 -0.0027636212508243513 -0.0014489881078637063 0 -0.003241936121737855 -0.0010739086644232679 0 -0.0032613879419606051 -0.0014700456969188574 0 -0.0028746329080848987 -0.0010988188698114235 0 -0.0028746329080848987 -0.0010988188698114235 0 -0.0025867484007846362 -0.0010814068396106638 0 -0.0027636212508243513 -0.0014489881078637063 0 -0.0026280864542281728 -0.00078262553431523692 0 -0.0028746329080848987 -0.0010988188698114235 0 -0.0025867484007846362 -0.0010814068396106638 0 -0.0026280864542281728 -0.00078262553431523692 0 -0.0030865009702085696 -0.00072967974787964125 0 -0.0028746329080848987 -0.0010988188698114235 0 -0.0026280864542281728 -0.00078262553431523692 0 -0.0025867484007846362 -0.0010814068396106638 0 -0.0022750628060650927 -0.00094766244361237605 0 -0.0025867484007846362 -0.0010814068396106638 0 -0.0024252709927221785 -0.0012271847868326436 0 -0.0022750628060650927 -0.00094766244361237605 0 -0.0025867484007846362 -0.0010814068396106638 0 -0.0024252709927221785 -0.0012271847868326436 0 -0.0027636212508243513 -0.0014489881078637063 0 -0.0019639889072731562 -0.0010511721830791605 0 -0.0021954177922474754 -0.0012421515304041346 0 -0.0022750628060650927 -0.00094766244361237605 0 -0.0024252709927221785 -0.0012271847868326436 0 -0.0021954177922474754 -0.0012421515304041346 0 -0.0022750628060650927 -0.00094766244361237605 0 -0.0024252709927221785 -0.0012271847868326436 0 -0.0021954177922474754 -0.0012421515304041346 0 -0.0023544474611703744 -0.0014198861612239771 0 -0.0019639889072731562 -0.0010511721830791605 0 -0.002023160562908593 -0.00085845576592307284 0 -0.0022750628060650927 -0.00094766244361237605 0 -0.002023160562908593 -0.00085845576592307284 0 -0.0021116974636817788 -0.00063446513326787706 0 -0.0022750628060650927 -0.00094766244361237605 0 -0.0033140664427073934 -0.0017791266749383429 0 -0.003540274677322514 -0.0018109272083977645 0 -0.0040250077407967622 -0.0018146808498759549 0 -0.004052209683138506 -0.0018565601301259254 0 -0.0039506045022983929 -0.0018419216115510037 0 -0.0040752418534357642 -0.0018178108744721522 0 -0.0040250077407967622 -0.0018146808498759549 0 -0.0040573457617712532 -0.0017776505570925741 0 -0.0040752418534357642 -0.0018178108744721522 0 -0.0040250077407967622 -0.0018146808498759549 0 -0.004052209683138506 -0.0018565601301259254 0 -0.002064317165672938 -0.0014286637503073633 0 -0.0021954177922474754 -0.0012421515304041346 0 -0.0023544474611703744 -0.0014198861612239771 0 -0.002106556179079312 -0.0014183820111956047 0 -0.0026044818019215878 -0.0013628778905721325 0 -0.002064317165672938 -0.0014286637503073633 0 -0.0023583114242003108 -0.0016583294489234245 0 -0.0028602094727775075 -0.0012834984697810902 0 -0.0023583114242003108 -0.0016583294489234245 0 -0.0028602094727775075 -0.0012834984697810902 0 -0.0031938329567248055 -0.001817143959210383 0 -0.0026044818019215878 -0.0013628778905721325 0 -0.0031666738912761098 -0.0013759734332736567 0 -0.0028602094727775075 -0.0012834984697810902 0 -0.0031938329567248055 -0.001817143959210383 0 -0.00358607277534586 -0.0012931985735329435 0 -0.0024252709927221785 -0.0012271847868326436 0 -0.0023544474611703744 -0.0014198861612239771 0 -0.0027636212508243513 -0.0014489881078637063 0 -0.0040250077407967622 -0.0018146808498759549 0 -0.0039506045022983929 -0.0018419216115510037 0 -0.0039848072691973865 -0.0017764604681657966 0 -0.0039506045022983929 -0.0018419216115510037 0 -0.0038193516022072206 -0.0017942477538933738 0 -0.0039080423687296376 -0.0017772273169741287 0 -0.003540274677322514 -0.0018109272083977645 0 -0.0037980486524875454 -0.0018129667735478951 0 -0.0031938329567248055 -0.001817143959210383 0 -0.0038193516022072206 -0.0017942477538933738 0 -0.003624310076017402 -0.0016215049208311606 0 -0.0038193516022072206 -0.0017942477538933738 0 -0.003624310076017402 -0.0016215049208311606 0 -0.0038475647272727975 -0.00157466036911522 0 -0.003624310076017402 -0.0016215049208311606 0 -0.00358607277534586 -0.0012931985735329435 0 -0.0038475647272727975 -0.00157466036911522 0 -0.0031938329567248055 -0.001817143959210383 0 -0.003624310076017402 -0.0016215049208311606 0 -0.00358607277534586 -0.0012931985735329435 0 -0.0039055910494851516 -0.0014199810750017885 0 -0.00358607277534586 -0.0012931985735329435 0 -0.0038475647272727975 -0.00157466036911522 0 -0.0039055910494851516 -0.0014199810750017885 0 -0.0038475647272727975 -0.00157466036911522 0 -0.0039755571802174835 -0.0016569204185899356 0 -0.0035842070892812055 -0.0014344019794801008 0 -0.0031666738912761098 -0.0013759734332736567 0 -0.0038475647272727975 -0.00157466036911522 0 -0.0039145856027818574 -0.0017199940448558411 0 -0.0039755571802174835 -0.0016569204185899356 0 -0.0038193516022072206 -0.0017942477538933738 0 -0.0038475647272727975 -0.00157466036911522 0 -0.0039145856027818574 -0.0017199940448558411 0 -0.0039145856027818574 -0.0017199940448558411 0 -0.0039064428086440939 -0.0017810449781720218 0 -0.0039864139785592096 -0.0017808275343732605 0 -0.0038193516022072206 -0.0017942477538933738 0 -0.0039145856027818574 -0.0017199940448558411 0 -0.0039064428086440939 -0.0017810449781720218 0 -0.0038193516022072206 -0.0017942477538933738 0 -0.0039064428086440939 -0.0017810449781720218 0 -0.003871452645202497 -0.0017762574463747642 0 -0.0039064428086440939 -0.0017810449781720218 0 -0.0039953475702812994 -0.0018406926312296724 0 -0.003871452645202497 -0.0017762574463747642 0 -0.0039064428086440939 -0.0017810449781720218 0 -0.0039953475702812994 -0.0018406926312296724 0 -0.0039864139785592096 -0.0017808275343732605 0 -0.0039953475702812994 -0.0018406926312296724 0 -0.0039864139785592096 -0.0017808275343732605 0 -0.0040681288750120141 -0.0018471298806133514 0 -0.0039953475702812994 -0.0018406926312296724 0 -0.0039930197281328279 -0.0018827160466127119 0 -0.0040980394908672951 -0.0019192011192304822 0 -0.0039953475702812994 -0.0018406926312296724 0 -0.0041270941487325311 -0.0019117333693123512 0 -0.0040980394908672951 -0.0019192011192304822 0 -0.0039953475702812994 -0.0018406926312296724 0 -0.0039930197281328279 -0.0018827160466127119 0 -0.003871452645202497 -0.0017762574463747642 0 -0.0038471996770371515 -0.0016681670174391228 0 -0.003871452645202497 -0.0017762574463747642 0 -0.0039317302129382508 -0.0017184123526954706 0 -0.0039154662484013015 -0.0017171677443027623 0 -0.0038870402663599797 -0.0017831227787998122 0 -0.0038471996770371515 -0.0016681670174391228 0 -0.0039317302129382508 -0.0017184123526954706 0 -0.0039171554025048067 -0.0016128618128398043 0 -0.003871452645202497 -0.0017762574463747642 0 -0.0039080423687296376 -0.0017772273169741287 0 -0.0039317302129382508 -0.0017184123526954706 0 -0.0038193516022072206 -0.0017942477538933738 0 -0.003871452645202497 -0.0017762574463747642 0 -0.0039080423687296376 -0.0017772273169741287 0 -0.0039848072691973865 -0.0017764604681657966 0 -0.0039317302129382508 -0.0017184123526954706 0 -0.0040244718439745282 -0.001719329203352553 0 -0.0039506045022983929 -0.0018419216115510037 0 -0.0039080423687296376 -0.0017772273169741287 0 -0.0039848072691973865 -0.0017764604681657966 0 -0.0039080423687296376 -0.0017772273169741287 0 -0.0039848072691973865 -0.0017764604681657966 0 -0.0039317302129382508 -0.0017184123526954706 0 -0.0039886454881480496 -0.0016587561464512152 0 -0.0039317302129382508 -0.0017184123526954706 0 -0.0040244718439745282 -0.001719329203352553 0 -0.0039886454881480496 -0.0016587561464512152 0 -0.0039317302129382508 -0.0017184123526954706 0 -0.0039171554025048067 -0.0016128618128398043 0 -0.004087575603146279 -0.0016621799471761495 0 -0.0039886454881480496 -0.0016587561464512152 0 -0.0040244718439745282 -0.001719329203352553 0 -0.004087575603146279 -0.0016621799471761495 0 -0.0040957184651843033 -0.001732831941491863 0 -0.0040244718439745282 -0.001719329203352553 0 -0.0040957184651843033 -0.001732831941491863 0 -0.0040244718439745282 -0.001719329203352553 0 -0.0040573457617712532 -0.0017776505570925741 0 -0.0039848072691973865 -0.0017764604681657966 0 -0.0040244718439745282 -0.001719329203352553 0 -0.0040573457617712532 -0.0017776505570925741 0 -0.0040250077407967622 -0.0018146808498759549 0 -0.0039848072691973865 -0.0017764604681657966 0 -0.0040573457617712532 -0.0017776505570925741 0 -0.0042089906485318672 -0.0015953971801886148 0 -0.0040738947525348016 -0.0015332404343726049 0 -0.0041074455426794417 -0.0016826523397464831 0 -0.0042089906485318672 -0.0015953971801886148 0 -0.0041074455426794417 -0.0016826523397464831 0 -0.0042433140782713614 -0.0017589592348230133 0 0.00040011364687482075 -0.001338286839075299 0 0.00048387297229020244 -0.0013239161603787149 0 0.00044707211824703203 -0.0015871632735487383 0 0.00025798438999089781 -0.0014731833882881634 0 0.00040011364687482075 -0.001338286839075299 0 0.00044707211824703203 -0.0015871632735487383 0 -0.0018576607309803213 -0.0014372891194740904 0 -0.0018433827414047598 -0.0016937380726668437 0 0.00040011364687482075 -0.001338286839075299 0 0.00046079893644351052 -0.0012903086585001971 0 0.00048387297229020244 -0.0013239161603787149 0 0.00051073451853478249 -0.0012753960328590257 0 0.00040011364687482075 -0.001338286839075299 0 0.00046079893644351052 -0.0012903086585001971 0 -0.0041669652120265828 -0.0013106930190155577 0 -0.0042089906485318672 -0.0015953971801886148 0 -0.0040738947525348016 -0.0015332404343726049 0 0.00042357452016622874 -0.0012983236950731213 0 0.00046079893644351052 -0.0012903086585001971 0 0.00048387297229020244 -0.0013239161603787149 0 -0.0019700931356090158 -0.0014052816083841868 0 -0.0018576607309803213 -0.0014372891194740904 0 -0.0039278997435074556 -0.0014295212258862242 0 -0.0039997537903056005 -0.0015552181024886215 0 -0.0040738947525348016 -0.0015332404343726049 0 -0.0039278997435074556 -0.0014295212258862242 0 -0.0039055910494851516 -0.0014199810750017885 0 -0.0039997537903056005 -0.0015552181024886215 0 -0.0039055910494851516 -0.0014199810750017885 0 -0.0039997537903056005 -0.0015552181024886215 0 -0.0039755571802174835 -0.0016569204185899356 0 -0.0039145856027818574 -0.0017199940448558411 0 -0.0039755571802174835 -0.0016569204185899356 0 -0.0039864139785592096 -0.0017808275343732605 0 -0.0039997537903056005 -0.0015552181024886215 0 -0.0039755571802174835 -0.0016569204185899356 0 -0.0041074455426794417 -0.0016826523397464831 0 -0.0039997537903056005 -0.0015552181024886215 0 -0.0040738947525348016 -0.0015332404343726049 0 -0.0041074455426794417 -0.0016826523397464831 0 -0.0039755571802174835 -0.0016569204185899356 0 -0.0041074455426794417 -0.0016826523397464831 0 -0.0040833898938142767 -0.0017984527823861128 0 -0.0041074455426794417 -0.0016826523397464831 0 -0.0040833898938142767 -0.0017984527823861128 0 -0.0041737338028205112 -0.0018314366072613734 0 -0.0039755571802174835 -0.0016569204185899356 0 -0.0040833898938142767 -0.0017984527823861128 0 -0.0039864139785592096 -0.0017808275343732605 0 -0.0040833898938142767 -0.0017984527823861128 0 -0.0039864139785592096 -0.0017808275343732605 0 -0.0040681288750120141 -0.0018471298806133514 0 -0.0040833898938142767 -0.0017984527823861128 0 -0.0040681288750120141 -0.0018471298806133514 0 -0.0041356207944364589 -0.0018831135186126626 0 -0.0040681288750120141 -0.0018471298806133514 0 -0.0041356207944364589 -0.0018831135186126626 0 -0.0041270941487325311 -0.0019117333693123512 0 -0.0039953475702812994 -0.0018406926312296724 0 -0.0040681288750120141 -0.0018471298806133514 0 -0.0041270941487325311 -0.0019117333693123512 0 -0.0040833898938142767 -0.0017984527823861128 0 -0.0041356207944364589 -0.0018831135186126626 0 -0.0041737338028205112 -0.0018314366072613734 0 -0.0041356207944364589 -0.0018831135186126626 0 -0.0041737338028205112 -0.0018314366072613734 0 -0.0041927985606532115 -0.00190838676576844 0 -0.0041737338028205112 -0.0018314366072613734 0 -0.0042616636988949382 -0.001870765094901044 0 -0.0041927985606532115 -0.00190838676576844 0 -0.0041074455426794417 -0.0016826523397464831 0 -0.0041737338028205112 -0.0018314366072613734 0 -0.0042433140782713614 -0.0017589592348230133 0 0.00019929061046267393 -0.0016750815207932587 0 0.00025798438999089781 -0.0014731833882881634 0 0.00044707211824703203 -0.0015871632735487383 0 -0.0041737338028205112 -0.0018314366072613734 0 -0.0042433140782713614 -0.0017589592348230133 0 -0.0042616636988949382 -0.001870765094901044 0 -0.0018433827414047598 -0.0016937380726668437 0 -0.0025426330411297124 -0.0017867189763152928 0 0.00019929061046267393 -0.0016750815207932587 0 0.00044707211824703203 -0.0015871632735487383 0 0.00032550251092419301 -0.0020193770211355544 0 -0.0025426330411297124 -0.0017867189763152928 0 -0.0049812210638025848 -0.0018097358834220693 0 -0.0051589342100527491 -0.0018369750376313132 0 -0.0050818356254298353 -0.0020881791581068951 0 -0.0049862967545874111 -0.0019197934317442911 0 -0.0051589342100527491 -0.0018369750376313132 0 -0.0050818356254298353 -0.0020881791581068951 0 -0.0052550013490383993 -0.0021240328941238562 0 -0.0050818356254298353 -0.0020881791581068951 0 -0.0051457006333517933 -0.0022798041916267803 0 -0.0052550013490383993 -0.0021240328941238562 0 -0.0050818356254298353 -0.0020881791581068951 0 -0.0049337320066235582 -0.0020863932125738407 0 -0.0049862967545874111 -0.0019197934317442911 0 -0.0041356207944364589 -0.0018831135186126626 0 -0.0041927985606532115 -0.00190838676576844 0 -0.0041697995957323776 -0.0019420791095749463 0 -0.0049812210638025848 -0.0018097358834220693 0 -0.0043766788893587448 -0.0019888058241746467 0 -0.0041270941487325311 -0.0019117333693123512 0 -0.0041994852836586766 -0.0019577598747853504 0 -0.0041697995957323776 -0.0019420791095749463 0 -0.0041356207944364589 -0.0018831135186126626 0 -0.0041270941487325311 -0.0019117333693123512 0 -0.0041697995957323776 -0.0019420791095749463 0 -0.0041994852836586766 -0.0019577598747853504 0 -0.0041697995957323776 -0.0019420791095749463 0 -0.0043271529432664553 -0.002035220865240865 0 -0.0043766788893587448 -0.0019888058241746467 0 -0.0043527789197656619 -0.0020179684966520322 0 -0.0047645808231968267 -0.0019497833964040845 0 -0.0047868425103657266 -0.002197237267922311 0 -0.0043271529432664553 -0.002035220865240865 0 -0.0049337320066235582 -0.0020863932125738407 0 -0.0049862967545874111 -0.0019197934317442911 0 -0.0047645808231968267 -0.0019497833964040845 0 -0.0049337320066235582 -0.0020863932125738407 0 -0.0047645808231968267 -0.0019497833964040845 0 -0.0047868425103657266 -0.002197237267922311 0 -0.0047868425103657266 -0.002197237267922311 0 -0.0048817589748664002 -0.0024095261621054375 0 -0.0050108197950439635 -0.0023061519511190847 0 -0.0047868425103657266 -0.002197237267922311 0 -0.0046229293620959865 -0.002347392508379462 0 -0.0048817589748664002 -0.0024095261621054375 0 -0.0049337320066235582 -0.0020863932125738407 0 -0.0047868425103657266 -0.002197237267922311 0 -0.0050108197950439635 -0.0023061519511190847 0 -0.0047868425103657266 -0.002197237267922311 0 -0.0046229293620959865 -0.002347392508379462 0 -0.0043271529432664553 -0.002035220865240865 0 -0.0046229293620959865 -0.002347392508379462 0 -0.0047789986800020499 -0.0024654263041835457 0 -0.0048817589748664002 -0.0024095261621054375 0 -0.0046229293620959865 -0.002347392508379462 0 -0.0047789986800020499 -0.0024654263041835457 0 -0.0046510882261134182 -0.0025441236373895592 0 -0.0047789986800020499 -0.0024654263041835457 0 -0.0046510882261134182 -0.0025441236373895592 0 -0.0049349806141554169 -0.0026013595247459651 0 -0.0046229293620959865 -0.002347392508379462 0 -0.0046510882261134182 -0.0025441236373895592 0 -0.0045080255448377978 -0.0024327256996931525 0 -0.0048817589748664002 -0.0024095261621054375 0 -0.0050009927123991381 -0.0024924240244579886 0 -0.0049349806141554169 -0.0026013595247459651 0 -0.0047789986800020499 -0.0024654263041835457 0 -0.0048817589748664002 -0.0024095261621054375 0 -0.0049349806141554169 -0.0026013595247459651 0 -0.0048817589748664002 -0.0024095261621054375 0 -0.0050009927123991381 -0.0024924240244579886 0 -0.0050108197950439635 -0.0023061519511190847 0 -0.0050009927123991381 -0.0024924240244579886 0 -0.005119177404664367 -0.0024564994414615509 0 -0.0050108197950439635 -0.0023061519511190847 0 -0.005119177404664367 -0.0024564994414615509 0 -0.0051457006333517933 -0.0022798041916267803 0 -0.0050108197950439635 -0.0023061519511190847 0 -0.005119177404664367 -0.0024564994414615509 0 -0.0051457006333517933 -0.0022798041916267803 0 -0.0053026778390251926 -0.0024134887737060151 0 -0.0050818356254298353 -0.0020881791581068951 0 -0.0051457006333517933 -0.0022798041916267803 0 -0.0050108197950439635 -0.0023061519511190847 0 -0.0050818356254298353 -0.0020881791581068951 0 -0.0049337320066235582 -0.0020863932125738407 0 -0.0050108197950439635 -0.0023061519511190847 0 -0.0040949315008702459 -0.0014142496029105678 0 -0.0040789589461301947 -0.0014389475387431585 0 -0.0039530191763275718 -0.0015145875373972122 0 -0.0043779538533316306 -0.0024846782735939428 0 -0.0043187121440763721 -0.0024967145486841972 0 -0.0043447246453152425 -0.0024773595848200697 0 -0.0044435181744676014 -0.0018361351394064879 0 -0.0040769981217818494 -0.0020253210143659677 0 -0.0040789589461301947 -0.0014389475387431585 0 -0.0040322525413174484 -0.0015867751979767644 0 -0.0039530191763275718 -0.0015145875373972122 0 -0.0041005613083412518 -0.0015269315082601384 0 -0.0040789589461301947 -0.0014389475387431585 0 -0.0040322525413174484 -0.0015867751979767644 0 -0.004087575603146279 -0.0016621799471761495 0 -0.0041694825476860427 -0.0015945182371944441 0 -0.0040322525413174484 -0.0015867751979767644 0 -0.004087575603146279 -0.0016621799471761495 0 -0.0039886454881480496 -0.0016587561464512152 0 -0.0040322525413174484 -0.0015867751979767644 0 -0.0040322525413174484 -0.0015867751979767644 0 -0.0039171554025048067 -0.0016128618128398043 0 -0.0039530191763275718 -0.0015145875373972122 0 -0.0039886454881480496 -0.0016587561464512152 0 -0.0040322525413174484 -0.0015867751979767644 0 -0.0039171554025048067 -0.0016128618128398043 0 -0.0043187121440763721 -0.0024967145486841972 0 -0.0042988730909830951 -0.0024849592619066224 0 -0.0043039949956515848 -0.0024739884430486992 0 -0.0042988730909830951 -0.0024849592619066224 0 -0.0042847435052227436 -0.0024973949545975781 0 -0.0042876128376485448 -0.0024732237472064153 0 -0.0039171554025048067 -0.0016128618128398043 0 -0.0039530191763275718 -0.0015145875373972122 0 -0.003837937911420944 -0.0015702697228174372 0 -0.0040769981217818494 -0.0020253210143659677 0 -0.0041523768389521796 -0.0020171202690862362 0 -0.0041523768389521796 -0.0020171202690862362 0 -0.0042379663216230382 -0.0023609021503972483 0 -0.0043187121440763721 -0.0024967145486841972 0 -0.0042988730909830951 -0.0024849592619066224 0 -0.0042847435052227436 -0.0024973949545975781 0 -0.0041523768389521796 -0.0020171202690862362 0 -0.0041489703955872393 -0.0020163409217440515 0 -0.0038471996770371515 -0.0016681670174391228 0 -0.0039171554025048067 -0.0016128618128398043 0 -0.003837937911420944 -0.0015702697228174372 0 -0.0039930197281328279 -0.0018827160466127119 0 -0.004098327325499306 -0.0019552512893205544 0 -0.0041035140513734922 -0.0019533873143909542 0 -0.0039154662484013015 -0.0017171677443027623 0 -0.0041523768389521796 -0.0020171202690862362 0 -0.0041035140513734922 -0.0019533873143909542 0 -0.0040980394908672951 -0.0019192011192304822 0 -0.0041726022308507856 -0.0019803892136461307 0 -0.0039930197281328279 -0.0018827160466127119 0 -0.0041035140513734922 -0.0019533873143909542 0 -0.0040980394908672951 -0.0019192011192304822 0 -0.0041270941487325311 -0.0019117333693123512 0 -0.0041994852836586766 -0.0019577598747853504 0 -0.0040980394908672951 -0.0019192011192304822 0 -0.0041994852836586766 -0.0019577598747853504 0 -0.0040980394908672951 -0.0019192011192304822 0 -0.0041726022308507856 -0.0019803892136461307 0 -0.0041994852836586766 -0.0019577598747853504 0 -0.0041726022308507856 -0.0019803892136461307 0 -0.0043271529432664553 -0.002035220865240865 0 -0.0040943166060308693 -0.0019511656544415916 0 -0.0041893483414778632 -0.0020311209502257709 0 -0.0041729074676850877 -0.0021654711118633593 0 -0.0040943166060308693 -0.0019511656544415916 0 -0.0041726022308507856 -0.0019803892136461307 0 -0.0041893483414778632 -0.0020311209502257709 0 -0.0040943166060308693 -0.0019511656544415916 0 -0.0041035140513734922 -0.0019533873143909542 0 -0.0041726022308507856 -0.0019803892136461307 0 -0.0041893483414778632 -0.0020311209502257709 0 -0.0043271529432664553 -0.002035220865240865 0 -0.0041729074676850877 -0.0021654711118633593 0 -0.0041726022308507856 -0.0019803892136461307 0 -0.0041893483414778632 -0.0020311209502257709 0 -0.0043271529432664553 -0.002035220865240865 0 -0.0046229293620959865 -0.002347392508379462 0 -0.0043271529432664553 -0.002035220865240865 0 -0.004381311918221528 -0.0023359939668906736 0 -0.0043271529432664553 -0.002035220865240865 0 -0.004381311918221528 -0.0023359939668906736 0 -0.0041729074676850877 -0.0021654711118633593 0 -0.004381311918221528 -0.0023359939668906736 0 -0.0043023489789934342 -0.0024803653792441573 0 -0.0041729074676850877 -0.0021654711118633593 0 -0.0046229293620959865 -0.002347392508379462 0 -0.004381311918221528 -0.0023359939668906736 0 -0.0045080255448377978 -0.0024327256996931525 0 -0.004381311918221528 -0.0023359939668906736 0 -0.0045080255448377978 -0.0024327256996931525 0 -0.0043662143726422844 -0.0025179620078117112 0 -0.0046510882261134182 -0.0025441236373895592 0 -0.0045080255448377978 -0.0024327256996931525 0 -0.0043662143726422844 -0.0025179620078117112 0 -0.004381311918221528 -0.0023359939668906736 0 -0.0043662143726422844 -0.0025179620078117112 0 -0.0043023489789934342 -0.0024803653792441573 0 -0.0043023489789934342 -0.0024803653792441573 0 -0.0042772426897130797 -0.0024710261583216807 0 -0.0043738096544764238 -0.0025837085938859661 0 -0.0042906629853740816 -0.0024721234908921422 0 -0.0043023489789934342 -0.0024803653792441573 0 -0.0042772426897130797 -0.0024710261583216807 0 -0.0042906629853740816 -0.0024721234908921422 0 -0.0043023489789934342 -0.0024803653792441573 0 -0.0042876128376485448 -0.0024732237472064153 0 -0.0042906629853740816 -0.0024721234908921422 0 -0.0042772426897130797 -0.0024710261583216807 0 -0.0043039949956515848 -0.0024739884430486992 0 -0.004282766192141952 -0.0024429231642407231 0 -0.0042379663216230382 -0.0023609021503972483 0 -0.0042988730909830951 -0.0024849592619066224 0 -0.0042876128376485448 -0.0024732237472064153 0 -0.0043039949956515848 -0.0024739884430486992 0 -0.0042906629853740816 -0.0024721234908921422 0 -0.0042876128376485448 -0.0024732237472064153 0 -0.0043039949956515848 -0.0024739884430486992 0 -0.0043039949956515848 -0.0024739884430486992 0 -0.0043447246453152425 -0.0024773595848200697 0 -0.0043361312461202839 -0.0024581961485945357 0 -0.0043187121440763721 -0.0024967145486841972 0 -0.0043039949956515848 -0.0024739884430486992 0 -0.0043447246453152425 -0.0024773595848200697 0 -0.0064655844018967892 -0.0020526332138969109 0 -0.0066271071049862455 -0.0021449753678196301 0 -0.0066441156255365079 -0.0019356971738213821 0 -0.0054137947443443028 -0.0022356893305974209 0 -0.0055307028383408336 -0.0023805086792833647 0 -0.0042772426897130797 -0.0024710261583216807 0 -0.0043039949956515848 -0.0024739884430486992 0 -0.0043361312461202839 -0.0024581961485945357 0 -0.0067715565576943696 -0.0020062777363976684 0 -0.0066271071049862455 -0.0021449753678196301 0 -0.0066441156255365079 -0.0019356971738213821 0 -0.0067715565576943696 -0.0020062777363976684 0 -0.0067891166487559053 -0.0022391605386178717 0 -0.0066271071049862455 -0.0021449753678196301 0 -0.00543570532048856 -0.0017895410870335908 0 -0.0055307028383408336 -0.0023805086792833647 0 -0.0043902677331985867 -0.0024718016896832086 0 -0.0043779538533316306 -0.0024846782735939428 0 -0.0043447246453152425 -0.0024773595848200697 0 -0.0043902677331985867 -0.0024718016896832086 0 -0.0043447246453152425 -0.0024773595848200697 0 -0.0043361312461202839 -0.0024581961485945357 0 -0.0067273776690382923 -0.0017892187229167989 0 -0.0066441156255365079 -0.0019356971738213821 0 -0.0066086603054320587 -0.0017996610562522896 0 -0.0067958179690196813 -0.0018818791134558917 0 -0.0067273776690382923 -0.0017892187229167989 0 -0.0066441156255365079 -0.0019356971738213821 0 -0.0067958179690196813 -0.0018818791134558917 0 -0.0067715565576943696 -0.0020062777363976684 0 -0.0066441156255365079 -0.0019356971738213821 0 -0.0064655844018967892 -0.0020526332138969109 0 -0.0066441156255365079 -0.0019356971738213821 0 -0.0065076434380139997 -0.001863386340856894 0 -0.0066086603054320587 -0.0017996610562522896 0 -0.0065076434380139997 -0.001863386340856894 0 -0.0065099348583869008 -0.0017321911429123795 0 -0.0066441156255365079 -0.0019356971738213821 0 -0.0066086603054320587 -0.0017996610562522896 0 -0.0065076434380139997 -0.001863386340856894 0 -0.0065076434380139997 -0.001863386340856894 0 -0.0063721820104319258 -0.0018377830707557805 0 -0.0065099348583869008 -0.0017321911429123795 0 -0.0054137947443443028 -0.0022356893305974209 0 -0.0049795449908160549 -0.0025641655417588589 0 -0.0064655844018967892 -0.0020526332138969109 0 -0.0065076434380139997 -0.001863386340856894 0 -0.0063721820104319258 -0.0018377830707557805 0 -0.0064655844018967892 -0.0020526332138969109 0 -0.0063057773081287285 -0.0019632909222685002 0 -0.0063721820104319258 -0.0018377830707557805 0 -0.0043662143726422844 -0.0025179620078117112 0 -0.0043023489789934342 -0.0024803653792441573 0 -0.0043738096544764238 -0.0025837085938859661 0 -0.0046510882261134182 -0.0025441236373895592 0 -0.0043662143726422844 -0.0025179620078117112 0 -0.0044531921870616257 -0.0027211819922854799 0 -0.0046008334672402772 -0.002472774801998247 0 -0.0049795449908160549 -0.0025641655417588589 0 -0.0049795449908160549 -0.0025641655417588589 0 -0.0046845074844437395 -0.0026913613927497951 0 -0.0049795449908160549 -0.0025641655417588589 0 -0.0055365148591170962 -0.0023227680647098588 0 -0.0063057773081287285 -0.0019632909222685002 0 -0.0063721820104319258 -0.0018377830707557805 0 -0.0062534989321240096 -0.0017698636936124435 0 -0.0045194790170918608 -0.002727132351264054 0 -0.0047412180348056655 -0.0028414176707586866 0 -0.0048477765961027538 -0.0032343418998616136 0 -0.0063721820104319258 -0.0018377830707557805 0 -0.006384580710734368 -0.0016390716464976093 0 -0.0062534989321240096 -0.0017698636936124435 0 -0.006384580710734368 -0.0016390716464976093 0 -0.0063016944468617048 -0.0015954769148336665 0 -0.0062534989321240096 -0.0017698636936124435 0 -0.0064031497675875919 -0.0015022929548177909 0 -0.006384580710734368 -0.0016390716464976093 0 -0.0063016944468617048 -0.0015954769148336665 0 -0.006384580710734368 -0.0016390716464976093 0 -0.0065099348583869008 -0.0017321911429123795 0 -0.0065524227652680716 -0.001578543173998221 0 -0.0064031497675875919 -0.0015022929548177909 0 -0.006384580710734368 -0.0016390716464976093 0 -0.0065524227652680716 -0.001578543173998221 0 -0.0063721820104319258 -0.0018377830707557805 0 -0.006384580710734368 -0.0016390716464976093 0 -0.0065099348583869008 -0.0017321911429123795 0 -0.0065099348583869008 -0.0017321911429123795 0 -0.0066448538213222108 -0.001668107285973728 0 -0.0065524227652680716 -0.001578543173998221 0 -0.0066086603054320587 -0.0017996610562522896 0 -0.0065099348583869008 -0.0017321911429123795 0 -0.0066448538213222108 -0.001668107285973728 0 -0.0067102270560016443 -0.0015165639833534536 0 -0.0066448538213222108 -0.001668107285973728 0 -0.0065524227652680716 -0.001578543173998221 0 -0.0067866668059401707 -0.0016270324152439042 0 -0.0067102270560016443 -0.0015165639833534536 0 -0.0066448538213222108 -0.001668107285973728 0 -0.0067866668059401707 -0.0016270324152439042 0 -0.0067993275281606046 -0.0015276238172509708 0 -0.0067102270560016443 -0.0015165639833534536 0 -0.0067273776690382923 -0.0017892187229167989 0 -0.0066086603054320587 -0.0017996610562522896 0 -0.0066448538213222108 -0.001668107285973728 0 -0.0067866668059401707 -0.0016270324152439042 0 -0.0067273776690382923 -0.0017892187229167989 0 -0.0066448538213222108 -0.001668107285973728 0 -0.0056435575730577519 -0.0030941745089891441 0 -0.0052140374385261107 -0.0031175510733115375 0 -0.0055358420695614747 -0.0034108205017659037 0 -0.005051519824348206 -0.0026108611623694958 0 -0.0052240507946513205 -0.0027075672914601795 0 -0.0052063999165884358 -0.0025602789729987649 0 -0.0052811798312206257 -0.0028406386702718666 0 -0.0056491286915705636 -0.0030999078686693242 0 -0.005119177404664367 -0.0024564994414615509 0 -0.005051519824348206 -0.0026108611623694958 0 -0.0052063999165884358 -0.0025602789729987649 0 -0.0050009927123991381 -0.0024924240244579886 0 -0.005119177404664367 -0.0024564994414615509 0 -0.005051519824348206 -0.0026108611623694958 0 -0.0052811798312206257 -0.0028406386702718666 0 -0.0049716138596487365 -0.0026171489967047692 0 -0.0050009927123991381 -0.0024924240244579886 0 -0.005051519824348206 -0.0026108611623694958 0 -0.0049349806141554169 -0.0026013595247459651 0 -0.0049349806141554169 -0.0026013595247459651 0 -0.0047412180348056655 -0.0028414176707586866 0 -0.0052140374385261107 -0.0031175510733115375 0 -0.0046510882261134182 -0.0025441236373895592 0 -0.0044531921870616257 -0.0027211819922854799 0 -0.0047412180348056655 -0.0028414176707586866 0 -0.0046510882261134182 -0.0025441236373895592 0 -0.0049349806141554169 -0.0026013595247459651 0 -0.0047412180348056655 -0.0028414176707586866 0 -0.0047412180348056655 -0.0028414176707586866 0 -0.0052140374385261107 -0.0031175510733115375 0 -0.0048477765961027538 -0.0032343418998616136 0 -0.0056435575730577519 -0.0030941745089891441 0 -0.0049349806141554169 -0.0026013595247459651 0 -0.0052140374385261107 -0.0031175510733115375 0 -0.0052140374385261107 -0.0031175510733115375 0 -0.00538864784583468 -0.0035219336695285295 0 -0.0055358420695614747 -0.0034108205017659037 0 -0.0048477765961027538 -0.0032343418998616136 0 -0.0051996244984656229 -0.0038034151824540225 0 -0.00538864784583468 -0.0035219336695285295 0 -0.0055365148591170962 -0.0023227680647098588 0 -0.006041148861688452 -0.0033225040170686954 0 -0.0052140374385261107 -0.0031175510733115375 0 -0.0048477765961027538 -0.0032343418998616136 0 -0.00538864784583468 -0.0035219336695285295 0 -0.0063016944468617048 -0.0015954769148336665 0 -0.0062534989321240096 -0.0017698636936124435 0 -0.0061983841584237502 -0.0015829609688768392 0 -0.006041148861688452 -0.0033225040170686954 0 -0.0053916632979589514 -0.0037111207622123493 0 -0.0062706132636413895 -0.0014779326242262262 0 -0.0063016944468617048 -0.0015954769148336665 0 -0.0061983841584237502 -0.0015829609688768392 0 -0.0056033105727430234 -0.0035642732976930006 0 -0.0055956854969986701 -0.003537418934326823 0 -0.00538864784583468 -0.0035219336695285295 0 -0.0055956854969986701 -0.003537418934326823 0 -0.00538864784583468 -0.0035219336695285295 0 -0.0055358420695614747 -0.0034108205017659037 0 -0.0055956854969986701 -0.003537418934326823 0 -0.0056261866126427959 -0.0034750039301601615 0 -0.0055358420695614747 -0.0034108205017659037 0 -0.0056435575730577519 -0.0030941745089891441 0 -0.0055358420695614747 -0.0034108205017659037 0 -0.0056821166493283524 -0.0034202628397071526 0 -0.0056261866126427959 -0.0034750039301601615 0 -0.0055358420695614747 -0.0034108205017659037 0 -0.0056821166493283524 -0.0034202628397071526 0 -0.0056821166493283524 -0.0034202628397071526 0 -0.0056757524783838534 -0.0034337372544408292 0 -0.005701108150097587 -0.0034751966548558239 0 -0.0056435575730577519 -0.0030941745089891441 0 -0.0056821166493283524 -0.0034202628397071526 0 -0.005701108150097587 -0.0034751966548558239 0 -0.0056261866126427959 -0.0034750039301601615 0 -0.0056821166493283524 -0.0034202628397071526 0 -0.0057234743576469833 -0.0033852725170795419 0 -0.0056591676644724299 -0.003467133478721443 0 -0.0056261866126427959 -0.0034750039301601615 0 -0.0057234743576469833 -0.0033852725170795419 0 -0.0056821166493283524 -0.0034202628397071526 0 -0.0057234743576469833 -0.0033852725170795419 0 -0.0056757524783838534 -0.0034337372544408292 0 -0.0055527848381271326 -0.0032806717987095089 0 -0.0057234743576469833 -0.0033852725170795419 0 -0.005558711236596587 -0.0034175460556011188 0 -0.0055527848381271326 -0.0032806717987095089 0 -0.005558711236596587 -0.0034175460556011188 0 -0.0053751156161373007 -0.0033357055551032242 0 -0.0057234743576469833 -0.0033852725170795419 0 -0.005558711236596587 -0.0034175460556011188 0 -0.0056757524783838534 -0.0034337372544408292 0 -0.0050975387162005056 -0.0032024795085942577 0 -0.005190470705162706 -0.0033839353712006586 0 -0.0053751156161373007 -0.0033357055551032242 0 -0.005190470705162706 -0.0033839353712006586 0 -0.005230701552600847 -0.0034936794505828791 0 -0.0050989516345983496 -0.003453968141576445 0 -0.005190470705162706 -0.0033839353712006586 0 -0.0052996063486019009 -0.0034177341261130458 0 -0.005230701552600847 -0.0034936794505828791 0 -0.005190470705162706 -0.0033839353712006586 0 -0.0052996063486019009 -0.0034177341261130458 0 -0.0053751156161373007 -0.0033357055551032242 0 -0.0052996063486019009 -0.0034177341261130458 0 -0.0053751156161373007 -0.0033357055551032242 0 -0.0053972512487696165 -0.003477853082788022 0 -0.005558711236596587 -0.0034175460556011188 0 -0.0053751156161373007 -0.0033357055551032242 0 -0.0053972512487696165 -0.003477853082788022 0 -0.0053972512487696165 -0.003477853082788022 0 -0.005230701552600847 -0.0034936794505828791 0 -0.0051667445224867796 -0.0036010812938692383 0 -0.0052996063486019009 -0.0034177341261130458 0 -0.0053972512487696165 -0.003477853082788022 0 -0.005230701552600847 -0.0034936794505828791 0 -0.005230701552600847 -0.0034936794505828791 0 -0.0051637514430392193 -0.0035344520622357313 0 -0.0051667445224867796 -0.0036010812938692383 0 -0.005230701552600847 -0.0034936794505828791 0 -0.0051637514430392193 -0.0035344520622357313 0 -0.0050989516345983496 -0.003453968141576445 0 -0.0053972512487696165 -0.003477853082788022 0 -0.005701108150097587 -0.0034751966548558239 0 -0.0051667445224867796 -0.0036010812938692383 0 -0.0032152403973817602 -0.0030193723391184193 0 -0.0042613027243065798 -0.0033127257476110524 0 -0.0052240507946513205 -0.0027075672914601795 0 -0.005325971035465389 -0.0026263557576588713 0 -0.0053576699416178954 -0.0027987299303261826 0 -0.0056491286915705636 -0.0030999078686693242 0 -0.0042613027243065798 -0.0033127257476110524 0 -0.005558711236596587 -0.0034175460556011188 0 -0.0056757524783838534 -0.0034337372544408292 0 -0.005701108150097587 -0.0034751966548558239 0 -0.005558711236596587 -0.0034175460556011188 0 -0.0053972512487696165 -0.003477853082788022 0 -0.005701108150097587 -0.0034751966548558239 0 -0.0052240507946513205 -0.0027075672914601795 0 -0.005325971035465389 -0.0026263557576588713 0 -0.0052063999165884358 -0.0025602789729987649 0 -0.0013313794808301979 -0.0034022232920800114 0 -0.0010065817939803687 -0.0026041151461316005 0 -0.0015779761695466062 -0.0028264694778457316 0 -0.0032152403973817602 -0.0030193723391184193 0 -0.0031650735975944648 -0.0025053991348211457 0 -0.005119177404664367 -0.0024564994414615509 0 -0.0052063999165884358 -0.0025602789729987649 0 -0.0053026778390251926 -0.0024134887737060151 0 -0.005325971035465389 -0.0026263557576588713 0 -0.0052063999165884358 -0.0025602789729987649 0 -0.0053026778390251926 -0.0024134887737060151 0 -0.0022949924536475319 -0.0026922260279652532 0 -0.0025725404269109839 -0.0031312253721427629 0 -0.0020603446213634862 -0.0028555593294462443 0 -0.0017902887840424504 -0.0032519217914888034 0 -0.0022370706857364237 -0.0034863942042577911 0 -0.00257907774078487 -0.0025904122245426365 0 -0.0029177155269217788 -0.0027905947417001488 0 -0.003056008320770208 -0.0026728727063519862 0 -0.0013313794808301979 -0.0034022232920800114 0 -0.0017902887840424504 -0.0032519217914888034 0 -0.0015779761695466062 -0.0028264694778457316 0 -0.0020603446213634862 -0.0028555593294462443 0 -0.0017902887840424504 -0.0032519217914888034 0 -0.0015779761695466062 -0.0028264694778457316 0 -0.0013313794808301979 -0.0034022232920800114 0 -0.0017902887840424504 -0.0032519217914888034 0 -0.0017935576950326435 -0.0036420164619654864 0 -0.0017902887840424504 -0.0032519217914888034 0 -0.0017935576950326435 -0.0036420164619654864 0 -0.0022370706857364237 -0.0034863942042577911 0 -0.0017935576950326435 -0.0036420164619654864 0 -0.0022370706857364237 -0.0034863942042577911 0 -0.0020088736450383855 -0.0039478058231257451 0 -0.0025725404269109839 -0.0031312253721427629 0 -0.0027933474889179181 -0.0035043414808985682 0 -0.0022370706857364237 -0.0034863942042577911 0 -0.0020088736450383855 -0.0039478058231257451 0 -0.0024128070508988675 -0.0040697638491739626 0 -0.0017935576950326435 -0.0036420164619654864 0 -0.0020088736450383855 -0.0039478058231257451 0 -0.0016113397129739028 -0.0041044361445981463 0 -0.0013313794808301979 -0.0034022232920800114 0 -0.0017935576950326435 -0.0036420164619654864 0 -0.0016113397129739028 -0.0041044361445981463 0 -0.0042613027243065798 -0.0033127257476110524 0 -0.0031500519273164082 -0.0039067952884351866 0 -0.0051667445224867796 -0.0036010812938692383 0 -0.0048044456460584473 -0.0033600419310111729 0 -0.0044157631483538809 -0.0034303331496440301 0 -0.0020088736450383855 -0.0039478058231257451 0 -0.0016113397129739028 -0.0041044361445981463 0 -0.0021081977450154716 -0.0043684674205247036 0 -0.0051637514430392193 -0.0035344520622357313 0 -0.0051667445224867796 -0.0036010812938692383 0 -0.0050989516345983496 -0.003453968141576445 0 -0.0050975387162005056 -0.0032024795085942577 0 -0.0048044456460584473 -0.0033600419310111729 0 -0.0050511205937089267 -0.0033513503315453683 0 -0.0051667445224867796 -0.0036010812938692383 0 -0.0048044456460584473 -0.0033600419310111729 0 -0.0050989516345983496 -0.003453968141576445 0 -0.0048044456460584473 -0.0033600419310111729 0 -0.0050511205937089267 -0.0033513503315453683 0 -0.0050989516345983496 -0.003453968141576445 0 -0.0050975387162005056 -0.0032024795085942577 0 -0.005190470705162706 -0.0033839353712006586 0 -0.0050511205937089267 -0.0033513503315453683 0 -0.005190470705162706 -0.0033839353712006586 0 -0.0050511205937089267 -0.0033513503315453683 0 -0.0050989516345983496 -0.003453968141576445 0 -0.0020088736450383855 -0.0039478058231257451 0 -0.0021081977450154716 -0.0043684674205247036 0 -0.0024128070508988675 -0.0040697638491739626 0 -0.0025889009100899165 -0.0046267882503417974 0 -0.0021081977450154716 -0.0043684674205247036 0 -0.0024128070508988675 -0.0040697638491739626 0 -0.0030155014880457525 -0.0038238990263657372 0 -0.0027933474889179181 -0.0035043414808985682 0 -0.0034905851292194212 -0.0030547954389018432 0 -0.0031665598109600866 -0.0029651732872438626 0 -0.0033385987989725803 -0.0030084766319735706 0 -0.0031665598109600866 -0.0029651732872438626 0 -0.0033197029823581765 -0.0029591430843855897 0 -0.0033385987989725803 -0.0030084766319735706 0 -0.0033197029823581765 -0.0029591430843855897 0 -0.0033385987989725803 -0.0030084766319735706 0 -0.0033646825501813266 -0.0030031622586960999 0 -0.0034453387767750228 -0.0030410665651425216 0 -0.0033385987989725803 -0.0030084766319735706 0 -0.0033931311124460965 -0.0030286232232806256 0 -0.0033385987989725803 -0.0030084766319735706 0 -0.0033931311124460965 -0.0030286232232806256 0 -0.0033646825501813266 -0.0030031622586960999 0 -0.0033886077903381709 -0.0030251838855557905 0 -0.0033708396460923711 -0.0029847833827418655 0 -0.0034243835316746002 -0.0029665620592052543 0 -0.0033931311124460965 -0.0030286232232806256 0 -0.0033886077903381709 -0.0030251838855557905 0 -0.0033646825501813266 -0.0030031622586960999 0 -0.0033886077903381709 -0.0030251838855557905 0 -0.0033646825501813266 -0.0030031622586960999 0 -0.0033708396460923711 -0.0029847833827418655 0 -0.0034058869919861151 -0.0030281705253293214 0 -0.0033886077903381709 -0.0030251838855557905 0 -0.0034243835316746002 -0.0029665620592052543 0 -0.0034058869919861151 -0.0030281705253293214 0 -0.0034243835316746002 -0.0029665620592052543 0 -0.0034793806883699841 -0.0029898682776223514 0 -0.0034243835316746002 -0.0029665620592052543 0 -0.0033804643107327157 -0.0029445579478401393 0 -0.0034327520674442892 -0.0028873750676136167 0 -0.0034243835316746002 -0.0029665620592052543 0 -0.0034327520674442892 -0.0028873750676136167 0 -0.0034805385160970332 -0.0029083369641790201 0 -0.0033197029823581765 -0.0029591430843855897 0 -0.0033804643107327157 -0.0029445579478401393 0 -0.0033483770739661709 -0.0029027916798714235 0 -0.0033708396460923711 -0.0029847833827418655 0 -0.0034243835316746002 -0.0029665620592052543 0 -0.0033804643107327157 -0.0029445579478401393 0 -0.0033197029823581765 -0.0029591430843855897 0 -0.0033708396460923711 -0.0029847833827418655 0 -0.0033804643107327157 -0.0029445579478401393 0 -0.0033197029823581765 -0.0029591430843855897 0 -0.0033646825501813266 -0.0030031622586960999 0 -0.0033708396460923711 -0.0029847833827418655 0 -0.0033197029823581765 -0.0029591430843855897 0 -0.0033483770739661709 -0.0029027916798714235 0 -0.0032468290397602169 -0.0028541522226518444 0 -0.0033804643107327157 -0.0029445579478401393 0 -0.0033483770739661709 -0.0029027916798714235 0 -0.0034327520674442892 -0.0028873750676136167 0 -0.0034327520674442892 -0.0028873750676136167 0 -0.0033675401449323795 -0.0028330694240388077 0 -0.0034610199965580475 -0.0027944376488409427 0 -0.0033483770739661709 -0.0029027916798714235 0 -0.0034327520674442892 -0.0028873750676136167 0 -0.0033675401449323795 -0.0028330694240388077 0 -0.0033675401449323795 -0.0028330694240388077 0 -0.0034610199965580475 -0.0027944376488409427 0 -0.0033440606796246095 -0.0027194853104523199 0 -0.0033483770739661709 -0.0029027916798714235 0 -0.0033675401449323795 -0.0028330694240388077 0 -0.0032468290397602169 -0.0028541522226518444 0 -0.0033675401449323795 -0.0028330694240388077 0 -0.0032468290397602169 -0.0028541522226518444 0 -0.0033440606796246095 -0.0027194853104523199 0 -0.0029177155269217788 -0.0027905947417001488 0 -0.0031665598109600866 -0.0029651732872438626 0 -0.0032468290397602169 -0.0028541522226518444 0 -0.0031665598109600866 -0.0029651732872438626 0 -0.0033197029823581765 -0.0029591430843855897 0 -0.0032468290397602169 -0.0028541522226518444 0 -0.0038109679190150921 -0.0028037174084976258 0 -0.0038363966363802043 -0.002815078846532581 0 -0.0039730476364371516 -0.0028481761354592827 0 -0.0039730476364371516 -0.0028481761354592827 0 -0.003689865581278459 -0.0028793930608770821 0 -0.0035999066355204994 -0.0029836907603357447 0 -0.0038363966363802043 -0.002815078846532581 0 -0.0039730476364371516 -0.0028481761354592827 0 -0.0037601929535188918 -0.0028254525593750571 0 -0.0039730476364371516 -0.0028481761354592827 0 -0.003689865581278459 -0.0028793930608770821 0 -0.0037601929535188918 -0.0028254525593750571 0 -0.003689865581278459 -0.0028793930608770821 0 -0.0037601929535188918 -0.0028254525593750571 0 -0.0036398295598054939 -0.0028465460976201469 0 -0.003689865581278459 -0.0028793930608770821 0 -0.0036398295598054939 -0.0028465460976201469 0 -0.0035265964943606487 -0.0029301465127772237 0 -0.0036398295598054939 -0.0028465460976201469 0 -0.0035265964943606487 -0.0029301465127772237 0 -0.00354183880145462 -0.0028455417944116251 0 -0.003689865581278459 -0.0028793930608770821 0 -0.0035999066355204994 -0.0029836907603357447 0 -0.0035265964943606487 -0.0029301465127772237 0 -0.0034243835316746002 -0.0029665620592052543 0 -0.0034793806883699841 -0.0029898682776223514 0 -0.0035265964943606487 -0.0029301465127772237 0 -0.0035999066355204994 -0.0029836907603357447 0 -0.0034793806883699841 -0.0029898682776223514 0 -0.0035265964943606487 -0.0029301465127772237 0 -0.0034243835316746002 -0.0029665620592052543 0 -0.0035265964943606487 -0.0029301465127772237 0 -0.0034805385160970332 -0.0029083369641790201 0 -0.0035265964943606487 -0.0029301465127772237 0 -0.0034805385160970332 -0.0029083369641790201 0 -0.00354183880145462 -0.0028455417944116251 0 -0.0034327520674442892 -0.0028873750676136167 0 -0.00354183880145462 -0.0028455417944116251 0 -0.0034610199965580475 -0.0027944376488409427 0 -0.0034327520674442892 -0.0028873750676136167 0 -0.0034805385160970332 -0.0029083369641790201 0 -0.00354183880145462 -0.0028455417944116251 0 -0.00354183880145462 -0.0028455417944116251 0 -0.0034610199965580475 -0.0027944376488409427 0 -0.0035610370602782828 -0.0027743563851752363 0 -0.0034610199965580475 -0.0027944376488409427 0 -0.0035610370602782828 -0.0027743563851752363 0 -0.0035081092382348786 -0.0027066099695418687 0 -0.0036398295598054939 -0.0028465460976201469 0 -0.00354183880145462 -0.0028455417944116251 0 -0.003668054881984966 -0.0027969472519010015 0 -0.00354183880145462 -0.0028455417944116251 0 -0.0035610370602782828 -0.0027743563851752363 0 -0.003668054881984966 -0.0027969472519010015 0 -0.003668054881984966 -0.0027969472519010015 0 -0.0037325673253627797 -0.0027615930173929904 0 -0.003761355816877253 -0.002797062291991015 0 -0.0037601929535188918 -0.0028254525593750571 0 -0.0036398295598054939 -0.0028465460976201469 0 -0.003668054881984966 -0.0027969472519010015 0 -0.0037601929535188918 -0.0028254525593750571 0 -0.003668054881984966 -0.0027969472519010015 0 -0.003761355816877253 -0.002797062291991015 0 -0.0035610370602782828 -0.0027743563851752363 0 -0.003668054881984966 -0.0027969472519010015 0 -0.0036238590153642378 -0.0027329587794357852 0 -0.0036238590153642378 -0.0027329587794357852 0 -0.0037325673253627797 -0.0027615930173929904 0 -0.0036741347557179989 -0.0026962776463451622 0 -0.003668054881984966 -0.0027969472519010015 0 -0.0036238590153642378 -0.0027329587794357852 0 -0.0037325673253627797 -0.0027615930173929904 0 -0.0037508249385423153 -0.0027239450338721314 0 -0.0037325673253627797 -0.0027615930173929904 0 -0.0036741347557179989 -0.0026962776463451622 0 -0.0037715768653118144 -0.0027647256268735028 0 -0.0037325673253627797 -0.0027615930173929904 0 -0.0037934021573262111 -0.0027925295605453976 0 -0.0037715768653118144 -0.0027647256268735028 0 -0.0037508249385423153 -0.0027239450338721314 0 -0.0037325673253627797 -0.0027615930173929904 0 -0.0037325673253627797 -0.0027615930173929904 0 -0.0037934021573262111 -0.0027925295605453976 0 -0.003761355816877253 -0.002797062291991015 0 -0.0038363966363802043 -0.002815078846532581 0 -0.0037601929535188918 -0.0028254525593750571 0 -0.003761355816877253 -0.002797062291991015 0 -0.0038363966363802043 -0.002815078846532581 0 -0.0037934021573262111 -0.0027925295605453976 0 -0.003761355816877253 -0.002797062291991015 0 -0.0036911159080458174 -0.0026460693970412194 0 -0.0036010354922088703 -0.002647713240119789 0 -0.0036258097255215957 -0.0025542574672727347 0 -0.0036911159080458174 -0.0026460693970412194 0 -0.0036741347557179989 -0.0026962776463451622 0 -0.0036010354922088703 -0.002647713240119789 0 -0.0037508249385423153 -0.0027239450338721314 0 -0.0036911159080458174 -0.0026460693970412194 0 -0.0036741347557179989 -0.0026962776463451622 0 -0.0036238590153642378 -0.0027329587794357852 0 -0.0036741347557179989 -0.0026962776463451622 0 -0.0036010354922088703 -0.002647713240119789 0 -0.0036010354922088703 -0.002647713240119789 0 -0.0035081092382348786 -0.0027066099695418687 0 -0.0034748888993029565 -0.0025683626162671374 0 -0.0035081092382348786 -0.0027066099695418687 0 -0.0034748888993029565 -0.0025683626162671374 0 -0.0033440606796246095 -0.0027194853104523199 0 -0.0036238590153642378 -0.0027329587794357852 0 -0.0036010354922088703 -0.002647713240119789 0 -0.0035081092382348786 -0.0027066099695418687 0 -0.0035610370602782828 -0.0027743563851752363 0 -0.0036238590153642378 -0.0027329587794357852 0 -0.0035081092382348786 -0.0027066099695418687 0 -0.0034610199965580475 -0.0027944376488409427 0 -0.0035081092382348786 -0.0027066099695418687 0 -0.0033440606796246095 -0.0027194853104523199 0 -0.0034748888993029565 -0.0025683626162671374 0 -0.0036258097255215957 -0.0025542574672727347 0 -0.0035591813585800457 -0.0024248247304836717 0 -0.0036010354922088703 -0.002647713240119789 0 -0.0034748888993029565 -0.0025683626162671374 0 -0.0036258097255215957 -0.0025542574672727347 0 -0.003682127870147068 -0.002501347075334255 0 -0.0036258097255215957 -0.0025542574672727347 0 -0.0035591813585800457 -0.0024248247304836717 0 -0.0037025442753043894 -0.002585782837787804 0 -0.0036911159080458174 -0.0026460693970412194 0 -0.0036258097255215957 -0.0025542574672727347 0 -0.0029177155269217788 -0.0027905947417001488 0 -0.0032468290397602169 -0.0028541522226518444 0 -0.003056008320770208 -0.0026728727063519862 0 -0.0032468290397602169 -0.0028541522226518444 0 -0.0033440606796246095 -0.0027194853104523199 0 -0.003056008320770208 -0.0026728727063519862 0 -0.0034748888993029565 -0.0025683626162671374 0 -0.0033440606796246095 -0.0027194853104523199 0 -0.0032347709018919193 -0.0025526113155547141 0 -0.0034748888993029565 -0.0025683626162671374 0 -0.0032347709018919193 -0.0025526113155547141 0 -0.0033517247053266742 -0.0023707051714885411 0 -0.0033440606796246095 -0.0027194853104523199 0 -0.0032347709018919193 -0.0025526113155547141 0 -0.003056008320770208 -0.0026728727063519862 0 -0.00257907774078487 -0.0025904122245426365 0 -0.003056008320770208 -0.0026728727063519862 0 -0.0029104819091819983 -0.0023914130842024061 0 -0.0032347709018919193 -0.0025526113155547141 0 -0.003056008320770208 -0.0026728727063519862 0 -0.0029104819091819983 -0.0023914130842024061 0 -0.0032347709018919193 -0.0025526113155547141 0 -0.0029104819091819983 -0.0023914130842024061 0 -0.0033517247053266742 -0.0023707051714885411 0 -0.0029104819091819983 -0.0023914130842024061 0 -0.0033517247053266742 -0.0023707051714885411 0 -0.0031708687999291193 -0.0020984165212242609 0 -0.0033517247053266742 -0.0023707051714885411 0 -0.0031708687999291193 -0.0020984165212242609 0 -0.0034913081960405725 -0.0022747567649845806 0 -0.0026802411466223881 -0.0022225177244459856 0 -0.0031639743060989456 -0.002345106589832432 0 -0.0029104819091819983 -0.0023914130842024061 0 -0.0031708687999291193 -0.0020984165212242609 0 -0.0025794000127358171 -0.0019205084836979732 0 -0.0026802411466223881 -0.0022225177244459856 0 -0.0020877115756766243 -0.0020668692096701621 0 -0.0035554207526229428 -0.0023831131841314693 0 -0.0035591813585800457 -0.0024248247304836717 0 -0.0034913081960405725 -0.0022747567649845806 0 -0.0034748888993029565 -0.0025683626162671374 0 -0.0033517247053266742 -0.0023707051714885411 0 -0.0035591813585800457 -0.0024248247304836717 0 -0.0033517247053266742 -0.0023707051714885411 0 -0.0035591813585800457 -0.0024248247304836717 0 -0.0034913081960405725 -0.0022747567649845806 0 -0.002202085040299439 -0.0023529102960095712 0 -0.0028500518619251607 -0.0024357260348770735 0 -0.002660335689192547 -0.0020071946402372984 0 -0.0035180806650826502 -0.0023846072859737525 0 -0.0031639743060989456 -0.002345106589832432 0 -0.0035554207526229428 -0.0023831131841314693 0 -0.0028500518619251607 -0.0024357260348770735 0 -0.0031917451194189332 -0.0021127440719905886 0 -0.0031917451194189332 -0.0021127440719905886 0 -0.002660335689192547 -0.0020071946402372984 0 -0.0030103383495392881 -0.0017942045316002224 0 -0.0033664618085222572 -0.0018944387974889332 0 -0.0031917451194189332 -0.0021127440719905886 0 -0.0030103383495392881 -0.0017942045316002224 0 -0.0028500518619251607 -0.0024357260348770735 0 -0.0031917451194189332 -0.0021127440719905886 0 -0.002660335689192547 -0.0020071946402372984 0 -0.002660335689192547 -0.0020071946402372984 0 -0.0026242639988879523 -0.0016094185064507048 0 -0.0030103383495392881 -0.0017942045316002224 0 -0.0029566342719191882 -0.0014620151338556378 0 -0.0026242639988879523 -0.0016094185064507048 0 -0.0030103383495392881 -0.0017942045316002224 0 -0.0029566342719191882 -0.0014620151338556378 0 -0.0030103383495392881 -0.0017942045316002224 0 -0.0032353765293932297 -0.0016485254285074932 0 -0.0029566342719191882 -0.0014620151338556378 0 -0.0032287267291407702 -0.0014053326312994266 0 -0.0032353765293932297 -0.0016485254285074932 0 -0.0033664618085222572 -0.0018944387974889332 0 -0.0030103383495392881 -0.0017942045316002224 0 -0.0032353765293932297 -0.0016485254285074932 0 -0.002202085040299439 -0.0023529102960095712 0 -0.0017479103887834148 -0.0019142811363762919 0 -0.0016056534182769383 -0.0021960744531473817 0 -0.002202085040299439 -0.0023529102960095712 0 -0.0017479103887834148 -0.0019142811363762919 0 -0.0021478397388526634 -0.00173585643265361 0 -0.002202085040299439 -0.0023529102960095712 0 -0.002660335689192547 -0.0020071946402372984 0 -0.0021478397388526634 -0.00173585643265361 0 -0.0023376390086285691 -0.0014112968025714765 0 -0.0026242639988879523 -0.0016094185064507048 0 -0.0021478397388526634 -0.00173585643265361 0 -0.002660335689192547 -0.0020071946402372984 0 -0.0026242639988879523 -0.0016094185064507048 0 -0.0021478397388526634 -0.00173585643265361 0 -0.0020095422756988817 -0.0013888459152949955 0 -0.0023376390086285691 -0.0014112968025714765 0 -0.0021478397388526634 -0.00173585643265361 0 -0.0017479103887834148 -0.0019142811363762919 0 -0.0021478397388526634 -0.00173585643265361 0 -0.0016837679839378755 -0.0016018813324957032 0 -0.0020095422756988817 -0.0013888459152949955 0 -0.0021478397388526634 -0.00173585643265361 0 -0.0016837679839378755 -0.0016018813324957032 0 -0.0017479103887834148 -0.0019142811363762919 0 -0.0016837679839378755 -0.0016018813324957032 0 -0.0013776401127695384 -0.0017916275454554842 0 -0.0016837679839378755 -0.0016018813324957032 0 -0.0013776401127695384 -0.0017916275454554842 0 -0.001316326584386452 -0.0015886747650212232 0 -0.0017479103887834148 -0.0019142811363762919 0 -0.0014391765299420366 -0.0019623797944920466 0 -0.0016056534182769383 -0.0021960744531473817 0 -0.0017479103887834148 -0.0019142811363762919 0 -0.0014391765299420366 -0.0019623797944920466 0 -0.0013776401127695384 -0.0017916275454554842 0 -0.0014391765299420366 -0.0019623797944920466 0 -0.0016056534182769383 -0.0021960744531473817 0 -0.001367059962405314 -0.0019618667268693087 0 -0.0014391765299420366 -0.0019623797944920466 0 -0.0012464109003334895 -0.0018482628931892212 0 -0.001367059962405314 -0.0019618667268693087 0 -0.0014391765299420366 -0.0019623797944920466 0 -0.0012464109003334895 -0.0018482628931892212 0 -0.0013776401127695384 -0.0017916275454554842 0 -0.0012464109003334895 -0.0018482628931892212 0 -0.0011767459118753965 -0.0017110992505533396 0 -0.0010310333618104117 -0.0016889064789133096 0 -0.0012464109003334895 -0.0018482628931892212 0 -0.0011767459118753965 -0.0017110992505533396 0 -0.0013776401127695384 -0.0017916275454554842 0 -0.0011767459118753965 -0.0017110992505533396 0 -0.0013776401127695384 -0.0017916275454554842 0 -0.001316326584386452 -0.0015886747650212232 0 -0.00099625749643609618 -0.0015763490725956759 0 -0.0011767459118753965 -0.0017110992505533396 0 -0.001316326584386452 -0.0015886747650212232 0 -0.00099625749643609618 -0.0015763490725956759 0 -0.0011767459118753965 -0.0017110992505533396 0 -0.0010310333618104117 -0.0016889064789133096 0 -0.00088758856633985883 -0.0015531395746345334 0 -0.00099625749643609618 -0.0015763490725956759 0 -0.0010310333618104117 -0.0016889064789133096 0 -0.00088758856633985883 -0.0015531395746345334 0 -0.0010310333618104117 -0.0016889064789133096 0 -0.00090713460460172121 -0.0016544901909336909 0 -0.0010310333618104117 -0.0016889064789133096 0 -0.00090713460460172121 -0.0016544901909336909 0 -0.0010842946795298553 -0.0018443225006802536 0 -0.000730514305465797 -0.0015670414270663494 0 -0.00090713460460172121 -0.0016544901909336909 0 -0.00080583151280945496 -0.001908855721087759 0 -0.0025426330411297124 -0.0017867189763152928 0 -0.0030856975349777748 -0.0020124190301305726 0 -0.00090713460460172121 -0.0016544901909336909 0 -0.00080583151280945496 -0.001908855721087759 0 -0.0010842946795298553 -0.0018443225006802536 0 -0.00080583151280945496 -0.001908855721087759 0 -0.0010842946795298553 -0.0018443225006802536 0 -0.001127281187562253 -0.0021190054209321439 0 -0.0012464109003334895 -0.0018482628931892212 0 -0.0010310333618104117 -0.0016889064789133096 0 -0.0010842946795298553 -0.0018443225006802536 0 -0.0010842946795298553 -0.0018443225006802536 0 -0.001127281187562253 -0.0021190054209321439 0 -0.001367059962405314 -0.0019618667268693087 0 -0.0012464109003334895 -0.0018482628931892212 0 -0.0010842946795298553 -0.0018443225006802536 0 -0.001367059962405314 -0.0019618667268693087 0 -0.001127281187562253 -0.0021190054209321439 0 -0.0013838361833480586 -0.00240162843037781 0 -0.001367059962405314 -0.0019618667268693087 0 -0.001127281187562253 -0.0021190054209321439 0 -0.0010065817939803687 -0.0026041151461316005 0 -0.0013838361833480586 -0.00240162843037781 0 -0.0030856975349777748 -0.0020124190301305726 0 -0.0031650735975944648 -0.0025053991348211457 0 -0.00080583151280945496 -0.001908855721087759 0 -0.001127281187562253 -0.0021190054209321439 0 -0.0010065817939803687 -0.0026041151461316005 0 -0.0051457006333517933 -0.0022798041916267803 0 -0.0052550013490383993 -0.0021240328941238562 0 -0.0053026778390251926 -0.0024134887737060151 0 -0.0010065817939803687 -0.0026041151461316005 0 -0.0013838361833480586 -0.00240162843037781 0 -0.0015779761695466062 -0.0028264694778457316 0 -0.0022949924536475319 -0.0026922260279652532 0 -0.001963737757312233 -0.0021659865196833202 0 -0.0020603446213634862 -0.0028555593294462443 0 -0.0015779761695466062 -0.0028264694778457316 0 -0.0019138996328778031 -0.002168662821075161 0 -0.0013838361833480586 -0.00240162843037781 0 -0.0015779761695466062 -0.0028264694778457316 0 -0.0019138996328778031 -0.002168662821075161 0 -0.00257907774078487 -0.0025904122245426365 0 -0.0029104819091819983 -0.0023914130842024061 0 -0.0025105635603543215 -0.0022990660971015341 0 -0.00257907774078487 -0.0025904122245426365 0 -0.0025105635603543215 -0.0022990660971015341 0 -0.0019138996328778031 -0.002168662821075161 0 -0.0029104819091819983 -0.0023914130842024061 0 -0.0025105635603543215 -0.0022990660971015341 0 -0.0025794000127358171 -0.0019205084836979732 0 -0.0025105635603543215 -0.0022990660971015341 0 -0.0025794000127358171 -0.0019205084836979732 0 -0.0019138996328778031 -0.002168662821075161 0 -0.0013838361833480586 -0.00240162843037781 0 -0.001367059962405314 -0.0019618667268693087 0 -0.0019138996328778031 -0.002168662821075161 0 -0.0025794000127358171 -0.0019205084836979732 0 -0.001367059962405314 -0.0019618667268693087 0 -0.0019138996328778031 -0.002168662821075161 0 -0.0020877115756766243 -0.0020668692096701621 0 -0.0014399133223567367 -0.0019697781310707104 0 
</DataArray>
</PointData>
<CellData Scalars="region_id,cross_section_updated," Vectors="" Tensors="stress,">
<DataArray type="Float64" Name="region_id" format="ascii">
5 5 6 5 5 5 5 5 5 5 5 5 5 5 5 5 6 5 5 5 6 5 6 6 6 5 5 5 5 6 6 5 5 5 6 5 5 5 6 5 5 5 5 6 5 5 5 6 6 5 5 5 5 5 5 5 5 5 5 6 5 5 5 6 5 5 5 5 5 5 5 5 6 5 5 5 5 6 5 5 5 5 5 5 5 5 5 5 5 6 5 5 5 5 6 5 5 6 5 6 5 5 5 6 5 5 5 6 5 5 5 5 5 5 5 5 5 5 5 5 5 5 5 5 5 5 5 5 5 5 5 6 5 5 5 5 5 5 5 5 5 5 5 5 6 5 5 5 5 6 5 5 5 6 5 5 5 5 5 5 5 5 6 5 6 5 5 5 5 5 5 5 6 5 5 5 5 6 5 5 5 5 5 5 5 6 5 5 5 5 5 5 5 5 5 5 6 5 5 5 5 6 5 5 5 6 5 5 5 5 5 5 5 5 5 5 5 5 5 5 5 5 5 6 5 6 5 5 5 5 5 5 5 5 5 5 5 5 5 6 5 5 5 6 5 5 5 5 5 5 5 5 5 6 5 5 5 5 5 5 5 5 6 5 5 5 5 5 5 6 5 5 6 5 5 5 5 5 6 5 5 5 5 5 6 5 5 5 5 5 5 5 5 5 5 5 5 5 5 5 5 5 5 5 5 5 5 6 5 5 5 5 5 6 5 5 5 5 5 5 5 5 5 5 5 5 5 6 5 5 6 5 5 5 6 5 5 6 5 5 6 5 5 5 5 6 5 5 5 5 5 5 5 5 5 5 5 5 5 5 5 5 5 5 6 5 5 5 5 5 5 5 5 5 5 5 5 6 5 5 5 5 5 5 6 5 5 5 5 5 5 5 6 5 5 5 5 5 5 5 6 5 6 5 5 5 5 5 5 6 5 5 5 5 5 5 6 5 5 5 5 5 5 5 5 5 6 5 5 5 6 5 5 5 5 6 5 6 5 5 5 5 5 5 5 5 5 5 5 5 5 5 6 5 6 5 6 5 5 5 5 6 5 6 5 5 5 5 5 5 5 5 5 5 5 5 6 5 5 6 5 5 5 5 5 5 5 5 5 5 5 5 5 5 5 5 6 5 5 5 5 5 5 5 5 5 5 5 5 5 5 5 5 5 5 5 5 5 5 5 6 5 5 5 5 6 5 5 6 5 5 5 6 5 5 5 5 5 5 5 5 5 5 5 5 6 5 5 6 5 5 5 5 5 5 5 5 5 5 6 5 5 5 5 5 5 5 5 5 6 5 5 5 5 5 5 5 5 5 5 5 5 5 5 6 5 5 6 5 5 5 6 5 5 6 5 5 5 5 5 5 5 5 5 5 5 5 5 5 5 5 5 5 5 5 5 6 6 5 5 6 5 5 5 6 5 5 5 5 5 5 5 5 5 5 5 5 5 5 5 5 5 5 6 5 5 6 5 5 5 6 5 5 5 5 5 5 5 5 5 5 5 5 5 5 5 5 5 5 5 5 5 5 5 5 5 5 5 5 5 5 5 5 5 5 5 5 5 6 5 5 5 5 5 5 6 5 5 5 5 5 5 6 5 5 5 5 5 5 6 5 5 5 5 5 6 5 5 5 5 5 6 5 5 5 5 5 5 6 5 5 5 5 5 5 6 5 5 6 5 5 5 5 5 6 5 5 6 5 5 5 5 5 5 5 5 6 5 5 5 6 5 5 6 5 5 5 5 6 5 5 5 5 5 6 5 5 6 5 6 6 5 5 5 5 6 6 5 5 6 5 5 5 5 5 6 5 5 5 5 5 5 6 5 5 5 5 5 5 5 5 5 5 5 5 6 5 5 6 5 6 5 5 6 5 5 5 5 5 5 6 5 6 5 5 5 6 5 6 6 5 5 6 5 5 6 5 5 5 5 5 5 5 5 5 5 5 5 5 5 5 5 5 5 5 5 5 5 5 5 5 5 5 5 5 5 5 5 5 5 5 5 5 5 5 5 5 5 5 5 5 5 5 5 5 5 5 5 5 5 5 5 5 5 5 5 5 5 5 5 5 5 5 5 5 5 5 5 5 5 5 5 5 5 5 5 5 5 5 5 5 5 5 5 6 5 6 5 5 5 5 5 5 5 5 5 5 5 5 5 5 6 5 5 6 5 6 5 6 6 5 5 5 5 5 5 5 5 5 5 5 5 5 5 5 5 5 5 5 6 5 5 6 5 5 5 5 5 5 5 6 5 5 5 5 5 5 5 5 6 5 5 5 5 5 5 5 5 5 5 6 5 5 5 5 5 5 5 5 5 5 5 5 5 5 5 5 5 5 5 5 5 5 5 5 5 5 5 5 5 5 5 5 5 5 5 5 5 6 5 5 5 5 5 5 5 5 5 5 6 5 5 5 5 5 6 5 5 5 5 5 5 5 5 5 5 5 5 5 5 5 5 5 5 5 5 5 6 5 5 5 5 5 5 5 5 5 5 5 5 6 5 6 5 5 5 5 6 5 5 5 5 5 5 5 5 5 5 5 5 5 5 5 5 5 5 5 5 5 5 6 5 5 6 5 5 5 5 5 5 6 5 5 5 5 5 6 5 5 5 6 5 5 6 6 5 5 5 5 5 5 5 6 5 5 5 5 5 5 5 5 5 5 5 5 6 5 6 5 5 5 5 5 5 5 5 5 5 6 5 5 5 6 5 5 5 5 5 6 5 5 6 6 5 5 5 6 5 6 5 6 5 5 5 5 5 5 5 5 5 5 5 5 5 5 5 5 6 5 5 5 5 5 5 5 5 5 5 5 5 5 5 5 5 5 5 5 5 5 5 5 5 5 6 5 5 6 5 5 5 5 5 5 5 5 5 5 5 5 5 5 5 5 5 5 5 5 5 5 5 5 5 5 5 5 5 5 5 5 5 5 5 5 5 5 5 5 5 5 5 5 5 6 5 6 5 5 5 5 5 5 5 5 5 6 5 6 5 5 5 5 5 5 6 6 5 5 5 5 5 5 5 5 5 6 5 5 5 5 5 6 6 5 5 6 5 5 6 5 5 5 6 5 5 5 5 6 5 6 5 5 5 6 5 5 5 5 5 5 5 5 5 5 6 5 5 5 5 5 5 5 5 5 5 6 5 5 5 5 6 5 6 5 5 5 6 6 5 5 5 5 5 5 5 5 5 5 5 5 5 6 5 5 5 5 5 6 5 5 5 5 6 5 5 5 6 5 5 5 5 5 5 5 5 5 5 6 5 5 5 5 5 5 5 5 6 5 5 6 5 5 5 5 5 5 5 5 5 5 5 5 6 5 5 5 5 6 6 5 5 6 5 5 5 5 5 5 5 5 5 5 5 5 5 5 6 5 5 5 5 5 6 5 5 5 5 5 5 5 6 5 5 5 5 5 5 5 5 5 5 5 5 6 5 5 5 5 6 5 5 5 5 5 5 5 5 5 6 5 5 5 6 5 5 6 5 5 5 5 5 5 5 5 6 5 5 6 5 5 5 5 5 5 5 5 5 5 5 5 5 6 5 6 5 5 5 5 5 5 5 5 5 5 5 6 6 5 5 5 5 5 5 5 6 5 5 5 6 5 5 5 6 5 5 5 6 5 5 6 6 5 5 6 5 5 5 6 6 5 5 5 5 5 5 5 5 5 6 5 5 5 5 5 5 5 5 5 5 5 6 5 5 5 5 5 5 5 5 5 5 5 5 6 5 5 5 5 5 5 5 5 5 6 5 5 5 6 5 5 5 5 5 5 5 6 5 5 5 5 5 6 5 5 6 5 5 5 5 5 5 5 5 5 5 5 5 5 5 5 5 5 5 5 5 5 5 5 5 5 6 5 5 5 6 5 5 5 5 6 5 5 5 5 5 5 5 5 5 6 5 5 5 5 5 5 5 5 5 5 5 5 5 5 5 5 5 5 5 5 5 5 5 5 6 5 6 5 5 5 5 5 5 5 5 5 5 5 5 5 6 5 5 5 5 6 5 5 5 5 5 5 5 5 5 5 5 5 5 5 6 5 5 5 5 5 5 5 5 5 5 5 5 5 6 5 6 5 5 5 5 5 5 5 5 6 5 5 5 5 5 5 5 5 5 5 5 6 5 5 5 5 5 5 5 6 5 5 5 5 5 5 5 5 5 5 5 5 5 5 5 5 5 5 5 5 5 5 5 5 5 5 5 5 5 5 5 5 5 5 5 5 5 5 5 5 5 6 5 5 5 6 5 5 5 5 5 5 5 5 5 5 5 6 5 5 5 5 5 5 5 5 5 5 6 5 6 5 5 6 5 5 5 6 5 5 5 5 5 5 5 5 5 5 5 5 5 5 5 5 5 5 5 5 5 5 5 5 5 5 5 5 5 5 5 5 5 5 5 5 5 5 5 5 5 5 5 5 5 5 5 5 5 5 5 5 5 5 5 5 5 5 5 5 5 5 5 5 5 5 5 5 5 5 5 5 5 5 5 5 5 5 5 5 5 6 5 6 5 5 5 6 5 5 5 5 5 5 5 5 5 5 5 5 5 5 5 5 5 5 6 5 5 5 5 5 5 5 5 5 5 5 5 5 6 5 5 6 5 5 5 5 5 5 5 5 5 5 6 6 5 6 6 5 5 5 6 6 6 5 6 5 5 5 5 5 5 5 5 5 5 5 5 5 5 5 6 5 5 5 5 5 5 5 5 5 5 5 5 5 5 5 6 5 5 5 5 5 5 5 5 5 5 5 5 5 5 5 5 5 5 5 5 5 6 5 5 5 6 5 5 5 5 5 6 5 5 5 5 5 5 5 5 5 6 5 5 5 5 5 5 5 5 5 5 5 5 5 5 6 5 5 5 5 5 5 5 5 5 5 5 5 5 5 5 5 5 5 5 5 5 5 5 5 5 5 5 5 5 5 5 5 6 5 6 5 5 6 5 6 5 6 5 5 5 5 5 5 6 5 5 6 5 5 5 5 5 5 5 5 5 6 5 5 5 5 5 5 5 5 5 5 5 5 6 5 5 5 5 5 5 5 5 5 5 5 5 5 5 5 5 5 5 5 5 5 5 5 5 5 5 5 5 5 5 5 5 5 5 5 5 5 5 5 5 5 5 5 5 5 6 5 5 5 6 6 5 6 5 5 5 5 5 5 5 5 5 5 5 5 6 5 5 5 6 5 5 5 5 5 5 6 5 5 5 6 5 5 6 6 5 5 5 5 6 5 5 5 5 5 5 5 5 5 5 5 5 5 5 5 5 5 5 5 5 5 5 5 5 5 5 5 5 5 5 5 5 5 5 5 5 5 5 5 5 5 6 5 5 6 5 5 6 6 5 5 6 5 5 5 5 5 5 5 6 6 5 5 5 5 5 5 5 5 5 6 5 5 5 5 5 5 6 5 5 5 5 5 5 5 5 5 5 6 5 5 5 6 5 5 5 5 5 5 5 5 5 5 5 6 5 6 5 6 5 5 6 5 5 5 6 5 5 5 5 6 5 5 5 5 5 5 6 5 5 6 5 5 5 5 5 5 5 6 5 5 5 5 6 5 5 5 5 5 6 5 5 5 5 5 5 5 5 5 5 5 5 5 5 5 5 5 5 5 5 5 5 5 5 5 5 5 6 5 5 5 5 5 5 5 5 5 5 5 5 5 5 6 5 5 5 6 6 5 5 5 5 5 5 5 5 5 5 5 5 5 5 5 5 5 5 5 5 5 5 6 5 6 5 5 6 6 5 5 5 5 5 5 5 6 6 6 5 5 5 6 5 5 5 5 5 5 6 5 5 5 5 5 5 6 5 5 5 5 5 5 6 5 5 5 5 5 6 5 5 5 5 5 6 5 5 5 5 6 5 5 5 5 6 5 5 5 5 6 6 5 5 5 6 5 5 5 5 6 5 5 5 5 6 5 5 5 6 5 5 6 5 5 5 5 5 5 5 5 5 6 6 5 5 5 5 6 5 5 5 6 5 5 5 5 6 5 5 5 5 5 5 5 5 5 5 5 5 5 5 5 5 5 5 5 5 5 5 5 5 5 5 5 5 5 5 5 5 5 5 5 5 5 5 5 5 5 6 5 5 5 5 5 6 5 5 5 5 5 5 5 5 5 6 5 5 5 5 5 5 5 5 6 5 5 5 5 5 5 5 6 5 5 5 6 5 6 5 5 6 5 5 5 5 5 5 5 6 5 5 5 5 6 5 5 5 5 5 5 5 5 5 5 5 5 5 5 5 5 6 5 5 6 5 5 5 6 5 5 5 5 5 5 5 5 5 6 5 5 5 5 5 6 5 6 5 5 5 5 5 5 6 6 5 5 5 5 6 5 6 5 5 5 6 5 5 5 5 5 5 5 6 5 6 5 5 5 5 5 5 5 5 5 5 5 5 5 5 5 5 6 5 5 6 5 5 5 5 6 5 5 5 5 5 5 5 5 5 5 5 5 5 5 5 5 5 5 6 5 6 5 5 5 5 6 5 5 5 5 5 5 5 5 6 5 5 5 5 5 5 5 5 6 5 5 5 5 6 5 6 5 5 5 5 5 5 5 5 5 5 5 5 6 5 5 5 5 5 5 5 5 5 5 5 5 6 6 5 6 5 5 6 5 6 5 5 5 5 5 5 6 5 5 5 5 5 6 5 5 5 5 6 5 5 5 5 5 5 5 5 5 5 5 5 5 5 5 5 5 5 5 5 5 6 5 5 5 5 5 5 5 6 6 6 5 5 5 6 5 5 5 5 5 5 5 6 5 5 5 5 5 5 6 5 6 5 5 5 5 6 5 5 5 5 5 5 5 5 5 5 5 5 5 5 5 5 5 5 5 6 5 5 5 5 5 6 5 5 6 5 5 5 6 6 6 6 5 6 5 6 6 6 5 5 6 5 5 5 5 5 5 6 5 5 5 5 5 5 5 5 5 5 6 5 5 5 6 5 5 5 5 5 5 6 5 5 5 5 5 5 5 5 5 5 5 5 5 5 5 5 5 5 5 5 5 6 5 6 5 5 5 5 6 5 5 5 5 5 5 5 5 5 5 5 5 5 5 5 5 5 5 6 5 5 5 5 6 5 5 6 6 5 5 5 5 5 5 5 5 5 5 6 5 5 5 6 5 5 5 5 5 5 5 5 5 5 5 5 6 5 5 5 5 5 5 5 5 5 5 6 5 5 5 5 5 5 5 5 5 6 6 5 5 5 5 5 5 5 5 5 5 5 5 5 5 5 5 5 5 5 5 5 5 5 5 5 5 5 5 5 5 5 5 5 5 5 5 5 5 5 5 5 5 5 5 5 6 5 5 5 5 6 5 5 5 5 5 5 5 5 5 5 5 5 5 5 5 6 5 5 5 5 5 5 5 6 5 5 6 5 5 5 6 5 5 6 5 5 5 5 5 5 6 5 6 5 5 5 6 5 5 5 5 5 5 6 5 5 5 5 5 6 5 5 5 6 5 5 5 5 5 6 6 5 5 5 5 5 5 6 5 5 5 5 5 5 6 5 5 5 5 6 5 5 5 5 5 5 5 5 5 5 5 5 5 5 5 5 5 5 5 5 5 5 5 5 5 5 5 5 5 6 5 6 6 6 5 5 5 6 5 6 5 5 5 5 5 5 5 5 6 5 5 5 5 5 5 5 5 5 5 5 5 5 6 5 5 5 5 5 5 5 5 5 5 5 6 6 5 5 5 5 6 6 5 5 5 5 5 5 5 5 5 5 5 5 5 6 5 6 5 5 5 5 5 5 6 6 5 6 5 5 6 5 6 5 5 6 5 5 5 5 5 5 5 5 5 5 5 6 5 6 5 5 5 6 5 6 5 6 5 5 5 5 6 5 5 6 6 5 5 6 5 5 5 6 6 5 6 5 5 6 5 5 5 5 5 6 5 6 5 5 6 6 5 5 5 6 5 5 5 5 5 5 5 5 5 6 5 5 6 6 5 5 5 5 5 5 5 5 6 5 5 5 5 5 5 6 5 5 5 5 5 5 6 5 5 5 5 5 5 5 5 5 5 5 5 5 5 5 5 5 5 6 5 5 5 5 6 6 5 5 5 5 5 6 5 6 5 6 5 5 5 5 6 5 6 5 6 6 5 5 5 5 5 5 5 5 5 5 5 5 5 6 5 5 5 5 6 5 5 5 5 5 5 5 5 5 5 5 5 5 5 5 6 5 6 5 5 5 6 6 5 5 5 5 6 5 5 5 6 5 5 5 5 5 5 6 5 6 5 5 5 5 5 6 5 5 5 5 6 5 5 5 5 5 6 5 5 5 5 5 6 5 6 5 5 5 5 6 6 5 6 5 6 6 5 6 5 5 5 5 5 5 5 5 6 5 5 5 5 5 5 6 6 5 5 6 5 6 5 5 5 5 5 5 5 5 5 5 5 5 5 5 5 5 5 5 5 5 5 5 5 5 5 5 5 5 5 5 5 5 5 6 5 5 5 5 5 5 6 5 5 5 5 5 5 5 5 5 5 5 5 5 5 6 5 5 5 5 5 6 5 6 5 5 5 5 5 5 5 6 5 6 5 5 5 6 5 5 5 5 5 5 5 6 5 5 6 5 5 5 5 5 5 6 5 5 6 5 5 5 6 5 5 6 5 6 6 5 5 6 6 5 5 5 5 5 6 5 5 5 5 5 5 5 6 5 5 6 5 5 6 5 6 5 5 5 5 5 5 5 5 5 5 5 5 5 5 5 5 5 5 5 5 6 5 5 5 5 5 5 5 5 5 5 5 5 5 5 5 5 5 6 5 5 5 5 6 5 5 5 5 5 5 5 5 5 5 5 6 5 6 5 5 5 5 5 6 5 6 5 5 5 6 5 5 5 5 5 5 5 5 5 5 5 5 6 5 5 5 6 5 5 5 5 5 6 5 5 5 5 5 5 5 5 5 5 5 5 5 5 5 5 5 5 6 5 5 6 6 5 5 5 5 5 5 6 5 5 5 6 5 5 5 5 5 5 5 5 6 5 5 6 5 5 5 5 5 5 5 5 5 6 5 5 5 5 5 5 5 5 5 5 5 5 5 5 5 6 5 5 5 5 5 6 5 6 5 5 5 5 5 5 5 5 5 5 5 5 5 5 5 5 6 5 5 5 5 5 5 5 5 5 5 5 5 5 5 5 5 5 6 5 5 5 5 5 5 5 5 5 5 5 6 5 5 5 5 5 5 5 5 5 5 5 5 5 6 5 5 5 6 5 5 5 5 5 5 5 5 5 5 5 5 5 5 5 5 5 5 5 5 5 5 5 5 5 5 6 5 5 6 5 5 5 5 5 5 5 5 5 5 5 5 5 6 5 5 5 5 5 5 5 5 5 5 5 5 5 5 5 5 5 5 5 6 5 5 5 5 6 5 5 5 6 5 5 6 5 5 5 5 5 5 5 5 5 6 5 5 5 5 5 5 6 5 5 5 5 6 5 5 5 6 5 6 6 5 5 5 5 5 5 5 5 5 5 5 5 5 6 5 5 5 5 5 5 6 6 5 5 6 5 5 6 6 5 6 5 5 5 5 6 6 5 5 6 5 5 5 5 5 5 5 6 5 5 6 5 5 5 6 5 5 5 5 5 5 5 5 5 5 6 5 5 5 5 5 5 6 5 5 5 5 5 5 5 5 5 5 5 5 5 5 6 5 5 5 6 5 5 5 5 5 5 5 5 5 6 5 5 6 5 5 6 5 6 5 6 6 5 5 5 5 5 5 5 5 5 5 5 5 5 5 5 5 5 5 5 5 5 5 5 5 5 5 5 5 5 5 5 5 5 5 5 6 5 5 5 5 5 5 5 5 5 5 5 5 5 5 5 5 5 5 5 5 5 5 5 5 5 5 5 5 5 5 5 5 5 5 5 5 5 5 6 5 5 5 5 5 5 5 6 5 5 6 5 5 6 5 5 5 5 5 5 5 5 5 5 5 5 5 5 5 5 5 5 5 5 5 5 5 5 5 5 5 5 5 5 5 5 5 6 5 5 5 5 5 5 6 5 5 6 5 5 5 5 5 5 5 5 5 5 5 5 5 5 5 5 5 6 5 5 5 5 6 5 5 5 6 5 5 5 5 6 5 5 5 5 5 5 5 5 5 5 5 5 5 5 5 5 6 5 6 5 5 5 5 5 5 6 5 5 6 5 5 5 5 5 6 5 5 5 5 5 5 5 5 5 5 5 5 6 5 5 5 5 5 5 5 5 5 5 6 5 5 5 5 5 5 5 5 5 5 5 5 5 5 5 5 6 5 5 6 5 5 5 6 5 5 5 5 6 5 5 5 5 5 5 5 5 5 5 5 5 6 5 5 6 5 6 5 5 5 5 6 5 5 5 5 6 6 5 5 6 5 5 5 6 5 6 5 5 6 5 5 5 5 6 5 6 5 5 6 5 5 5 5 5 5 5 5 5 5 5 6 5 5 5 5 5 6 5 5 6 5 5 5 6 5 5 5 5 5 5 5 6 5 5 6 6 5 5 5 5 5 5 5 5 6 5 5 5 5 5 5 5 5 6 5 5 5 5 5 5 5 5 5 5 5 5 5 5 5 5 5 5 5 5 5 5 5 5 5 5 5 5 5 5 5 5 5 5 5 5 5 5 5 5 5 5 5 5 5 5 5 5 5 5 5 5 5 5 5 5 5 5 5 5 5 5 5 5 6 6 5 5 5 5 5 6 5 5 5 5 5 5 6 6 5 5 5 5 5 5 6 5 6 5 5 5 5 5 5 5 5 5 5 6 5 5 5 6 5 5 5 5 5 5 5 5 5 5 5 5 5 6 6 5 5 5 5 6 6 5 5 5 5 5 5 5 5 5 5 5 5 6 5 5 5 5 5 5 5 5 5 6 5 5 5 6 5 5 6 6 5 5 5 5 5 6 5 5 5 5 5 5 5 5 5 5 5 5 5 5 5 5 5 5 5 5 5 5 6 5 5 5 5 5 5 5 6 5 5 5 5 5 5 5 5 5 5 5 5 5 5 5 5 5 5 5 5 5 5 5 5 5 5 5 6 5 5 5 5 5 5 5 5 6 5 5 5 5 5 5 5 5 5 5 5 5 5 5 5 5 5 5 5 5 5 5 5 5 5 5 6 5 5 6 6 5 5 5 5 5 5 5 6 5 5 5 6 5 5 5 5 6 5 5 5 5 5 5 5 5 5 5 5 5 5 5 5 5 5 5 5 5 5 6 5 5 6 5 5 5 5 5 5 5 5 6 6 5 5 6 5 5 5 5 5 6 5 5 6 5 5 5 5 6 5 5 5 5 5 5 5 5 5 5 5 5 5 5 5 6 5 5 5 5 5 6 5 5 5 6 5 5 5 5 6 6 5 6 5 5 5 5 6 5 5 6 5 5 5 5 6 5 5 5 5 5 5 5 5 5 6 5 5 6 5 5 5 5 6 5 6 5 5 5 5 5 6 5 5 5 5 5 5 5 5 5 5 5 5 5 5 5 5 5 5 5 5 5 5 5 5 5 5 5 5 5 5 6 5 5 5 5 5 5 5 5 5 5 5 5 6 5 5 5 5 5 5 5 5 5 5 6 5 5 5 5 6 5 5 5 5 5 5 5 5 6 5 5 6 5 5 5 6 5 5 5 6 5 6 5 5 5 5 5 5 6 5 5 5 5 5 5 5 5 5 5 5 5 5 5 5 5 5 5 5 5 5 5 5 5 5 5 5 5 5 5 5 6 5 5 5 5 5 6 5 5 6 5 5 5 5 5 5 5 6 5 5 5 6 5 5 5 5 6 5 5 5 5 5 5 5 5 5 5 5 6 6 5 6 5 5 6 6 5 5 5 5 5 5 5 5 6 5 5 5 5 5 5 5 5 5 5 5 5 5 5 5 5 6 5 5 5 5 5 5 6 5 5 5 5 5 6 5 6 6 5 5 5 6 5 5 5 5 5 5 5 5 5 5 5 5 5 6 5 5 5 6 5 6 5 5 5 5 5 5 5 5 5 5 5 5 5 5 5 5 5 5 5 5 5 5 5 5 6 5 5 6 5 5 5 6 6 5 5 5 5 5 5 6 5 6 5 5 5 5 5 5 6 5 5 6 5 5 5 5 5 5 5 5 5 5 5 6 5 5 6 5 5 6 5 5 5 5 5 6 5 5 5 6 5 5 5 5 5 5 5 5 5 5 5 5 5 5 5 5 6 6 5 5 5 5 5 5 6 6 5 5 5 5 5 5 5 5 5 5 5 5 5 5 5 5 6 5 5 5 5 5 5 5 5 5 5 5 5 5 6 5 5 5 5 5 5 6 5 5 5 5 5 6 5 5 5 5 5 5 5 5 5 5 5 5 5 5 5 5 5 5 5 5 5 6 5 5 6 5 5 6 5 5 5 5 6 5 5 5 5 5 5 5 5 5 5 5 5 5 5 5 5 5 5 5 6 5 6 5 5 5 5 5 5 6 5 5 5 5 5 5 6 5 5 6 5 5 5 5 5 5 5 5 5 5 5 5 5 5 5 5 5 5 5 5 5 5 6 5 5 6 5 5 6 5 5 5 5 5 5 5 6 5 5 5 5 6 5 5 5 6 5 5 5 5 5 5 5 5 5 5 5 5 5 5 5 5 5 5 5 5 5 5 5 5 5 5 5 5 5 5 6 5 5 6 5 5 5 5 5 5 5 5 5 6 5 5 5 6 5 5 6 6 5 5 5 5 5 5 5 5 5 5 5 5 5 5 5 5 5 5 5 5 5 5 6 5 5 5 5 5 5 5 5 5 5 5 5 5 5 5 6 5 5 5 6 5 6 6 5 6 5 6 6 5 5 5 5 5 5 5 6 5 5 5 5 5 5 6 5 5 5 5 5 6 5 5 5 5 5 5 5 5 5 5 5 5 5 5 5 5 6 6 5 5 6 5 5 5 5 5 5 5 5 6 5 5 6 5 6 5 5 5 5 5 6 5 5 5 5 5 5 5 5 5 6 5 5 5 5 5 5 5 5 5 5 6 5 5 5 5 5 5 5 5 5 5 5 5 5 5 5 5 5 5 5 5 5 5 5 5 5 5 5 5 5 5 5 5 5 5 5 5 5 6 5 5 6 5 5 5 5 5 5 5 5 6 5 5 5 5 5 5 5 5 5 5 5 5 5 5 5 5 5 5 5 5 5 6 5 5 6 5 5 6 5 5 5 5 5 5 5 5 5 5 5 5 5 5 5 5 5 5 5 5 5 5 5 5 5 5 6 5 5 6 5 5 6 5 5 5 5 6 5 5 5 5 6 5 5 5 5 5 5 5 5 5 5 5 5 5 5 5 6 5 5 5 5 6 5 5 6 5 5 6 5 6 5 5 5 5 5 5 5 5 5 5 6 5 5 5 5 5 5 5 5 5 5 5 5 5 5 5 6 5 5 5 5 5 5 5 5 5 5 5 6 5 5 5 5 6 5 5 6 5 5 5 5 5 5 6 5 5 6 6 5 5 5 5 5 5 5 5 5 5 5 5 6 5 5 5 5 5 5 5 5 5 5 5 5 5 5 5 6 5 5 5 5 5 6 5 5 6 5 5 5 5 5 5 5 5 5 5 5 5 5 5 5 5 5 6 5 5 6 5 5 5 6 5 5 5 5 6 5 5 5 5 5 5 5 5 5 5 5 5 5 5 5 5 5 5 5 5 5 5 5 6 5 5 5 5 5 5 5 5 6 5 5 5 5 6 5 5 6 5 6 5 5 5 5 5 5 5 5 5 5 5 5 5 5 5 5 5 5 5 5 5 5 5 6 5 5 5 5 5 5 6 5 5 5 6 5 5 5 5 5 5 5 5 5 5 5 5 5 6 5 5 5 5 5 6 5 5 5 5 6 5 5 6 5 5 6 5 5 5 6 5 5 5 5 5 5 5 5 5 5 5 5 6 5 5 5 5 5 5 5 6 5 6 5 5 5 5 5 5 5 5 5 5 5 5 5 5 5 5 5 5 5 5 5 5 5 5 5 5 5 5 5 5 5 5 5 5 5 5 6 5 5 5 5 5 5 5 5 5 5 5 5 5 5 5 5 5 5 5 5 5 5 5 5 5 5 5 5 5 5 5 5 5 6 5 5 5 5 6 5 6 5 5 5 6 5 5 5 5 6 5 5 5 5 5 5 5 5 5 5 5 5 5 5 6 5 5 5 5 6 5 5 6 5 5 5 6 5 5 5 5 5 5 5 5 5 5 5 5 5 5 6 5 6 5 5 5 5 5 5 5 5 5 6 6 5 6 6 5 5 5 5 5 6 5 5 5 5 6 5 5 5 5 5 5 5 6 5 5 6 5 6 5 5 5 5 5 5 5 5 5 5 5 5 5 5 5 5 5 5 5 5 5 5 5 5 5 5 5 5 5 5 5 5 5 5 5 5 6 5 6 6 6 5 5 5 6 5 6 5 5 5 5 5 5 5 5 6 5 5 6 5 5 5 5 5 5 5 5 5 5 6 5 5 6 5 5 5 6 5 5 5 5 5 5 5 5 5 5 6 5 5 5 5 6 5 5 5 5 5 5 6 6 5 5 5 5 6 5 5 6 6 5 5 5 5 5 5 5 5 5 5 6 5 5 6 5 6 5 6 5 5 5 5 5 5 6 5 5 5 5 5 5 5 5 5 5 5 5 5 5 5 5 5 5 5 5 5 5 5 6 5 5 5 5 6 5 5 5 5 5 6 5 5 5 5 5 5 5 5 5 5 5 5 5 5 5 5 5 5 5 5 5 5 5 6 5 5 6 5 5 5 6 6 5 5 6 5 5 6 5 5 5 5 5 5 5 5 5 5 5 6 5 5 5 5 6 5 6 5 5 5 5 5 5 5 5 6 6 6 5 5 5 5 5 5 5 5 6 5 5 5 6 5 5 5 5 6 5 5 5 6 5 5 5 5 5 5 5 5 5 5 5 5 5 6 5 5 5 5 5 5 6 5 5 6 5 5 5 5 6 5 5 5 5 5 5 5 5 5 6 5 5 5 6 5 6 5 5 5 5 6 5 5 5 6 5 5 5 5 5 5 5 5 5 5 5 5 5 5 5 5 5 5 5 5 5 5 5 5 5 5 5 5 5 5 5 5 5 5 5 5 5 5 6 5 5 5 5 5 5 5 6 5 5 6 5 5 6 5 6 5 5 5 5 5 5 5 5 5 6 5 5 5 5 5 6 5 5 5 5 5 5 5 5 6 5 6 6 5 5 5 5 5 5 6 5 5 5 5 6 5 5 5 6 5 5 5 5 5 6 5 5 5 5 5 5 5 5 5 5 5 5 6 5 5 5 5 5 5 5 5 5 5 5 5 5 5 6 5 5 5 6 5 5 5 5 5 5 5 5 5 5 5 5 6 5 5 5 5 6 5 5 5 6 5 5 5 5 5 5 6 5 6 5 5 5 5 5 5 5 5 5 5 5 5 5 5 5 5 5 5 5 5 5 5 5 5 5 5 5 5 5 5 5 6 5 5 5 6 5 5 5 6 5 5 5 5 5 5 5 6 5 5 5 5 5 5 5 5 5 5 5 5 5 6 5 6 5 5 5 6 5 5 5 5 5 5 5 6 6 5 6 5 6 5 5 5 5 6 5 5 6 5 6 5 5 5 5 5 5 5 5 6 6 5 5 6 5 6 5 5 5 5 5 5 6 5 5 5 5 5 5 6 5 5 5 5 5 5 5 6 5 5 5 5 6 5 5 5 6 6 5 5 5 5 5 5 5 5 6 5 6 5 5 5 5 6 5 5 5 6 5 6 5 6 5 5 6 5 5 6 5 5 5 5 5 5 5 5 5 5 5 5 5 5 5 5 5 5 5 5 5 5 5 6 5 6 5 6 5 5 5 5 6 6 5 5 5 5 5 5 5 5 6 6 5 5 5 5 5 5 5 5 5 5 5 6 5 5 6 5 5 5 5 5 5 5 5 5 5 5 5 5 5 5 5 5 5 5 6 5 5 5 5 5 5 5 5 5 5 5 5 5 5 5 5 5 5 5 5 5 6 5 5 5 5 6 5 5 6 5 5 6 5 5 5 5 5 5 6 6 5 5 5 5 5 5 5 5 5 5 5 5 5 5 5 5 6 5 5 6 5 5 5 6 6 5 5 5 5 6 5 5 5 5 5 6 5 5 5 5 5 5 5 5 5 5 5 5 5 5 5 5 5 5 5 5 5 5 5 5 5 6 5 5 5 5 6 6 5 5 5 5 5 5 5 5 5 5 5 5 5 5 5 5 5 5 5 5 5 5 5 5 6 5 5 6 5 5 5 5 5 5 5 5 5 5 5 5 5 5 5 5 6 5 5 6 5 5 5 5 5 5 6 5 5 5 5 6 5 5 5 6 5 5 6 5 5 5 5 5 6 5 6 6 5 5 5 5 5 5 5 5 5 5 5 6 5 5 5 6 5 6 5 5 5 5 6 5 5 5 5 5 5 5 5 5 5 5 6 6 5 5 6 5 5 6 5 6 5 5 5 5 6 5 5 5 5 5 5 5 5 5 6 5 5 5 5 5 5 6 5 5 6 5 5 6 5 6 5 5 5 6 5 5 5 5 5 5 5 5 5 5 5 5 5 5 5 5 5 6 5 5 6 5 5 5 5 5 5 5 5 5 5 5 6 5 6 5 5 6 5 5 5 6 5 5 6 6 6 6 5 5 5 6 6 5 5 5 5 5 5 6 5 5 5 5 5 5 5 5 6 5 5 5 5 5 5 5 5 5 5 6 5 6 5 6 5 6 5 6 5 5 5 6 5 5 5 5 5 5 6 5 5 5 5 5 6 5 5 5 5 5 5 6 5 5 5 5 5 5 6 5 5 5 6 6 5 5 6 5 6 5 5 5 5 5 5 6 5 5 5 5 5 5 5 5 5 5 5 5 5 5 5 5 5 5 5 5 5 5 5 5 5 5 5 5 5 5 5 5 5 5 5 5 6 5 5 5 5 5 5 5 5 5 5 5 5 5 5 5 5 5 5 5 5 5 5 5 5 5 5 5 5 5 5 5 5 5 5 5 5 5 5 5 5 5 5 5 5 5 5 6 5 5 5 5 5 5 5 5 5 5 5 5 5 5 5 5 5 5 5 5 5 5 5 5 5 5 5 5 5 5 5 5 5 5 5 5 5 5 5 5 5 5 5 5 5 5 5 5 5 5 5 5 5 5 5 5 5 5 5 5 5 5 5 5 5 5 5 5 5 5 5 5 5 5 5 5 5 5 5 5 5 5 5 5 5 5 5 5 5 5 5 5 5 5 5 5 5 5 5 5 5 5 5 5 5 5 5 5 5 5 5 5 5 5 5 5 5 5 5 5 5 5 5 5 5 5 5 5 6 5 5 5 5 5 5 5 5 5 5 5 5 5 5 5 5 5 5 5 5 5 5 5 5 5 5 5 5 5 5 5 5 6 5 5 5 5 5 5 5 5 5 6 5 5 5 5 5 5 5 6 5 5 5 5 5 5 6 5 5 6 5 5 5 5 5 5 5 5 5 5 5 6 5 5 5 5 5 5 5 5 6 5 5 5 6 6 5 6 5 5 5 5 5 6 5 6 5 5 6 5 5 5 5 5 5 5 5 5 5 5 5 5 5 5 5 5 5 5 5 5 6 5 5 5 5 6 6 5 5 5 5 5 5 5 5 5 6 5 5 5 5 5 5 5 5 5 5 5 5 5 5 5 5 5 5 5 6 5 5 5 5 6 5 5 5 6 6 5 6 5 5 5 5 5 5 5 5 6 5 5 5 5 5 5 5 5 5 5 5 5 5 5 5 5 5 5 5 5 5 6 5 5 5 6 5 6 5 5 6 5 5 5 5 5 5 5 5 5 5 5 5 5 5 5 6 5 5 5 5 5 5 5 6 5 5 5 5 5 5 5 5 5 5 5 5 5 6 5 5 5 5 5 5 6 5 5 5 5 6 5 5 5 6 5 5 5 5 5 5 5 5 5 5 6 5 5 6 5 5 6 6 5 6 5 5 6 5 5 5 5 5 5 5 5 5 5 5 5 5 6 5 5 5 5 5 5 5 5 5 6 5 5 5 5 6 5 5 5 5 5 5 5 5 5 5 6 5 5 5 6 5 5 5 5 5 5 6 5 5 5 5 5 5 5 5 5 5 5 5 6 5 5 5 5 5 5 6 5 5 5 5 5 5 5 5 5 5 5 6 5 5 5 5 5 6 6 5 5 5 5 5 5 5 6 6 5 5 6 5 5 6 5 5 5 5 6 5 5 6 5 5 5 5 5 5 5 5 5 5 5 5 6 5 5 6 5 5 6 5 6 5 6 5 5 5 5 5 5 5 5 5 6 5 5 5 5 6 5 5 6 5 5 6 5 5 5 5 5 6 5 5 5 5 5 6 6 5 6 5 5 5 5 6 6 6 5 5 5 5 5 5 6 6 5 6 5 5 5 5 5 5 6 5 5 5 5 6 5 6 5 5 5 5 6 5 6 5 5 5 5 6 5 5 5 5 5 5 5 5 5 5 5 5 5 5 6 5 5 5 5 5 5 5 5 5 6 5 5 5 5 5 5 5 5 5 5 6 5 5 5 5 5 5 5 5 6 6 5 5 5 5 6 5 5 5 6 5 5 6 5 5 5 5 6 5 5 5 5 5 5 5 5 5 5 5 6 5 5 5 5 6 5 5 6 5 5 5 5 5 5 5 5 5 5 5 5 6 5 5 5 5 5 5 5 5 5 6 5 5 5 5 5 5 6 5 5 6 5 5 6 5 5 5 5 5 5 5 5 5 5 6 5 5 5 5 5 5 5 5 5 5 5 5 5 5 5 5 5 5 5 5 6 5 5 5 5 5 5 5 6 5 5 5 5 5 6 5 6 5 5 5 5 5 5 5 5 5 5 5 5 5 5 5 5 5 5 6 6 5 5 5 5 6 5 6 5 6 5 5 6 5 6 5 5 5 6 5 5 5 5 5 5 5 5 5 5 5 5 5 5 5 5 5 5 5 5 5 5 5 6 5 5 5 5 5 6 5 6 5 5 5 5 5 5 5 5 6 5 5 5 5 5 5 6 5 5 5 6 5 5 5 5 5 5 5 6 5 6 5 5 6 5 5 5 5 5 5 5 5 5 5 6 5 5 5 5 5 5 5 5 6 5 5 5 5 5 6 5 5 5 5 5 5 5 6 6 6 5 5 6 5 5 5 5 5 5 5 5 5 5 5 5 5 6 5 5 5 5 5 5 6 5 5 5 5 5 5 5 5 5 5 5 5 6 5 5 5 5 5 5 6 5 5 5 6 6 5 5 5 5 5 6 5 6 6 5 6 5 5 5 5 6 5 5 5 6 6 5 6 6 5 5 5 5 5 5 5 5 5 5 5 5 5 5 5 6 5 5 5 5 6 5 5 5 5 6 5 6 5 6 6 6 5 5 6 6 5 5 5 5 5 5 5 5 6 5 5 5 5 5 5 5 5 5 5 5 5 5 5 5 5 5 5 5 6 5 5 6 5 5 6 5 5 6 5 5 5 5 6 5 5 5 5 6 5 6 5 5 5 5 5 5 5 5 5 5 5 5 5 5 5 5 5 5 5 5 5 6 5 5 5 6 6 5 5 5 5 5 5 5 5 5 6 5 5 5 6 5 5 5 5 5 5 6 5 5 5 5 5 5 5 5 5 5 6 5 6 5 5 6 5 5 5 6 5 5 5 5 5 5 5 5 6 5 5 5 5 5 6 5 5 6 5 5 5 5 5 5 6 5 5 6 5 5 5 5 6 5 5 6 5 5 5 5 5 5 5 5 6 6 5 5 5 5 6 5 6 5 5 5 5 5 5 5 5 5 5 5 5 5 5 5 5 5 6 5 5 6 5 5 5 5 5 5 6 5 5 6 5 5 5 5 5 6 5 5 5 6 5 5 6 5 5 5 6 5 5 5 6 6 5 5 5 5 5 5 5 5 6 6 6 5 5 5 6 5 6 6 5 5 6 5 5 5 5 5 5 5 5 5 6 5 6 5 5 5 5 6 5 5 5 5 6 5 6 5 5 5 5 6 5 5 5 5 5 5 5 5 5 5 5 5 5 5 5 5 5 6 5 5 5 5 5 6 5 6 5 5 5 5 6 5 5 5 5 5 5 5 5 5 5 6 5 5 5 5 5 5 6 6 5 5 5 5 5 5 5 5 5 5 5 5 6 5 5 6 5 5 5 5 5 5 5 5 5 6 6 5 5 5 5 5 5 5 5 6 5 5 6 6 5 6 6 5 5 5 6 6 6 5 5 5 5 5 6 5 5 5 5 5 6 5 5 6 5 5 5 5 6 5 5 5 5 5 6 5 6 5 6 5 5 5 6 5 5 5 5 5 5 5 6 5 5 5 5 6 5 5 5 5 5 5 5 5 5 5 5 5 5 6 5 5 5 5 5 5 6 5 6 5 5 5 5 5 5 5 5 5 5 5 5 5 5 5 5 5 5 5 5 5 5 5 5 5 5 5 5 5 5 6 5 5 6 5 5 5 5 5 6 6 5 5 5 6 5 5 5 5 5 5 5 5 5 5 5 6 5 5 6 6 5 5 6 6 5 5 6 6 5 5 5 5 5 5 5 5 5 5 5 5 5 5 5 5 5 5 5 6 5 6 5 5 5 5 5 5 5 5 5 5 5 5 5 5 5 5 5 5 5 5 5 5 5 5 5 5 6 5 5 5 5 5 5 6 5 5 5 6 5 5 5 5 5 6 5 5 6 5 5 5 5 5 5 5 6 5 6 5 5 5 5 5 5 5 5 5 5 5 5 5 5 5 5 5 5 6 5 5 6 5 5 5 5 6 5 5 6 5 6 5 5 5 5 6 5 5 5 5 5 5 5 5 5 5 5 5 5 5 5 5 5 5 5 5 5 6 5 5 5 5 5 5 5 5 6 5 5 6 5 5 5 5 5 5 5 5 5 5 5 5 5 5 5 5 5 5 5 5 5 6 5 5 5 5 5 5 5 5 5 5 5 5 5 5 5 5 5 5 5 5 5 5 5 5 5 5 5 5 5 5 5 5 5 5 5 5 5 5 5 5 5 5 5 5 5 6 5 5 5 5 5 5 5 5 5 5 5 5 5 5 5 6 5 5 5 5 5 5 5 5 5 6 5 5 5 5 5 5 5 5 6 5 5 5 5 5 5 5 5 5 5 5 6 5 5 5 5 5 5 5 5 6 5 5 5 5 5 5 5 5 6 5 5 5 5 5 6 6 5 5 5 5 5 5 5 5 5 5 5 5 5 5 6 5 5 5 6 5 5 6 5 5 5 6 5 6 5 6 6 5 5 5 6 5 5 5 5 5 5 5 5 5 5 6 5 5 6 5 5 5 5 5 5 5 5 5 5 5 5 5 6 5 5 5 5 5 5 5 5 5 6 5 6 5 5 5 5 5 5 5 6 5 5 5 5 5 6 5 6 6 5 6 5 5 5 6 5 5 5 5 5 5 5 5 5 5 6 5 5 5 6 5 5 5 6 5 5 5 5 5 6 6 6 6 5 5 5 5 5 6 6 5 5 5 6 5 5 5 5 5 5 5 5 5 6 5 5 5 5 5 5 6 5 5 5 5 5 6 5 5 5 5 5 5 5 5 5 5 5 5 5 5 5 5 5 5 5 5 5 5 5 5 5 5 5 5 5 6 5 5 5 5 5 5 5 5 5 5 5 5 5 6 5 5 5 5 5 5 5 5 5 5 5 5 5 5 5 5 5 5 5 5 5 5 6 5 6 5 5 6 5 5 5 5 5 5 6 5 5 5 5 5 5 5 5 6 6 5 5 6 5 6 6 5 5 6 5 5 5 5 5 5 5 5 6 5 5 5 5 5 5 5 6 5 5 5 5 5 5 5 5 5 5 5 6 5 5 5 5 5 5 5 5 5 6 5 5 6 6 5 5 5 5 5 6 6 5 5 5 5 5 5 5 5 6 5 5 5 5 5 5 5 5 5 5 5 5 5 5 5 6 5 5 6 5 6 5 5 6 5 5 5 5 6 5 6 6 5 6 6 5 6 5 5 5 5 5 5 5 5 5 5 6 5 6 5 5 5 5 6 5 6 5 5 5 5 5 5 5 5 5 6 5 5 5 6 5 5 5 5 5 5 5 5 5 5 5 5 6 5 5 5 5 5 5 5 5 5 5 6 5 5 5 5 5 5 5 5 5 5 5 5 5 5 5 5 5 5 5 5 5 5 5 6 5 5 5 6 5 5 5 5 5 5 5 5 6 6 5 5 5 5 5 5 5 6 5 5 5 5 5 5 5 5 5 5 5 5 5 5 5 5 5 5 5 5 5 5 5 5 5 5 5 5 5 5 5 6 5 5 5 5 5 5 6 5 5 5 5 5 5 5 5 5 5 5 5 5 5 5 5 5 5 5 5 5 5 6 6 5 5 6 5 5 5 5 5 5 5 5 6 5 5 5 5 5 5 5 5 5 5 5 5 6 5 5 5 5 5 5 5 5 5 5 5 5 5 6 5 5 5 6 5 5 5 5 5 5 5 5 5 6 6 5 5 5 6 6 5 5 5 5 5 5 5 6 5 5 5 5 6 5 5 6 5 5 5 5 5 5 5 5 5 5 5 5 5 5 6 5 5 5 5 5 5 5 5 5 5 5 5 5 5 5 5 5 5 5 5 5 5 5 5 5 6 5 5 6 5 5 5 5 5 5 5 5 5 6 5 6 5 5 5 5 5 5 5 5 5 5 5 5 5 6 6 5 5 5 5 5 6 5 5 5 5 5 5 5 5 5 6 6 5 5 5 5 5 6 6 5 6 5 5 5 5 5 5 5 5 5 5 5 5 5 5 6 5 5 5 5 5 6 5 5 5 5 5 6 5 5 5 6 5 5 5 5 5 5 6 5 5 5 5 5 5 5 6 5 5 5 5 6 6 5 5 5 5 6 6 5 5 5 6 5 5 5 5 5 5 5 5 6 5 5 5 5 5 5 5 5 5 5 5 5 5 5 5 5 5 5 5 5 5 5 6 5 5 5 5 6 5 5 6 5 5 5 5 6 5 5 5 5 5 5 6 5 5 5 5 5 5 5 5 5 5 5 5 6 5 5 5 5 5 5 5 5 5 5 5 5 5 5 5 5 5 6 5 5 5 5 6 5 5 5 5 5 5 5 5 5 5 5 5 5 5 5 5 5 5 5 6 5 6 5 5 5 5 5 6 5 5 5 6 5 5 5 5 5 5 5 5 5 5 5 5 5 5 5 5 5 5 5 5 5 6 5 5 5 5 5 5 5 5 5 6 6 5 6 5 5 6 5 5 5 5 5 5 5 5 5 5 5 5 5 5 5 5 5 5 5 5 5 6 5 5 5 5 5 6 5 5 5 6 5 5 5 5 5 5 5 5 5 6 5 5 5 5 6 6 6 5 5 5 5 5 5 5 5 5 5 5 5 5 5 5 5 5 6 5 5 6 5 5 5 5 5 5 5 5 6 5 5 6 5 5 5 5 5 5 5 5 5 5 5 5 5 5 5 5 5 5 5 5 5 5 5 5 5 6 5 6 5 5 5 5 6 5 5 6 5 5 5 5 5 5 5 6 5 5 5 6 5 5 5 5 5 5 5 5 5 5 6 5 5 5 5 5 5 5 5 5 5 5 5 5 5 5 5 5 5 5 5 5 5 5 5 5 5 5 5 5 5 5 5 5 5 5 5 5 5 5 5 5 5 5 5 5 5 5 5 5 5 5 5 5 5 5 5 5 5 5 5 5 5 5 5 5 5 5 5 5 5 5 5 5 5 5 5 5 5 6 5 6 5 5 5 5 6 5 5 5 5 5 5 5 5 5 5 5 5 5 5 5 5 5 5 5 5 5 5 5 5 5 5 5 5 5 5 5 5 5 6 5 5 5 5 5 5 5 6 5 5 5 6 5 5 5 5 5 5 5 5 6 
</DataArray>
<DataArray type="Float64" Name="stress" NumberOfComponents="9" format="ascii">
-553.57550180464023 -14.989098132024703 0 -14.989098132024703 -1.0333553762443195 0 0 0 0 -1494.0338533671347 471.39487982783959 0 471.39487982783959 -30.878793127566091 0 0 0 0 -2.4011585779829723 2.2325965953307474 0 2.2325965953307474 -1.8398334077135017 0 0 0 0 -1499.769335324032 -313.94227562415 0 -313.94227562415 -69.669620740481236 0 0 0 0 109.93931870687447 186.79104953436604 0 186.79104953436604 -87.341355820432327 0 0 0 0 -67.438700205675559 47.204080180849473 0 47.204080180849473 72.329184356655674 0 0 0 0 -247.8816290309187 -4.7813894890084612 0 -4.7813894890084612 61.057783546098051 0 0 0 0 -1371.1601382877088 -279.48098716944014 0 -279.48098716944014 -60.500659928603405 0 0 0 0 -44.590260475484683 -32.202993772205332 0 -32.202993772205332 5.2677115628582669 0 0 0 0 -30.329025141669263 -51.707109455756722 0 -51.707109455756722 2.571291264112773 0 0 0 0 -111.47706297127661 15.486276271531835 0 15.486276271531835 59.543422778096328 0 0 0 0 -112.36277247440739 -103.35594254297212 0 -103.35594254297212 -69.410733656456074 0 0 0 0 -17.587235919394516 1.9636560220327663 0 1.9636560220327663 -5.9525996048372178 0 0 0 0 -17.146719860480516 -7.5281721311608756 0 -7.5281721311608756 -124.53048318694152 0 0 0 0 -3.4987676982782432 -0.2873814377355382 0 -0.2873814377355382 -0.0053651452702078578 0 0 0 0 -553.47860421728126 -13.076233915434198 0 -13.076233915434198 26.323801504930362 0 0 0 0 -0.2602839360870064 0.4689025571825276 0 0.4689025571825276 -0.031133265552972338 0 0 0 0 -7.9364456717939902 -7.5503710099588446 0 -7.5503710099588446 -4.5887219285671002 0 0 0 0 -20.105908760335296 -3.2310006226112629 0 -3.2310006226112629 -0.0014639707782207253 0 0 0 0 -27.509755025188497 5.7599754110440822 0 5.7599754110440822 -4.1136003708838302 0 0 0 0 -5.2795561875682893 0.36619802907311794 0 0.36619802907311794 0.5214712500840557 0 0 0 0 -51.233931913455308 30.023973015850302 0 30.023973015850302 15.975356937203991 0 0 0 0 -47.515903147090597 5.2533310347010236 0 5.2533310347010236 2.6947200931598672 0 0 0 0 -2.6613881924710938 -2.7989585379145296 0 -2.7989585379145296 -0.81172513406883118 0 0 0 0 0.72898510245794057 0.34536019727627831 0 0.34536019727627831 0.17132996224693853 0 0 0 0 86.357686828902843 72.469971244049447 0 72.469971244049447 0.015762074974029004 0 0 0 0 -145.48354907137764 -14.587261676698304 0 -14.587261676698304 11.903155860501535 0 0 0 0 -70.405292018440377 24.561078098982293 0 24.561078098982293 -0.032031660677144087 0 0 0 0 -50.915701982114115 -7.762988888384271 0 -7.762988888384271 -8.2980706194206917 0 0 0 0 -13.093306833561208 -0.92024966579586476 0 -0.92024966579586476 0.32340658416939772 0 0 0 0 -47.605793275656751 9.3659897318406848 0 9.3659897318406848 1.9336310823269778 0 0 0 0 -89.742473873769995 2.2526740084333099 0 2.2526740084333099 20.708892475745301 0 0 0 0 -99.71020699143628 57.992488961926604 0 57.992488961926604 74.856950205351382 0 0 0 0 -63.750700189236341 -16.516223275735321 0 -16.516223275735321 36.760404726804609 0 0 0 0 -13.889574975379599 -1.2219714329784281 0 -1.2219714329784281 1.3448988680646026 0 0 0 0 50.409259960641066 95.465605518566178 0 95.465605518566178 63.969814454209299 0 0 0 0 26.7345206968821 -33.744509486572383 0 -33.744509486572383 -39.862608384540579 0 0 0 0 -64.965546624018316 -18.719884878839864 0 -18.719884878839864 26.301861053775042 0 0 0 0 -19.774953227339765 -21.993534168609301 0 -21.993534168609301 -2.1080641237713849 0 0 0 0 -66.326408878401708 -18.963036149168431 0 -18.963036149168431 34.466662571224106 0 0 0 0 -74.470321417691594 -41.049000100300532 0 -41.049000100300532 22.084089546744725 0 0 0 0 -73.52758042966525 -33.756919367889651 0 -33.756919367889651 58.849766211838912 0 0 0 0 -13.213084340233763 -53.722476821754213 0 -53.722476821754213 -20.787502040376239 0 0 0 0 -13.343215376228947 -20.86871100368311 0 -20.86871100368311 2.988263035664863 0 0 0 0 -8.2427689349369757 -12.956505945431211 0 -12.956505945431211 0.18490621854886058 0 0 0 0 -30.170967227359142 -73.515274982496052 0 -73.515274982496052 -126.02638082453501 0 0 0 0 -140.56281131501601 52.025373947083281 0 52.025373947083281 247.61467879047183 0 0 0 0 -3.2678813538074252 -1.1062450927853362 0 -1.1062450927853362 -0.60359938972395688 0 0 0 0 -6.2945398207523056 -6.1445445507883463 0 -6.1445445507883463 -0.14838188774404215 0 0 0 0 7.6627464504217642 -162.79146134552209 0 -162.79146134552209 247.61825965230463 0 0 0 0 3.0837675972143188 -18.245274115526854 0 -18.245274115526854 1.1213407782652212 0 0 0 0 -228.25513979926018 94.105485818840862 0 94.105485818840862 131.39950050336057 0 0 0 0 -199.55434852856342 -119.39467459046691 0 -119.39467459046691 8.3478208835754799 0 0 0 0 -229.03787059116439 40.382838179599787 0 40.382838179599787 263.46720580229498 0 0 0 0 -12.477277471798516 -24.596284558791865 0 -24.596284558791865 -45.290446089588215 0 0 0 0 -319.22879431818819 -73.290555707789309 0 -73.290555707789309 308.60361182108147 0 0 0 0 -34.342091303933557 31.038086241486269 0 31.038086241486269 84.279774542250152 0 0 0 0 57.425863642467448 158.07356555931403 0 158.07356555931403 256.03444814115107 0 0 0 0 -413.36874332956722 -14.104922008179216 0 -14.104922008179216 254.17283258548366 0 0 0 0 -0.9670279868855971 0.23854579392606468 0 0.23854579392606468 1.0797925986622545 0 0 0 0 -498.46459691167274 -216.65811369132896 0 -216.65811369132896 67.528631283477068 0 0 0 0 -266.98043117443194 -22.204758959874937 0 -22.204758959874937 7.3754511124033684 0 0 0 0 -2.3373770681500901 17.830695459899744 0 17.830695459899744 87.15747194407885 0 0 0 0 -2.8265336589385797 1.0959129710366255 0 1.0959129710366255 2.9318667794573789 0 0 0 0 -199.43314002049374 21.600319615550944 0 21.600319615550944 11.489166704337492 0 0 0 0 -149.65789252077957 -28.063474122306303 0 -28.063474122306303 61.862160862799556 0 0 0 0 47.016353170070943 -138.24568381197582 0 -138.24568381197582 156.59561459848808 0 0 0 0 -167.47420373878776 -45.346554238330299 0 -45.346554238330299 187.72746558120585 0 0 0 0 -292.11887984868736 -4.7423683131899352 0 -4.7423683131899352 131.0357106543604 0 0 0 0 -130.50470949900046 -17.918619977162393 0 -17.918619977162393 130.45657888700546 0 0 0 0 -43.692844033215806 -163.01455513325234 0 -163.01455513325234 204.2753252981874 0 0 0 0 -91.876372723956592 -231.33166205397657 0 -231.33166205397657 270.8986933517379 0 0 0 0 -5.0502522164051555 1.2064303506519991 0 1.2064303506519991 3.9958479820262371 0 0 0 0 85.161109022345045 -107.52594698100057 0 -107.52594698100057 181.7615835391577 0 0 0 0 246.80287427035364 -281.01486316219166 0 -281.01486316219166 147.91710675128928 0 0 0 0 -48.174385389407689 -48.988138202307027 0 -48.988138202307027 -20.2995982167904 0 0 0 0 -93.261160954567458 5.09495356737159 0 5.09495356737159 27.589785771514016 0 0 0 0 -43.441530521396444 -11.404188936880466 0 -11.404188936880466 3.1655513349683493 0 0 0 0 -100.78472885763767 -79.426137164890406 0 -79.426137164890406 94.384930965089666 0 0 0 0 -143.46032602636842 -361.0463281850428 0 -361.0463281850428 221.27949180132561 0 0 0 0 -167.3570840894572 -281.95274191549572 0 -281.95274191549572 -39.874549762129561 0 0 0 0 -238.16951760195661 -503.44153304601775 0 -503.44153304601775 -369.41008821209965 0 0 0 0 -288.33981117774965 -352.11789310958477 0 -352.11789310958477 -37.777001845897516 0 0 0 0 -161.70280671228102 -158.89869126904227 0 -158.89869126904227 -110.26883833309648 0 0 0 0 -103.21628459486965 -274.56688337506512 0 -274.56688337506512 -263.23224017139137 0 0 0 0 -134.88698975372245 -131.1532481857532 0 -131.1532481857532 -83.970194981376039 0 0 0 0 -96.979193051702168 -134.57529677131106 0 -134.57529677131106 -128.31924573705646 0 0 0 0 -1497.0914966355922 -897.73787048074098 0 -897.73787048074098 -21.776195782063038 0 0 0 0 -595.32359891162923 -917.91512058826572 0 -917.91512058826572 -1059.1006809252087 0 0 0 0 -7.2496229182871872 -0.28224282260193689 0 -0.28224282260193689 -3.9851320980579086 0 0 0 0 -1497.0947936296798 364.90565409929695 0 364.90565409929695 13.207693234622662 0 0 0 0 -24.756972301052883 28.969536274268194 0 28.969536274268194 -1002.3423709429311 0 0 0 0 -84.000596107260208 -67.014879180829666 0 -67.014879180829666 -13.473184867727241 0 0 0 0 -45.979824348949478 4.7845229544373069 0 4.7845229544373069 -4.6769415979406403 0 0 0 0 -38.945708813877346 -3.9734661519653969 0 -3.9734661519653969 -0.28471627590567072 0 0 0 0 -116.6107502136656 -154.23731735313049 0 -154.23731735313049 -145.50027837486596 0 0 0 0 27.437265582208056 61.335488138518485 0 61.335488138518485 -81.137800147764665 0 0 0 0 -6.6215707106459476 1.0626509085847005 0 1.0626509085847005 1.1548312266512495 0 0 0 0 -45.404043559934507 7.9456528374275308 0 7.9456528374275308 5.9285741038179367 0 0 0 0 -9.2014941876145642 9.6498786487263359 0 9.6498786487263359 -7.1548305589896914 0 0 0 0 -844.85770246927859 -60.867086356913966 0 -60.867086356913966 6.0693227193529236 0 0 0 0 10.132072588830852 53.574769244302644 0 53.574769244302644 27.680604319272561 0 0 0 0 -1500.5293266870585 -158.06140511055651 0 -158.06140511055651 4.9215882528913424 0 0 0 0 -3.8186139024043655 7.0700140755589445 0 7.0700140755589445 -4.6754113814962608 0 0 0 0 -47.642196179792336 19.140673034327463 0 19.140673034327463 25.55517108986669 0 0 0 0 -45.556866239887313 11.641698102769965 0 11.641698102769965 2.4474804417483256 0 0 0 0 -107.78630410073765 -31.46714499903997 0 -31.46714499903997 27.912145314968711 0 0 0 0 -21.114471490628794 -17.690379130399023 0 -17.690379130399023 9.0752790146823479 0 0 0 0 -60.763937352887297 -19.925747924633356 0 -19.925747924633356 30.743554384666481 0 0 0 0 -60.21055836620144 -11.50840458396118 0 -11.50840458396118 9.5792660923025323 0 0 0 0 -55.121037164088193 6.2317548872612747 0 6.2317548872612747 9.6883970673691238 0 0 0 0 -143.32363883220387 26.657088437975801 0 26.657088437975801 -0.50773986976116703 0 0 0 0 -297.03590541825361 45.852429186984153 0 45.852429186984153 117.87848611699133 0 0 0 0 -155.9340891338652 44.335826665308332 0 44.335826665308332 113.67576490549652 0 0 0 0 -57.93287517146382 78.897291184432277 0 78.897291184432277 57.897670569288721 0 0 0 0 -193.54663868444186 45.196527509310599 0 45.196527509310599 6.9366111845827634 0 0 0 0 -133.52154808845808 142.15938334113929 0 142.15938334113929 9.3650934078831369 0 0 0 0 -188.24839809599507 36.615652430853416 0 36.615652430853416 -107.53200107486806 0 0 0 0 -312.95544563883595 59.974309222778572 0 59.974309222778572 14.077363561338075 0 0 0 0 -346.95808584218321 77.86356738681495 0 77.86356738681495 -67.47715536297261 0 0 0 0 -425.918773662077 -119.20178739634783 0 -119.20178739634783 -153.74388470744182 0 0 0 0 -160.50800463886844 1.5048530070858845 0 1.5048530070858845 -49.130714938284328 0 0 0 0 -249.38132110967854 66.670628185202204 0 66.670628185202204 -0.17128822012988501 0 0 0 0 -78.964062359598756 117.00685029237798 0 117.00685029237798 -64.310089640270903 0 0 0 0 -6.0151196934093605 70.070688484484094 0 70.070688484484094 -44.545336146960324 0 0 0 0 -62.405847718251607 95.81684805984716 0 95.81684805984716 0.017994009310108944 0 0 0 0 -0.3371265711120941 95.268352872737012 0 95.268352872737012 122.17933964950703 0 0 0 0 -16.853482895715388 137.19383832348637 0 137.19383832348637 48.811067613634521 0 0 0 0 -38.653597205629922 65.414135359816072 0 65.414135359816072 -0.70377520857778109 0 0 0 0 -64.753893269287801 174.08376329439523 0 174.08376329439523 122.1274162036035 0 0 0 0 24.97814388074039 119.33338882448706 0 119.33338882448706 58.694914131896823 0 0 0 0 -52.394626588943396 11.386148077434527 0 11.386148077434527 0.71821629125379349 0 0 0 0 8.2374402160239697 126.11004883735137 0 126.11004883735137 141.40284392109805 0 0 0 0 4.7220958806419731 106.52824853174963 0 106.52824853174963 27.837545643811382 0 0 0 0 21.301855579280527 89.026070332093582 0 89.026070332093582 46.099347153253497 0 0 0 0 28.952551290378324 102.39109844915404 0 102.39109844915404 -0.058321443809606827 0 0 0 0 31.75153249471623 93.909585308411863 0 93.909585308411863 24.986503627120641 0 0 0 0 31.219639980727152 99.675226636517237 0 99.675226636517237 27.717201259110482 0 0 0 0 39.114541414375708 89.626043139644068 0 89.626043139644068 0.048411612318055228 0 0 0 0 50.583445599670085 67.838050087224062 0 67.838050087224062 25.462625633417865 0 0 0 0 9.7753010085179994 55.763917340962642 0 55.763917340962642 29.294238353804133 0 0 0 0 10.270215348326019 68.155684902997393 0 68.155684902997393 46.544218251761095 0 0 0 0 8.228847555572429 86.313008037883904 0 86.313008037883904 61.429185962836357 0 0 0 0 -86.543778778624983 -0.19639482538582342 0 -0.19639482538582342 37.877361896837215 0 0 0 0 -50.84649763835418 11.038058183320882 0 11.038058183320882 0.87211442741737377 0 0 0 0 -29.061532189876743 60.23653272251687 0 60.23653272251687 83.672488013694846 0 0 0 0 -4.101082383717312 18.558277205358024 0 18.558277205358024 140.53277353004978 0 0 0 0 -22.160853209119523 -7.0668171396725938 0 -7.0668171396725938 118.88862456825092 0 0 0 0 -25.932375906887501 8.1697172729208205 0 8.1697172729208205 94.479438712358387 0 0 0 0 -2.1097620898768525 0.65647163261971997 0 0.65647163261971997 1.8207505353860549 0 0 0 0 -7.209599955323938 -1.689291296571696 0 -1.689291296571696 94.821405050955661 0 0 0 0 -165.5610347550537 107.58060969917801 0 107.58060969917801 -68.277542536860437 0 0 0 0 -21.185052381489612 -56.225691599379644 0 -56.225691599379644 264.17741861147715 0 0 0 0 -0.29054165529909426 0.21077375745652915 0 0.21077375745652915 0.47346111671734903 0 0 0 0 -137.87306106682445 229.62551432810187 0 229.62551432810187 -126.12472788674222 0 0 0 0 -115.27984846438267 100.56634008156584 0 100.56634008156584 -3.1428491081983623 0 0 0 0 -142.6714587478034 181.6851523918854 0 181.6851523918854 -14.649435093847615 0 0 0 0 -32.674687335187627 81.817674323245683 0 81.817674323245683 71.121197766254227 0 0 0 0 -49.930016763108142 65.356544640002568 0 65.356544640002568 70.281934929650944 0 0 0 0 -63.047813129756832 57.272915241064396 0 57.272915241064396 136.97356793592229 0 0 0 0 -41.056108565705017 14.355065752425574 0 14.355065752425574 87.668979905848119 0 0 0 0 -15.473814873563242 173.11395040501577 0 173.11395040501577 215.35528681355163 0 0 0 0 -53.904093989269541 11.328043779083888 0 11.328043779083888 0.75596839514705483 0 0 0 0 -18.82611492795013 93.994198564430093 0 93.994198564430093 219.47640756683472 0 0 0 0 -53.76738221324706 12.028633004992166 0 12.028633004992166 3.7813695489060009 0 0 0 0 -64.219250060537888 131.88433366812149 0 131.88433366812149 280.93156402409329 0 0 0 0 -32.977758194472244 57.248220236551404 0 57.248220236551404 36.176575015323124 0 0 0 0 -45.243636167549994 56.49023994356773 0 56.49023994356773 86.271480917034069 0 0 0 0 -30.29367142011688 48.305650651186738 0 48.305650651186738 50.6525579944539 0 0 0 0 -32.54982171718018 84.227782564494319 0 84.227782564494319 30.468878217232259 0 0 0 0 -16.171454842231469 66.03427586241844 0 66.03427586241844 -23.624510801238593 0 0 0 0 -18.342790018139567 52.462125153905561 0 52.462125153905561 30.15257433348927 0 0 0 0 -3.6970410884833314 12.985975587626932 0 12.985975587626932 18.818023035408402 0 0 0 0 -34.127099561770592 -4.6772338271312037 0 -4.6772338271312037 13.299150497970459 0 0 0 0 -158.99855819932418 40.779035710437711 0 40.779035710437711 43.598489046116583 0 0 0 0 -101.02649018018838 154.25823861364654 0 154.25823861364654 -139.01558445917271 0 0 0 0 -15.607695665654319 42.113376414710956 0 42.113376414710956 -28.359615224881054 0 0 0 0 -34.09747756717988 17.953637519988376 0 17.953637519988376 -3.3632708101509685 0 0 0 0 -72.75192278544273 54.975640413932524 0 54.975640413932524 41.415980577648952 0 0 0 0 -28.883915123293264 90.380930822462688 0 90.380930822462688 117.15931370070211 0 0 0 0 -85.818186190412234 128.75816871997961 0 128.75816871997961 278.4664222219667 0 0 0 0 -168.9515018968259 -10.466330935878858 0 -10.466330935878858 187.49582921266074 0 0 0 0 -161.1962155384681 63.027164615531774 0 63.027164615531774 508.84446874289665 0 0 0 0 162.71747428186063 263.11534434199302 0 263.11534434199302 222.02002826305238 0 0 0 0 -65.056431867797073 102.09716163769059 0 102.09716163769059 514.5611171577923 0 0 0 0 -15.492965403238202 4.3543944301455184 0 4.3543944301455184 1.2306292177463973 0 0 0 0 80.224823101765651 162.29078387295726 0 162.29078387295726 181.01695714872039 0 0 0 0 -75.028238293059985 155.96619004858348 0 155.96619004858348 186.02699158264431 0 0 0 0 -123.84571269068329 -6.9760839778431887 0 -6.9760839778431887 195.45481322378646 0 0 0 0 -258.27968868831522 -71.849197861877769 0 -71.849197861877769 219.43572293396664 0 0 0 0 80.149061402015235 -8.3648073168523478 0 -8.3648073168523478 189.49121984522162 0 0 0 0 -228.06333864677981 190.24052337111948 0 190.24052337111948 66.927823956451448 0 0 0 0 -209.04530986242844 57.698636590598738 0 57.698636590598738 89.141077541023606 0 0 0 0 -77.856774595526076 70.500792111798091 0 70.500792111798091 -5.2423772105390469 0 0 0 0 -104.70200436711093 155.60176172850367 0 155.60176172850367 47.452723017884182 0 0 0 0 -110.48679936278859 -57.260799046090142 0 -57.260799046090142 208.73190716910329 0 0 0 0 -3.3660301459035651 1.5844750287651372 0 1.5844750287651372 0.46410050710163242 0 0 0 0 -216.35295740966524 344.90558933108917 0 344.90558933108917 -345.44083702995067 0 0 0 0 -43.593005126480421 146.32073190486472 0 146.32073190486472 -158.14071892486936 0 0 0 0 -195.49596483277867 16.275673257188728 0 16.275673257188728 -44.90386999986822 0 0 0 0 -3.998669494771093 22.269173462731146 0 22.269173462731146 -76.565970945829349 0 0 0 0 4.6150279713623164 5.615698051386623 0 5.615698051386623 10.680585465720183 0 0 0 0 43.780966039630584 60.633760998245066 0 60.633760998245066 -15.140964836079092 0 0 0 0 79.661406321491086 35.739609297834249 0 35.739609297834249 -25.72176307829654 0 0 0 0 403.52004191648302 -18.412595801403427 0 -18.412595801403427 -21.609961207870128 0 0 0 0 0.90255841382666802 1.8818980318737033 0 1.8818980318737033 3.4241144013057347 0 0 0 0 -86.381467987093856 116.84495185834129 0 116.84495185834129 73.625756013406772 0 0 0 0 -82.40852337906108 161.0695288004257 0 161.0695288004257 -151.06174944583938 0 0 0 0 -37.542742370493215 288.54171758347366 0 288.54171758347366 83.102247983473717 0 0 0 0 146.88257333222646 22.013147536272413 0 22.013147536272413 -10.831008821580781 0 0 0 0 -79.956578253033513 154.51303852381079 0 154.51303852381079 191.26172892119894 0 0 0 0 -88.10871180106551 114.10873596472305 0 114.10873596472305 6.9727988761178494 0 0 0 0 216.15370534088652 263.82268550885919 0 263.82268550885919 22.052685669552375 0 0 0 0 75.321184591643487 154.76381507418736 0 154.76381507418736 -39.086143925316719 0 0 0 0 -118.58884624716825 174.28607591956691 0 174.28607591956691 9.1350528820557884 0 0 0 0 -71.184652094572812 115.33094466688738 0 115.33094466688738 47.66030964600759 0 0 0 0 -87.580102146551326 182.86700794872638 0 182.86700794872638 -23.67530104791058 0 0 0 0 -298.3891746170957 233.70220877768611 0 233.70220877768611 53.00447318227225 0 0 0 0 -632.26126991348428 -22.386331413345488 0 -22.386331413345488 58.734900911238412 0 0 0 0 -236.9829416871471 41.76924495543085 0 41.76924495543085 42.613278094900124 0 0 0 0 -292.1997462863801 145.43714472301986 0 145.43714472301986 41.965328370393763 0 0 0 0 -159.12871427621803 76.853438468530499 0 76.853438468530499 -11.897890608290709 0 0 0 0 -177.14255075969777 47.891919898711194 0 47.891919898711194 -10.218340247401301 0 0 0 0 -3.2940672821079815 2.6565121978212787 0 2.6565121978212787 0.079963305785298644 0 0 0 0 143.39234017291528 255.43201286364013 0 255.43201286364013 111.30092586454566 0 0 0 0 -0.84029102289966318 0.75927643559540314 0 0.75927643559540314 -0.47573772636981548 0 0 0 0 -203.17482792049123 280.41429404408518 0 280.41429404408518 109.8213994415127 0 0 0 0 -214.5657264295005 104.66271800777758 0 104.66271800777758 72.376635123837161 0 0 0 0 -318.91473718515772 157.86091998396785 0 157.86091998396785 81.009097429327539 0 0 0 0 -177.30590702542759 176.25929800913275 0 176.25929800913275 15.289335499582194 0 0 0 0 -272.42239823157433 233.94430852283608 0 233.94430852283608 20.784046362536856 0 0 0 0 -319.27569083127196 201.07294667408672 0 201.07294667408672 65.399986743689624 0 0 0 0 -246.05989930675423 128.16949685390921 0 128.16949685390921 -90.003514526517051 0 0 0 0 -393.82591287468313 174.99816926086692 0 174.99816926086692 -80.585113715730813 0 0 0 0 -249.08585543722074 153.00125144775245 0 153.00125144775245 28.552234621605749 0 0 0 0 -499.60837074833034 77.365092406315625 0 77.365092406315625 -118.16156251411252 0 0 0 0 -668.08394481016694 241.35391277479167 0 241.35391277479167 5.7689860826732797 0 0 0 0 -200.32779297346679 228.77823260710284 0 228.77823260710284 -338.40758596455919 0 0 0 0 -220.7620970047592 -42.648646863241538 0 -42.648646863241538 127.60432013059528 0 0 0 0 -1.330063469982889 1.4747144476127263 0 1.4747144476127263 -0.36464629626433576 0 0 0 0 62.670913054284028 92.204745214019667 0 92.204745214019667 -191.69569916516758 0 0 0 0 36.582418762376619 87.992509235645656 0 87.992509235645656 -70.881716819381921 0 0 0 0 5.7595013511690922 49.135710240854507 0 49.135710240854507 -119.7972886762108 0 0 0 0 -2.0305692092971412 2.3678804551228181 0 2.3678804551228181 -0.49972125321226335 0 0 0 0 -3.2500592786218476 62.248738437418965 0 62.248738437418965 -78.110979952466266 0 0 0 0 62.068463516079646 42.07223173211554 0 42.07223173211554 -106.63191301491781 0 0 0 0 -29.133780518106505 24.781343074569463 0 24.781343074569463 -126.68485636268088 0 0 0 0 -33.53596073616427 140.78271371008861 0 140.78271371008861 -181.26701267960834 0 0 0 0 -22.852584384841066 98.061661505765528 0 98.061661505765528 -35.50316474086344 0 0 0 0 194.49473904702108 203.79462853272918 0 203.79462853272918 -39.614332910965913 0 0 0 0 -5.4625186795974514 124.84590959126355 0 124.84590959126355 -4.5676592377753877 0 0 0 0 57.619690208528482 92.121265161144521 0 92.121265161144521 -11.339859095156669 0 0 0 0 3.5770932903142239 144.01457716532525 0 144.01457716532525 -57.915719326499413 0 0 0 0 -0.60118940948594002 1.5245833181578954 0 1.5245833181578954 -0.37245725276064112 0 0 0 0 11.000405086893807 64.156670006148772 0 64.156670006148772 -316.97153581978472 0 0 0 0 -125.52827590386369 92.111386092827956 0 92.111386092827956 -55.319670322968676 0 0 0 0 -54.184208702616161 157.41234102492683 0 157.41234102492683 -179.2798291663982 0 0 0 0 -102.06858576425657 184.76038730805897 0 184.76038730805897 4.6648687778429121 0 0 0 0 -47.392891423187393 108.01070363494512 0 108.01070363494512 111.8495063428839 0 0 0 0 -138.44276731729769 115.42990285973053 0 115.42990285973053 -96.003437404287695 0 0 0 0 -107.28281753394003 64.103963459262943 0 64.103963459262943 -68.293537496701447 0 0 0 0 -63.735635931348952 86.823195049775279 0 86.823195049775279 -41.350511802317328 0 0 0 0 -0.18100570517765391 0.2659187750756189 0 0.2659187750756189 0.66480720301253582 0 0 0 0 -251.71602959241136 213.82244131346221 0 213.82244131346221 7.8024998577816405 0 0 0 0 89.485366272992906 83.110173664568975 0 83.110173664568975 -68.4384342181379 0 0 0 0 -101.84068306641529 166.31445477824221 0 166.31445477824221 -4.0326856726019287 0 0 0 0 -108.1382345922284 168.16097824315449 0 168.16097824315449 55.487959793074367 0 0 0 0 -78.191059536427019 138.15758797568708 0 138.15758797568708 -14.837540792577329 0 0 0 0 -48.302876707330142 -122.43428898582067 0 -122.43428898582067 70.621817148965647 0 0 0 0 -3.6439734400212416 -2.5361898910611096 0 -2.5361898910611096 5.2317352511072528 0 0 0 0 -325.64250881084445 -279.98627289145475 0 -279.98627289145475 -95.785162001183338 0 0 0 0 -35.633879599919965 -134.00811422796858 0 -134.00811422796858 -156.17466135570641 0 0 0 0 -3.9413329126455352 -3.918551260149389 0 -3.918551260149389 7.0379112666176775 0 0 0 0 0.81776783561872435 -16.451472330675642 0 -16.451472330675642 -3.6627866668536626 0 0 0 0 -225.82177050634709 23.981708846454069 0 23.981708846454069 83.441204561615507 0 0 0 0 -290.87410503333012 -244.99261776298539 0 -244.99261776298539 -96.707812745283121 0 0 0 0 -174.25208914339237 -162.40792342827388 0 -162.40792342827388 -38.82916612328512 0 0 0 0 -502.28243584337179 -210.40830036514529 0 -210.40830036514529 87.357220321410594 0 0 0 0 -4.7701299411911293 0.66538770075598563 0 0.66538770075598563 0.80314912438247732 0 0 0 0 30.461538899498919 194.23825215276324 0 194.23825215276324 65.084333323072684 0 0 0 0 -1498.1167104811866 -693.83129211617063 0 -693.83129211617063 -81.274843391398718 0 0 0 0 -1495.7256686348228 -96.262044269896975 0 -96.262044269896975 153.97282155360537 0 0 0 0 -1114.0206383163531 50.891396546984907 0 50.891396546984907 103.28607816703024 0 0 0 0 -213.8703102161162 -198.97655096692338 0 -198.97655096692338 -313.59763236914097 0 0 0 0 -2.3543534400770909 -1.323885601228632 0 -1.323885601228632 2.5980795073047553 0 0 0 0 -1152.8647946137426 -517.48627965458525 0 -517.48627965458525 -334.48745131139469 0 0 0 0 -231.69292796819354 121.20275244389444 0 121.20275244389444 719.94808765975608 0 0 0 0 -1146.0934288553981 -365.95549768876685 0 -365.95549768876685 357.90653467749712 0 0 0 0 -1082.8385786530853 -240.2720474724542 0 -240.2720474724542 441.6803813910617 0 0 0 0 -1501.2930017270082 -537.64058835081664 0 -537.64058835081664 445.84182169354318 0 0 0 0 -985.33847134343227 -602.50141260367423 0 -602.50141260367423 78.979237970753104 0 0 0 0 -991.71090259667267 -501.48282540008279 0 -501.48282540008279 278.88511226322589 0 0 0 0 -1042.5899424399795 -428.35585847914626 0 -428.35585847914626 436.71447686853247 0 0 0 0 -428.01495221458026 -297.3974948063875 0 -297.3974948063875 218.50505822047364 0 0 0 0 -307.56508865497017 -467.39126728657556 0 -467.39126728657556 112.60264506327417 0 0 0 0 47.393981903558597 -367.71576040528436 0 -367.71576040528436 64.447329416104481 0 0 0 0 -122.00745738463411 -297.22077552831593 0 -297.22077552831593 203.64578303092526 0 0 0 0 -68.79922778353648 -124.29304407049494 0 -124.29304407049494 86.288904194260112 0 0 0 0 -205.77984391972859 -160.04925080727222 0 -160.04925080727222 75.313161392441486 0 0 0 0 37.527601085818844 -139.04942102958395 0 -139.04942102958395 46.655515977129767 0 0 0 0 -187.83528692200343 -60.349983851699051 0 -60.349983851699051 108.6210763434118 0 0 0 0 -269.64874953270191 70.008526469842252 0 70.008526469842252 72.13157788655991 0 0 0 0 -748.03791743249167 204.7138805649646 0 204.7138805649646 -35.993425278214715 0 0 0 0 -238.54120098249587 102.76776204151776 0 102.76776204151776 -57.16239405771671 0 0 0 0 -188.01239629302972 -86.082133495350035 0 -86.082133495350035 -85.000581530479167 0 0 0 0 -467.946094053259 32.901350312992122 0 32.901350312992122 114.09429805469952 0 0 0 0 -239.1918767872703 51.807285690567937 0 51.807285690567937 -1.185146710291491 0 0 0 0 -3.9887495138523832 1.0271907735161854 0 1.0271907735161854 3.6734298039200226 0 0 0 0 -238.80223149519952 48.820971629970074 0 48.820971629970074 21.600901056108796 0 0 0 0 -92.136565494252864 62.695804708597109 0 62.695804708597109 218.02838265364153 0 0 0 0 -5.4005848279030033 -17.269727495630775 0 -17.269727495630775 198.26671651244737 0 0 0 0 -146.31669633253478 105.03815052478762 0 105.03815052478762 190.37010599719201 0 0 0 0 -157.34606592327509 59.591822215602548 0 59.591822215602548 131.03887531988039 0 0 0 0 -1.5106908679465221 -0.17450106019918366 0 -0.17450106019918366 1.0816395815123778 0 0 0 0 31.164331881973339 -7.698841039559511 0 -7.698841039559511 129.27240983585807 0 0 0 0 -35.038164448134467 -441.70136208490669 0 -441.70136208490669 336.41988723150439 0 0 0 0 -542.0439185774303 -67.592511046911341 0 -67.592511046911341 -33.283058179494901 0 0 0 0 -224.33671884456089 19.467234035831098 0 19.467234035831098 -22.494612691063139 0 0 0 0 -534.71819224125284 -244.10190022638216 0 -244.10190022638216 300.62447036426829 0 0 0 0 -328.68785311596912 80.030715881258288 0 80.030715881258288 -22.18454219740579 0 0 0 0 -312.72387941771012 -0.84892845316835519 0 -0.84892845316835519 140.0921565083313 0 0 0 0 -224.47346612074762 162.9676805244103 0 162.9676805244103 26.043380724927601 0 0 0 0 -370.80891165087451 -191.18951790303367 0 -191.18951790303367 -128.55186236588565 0 0 0 0 -359.42049703668408 -115.14074001788963 0 -115.14074001788963 -30.135192283623383 0 0 0 0 -486.35227306645174 -150.15174447709296 0 -150.15174447709296 36.67594593642616 0 0 0 0 -497.82875094985866 -202.73116146175812 0 -202.73116146175812 -75.946455013161312 0 0 0 0 -752.87761123837845 -327.76332343692707 0 -327.76332343692707 7.4765094740146196 0 0 0 0 -2.1838086197137478 -0.50341138383111428 0 -0.50341138383111428 -1.2664321319873384 0 0 0 0 -404.52762881513627 -210.01653018323123 0 -210.01653018323123 -91.760009632804667 0 0 0 0 -417.96714780916227 -235.02629073266189 0 -235.02629073266189 -131.79646949119569 0 0 0 0 0.43622542776800444 -8.8375745989501198 0 -8.8375745989501198 8.0395030816308228 0 0 0 0 -10.717938304380368 -32.843662730293545 0 -32.843662730293545 37.471789815234388 0 0 0 0 96.233744246625065 79.264103570781486 0 79.264103570781486 -111.81277681947631 0 0 0 0 -401.15485291262303 -250.11831595714125 0 -250.11831595714125 -139.41989331698494 0 0 0 0 -12.081750442744202 3.7028331282606182 0 3.7028331282606182 0.14378784104059328 0 0 0 0 -426.95262310461476 -351.03296627684608 0 -351.03296627684608 -312.03578814471484 0 0 0 0 -980.18039653739106 -657.24220013987565 0 -657.24220013987565 -412.53369004966578 0 0 0 0 -3.3946288431445026 1.4385558009146422 0 1.4385558009146422 -1.176595898661855 0 0 0 0 -181.30621793143655 191.47787752996123 0 191.47787752996123 79.659425591634317 0 0 0 0 55.750028513219149 32.832693596870854 0 32.832693596870854 -63.338976936146082 0 0 0 0 0.14870221701833941 -0.3755496941609664 0 -0.3755496941609664 0.90297499121618507 0 0 0 0 -570.53057997491487 379.66580928878193 0 379.66580928878193 10.210525362568092 0 0 0 0 -1006.6253999832406 -118.6838205198469 0 -118.6838205198469 -68.494962126682822 0 0 0 0 -372.02798283690572 -63.666795512434589 0 -63.666795512434589 57.190869077964635 0 0 0 0 -76.149519221020455 -196.68921660361775 0 -196.68921660361775 76.47532983159806 0 0 0 0 -14.345132096961947 -3.4152420265005681 0 -3.4152420265005681 5.4139321574002111 0 0 0 0 -192.32983085347951 -8.9942007578146104 0 -8.9942007578146104 118.78419616869749 0 0 0 0 -348.90281874567518 143.55267992581764 0 143.55267992581764 -115.75664873524579 0 0 0 0 -459.41646336588747 -44.473917524819853 0 -44.473917524819853 -227.744525671568 0 0 0 0 -483.99304793562987 -66.855483821972484 0 -66.855483821972484 -228.69442582056809 0 0 0 0 -1074.6341914647278 -46.640290918327011 0 -46.640290918327011 -198.04407788313256 0 0 0 0 -688.69915952605152 -220.19194041590549 0 -220.19194041590549 -380.70729878499424 0 0 0 0 -549.32165371107112 -55.666563916103769 0 -55.666563916103769 -439.89198086383794 0 0 0 0 -639.14674422714415 -114.57274708069394 0 -114.57274708069394 -182.32811511641921 0 0 0 0 -518.1978189827787 24.860644837139148 0 24.860644837139148 -292.15378290817534 0 0 0 0 -475.65689864515889 -38.947673784431529 0 -38.947673784431529 -227.7483588031796 0 0 0 0 -349.20908219905414 64.85979000892533 0 64.85979000892533 -190.62933419837782 0 0 0 0 -559.36273473325127 -47.889966652009889 0 -47.889966652009889 -141.20940374656709 0 0 0 0 -602.55008016559805 -103.31262615275762 0 -103.31262615275762 -178.91705152353859 0 0 0 0 -678.83778901517144 38.113760652893234 0 38.113760652893234 -35.459016064546148 0 0 0 0 -557.80476895049833 -28.554816534450595 0 -28.554816534450595 -50.514058927029851 0 0 0 0 -559.12591670232757 -12.208471163179833 0 -12.208471163179833 -239.16419871417639 0 0 0 0 -648.03085794701474 -47.559201390417229 0 -47.559201390417229 -136.30134287733611 0 0 0 0 -3.1766382368996346 11.833197496984099 0 11.833197496984099 -89.841506644228502 0 0 0 0 -1.8368811663415947 0.45341859185536748 0 0.45341859185536748 -1.3289550797837313 0 0 0 0 -23.401371498773187 -2.0333274336308023 0 -2.0333274336308023 24.76353226370702 0 0 0 0 -475.08288405751955 142.46733975354181 0 142.46733975354181 -94.661906556788495 0 0 0 0 -544.30724187680789 32.780290663245466 0 32.780290663245466 -131.68880467248528 0 0 0 0 -373.87834951898185 72.636169920372481 0 72.636169920372481 -122.39390414584668 0 0 0 0 -59.523931010695378 163.98901229544768 0 163.98901229544768 33.399115807595138 0 0 0 0 -67.484357121811627 216.65393105245261 0 216.65393105245261 -161.42513753861027 0 0 0 0 -40.743305111562222 21.221772682416827 0 21.221772682416827 127.0889721380388 0 0 0 0 -33.602036580468848 82.123407519238526 0 82.123407519238526 -118.52863443838532 0 0 0 0 -151.41375688497101 128.49730272210311 0 128.49730272210311 67.520392627177017 0 0 0 0 -281.8248246081821 159.01411458635565 0 159.01411458635565 87.478573650238275 0 0 0 0 -271.24506499990093 168.05906096372783 0 168.05906096372783 77.360736088448448 0 0 0 0 -274.5412266491112 161.9558576151957 0 161.9558576151957 71.512734765696109 0 0 0 0 -16.650355319227586 -2.7189952626087788 0 -2.7189952626087788 4.9061002331642012 0 0 0 0 -291.46964456850401 146.38647982518103 0 146.38647982518103 71.54136291555136 0 0 0 0 -202.76957330133882 150.29593949695266 0 150.29593949695266 -130.66502520940938 0 0 0 0 -761.46602332126349 -116.78788500953243 0 -116.78788500953243 5.7810679035271733 0 0 0 0 20.901174056947639 -78.953183407500347 0 -78.953183407500347 -151.36912070372932 0 0 0 0 -702.69111135951243 -450.16672653969351 0 -450.16672653969351 -127.6562411955324 0 0 0 0 -42.295475110615371 505.91597448200906 0 505.91597448200906 273.86345281243337 0 0 0 0 -3.3306098779114279 1.1431987999175384 0 1.1431987999175384 0.41709916961193683 0 0 0 0 -329.21358449851641 -158.62405937216442 0 -158.62405937216442 -25.163815985050974 0 0 0 0 -428.10838355116721 -307.28251862136835 0 -307.28251862136835 -165.89770488145155 0 0 0 0 -132.71012091105149 -110.67122790774374 0 -110.67122790774374 43.002244615991856 0 0 0 0 -272.98112496467002 33.386966237007073 0 33.386966237007073 -38.686097149083253 0 0 0 0 -623.89288414029579 -217.83047771379714 0 -217.83047771379714 175.89499013295188 0 0 0 0 -593.3885237957038 81.431200234827514 0 81.431200234827514 346.19248512161113 0 0 0 0 -316.47489926197886 -98.272438439606219 0 -98.272438439606219 100.62087066656375 0 0 0 0 -7.3667599529645571 2.272605862722461 0 2.272605862722461 1.3645091897399815 0 0 0 0 -297.34930137742413 -152.57328617687668 0 -152.57328617687668 189.15648998082281 0 0 0 0 -778.73875970707013 98.038998057312313 0 98.038998057312313 286.16825088819837 0 0 0 0 -1499.9660133211364 -147.65151200713527 0 -147.65151200713527 462.81216192421869 0 0 0 0 -1499.7620536866416 473.46495820788249 0 473.46495820788249 111.99954680239578 0 0 0 0 -933.87059063753259 107.56257786005915 0 107.56257786005915 285.58876612064478 0 0 0 0 -328.32869285271227 295.87733150662314 0 295.87733150662314 -208.37115521465498 0 0 0 0 -652.16548827807856 323.41327221525529 0 323.41327221525529 -203.50561366224625 0 0 0 0 -14.458277087169648 -2.5114948765140035 0 -2.5114948765140035 3.7113518587377499 0 0 0 0 -662.26413531506478 377.74263739213495 0 377.74263739213495 -169.95974329795641 0 0 0 0 -6.9976183999020165 -0.85738433561564875 0 -0.85738433561564875 1.3915784111045437 0 0 0 0 -1498.1019790074188 912.11109105904086 0 912.11109105904086 -507.9464666264717 0 0 0 0 -391.56606833845217 285.03223275046514 0 285.03223275046514 201.53932922435314 0 0 0 0 -105.15377614564932 -694.97689351167526 0 -694.97689351167526 395.63006438964726 0 0 0 0 -1496.2640360716814 -273.85556806840839 0 -273.85556806840839 298.02088412394539 0 0 0 0 -90.080171731058726 177.92914129356589 0 177.92914129356589 42.892393456627133 0 0 0 0 -85.705044494648973 -31.457151032602837 0 -31.457151032602837 407.1296189413672 0 0 0 0 -0.73988080960072544 1.7176085242628858 0 1.7176085242628858 0.4974560125750731 0 0 0 0 -913.36620563295401 90.826270128170194 0 90.826270128170194 155.93593744489692 0 0 0 0 592.33022969070817 495.51552963703313 0 495.51552963703313 78.05001451459475 0 0 0 0 13.806621544075824 168.94247157777673 0 168.94247157777673 208.53891758936638 0 0 0 0 -877.02759103954668 170.47271772187656 0 170.47271772187656 87.459879297077805 0 0 0 0 -355.23532522934056 163.69303430446888 0 163.69303430446888 -63.879134215884875 0 0 0 0 -474.01316982977005 59.700355695479658 0 59.700355695479658 44.236593678643459 0 0 0 0 -1.7769057043881062 4.2144518469510004 0 4.2144518469510004 3.0704141775282539 0 0 0 0 349.91488878508335 272.11200150552548 0 272.11200150552548 76.258667952875044 0 0 0 0 -808.18690816280832 -41.07295720165159 0 -41.07295720165159 204.87767562680281 0 0 0 0 -1523.7940614622894 -145.37521069995697 0 -145.37521069995697 -4.2527946310883067 0 0 0 0 -1613.1429067592289 -10.779919066990278 0 -10.779919066990278 219.00673370041736 0 0 0 0 -1500.6478414535795 1.6141115720698902 0 1.6141115720698902 -61.43121969145357 0 0 0 0 -1449.1510004890788 -119.81520494735318 0 -119.81520494735318 -457.46131228253904 0 0 0 0 -1499.9010444081277 -52.801295213503806 0 -52.801295213503806 60.700510551890908 0 0 0 0 -1666.9946615872195 290.49199245074459 0 290.49199245074459 -502.32344245511746 0 0 0 0 -1576.8971516256715 -493.92836431043435 0 -493.92836431043435 -48.863823532426352 0 0 0 0 -8.5607875376264388 3.9552382780245594 0 3.9552382780245594 -2.79710986421982 0 0 0 0 -964.54982340384413 597.44803684330589 0 597.44803684330589 -110.99451604024716 0 0 0 0 24.171778611043919 34.223266882756604 0 34.223266882756604 -176.90862899806507 0 0 0 0 57.083442104699316 113.86752467688609 0 113.86752467688609 93.04992062929341 0 0 0 0 -1.0150661127920149 3.605877449057509 0 3.605877449057509 8.3623768132146896 0 0 0 0 -127.5752177000486 294.51761566324808 0 294.51761566324808 -189.98238287508559 0 0 0 0 8.0472739828073827 -110.80452374613208 0 -110.80452374613208 5.7072931581974444 0 0 0 0 -109.9683163136142 61.36112842359276 0 61.36112842359276 -22.076398195169645 0 0 0 0 -51.492457661615845 20.586042693935042 0 20.586042693935042 103.58581760240554 0 0 0 0 -8.5594738252110787 2.637714358968779 0 2.637714358968779 15.516284931892644 0 0 0 0 -179.53229713287055 162.62385859378725 0 162.62385859378725 179.42863725674977 0 0 0 0 -18.479160883181592 12.359326991282863 0 12.359326991282863 -3.9707546732798851 0 0 0 0 197.1597383034059 33.74561943548423 0 33.74561943548423 109.31894782066809 0 0 0 0 -344.45486385838376 136.81990331636666 0 136.81990331636666 237.71024398354939 0 0 0 0 -724.12832096117381 -39.278208349213855 0 -39.278208349213855 240.36541513120545 0 0 0 0 -344.46388618244964 141.52861273163126 0 141.52861273163126 189.81743196640423 0 0 0 0 -730.1222874133764 -14.958486509673946 0 -14.958486509673946 228.68653458852901 0 0 0 0 -1499.9483542856215 11.744772694594548 0 11.744772694594548 407.48533689944884 0 0 0 0 -1394.4940356187417 110.87072833857044 0 110.87072833857044 184.77632757053127 0 0 0 0 -1374.3713956315969 -217.3354511820267 0 -217.3354511820267 317.19842681727897 0 0 0 0 -615.67129689167723 -354.7794920299695 0 -354.7794920299695 -32.771232370931031 0 0 0 0 -565.89937355848087 321.63161080054022 0 321.63161080054022 -177.60515705596617 0 0 0 0 -848.24244667407766 492.99928444708235 0 492.99928444708235 -185.21016626462261 0 0 0 0 -418.73314955967544 109.32204621851008 0 109.32204621851008 -30.940075116936441 0 0 0 0 -616.64208470941685 330.76428486172546 0 330.76428486172546 -50.054595396071818 0 0 0 0 -635.66411921250801 368.94630016708015 0 368.94630016708015 -158.36161032921393 0 0 0 0 -16.510927871942393 -6.5885858639445658 0 -6.5885858639445658 0.47628807260030825 0 0 0 0 -740.83813596482105 169.96875951083416 0 169.96875951083416 -44.977369381437711 0 0 0 0 -4.6835342185919231 -0.91592518418160651 0 -0.91592518418160651 -0.81041997447716874 0 0 0 0 -149.5319963569309 340.36446278918379 0 340.36446278918379 -512.61760479637132 0 0 0 0 -6.9917089066147984 -0.03843635430166259 0 -0.03843635430166259 5.8819243207432184 0 0 0 0 -156.92579913060763 41.234906480957306 0 41.234906480957306 105.49186125939741 0 0 0 0 522.55365345125938 362.74713515600217 0 362.74713515600217 12.019615403304215 0 0 0 0 -115.6486935912435 -10.674780795217202 0 -10.674780795217202 -9.1051068606270746 0 0 0 0 -91.632002725862549 69.980510024519617 0 69.980510024519617 73.616303850868007 0 0 0 0 -7.778611306810312 1.8592514088946999 0 1.8592514088946999 2.8380115355681133 0 0 0 0 -33.788587014165387 -8.4511413873435686 0 -8.4511413873435686 -3.7010284461389347 0 0 0 0 -24.850848885890642 12.363806280913996 0 12.363806280913996 1.8949156220084644 0 0 0 0 -41.239529315239452 12.909159709043365 0 12.909159709043365 37.346278033887756 0 0 0 0 -34.046323843416758 10.736732018128578 0 10.736732018128578 8.388210714980687 0 0 0 0 -37.170742616702228 12.439473589365889 0 12.439473589365889 31.925792313205875 0 0 0 0 -33.891297099326692 -2.7914694225246492 0 -2.7914694225246492 20.62845459664095 0 0 0 0 -30.585326626187452 -32.268709132048741 0 -32.268709132048741 193.50550665049582 0 0 0 0 -31.505135970575793 6.6971451735482788 0 6.6971451735482788 34.933642775628073 0 0 0 0 -42.975706395092857 2.3481850385192047 0 2.3481850385192047 54.143998696166364 0 0 0 0 22.92206846008412 81.021431163745774 0 81.021431163745774 83.545639634076167 0 0 0 0 -77.085075162171051 109.93012013608177 0 109.93012013608177 128.71811536464247 0 0 0 0 -95.554055664360931 68.874049945651223 0 68.874049945651223 174.65331690366912 0 0 0 0 -129.56343934667711 -308.74458606311447 0 -308.74458606311447 556.54895653803192 0 0 0 0 -148.76896378296482 79.964575219230966 0 79.964575219230966 226.28473624605567 0 0 0 0 -9.5793120922827342 -4.0276689526274332 0 -4.0276689526274332 2.2935774669302802 0 0 0 0 -788.8541862353859 258.6369808989939 0 258.6369808989939 -24.711268579895659 0 0 0 0 -666.86430623269916 403.52157440659903 0 403.52157440659903 -392.66351267190703 0 0 0 0 -3.8522448102123121 -0.87613411624634452 0 -0.87613411624634452 1.1440882637370144 0 0 0 0 -1260.3042000571622 905.41992816609377 0 905.41992816609377 -330.06945173416659 0 0 0 0 -1102.1074762819985 266.27615638061314 0 266.27615638061314 125.59494734397049 0 0 0 0 -694.78806126767449 51.79243959963793 0 51.79243959963793 330.59433123870019 0 0 0 0 -697.79251705051092 90.074244435156231 0 90.074244435156231 136.3248601095188 0 0 0 0 -331.76079534921337 141.71557676600284 0 141.71557676600284 81.221913916915128 0 0 0 0 29.307103784534775 157.54163285578949 0 157.54163285578949 148.62876980998749 0 0 0 0 25.516983673483992 113.94958715938509 0 113.94958715938509 101.56477935267731 0 0 0 0 -297.67779979866827 70.00398451074301 0 70.00398451074301 230.34186009600222 0 0 0 0 -203.97140945538922 238.43059953083929 0 238.43059953083929 204.57556264258125 0 0 0 0 14.305497620889582 158.88049018465296 0 158.88049018465296 9.0493477754761216 0 0 0 0 -336.04392260546001 206.37002337958546 0 206.37002337958546 140.50622971631151 0 0 0 0 -325.37902875481905 -7.0564489884988859 0 -7.0564489884988859 -20.432779876911582 0 0 0 0 -639.85342705181392 184.65698725629915 0 184.65698725629915 93.938117084347255 0 0 0 0 -499.69004262974704 -3.1210452528392238 0 -3.1210452528392238 -51.459816997143776 0 0 0 0 -302.36414149550637 142.51513872672956 0 142.51513872672956 -116.10405954990767 0 0 0 0 -872.92308607409541 202.26771063054159 0 202.26771063054159 -127.08149280801007 0 0 0 0 -2.0915417579848956 2.3574105341228275 0 2.3574105341228275 -3.4065975697536226 0 0 0 0 -738.12223922708426 -99.34809183462734 0 -99.34809183462734 -16.724222478882325 0 0 0 0 -1320.1899149169149 -133.00528377293685 0 -133.00528377293685 40.387249642626898 0 0 0 0 15.173789948297781 61.902663106602972 0 61.902663106602972 39.319080225413813 0 0 0 0 184.06675760560847 6.8840572600430932 0 6.8840572600430932 -101.89262141391526 0 0 0 0 2.097834252865141 139.65095710836601 0 139.65095710836601 -195.51561714606291 0 0 0 0 63.462373503634808 2.2624844018045778 0 2.2624844018045778 -136.32943819409252 0 0 0 0 9.1830050409589603 32.762413440804607 0 32.762413440804607 -43.396046667542578 0 0 0 0 9.5680111386245699 44.598104457075351 0 44.598104457075351 -47.493362631501441 0 0 0 0 -23.889999797971541 90.080465784213658 0 90.080465784213658 -104.50264322634295 0 0 0 0 -70.529135510827473 54.194225974884375 0 54.194225974884375 1.6012711591208699 0 0 0 0 47.569048947971169 14.630088059737204 0 14.630088059737204 -36.220084034906108 0 0 0 0 -34.069623860221327 8.3819951471493823 0 8.3819951471493823 17.287077903631143 0 0 0 0 17.153500274554972 51.401653315572275 0 51.401653315572275 -20.165587586203515 0 0 0 0 -68.25039900837146 44.440931687814327 0 44.440931687814327 7.6711374550740175 0 0 0 0 -76.775100246049988 39.256705278836989 0 39.256705278836989 14.891519972730293 0 0 0 0 -151.32270063716715 8.5780953120151935 0 8.5780953120151935 3.2427825480765478 0 0 0 0 -90.831802131238874 64.175938780274635 0 64.175938780274635 -88.180264153761073 0 0 0 0 -71.115215029913998 -0.097491218392747214 0 -0.097491218392747214 -17.751077496854577 0 0 0 0 -64.201137534306326 92.458784867786335 0 92.458784867786335 -17.322325536219921 0 0 0 0 -103.88777184479113 25.44881373334988 0 25.44881373334988 -21.565077309131766 0 0 0 0 -324.03127800440416 65.451706143077899 0 65.451706143077899 -5.4509262857454814 0 0 0 0 31.344730210235866 24.523273051638171 0 24.523273051638171 27.772118111521877 0 0 0 0 142.87935086836296 88.812868429992477 0 88.812868429992477 -27.443200646118953 0 0 0 0 -5.8022743158678693 11.343696092846749 0 11.343696092846749 -15.903444510397755 0 0 0 0 -475.11283001571246 20.225957076447457 0 20.225957076447457 98.318342941384628 0 0 0 0 -654.68769381614402 60.64075623353699 0 60.64075623353699 153.85025397469099 0 0 0 0 -697.11114903513953 -11.471697438425963 0 -11.471697438425963 94.115741153608269 0 0 0 0 183.50968169792395 76.182775268503292 0 76.182775268503292 -21.299614045676549 0 0 0 0 -4.6327453902211388 7.6522903354106688 0 7.6522903354106688 -9.788402975856215 0 0 0 0 8.482417204817466 20.619036630904759 0 20.619036630904759 -90.74825290079508 0 0 0 0 -163.13619265780835 108.96226069187277 0 108.96226069187277 44.637914773628673 0 0 0 0 0.0092032046405705614 0.82004278853817425 0 0.82004278853817425 1.4842978547553924 0 0 0 0 -93.852939556250931 98.858639422343828 0 98.858639422343828 -59.245509862168518 0 0 0 0 -74.834114646702801 73.439526632746265 0 73.439526632746265 -72.545526441249933 0 0 0 0 -234.76558321089396 50.690575863986481 0 50.690575863986481 240.09396108536293 0 0 0 0 -0.29828946255324595 -0.059546426621707838 0 -0.059546426621707838 1.2187340378045626 0 0 0 0 107.54375434794201 65.844247102666714 0 65.844247102666714 -14.225784117408807 0 0 0 0 -56.39015717928487 102.55941968125768 0 102.55941968125768 23.338550024792539 0 0 0 0 -4.9859594300251047 22.77551008365548 0 22.77551008365548 -14.645620521740035 0 0 0 0 -45.361484003648002 67.261495583025095 0 67.261495583025095 -61.168668560363244 0 0 0 0 -51.559694849740481 99.565743299542476 0 99.565743299542476 -33.658901008969281 0 0 0 0 -69.037573857934831 74.127707352776056 0 74.127707352776056 26.350638395915212 0 0 0 0 -107.63998902321327 60.161975208431386 0 60.161975208431386 22.385877228300728 0 0 0 0 -73.451880503225311 86.900323200850195 0 86.900323200850195 63.742798440618571 0 0 0 0 -74.422458179445584 77.930785211270603 0 77.930785211270603 18.925398764732108 0 0 0 0 -146.28609461335873 82.137789855775054 0 82.137789855775054 35.132826761393972 0 0 0 0 28.66634267331392 49.797998653374634 0 49.797998653374634 -102.08900152005026 0 0 0 0 -33.09913018662337 18.662016233356326 0 18.662016233356326 11.681961330914419 0 0 0 0 -0.21807461121240213 0.19147105328786296 0 0.19147105328786296 -0.49766730002014903 0 0 0 0 40.897111988233519 -34.035382755327191 0 -34.035382755327191 46.396526809096372 0 0 0 0 -10.778878702774819 -80.823691444401618 0 -80.823691444401618 38.056779779788101 0 0 0 0 -3.9940655498819666 1.7033227492634531 0 1.7033227492634531 3.7465313987995721 0 0 0 0 -32.593015643928084 20.481181695048917 0 20.481181695048917 14.749631777106515 0 0 0 0 -78.37812238321203 -23.023941443892909 0 -23.023941443892909 10.014100344824158 0 0 0 0 12.878025608159078 -86.889142336795146 0 -86.889142336795146 -10.675007458348404 0 0 0 0 18.746996433621916 68.31167402653 0 68.31167402653 -32.005693291210264 0 0 0 0 -44.990865754152765 -20.403691310498061 0 -20.403691310498061 234.62868966417864 0 0 0 0 21.525479288709903 141.73790281449391 0 141.73790281449391 94.324318965892417 0 0 0 0 -20.952592676359927 38.994996979745792 0 38.994996979745792 16.634238899070596 0 0 0 0 -25.481851083946822 28.041764426124701 0 28.041764426124701 -5.4913459443146166 0 0 0 0 -3.4938667825772427 80.023935914248568 0 80.023935914248568 13.780044328147028 0 0 0 0 19.288096876050986 -32.764515846112374 0 -32.764515846112374 121.95615478346394 0 0 0 0 -5.1951209408475307 1.5101993724400877 0 1.5101993724400877 2.9724243404925401 0 0 0 0 -190.64063942133362 120.97321563467034 0 120.97321563467034 -10.531496226135189 0 0 0 0 -116.84043547169131 110.30222129317184 0 110.30222129317184 -9.8602385446517928 0 0 0 0 -114.02904103403125 49.456146555537771 0 49.456146555537771 3.0971228948508269 0 0 0 0 -199.70337809071498 83.594024041547527 0 83.594024041547527 -2.9661468295784914 0 0 0 0 -207.59834158565354 121.24179433623129 0 121.24179433623129 16.470054757151502 0 0 0 0 -210.06021907362083 121.14371824197048 0 121.14371824197048 22.640559549319846 0 0 0 0 -262.75226186793589 180.97208381175346 0 180.97208381175346 -15.861822277101282 0 0 0 0 -236.14051936944816 191.18597109044998 0 191.18597109044998 -18.825603700271017 0 0 0 0 -155.79752700684185 151.02028694344304 0 151.02028694344304 -20.468177784045395 0 0 0 0 -5.1093023167082094 -0.97518870137804647 0 -0.97518870137804647 -0.5304204438864244 0 0 0 0 -321.25064104883313 376.90242093028024 0 376.90242093028024 -360.99690738825552 0 0 0 0 -97.165488918168194 -94.222063567189139 0 -94.222063567189139 -35.831739383531385 0 0 0 0 -120.35174892144278 148.03640274524537 0 148.03640274524537 -165.15595412699827 0 0 0 0 -294.64091527980418 233.95018548519332 0 233.95018548519332 -48.564866653146055 0 0 0 0 -237.01935147732365 66.097168427835413 0 66.097168427835413 13.638697854848942 0 0 0 0 -342.31065256940201 163.05688303982834 0 163.05688303982834 17.995516208533118 0 0 0 0 -533.03357412235346 221.343050341408 0 221.343050341408 -57.426413074913626 0 0 0 0 -79.913488660986332 46.521180431697303 0 46.521180431697303 -304.2243197341661 0 0 0 0 -341.87346970037288 -67.999582483358608 0 -67.999582483358608 -53.303462026544366 0 0 0 0 -114.91637767566135 60.381955748051951 0 60.381955748051951 -30.004337641145867 0 0 0 0 -113.9522931793399 -59.114747841104418 0 -59.114747841104418 -22.626282046705455 0 0 0 0 -54.962366017622116 -82.336973506953768 0 -82.336973506953768 49.896311157269338 0 0 0 0 -111.79904181206416 -18.565378408399162 0 -18.565378408399162 63.161763164997865 0 0 0 0 49.217073032552435 33.794811943711352 0 33.794811943711352 15.265949881143115 0 0 0 0 -1.7135127643722048 -0.092580854231215426 0 -0.092580854231215426 4.215273868432063 0 0 0 0 110.63245988521521 -17.714666965830133 0 -17.714666965830133 18.447425639795711 0 0 0 0 50.550696372549282 -77.134167599680495 0 -77.134167599680495 20.553291237956955 0 0 0 0 -1.1944665711534981 1.0354945480495132 0 1.0354945480495132 -0.023333355184789184 0 0 0 0 -82.835222335717845 42.469914588107486 0 42.469914588107486 2.2157598227780113 0 0 0 0 172.77367777501058 -66.639661159538605 0 -66.639661159538605 -46.850992517966688 0 0 0 0 67.231834934226995 76.889191163065533 0 76.889191163065533 -143.86148807512154 0 0 0 0 -0.53987256617248969 5.244375587757375 0 5.244375587757375 -11.615376495310727 0 0 0 0 -178.5973035280258 80.889618558086795 0 80.889618558086795 17.046589480769526 0 0 0 0 -265.39361621016724 153.49542337311573 0 153.49542337311573 -18.870309357573774 0 0 0 0 -0.082421344217671805 3.5011406880216782 0 3.5011406880216782 -9.9402407173548823 0 0 0 0 177.39056011284447 111.18929228468693 0 111.18929228468693 -69.352699055855282 0 0 0 0 -225.81968878980842 116.27443388450388 0 116.27443388450388 15.713056217641721 0 0 0 0 -224.22158013619486 189.20976955075443 0 189.20976955075443 -40.742318432626234 0 0 0 0 -206.03806417049054 200.63331461631037 0 200.63331461631037 -33.580694637086708 0 0 0 0 -324.06980959293287 308.12726310288031 0 308.12726310288031 -191.39985129425384 0 0 0 0 -164.54301226454209 148.47008826375094 0 148.47008826375094 -31.62047331208646 0 0 0 0 -489.65783746524812 20.895158135995302 0 20.895158135995302 32.711473131395678 0 0 0 0 -207.47825053717315 46.692982173459995 0 46.692982173459995 18.409749032215018 0 0 0 0 -52.270110950275011 -70.060170435203588 0 -70.060170435203588 -48.319561091810556 0 0 0 0 -115.10038755630376 42.743713869008502 0 42.743713869008502 -1.7005217547173288 0 0 0 0 141.37414706606069 225.1427413960555 0 225.1427413960555 -37.573635844551063 0 0 0 0 -65.660015626799577 -42.970390325300514 0 -42.970390325300514 -31.475540258039032 0 0 0 0 -384.16584949944263 160.51668897742479 0 160.51668897742479 -260.39244804357895 0 0 0 0 -335.75421843179083 271.95782603489698 0 271.95782603489698 -91.160415768390521 0 0 0 0 -550.26150190177032 167.15040478311664 0 167.15040478311664 112.92170883103472 0 0 0 0 -224.98343581962399 258.39020805834241 0 258.39020805834241 3.6936005777256469 0 0 0 0 18.4170259874154 22.307357128230137 0 22.307357128230137 6.1347093320468957 0 0 0 0 -26.417138655382587 79.786599661005084 0 79.786599661005084 23.150814006208975 0 0 0 0 -153.23427559028738 47.654034712903723 0 47.654034712903723 25.91591604100222 0 0 0 0 -77.661067204931896 64.764716900528583 0 64.764716900528583 2.9615017906999981 0 0 0 0 -57.815804479221697 9.4034151291978105 0 9.4034151291978105 -1.6791877269615725 0 0 0 0 -4.6500341698126562 0.87963924806744842 0 0.87963924806744842 14.888175639504961 0 0 0 0 -5.8439236539793349 12.338992213243134 0 12.338992213243134 -20.037426820335476 0 0 0 0 95.244375708403823 72.340453642552802 0 72.340453642552802 -21.75607936086044 0 0 0 0 284.9274947638587 79.496661522427644 0 79.496661522427644 -63.775919535362391 0 0 0 0 -5.556378029958509 13.476338648531968 0 13.476338648531968 -19.470106789291908 0 0 0 0 -36.372284967907035 15.754128190778829 0 15.754128190778829 15.403622865296711 0 0 0 0 20.381223233581082 49.395020107994952 0 49.395020107994952 -31.647317522435515 0 0 0 0 -4.6428728867358586 59.167496028573396 0 59.167496028573396 -16.245363296624419 0 0 0 0 -6.051146552504072 3.2929105935765364 0 3.2929105935765364 14.254058236900967 0 0 0 0 45.018877982674894 3.3760335479624928 0 3.3760335479624928 -24.165489249889333 0 0 0 0 -88.527493163795953 44.289381579083113 0 44.289381579083113 51.521456039433701 0 0 0 0 199.25650003637566 -2.5781700107315828 0 -2.5781700107315828 41.169972000291182 0 0 0 0 215.09230160931475 71.491760710816834 0 71.491760710816834 -77.825300180708609 0 0 0 0 -44.175967747305549 90.571546390435742 0 90.571546390435742 2.7876029774299695 0 0 0 0 175.16960273744553 -39.854183580300173 0 -39.854183580300173 -70.276194833135378 0 0 0 0 -43.526417012405091 87.235823245874712 0 87.235823245874712 -86.74469261183549 0 0 0 0 -431.21467796073557 264.29519220564839 0 264.29519220564839 -126.0737793494186 0 0 0 0 -381.06500123369551 40.165377751597362 0 40.165377751597362 21.506106533788966 0 0 0 0 -360.88923126543523 177.47280464662936 0 177.47280464662936 18.238325824579761 0 0 0 0 -354.89375830739846 171.38423255911957 0 171.38423255911957 72.199557694844771 0 0 0 0 -82.339293818420629 84.209197650387409 0 84.209197650387409 -41.354629190599127 0 0 0 0 -46.529924168928119 122.85463743457885 0 122.85463743457885 -92.042890822203503 0 0 0 0 -195.77519312406184 41.024386131579888 0 41.024386131579888 10.951690421247804 0 0 0 0 72.118671715194068 -48.552782184282165 0 -48.552782184282165 134.63627075897935 0 0 0 0 274.19530418045906 206.90965920015168 0 206.90965920015168 11.519338325885769 0 0 0 0 -87.462471219061626 78.116230189031086 0 78.116230189031086 56.805163136847568 0 0 0 0 410.34090801245475 -84.196954378175974 0 -84.196954378175974 -53.712458662427423 0 0 0 0 -2.0845553729345383 3.3730844289424056 0 3.3730844289424056 2.1461764664990097 0 0 0 0 -15.835758334303137 20.997947420342953 0 20.997947420342953 14.730546820469613 0 0 0 0 -39.542496389109147 186.47952916010115 0 186.47952916010115 90.815650951801445 0 0 0 0 -1.3832649166111359 3.5950149194632104 0 3.5950149194632104 -4.7739554191377787 0 0 0 0 -256.87150738965647 -7.8666635599763595 0 -7.8666635599763595 58.496771556128465 0 0 0 0 -220.77170358668445 -217.83119068122795 0 -217.83119068122795 144.35747187686457 0 0 0 0 51.756783215609175 66.574726771179684 0 66.574726771179684 -158.7038972139253 0 0 0 0 0.58589756761424283 -0.62009609080317318 0 -0.62009609080317318 -2.5443926346123273 0 0 0 0 -29.441592812756426 241.13106436805651 0 241.13106436805651 -75.71009139022533 0 0 0 0 391.93946891196174 132.237512413243 0 132.237512413243 -166.22782987968674 0 0 0 0 59.583879423862527 134.1997927868797 0 134.1997927868797 107.02733757108994 0 0 0 0 121.14979760024107 216.87122656720976 0 216.87122656720976 -168.93869065063814 0 0 0 0 94.679026467396852 111.87908878193402 0 111.87908878193402 -151.26007816886533 0 0 0 0 -70.67756376401303 196.92031313215739 0 196.92031313215739 -41.525946512826977 0 0 0 0 -37.374148399284422 213.291076849555 0 213.291076849555 -162.64477183230019 0 0 0 0 -254.55952255605371 355.83506229657155 0 355.83506229657155 -124.37208981429183 0 0 0 0 -35.189593358267302 118.80196965751429 0 118.80196965751429 -37.714464707426657 0 0 0 0 19.482797139764443 96.638360508013761 0 96.638360508013761 -52.279372909739777 0 0 0 0 13.795168746699346 60.594030338017546 0 60.594030338017546 -166.3667995610665 0 0 0 0 -20.536951995036361 -56.851090515774217 0 -56.851090515774217 -176.82189584184812 0 0 0 0 -118.74918586829699 162.15239605854833 0 162.15239605854833 -247.88391955556449 0 0 0 0 9.2727350556415331 9.1264728956899859 0 9.1264728956899859 -100.6277051573868 0 0 0 0 106.3079964192184 105.28420821777411 0 105.28420821777411 -149.85372666320856 0 0 0 0 82.312527891263016 -177.23269756807565 0 -177.23269756807565 176.10171384504144 0 0 0 0 11.277667914328049 -70.144357857709679 0 -70.144357857709679 197.24095707197444 0 0 0 0 -8.1457178809278048 27.182097966273943 0 27.182097966273943 65.795222380050745 0 0 0 0 26.493318241100496 21.11235045875793 0 21.11235045875793 -14.693141721930715 0 0 0 0 -74.369548464943364 8.7879179605542959 0 8.7879179605542959 33.440629684403802 0 0 0 0 -116.78648934329522 164.243105455799 0 164.243105455799 -61.753072728316511 0 0 0 0 35.645564298436511 8.4809881431763188 0 8.4809881431763188 -4.5180857583677607 0 0 0 0 56.236410733916273 -91.921511721841625 0 -91.921511721841625 82.141325759472238 0 0 0 0 -9.2299462673909147 40.896754352284518 0 40.896754352284518 94.423221814853605 0 0 0 0 -139.59740369572683 56.717585120373258 0 56.717585120373258 65.028933885064362 0 0 0 0 19.765653830480005 23.202854556804368 0 23.202854556804368 -76.775597896671343 0 0 0 0 -91.415094661933836 72.592144926300307 0 72.592144926300307 -232.36722960512861 0 0 0 0 -152.78469448511169 137.32938473539207 0 137.32938473539207 -82.280089678280774 0 0 0 0 -417.7101618825036 281.0816765823912 0 281.0816765823912 -113.73145562154559 0 0 0 0 -165.69720206312923 126.91784303761597 0 126.91784303761597 -2.3429768510637814 0 0 0 0 -255.06873954369803 201.9734284843787 0 201.9734284843787 -17.60550216487195 0 0 0 0 -176.80730375787607 137.87191647827751 0 137.87191647827751 -33.290272765586906 0 0 0 0 -334.04007629969419 212.80629471970451 0 212.80629471970451 -55.664256678488812 0 0 0 0 -358.43778072181385 66.38778187632164 0 66.38778187632164 -82.908168815847375 0 0 0 0 -263.51237363691575 124.47673447407223 0 124.47673447407223 -72.804622233699774 0 0 0 0 -881.69339556629347 344.67228370291798 0 344.67228370291798 8.583117940453576 0 0 0 0 -551.21154274226865 65.338585288367767 0 65.338585288367767 -15.942816319838585 0 0 0 0 -0.37450869233563416 0.9574281428775393 0 0.9574281428775393 -4.1770470941794224 0 0 0 0 357.51672281885294 62.038725291157334 0 62.038725291157334 -431.45349714229292 0 0 0 0 -188.13626303958972 17.590990501719361 0 17.590990501719361 -23.686774198557487 0 0 0 0 -165.27852821569104 243.97942749476488 0 243.97942749476488 -551.2842303961163 0 0 0 0 -411.13089787217541 -42.488021940741874 0 -42.488021940741874 31.465792302863974 0 0 0 0 -144.13108617875332 127.10761411324233 0 127.10761411324233 137.69066017084174 0 0 0 0 -138.54774191478282 -58.448281161799969 0 -58.448281161799969 218.80762633138022 0 0 0 0 -14.401723649746373 -2.0852762425233884 0 -2.0852762425233884 3.4623760296718977 0 0 0 0 -50.094900111909737 26.922406642059286 0 26.922406642059286 -197.32884412358999 0 0 0 0 -185.64505970676692 264.66625429518541 0 264.66625429518541 -73.066997046930609 0 0 0 0 -175.44576214431436 173.76802671767564 0 173.76802671767564 -113.64788636898538 0 0 0 0 -257.71780686905549 136.40165729986472 0 136.40165729986472 -83.633444816074189 0 0 0 0 -67.219906305348559 97.727393414626931 0 97.727393414626931 -196.89502630933612 0 0 0 0 14.233930189177045 -277.77926385298036 0 -277.77926385298036 205.16831328322996 0 0 0 0 -9.7041878609399106 -0.64042440053736982 0 -0.64042440053736982 3.3166808850961305 0 0 0 0 -133.50896626840404 38.467866944195976 0 38.467866944195976 -33.852032899449682 0 0 0 0 211.27442849504587 -159.37773173342168 0 -159.37773173342168 -116.05083808184145 0 0 0 0 33.770900902611174 -91.669244517194784 0 -91.669244517194784 -13.066901411671097 0 0 0 0 -39.801288959035446 -34.122079625990068 0 -34.122079625990068 252.1331081604535 0 0 0 0 155.89063501884812 36.752941124202152 0 36.752941124202152 70.635372739074342 0 0 0 0 202.87715075704182 -92.979573542183289 0 -92.979573542183289 52.726682300045923 0 0 0 0 1.4265995555386368 1.6930483052643197 0 1.6930483052643197 1.3237246843757524 0 0 0 0 261.40768911920168 1.4826970147033762 0 1.4826970147033762 -47.316963048262807 0 0 0 0 -300.48490048703752 -423.27339765134195 0 -423.27339765134195 -347.21111995506419 0 0 0 0 -157.05308524268457 90.136682467088661 0 90.136682467088661 56.470076117785538 0 0 0 0 -2.6543515619814571 49.765994752666764 0 49.765994752666764 27.623227335638219 0 0 0 0 -224.96817381105939 295.90063917145721 0 295.90063917145721 90.130275704460928 0 0 0 0 -11.982442401195641 7.826526802537245 0 7.826526802537245 9.1875704677411552 0 0 0 0 -75.550852482243499 34.074096313478549 0 34.074096313478549 -57.802021766994585 0 0 0 0 87.159488592544221 24.66753666252292 0 24.66753666252292 -24.938409930953249 0 0 0 0 116.15398177353927 121.85579845728874 0 121.85579845728874 -16.171282436707983 0 0 0 0 3.1995401679159841 112.84210521654924 0 112.84210521654924 10.38743278778577 0 0 0 0 -14.360071033675922 171.54541562377204 0 171.54541562377204 -9.1448581237904136 0 0 0 0 -3.2834403786394262 0.44503705719401054 0 0.44503705719401054 1.8171303269387977 0 0 0 0 464.45982823088707 426.36484678261127 0 426.36484678261127 -231.33553023753268 0 0 0 0 -185.50797567784321 204.65402812933561 0 204.65402812933561 -26.49660395501337 0 0 0 0 203.51470088793667 183.93690239520168 0 183.93690239520168 -49.555983719705921 0 0 0 0 158.09922991503163 17.522017338471755 0 17.522017338471755 -154.89823606991627 0 0 0 0 12.541012426185262 87.255965085319289 0 87.255965085319289 33.933200105304138 0 0 0 0 -18.672347746854939 79.38276314971003 0 79.38276314971003 95.932902394653013 0 0 0 0 -64.10427080303954 17.004829541914106 0 17.004829541914106 6.0966569692510522 0 0 0 0 -88.626055318184171 144.31166438367791 0 144.31166438367791 213.62495652890965 0 0 0 0 17.513772539015008 76.170590912094383 0 76.170590912094383 38.099321062126549 0 0 0 0 -698.82154374845413 -30.49650695009791 0 -30.49650695009791 210.56296559980504 0 0 0 0 -22.298787540431476 -38.887553641765408 0 -38.887553641765408 -262.57866326002249 0 0 0 0 -50.656643187219515 -89.210093672936694 0 -89.210093672936694 114.86961584621349 0 0 0 0 -23.187167888982003 -215.91184547913417 0 -215.91184547913417 33.328742214206045 0 0 0 0 -40.055429337412647 -23.366411940074244 0 -23.366411940074244 6.8543796213849522 0 0 0 0 -264.46392917816047 34.991981525448637 0 34.991981525448637 -5.1493472562174247 0 0 0 0 -140.77052576474307 54.703634740233611 0 54.703634740233611 -3.3436003448787233 0 0 0 0 -11.782302548327806 -6.2245915464059998 0 -6.2245915464059998 5.6077811383593339 0 0 0 0 -29.21767195884604 64.925969055360383 0 64.925969055360383 -28.195855730776316 0 0 0 0 -89.197294495283131 -16.810918743182867 0 -16.810918743182867 -2.8278286675222262 0 0 0 0 -120.54285588471112 19.658771173646755 0 19.658771173646755 -29.392005474498092 0 0 0 0 -125.36799582560161 68.468800965470109 0 68.468800965470109 -17.369272243075102 0 0 0 0 73.754904592823095 -56.617879498530385 0 -56.617879498530385 -4.3556947453661223 0 0 0 0 -29.51209777017101 -19.506115464169465 0 -19.506115464169465 13.019275398055182 0 0 0 0 -9.7324732479437444 22.238886198610743 0 22.238886198610743 -17.015732453202986 0 0 0 0 2.991038454990985 1.1027716344205585 0 1.1027716344205585 11.677179274458801 0 0 0 0 -21.166052672870315 -1.7481734558214095 0 -1.7481734558214095 1.7154914963747423 0 0 0 0 -52.428541507952787 -0.87531329155044801 0 -0.87531329155044801 36.686649190924044 0 0 0 0 4.9412464435408765 79.78377194066843 0 79.78377194066843 -117.93648404864996 0 0 0 0 -129.15610745254503 -40.740533208015847 0 -40.740533208015847 -4.016785021848932 0 0 0 0 -449.39883341121276 159.636985383742 0 159.636985383742 -67.33560267679286 0 0 0 0 -218.40467156926769 -211.70114233626828 0 -211.70114233626828 -97.329236220493229 0 0 0 0 -62.828559689927715 18.888889356929766 0 18.888889356929766 -0.66237616367061491 0 0 0 0 -315.50407113460597 -205.10046460569006 0 -205.10046460569006 89.229191412998262 0 0 0 0 -424.83650837468889 -154.54796633144645 0 -154.54796633144645 87.668026877686202 0 0 0 0 -3.4221606077433657 2.6321503968463764 0 2.6321503968463764 -2.1512194908116546 0 0 0 0 96.106397812149453 125.24461295437021 0 125.24461295437021 55.519663602536639 0 0 0 0 -3.5968402697940292 -15.944567466352623 0 -15.944567466352623 -6.3972929580677373 0 0 0 0 -20.923714701501012 3.0454281294646535 0 3.0454281294646535 -37.61577147342723 0 0 0 0 -14.690977434072011 -0.46712170405540654 0 -0.46712170405540654 1.8512355781756789 0 0 0 0 -166.46922805527993 -23.70195121391373 0 -23.70195121391373 -14.613078765772343 0 0 0 0 -17.869183596324092 10.130443999027705 0 10.130443999027705 -56.992002306225913 0 0 0 0 -8.5054360995101845 6.9040309910519291 0 6.9040309910519291 -7.0567657837187827 0 0 0 0 -12.183356272460514 3.5744129385123529 0 3.5744129385123529 -57.584160575174792 0 0 0 0 -10.708153669879721 2.6200713775665463 0 2.6200713775665463 -102.37048661831886 0 0 0 0 -21.212954429967795 28.911141417737781 0 28.911141417737781 -52.454808151749603 0 0 0 0 -23.949334928202006 33.113024722808404 0 33.113024722808404 -36.742132041636069 0 0 0 0 -14.562154764158777 -2.2245565435993058 0 -2.2245565435993058 3.6194070610475579 0 0 0 0 -36.803339030048846 -23.361266389437446 0 -23.361266389437446 8.9473999187730442 0 0 0 0 -15.177101198354649 20.652036695439165 0 20.652036695439165 -18.401549459752005 0 0 0 0 -17.312732527856497 -3.0268901653157627 0 -3.0268901653157627 -16.517446210676098 0 0 0 0 -66.187991160804813 19.266182232229767 0 19.266182232229767 -7.1132102279393621 0 0 0 0 -63.369863623904166 16.604240599061541 0 16.604240599061541 -34.975049556892372 0 0 0 0 -36.49919181098246 -7.8392157877041022 0 -7.8392157877041022 17.926035782845471 0 0 0 0 -96.069618701207219 50.976680510485494 0 50.976680510485494 -21.013237427727518 0 0 0 0 -69.548983700411554 6.0618305914140365 0 6.0618305914140365 -16.614947559090069 0 0 0 0 -67.988708653395719 11.588324054113301 0 11.588324054113301 7.4304319605791482 0 0 0 0 -63.374126735396658 21.67212359922371 0 21.67212359922371 -10.940683926105521 0 0 0 0 -55.372421358992753 12.197418143115861 0 12.197418143115861 -2.5332017452293774 0 0 0 0 -17.92487310052995 6.3374707286940364 0 6.3374707286940364 -4.1021981247537518 0 0 0 0 -71.898538454021036 -41.142062785641428 0 -41.142062785641428 74.017463571453305 0 0 0 0 -9.3918518950285943 -76.323205881976264 0 -76.323205881976264 -66.748130783283159 0 0 0 0 -16.221753602656463 -41.164057974493517 0 -41.164057974493517 -67.227797930579072 0 0 0 0 -11.91053523993105 3.7336684229665025 0 3.7336684229665025 -8.2567369281159699 0 0 0 0 -4.562646746190147 4.3557868755048297 0 4.3557868755048297 -6.9259167406302353 0 0 0 0 -3.1793197213801392 1.1435641901754385 0 1.1435641901754385 -1.9778150751187784 0 0 0 0 3.8565267362268969 38.574710532788743 0 38.574710532788743 -104.14552504340008 0 0 0 0 -131.04610344844514 37.897798368006647 0 37.897798368006647 223.89582261669921 0 0 0 0 -61.034478757402731 10.471504455793955 0 10.471504455793955 -0.25340390716435884 0 0 0 0 -285.78336296054476 -168.02368478719836 0 -168.02368478719836 51.313664264602721 0 0 0 0 45.740823094440202 103.1829704630195 0 103.1829704630195 53.639320085634154 0 0 0 0 -81.058823991333156 97.940994381383234 0 97.940994381383234 206.66896028938618 0 0 0 0 -72.024998870378113 -5.7995899587835993 0 -5.7995899587835993 57.047149007915316 0 0 0 0 -29.824780511211429 106.54372548292031 0 106.54372548292031 205.91229834813117 0 0 0 0 -62.24520085190737 10.769156064335561 0 10.769156064335561 0.94184234034499914 0 0 0 0 -200.86162852523921 -59.658029438353196 0 -59.658029438353196 10.380652782811012 0 0 0 0 29.881604827513002 -28.787767632057012 0 -28.787767632057012 12.62541713283008 0 0 0 0 -53.453073448716168 4.8684588114833787 0 4.8684588114833787 214.99917314914973 0 0 0 0 -45.039298631670704 -85.267612666683149 0 -85.267612666683149 -92.157285348401729 0 0 0 0 -123.15686849696976 -129.51701088647906 0 -129.51701088647906 -54.689692045769789 0 0 0 0 -84.230240279486679 -116.0819303046195 0 -116.0819303046195 -121.01431069383761 0 0 0 0 -1.9808294812820151 2.7790672257010662 0 2.7790672257010662 -3.8461210363586451 0 0 0 0 -451.19371292165488 -59.448724308766032 0 -59.448724308766032 -83.015601377313487 0 0 0 0 -37.865615811527618 110.95475506697005 0 110.95475506697005 -473.93123262910694 0 0 0 0 -82.474104635693038 191.0084967573631 0 191.0084967573631 -436.35957060907253 0 0 0 0 -99.653772685249351 298.25058155512272 0 298.25058155512272 -496.04594738951937 0 0 0 0 -355.3545373253819 303.0091264673581 0 303.0091264673581 -336.65813081098668 0 0 0 0 -87.464873912649637 124.48617811367717 0 124.48617811367717 -199.43243227235598 0 0 0 0 -276.36680949918446 189.87003078883072 0 189.87003078883072 -186.74727579747264 0 0 0 0 -5.9386467352005639 44.97974521085564 0 44.97974521085564 -27.881894672537328 0 0 0 0 -143.48549398489365 180.04813560006738 0 180.04813560006738 -36.977240203307247 0 0 0 0 -118.32477512861078 30.212326889049848 0 30.212326889049848 -9.4947929255563395 0 0 0 0 -22.147066535108024 65.006001663375628 0 65.006001663375628 0.2018747524509763 0 0 0 0 -91.71213294116842 112.08860668329612 0 112.08860668329612 259.91939839259612 0 0 0 0 -14.962846477109757 8.0996208639710954 0 8.0996208639710954 1.0448235685714273 0 0 0 0 -6.8055477087327745 -105.88047462480972 0 -105.88047462480972 307.03962362234302 0 0 0 0 -89.640959192167429 10.911177823666094 0 10.911177823666094 205.89947575147835 0 0 0 0 -35.755405004777792 5.4564566520034763 0 5.4564566520034763 0.68880799451333719 0 0 0 0 -101.62893811970935 2.5540735482134096 0 2.5540735482134096 200.42550687329731 0 0 0 0 -30.617842895949472 8.0187758845550903 0 8.0187758845550903 -0.26507321200804435 0 0 0 0 -119.28826818821972 -33.659433827668181 0 -33.659433827668181 54.677626167195598 0 0 0 0 -96.504403340539284 54.557161352311368 0 54.557161352311368 142.24400025294219 0 0 0 0 -23.846911331695363 9.6730481297834014 0 9.6730481297834014 -2.7702859730110281 0 0 0 0 -15.341104896518345 -0.71449332753832095 0 -0.71449332753832095 4.4213677922444532 0 0 0 0 -10.47351428170623 90.321171521938368 0 90.321171521938368 -36.85896025098873 0 0 0 0 0.035701847847121826 54.471350270552648 0 54.471350270552648 28.248839361099272 0 0 0 0 37.695626779306906 50.126227555200856 0 50.126227555200856 -75.8229421640699 0 0 0 0 -86.994703866059353 149.10474771388158 0 149.10474771388158 -131.17014115890993 0 0 0 0 -1576.39997304595 966.13081648687341 0 966.13081648687341 -376.72470474404565 0 0 0 0 -4.2096134258716909 -0.24918540532922662 0 -0.24918540532922662 -3.1300351934043258 0 0 0 0 -1490.1501735283691 -0.41776631339525544 0 -0.41776631339525544 -7.2999256294300405 0 0 0 0 -2.9746445462836948 0.75569132437497777 0 0.75569132437497777 -3.333679891165787 0 0 0 0 -18.601210405011443 795.91535077930007 0 795.91535077930007 -1167.0036533668524 0 0 0 0 -708.92279770358118 -103.76173267143673 0 -103.76173267143673 -160.6305792391114 0 0 0 0 -238.52168469334811 -53.626514488572781 0 -53.626514488572781 122.429516996134 0 0 0 0 -10.373079092350242 8.3372231878165373 0 8.3372231878165373 -9.9259477990359386 0 0 0 0 -9.9947642444194571 6.5287609976601289 0 6.5287609976601289 -5.2862173382494149 0 0 0 0 -6.7745335066195569 2.4911702136172904 0 2.4911702136172904 -6.110763957757154 0 0 0 0 -15.245903489688018 4.2615618426845501 0 4.2615618426845501 -3.3029962245945015 0 0 0 0 -20.394143343763062 17.857355882179945 0 17.857355882179945 -16.813524686882374 0 0 0 0 -1681.767742931454 905.41447808338364 0 905.41447808338364 -388.41218474223217 0 0 0 0 -0.89876838441310092 1.7503988556850807 0 1.7503988556850807 -9.2794819941985445 0 0 0 0 -79.272330754731684 -171.12184259241587 0 -171.12184259241587 -450.10275826578436 0 0 0 0 37.073715191459726 24.561979680349523 0 24.561979680349523 -18.605015376555457 0 0 0 0 -2.5226160530114896 4.4877627147714012 0 4.4877627147714012 0.059374426116885815 0 0 0 0 -1498.3056618015141 988.40191862229369 0 988.40191862229369 -552.32849007744824 0 0 0 0 -711.06631087313872 252.09499111404745 0 252.09499111404745 -32.221873972335416 0 0 0 0 -1310.242591813645 474.24757806467568 0 474.24757806467568 -1181.3305648773883 0 0 0 0 -1293.6655293799276 986.53955520535806 0 986.53955520535806 -1096.3667544103434 0 0 0 0 -107.40946583750519 717.22060737927904 0 717.22060737927904 -1213.7280394287448 0 0 0 0 -1281.9167579364412 1130.5990147554842 0 1130.5990147554842 -806.17791741629094 0 0 0 0 -495.02035945843909 588.93635234065789 0 588.93635234065789 -567.38633564761176 0 0 0 0 -537.65572454784342 658.46145543789567 0 658.46145543789567 -578.30132339316526 0 0 0 0 -1500.1117839002768 718.58057532103419 0 718.58057532103419 -444.93504736129358 0 0 0 0 -5.5582352670326145 82.479120140739269 0 82.479120140739269 -368.70000036747433 0 0 0 0 -149.57675170491711 253.7082228981111 0 253.7082228981111 -367.50546421854381 0 0 0 0 372.78410020443698 97.122539920311624 0 97.122539920311624 -785.91258310781586 0 0 0 0 -391.12937417643843 646.9756100119921 0 646.9756100119921 -795.79601147830954 0 0 0 0 -31.896125706125531 370.87417023227113 0 370.87417023227113 -626.33568893616689 0 0 0 0 -507.71053767221929 486.45190733569825 0 486.45190733569825 -499.18580207268724 0 0 0 0 -238.4735298266969 303.47570805118846 0 303.47570805118846 -402.84473764325389 0 0 0 0 -210.72170812138938 324.64447627237143 0 324.64447627237143 -457.47322498347421 0 0 0 0 -334.6023711618509 447.03919032841759 0 447.03919032841759 -498.64900998896826 0 0 0 0 -701.16426292862343 412.3256799309263 0 412.3256799309263 -258.95727520703196 0 0 0 0 -794.84300315721703 281.7906767479077 0 281.7906767479077 4.7687961024154788 0 0 0 0 -531.34370332757135 373.0179417574227 0 373.0179417574227 -250.03175602210644 0 0 0 0 -468.0006743278791 269.34573745077239 0 269.34573745077239 -166.61780219579299 0 0 0 0 -233.18255128969213 271.41072576748059 0 271.41072576748059 -262.16421784191618 0 0 0 0 -274.76150722276725 347.14780469272694 0 347.14780469272694 -399.94908729753189 0 0 0 0 -1153.1000306713777 442.09281547459074 0 442.09281547459074 -254.73771892358008 0 0 0 0 -1499.6668841563401 516.47757794931306 0 516.47757794931306 -3.0114702061891339 0 0 0 0 -711.11178561403949 439.23886088681866 0 439.23886088681866 -218.75194859602743 0 0 0 0 -1157.4388003882559 615.85494245477776 0 615.85494245477776 -285.10932175223371 0 0 0 0 -1065.9026127415327 496.15395456856271 0 496.15395456856271 -116.26271341999961 0 0 0 0 -1199.3939618217398 285.58325060972538 0 285.58325060972538 167.06110496917898 0 0 0 0 -1148.8927348270227 281.71219722603962 0 281.71219722603962 166.43695201625425 0 0 0 0 -1499.7895265013294 191.1342958174925 0 191.1342958174925 374.59370736311223 0 0 0 0 -1090.0221702388585 147.51121843074321 0 147.51121843074321 216.8446981703255 0 0 0 0 -1201.4274463244217 30.770334631874498 0 30.770334631874498 347.37432925699403 0 0 0 0 -789.5457433903739 109.23458467416037 0 109.23458467416037 214.1224703005085 0 0 0 0 -1199.2415562399774 106.74947000151344 0 106.74947000151344 387.45500033775613 0 0 0 0 -135.90846006709398 127.89976246780941 0 127.89976246780941 -21.45063576159464 0 0 0 0 -152.94034412568362 286.91717503038802 0 286.91717503038802 -260.25144424160476 0 0 0 0 -323.35088689225995 231.73308702877102 0 231.73308702877102 -78.621833885470323 0 0 0 0 -320.87933804133718 235.45984335480318 0 235.45984335480318 -160.35656367251482 0 0 0 0 -448.94865090688836 159.26356099517113 0 159.26356099517113 67.083594565509273 0 0 0 0 -628.88590915321129 154.27396321873047 0 154.27396321873047 69.188052793974066 0 0 0 0 -707.61807613946257 261.63099469131947 0 261.63099469131947 5.4930791979976181 0 0 0 0 -790.09928900416162 117.17779944279613 0 117.17779944279613 237.3110834710568 0 0 0 0 -477.84979248068885 15.378063856091217 0 15.378063856091217 171.99019244494536 0 0 0 0 -328.93749988211857 223.48030786358856 0 223.48030786358856 201.48271194089079 0 0 0 0 -52.222667053920304 83.270137380375786 0 83.270137380375786 175.49071225238993 0 0 0 0 -335.43823293854803 50.542133008316455 0 50.542133008316455 148.47597564057696 0 0 0 0 -155.40803405154475 254.56853356137989 0 254.56853356137989 63.386089178660995 0 0 0 0 74.964016738531882 448.10408489643964 0 448.10408489643964 335.50513835922857 0 0 0 0 -149.81500294441867 189.59864360278425 0 189.59864360278425 -23.034785566791015 0 0 0 0 -337.3776060552018 559.05494478008859 0 559.05494478008859 300.86303812749111 0 0 0 0 -102.38901144577903 97.632712113715229 0 97.632712113715229 314.31395166758614 0 0 0 0 497.70596014686816 472.39041153879043 0 472.39041153879043 -0.033460829656291935 0 0 0 0 7.5624888926686253 378.84302761126582 0 378.84302761126582 -110.67739016407734 0 0 0 0 -202.72471130019403 384.01730391158316 0 384.01730391158316 7.4040735266921729 0 0 0 0 -347.68104290568954 414.44798683629568 0 414.44798683629568 -16.826379022122637 0 0 0 0 -90.581543919137403 499.61253823881975 0 499.61253823881975 9.9792500973810547 0 0 0 0 -155.18262370933007 364.5418551319849 0 364.5418551319849 -184.08945250307983 0 0 0 0 -210.39307973843825 306.10736653930013 0 306.10736653930013 -134.31656518766226 0 0 0 0 -565.67055997860371 345.59047006520871 0 345.59047006520871 101.23871644969881 0 0 0 0 -393.25614691570809 335.16517800383554 0 335.16517800383554 -89.914914016722946 0 0 0 0 -620.35044844708682 292.06924600525667 0 292.06924600525667 50.896973571996114 0 0 0 0 -592.88112475076559 186.55325391884139 0 186.55325391884139 -261.46611060629175 0 0 0 0 -579.07417400211853 468.56351315288225 0 468.56351315288225 169.71425300922215 0 0 0 0 -389.35219024441358 422.92438606449934 0 422.92438606449934 64.807570986055453 0 0 0 0 -853.92498028503542 495.35334009734868 0 495.35334009734868 96.469112533925681 0 0 0 0 -881.31557407638684 176.63619958313302 0 176.63619958313302 68.668850184441453 0 0 0 0 -563.45821107373922 287.29318421292379 0 287.29318421292379 -29.399111287985761 0 0 0 0 -575.97694550361894 205.03017503607964 0 205.03017503607964 4.4335524463281217 0 0 0 0 -344.33357723856534 206.80169874659603 0 206.80169874659603 -44.548537402538045 0 0 0 0 -495.096601557947 162.22270172780088 0 162.22270172780088 -16.243705427962524 0 0 0 0 -283.12524769580614 193.35304847878481 0 193.35304847878481 -99.349155865570651 0 0 0 0 -431.47091183168777 146.94824248831276 0 146.94824248831276 13.22786159026758 0 0 0 0 -475.05036038240905 248.72007956648918 0 248.72007956648918 -14.061004305254414 0 0 0 0 -292.43431850789239 248.09419299962792 0 248.09419299962792 -219.4855852545254 0 0 0 0 -481.9294842803356 242.24445377037114 0 242.24445377037114 -11.23785609446179 0 0 0 0 -217.79352877473139 108.93477035149283 0 108.93477035149283 -72.61174601125623 0 0 0 0 -486.22961828275402 326.59438083784516 0 326.59438083784516 -249.06372069214285 0 0 0 0 -524.6138957721156 106.22805286154554 0 106.22805286154554 -238.7812196779488 0 0 0 0 -210.59230366025986 248.87717525681239 0 248.87717525681239 -448.06178198651628 0 0 0 0 -194.38508513081797 207.84935033814796 0 207.84935033814796 -605.79875378089673 0 0 0 0 -188.7835907989238 284.98717677709772 0 284.98717677709772 -388.73709610011497 0 0 0 0 -198.142015070051 308.78040591919444 0 308.78040591919444 -382.27301573201726 0 0 0 0 -315.97262640505869 258.59015888776878 0 258.59015888776878 -230.51825485769032 0 0 0 0 -341.79965949059988 326.95895571331118 0 326.95895571331118 -96.134239349150107 0 0 0 0 -417.68984035654194 230.43835396046606 0 230.43835396046606 -213.54892911331058 0 0 0 0 102.668497961502 -56.95256525524286 0 -56.95256525524286 -9.6786768392860552 0 0 0 0 -9.4754104688823091 -9.979657479369795 0 -9.979657479369795 2.1661091146013525 0 0 0 0 5.1197063260697178 -19.585369505711895 0 -19.585369505711895 10.549520056984534 0 0 0 0 -11.876212259915587 -6.8707520783033793 0 -6.8707520783033793 3.7388869588693323 0 0 0 0 31.559794258500915 -37.757324888698918 0 -37.757324888698918 6.9515785232795224 0 0 0 0 34.0135562179712 -45.107346606698059 0 -45.107346606698059 26.038490356649845 0 0 0 0 0.45314825669993297 -81.562246363266354 0 -81.562246363266354 36.207401815892752 0 0 0 0 -34.3124609370916 -69.726003126321856 0 -69.726003126321856 39.700727069163804 0 0 0 0 -45.897281655677943 -85.506765552730329 0 -85.506765552730329 90.562322337026274 0 0 0 0 -24.087013558331819 -77.117907266874298 0 -77.117907266874298 38.758125767387909 0 0 0 0 58.108033501039245 -143.05354465443784 0 -143.05354465443784 86.06450532962748 0 0 0 0 -73.090232826950796 -91.897830342185614 0 -91.897830342185614 151.20241434117639 0 0 0 0 -85.644986774247172 -34.854030230631594 0 -34.854030230631594 75.658418646790906 0 0 0 0 -114.20013692485554 -16.660547929392891 0 -16.660547929392891 150.52818774973537 0 0 0 0 101.27006245988741 -293.75393776305071 0 -293.75393776305071 345.55773792078878 0 0 0 0 63.306852661709854 -81.382184211064214 0 -81.382184211064214 47.832865249733345 0 0 0 0 264.82229082697449 -124.33373862056953 0 -124.33373862056953 -0.55219851893673422 0 0 0 0 158.12335948674445 -4.6825593054207957 0 -4.6825593054207957 -25.777797062102877 0 0 0 0 1.8615586016876975 -3.9866744043091105 0 -3.9866744043091105 1.3648556394092859 0 0 0 0 -7.3980951998746605 -10.03771294234167 0 -10.03771294234167 5.685456074761305 0 0 0 0 -8.75362881381443 -15.914261949769696 0 -15.914261949769696 7.5339230363819354 0 0 0 0 -14.533860997134482 -11.073638674364368 0 -11.073638674364368 4.1338840018949279 0 0 0 0 -25.535287608054205 3.7282928226015883 0 3.7282928226015883 23.078707409658477 0 0 0 0 -17.281933784753761 -6.8879868212301005 0 -6.8879868212301005 2.0279935323845084 0 0 0 0 10.574681154007521 34.350389820627896 0 34.350389820627896 35.316404232322611 0 0 0 0 -9.5324715523034307 -9.2035430652872954 0 -9.2035430652872954 2.1481276527850395 0 0 0 0 -9.7414932199795032 -0.76361411543690316 0 -0.76361411543690316 -1.1764150080338387 0 0 0 0 -21.341762671612742 -9.965711174822772 0 -9.965711174822772 9.5667059234713179 0 0 0 0 -13.839189542115491 -7.2401761916104306 0 -7.2401761916104306 -12.95792507419435 0 0 0 0 -21.478961510738372 -7.4155485436083666 0 -7.4155485436083666 -11.614107834738206 0 0 0 0 -18.953480628981652 14.502392176046399 0 14.502392176046399 -25.978130122091216 0 0 0 0 -7.5321551596898644 -14.732630825844126 0 -14.732630825844126 30.908401165555915 0 0 0 0 4.6869504833666724 4.8844035974840949 0 4.8844035974840949 -15.297026313332481 0 0 0 0 0.97621046634230879 1.1251966358479422 0 1.1251966358479422 -8.2565639672270095 0 0 0 0 -0.66788345996235421 -16.982332808937858 0 -16.982332808937858 -26.438976022999441 0 0 0 0 -1.7531866476483629 -13.745862294163118 0 -13.745862294163118 82.514974495013121 0 0 0 0 -15.726072414010559 13.30213065480666 0 13.30213065480666 31.413377890490096 0 0 0 0 2.6015963995232596 24.986821164085086 0 24.986821164085086 150.07989835874127 0 0 0 0 42.370177194377902 4.7476009360931357 0 4.7476009360931357 32.287463919985825 0 0 0 0 -22.594115426523786 8.7845035642923222 0 8.7845035642923222 159.03232294109193 0 0 0 0 -16.428983659900041 10.496614226172994 0 10.496614226172994 65.905280097758805 0 0 0 0 -48.027177191215742 -49.663249390159308 0 -49.663249390159308 51.79355936807417 0 0 0 0 -33.121099330985771 16.73190043234694 0 16.73190043234694 -17.144933828384183 0 0 0 0 -30.890540041058557 -10.33677048408606 0 -10.33677048408606 44.383585091594568 0 0 0 0 -26.355164668544603 26.681986309986542 0 26.681986309986542 18.153161052895825 0 0 0 0 -73.462354558366314 38.2473090715566 0 38.2473090715566 10.972368609384603 0 0 0 0 -19.535545212835977 -14.57008824679637 0 -14.57008824679637 8.0245183503089184 0 0 0 0 -66.931772803964122 2.3165333563654258 0 2.3165333563654258 7.8083317966520553 0 0 0 0 -5.3244422386887891 -52.617732755477164 0 -52.617732755477164 9.8678544963158856 0 0 0 0 7.6344007132979463 -3.8677209799641066 0 -3.8677209799641066 -0.16122137277909143 0 0 0 0 -19.998746086661413 -45.504315724756225 0 -45.504315724756225 28.71943908844878 0 0 0 0 -27.046139071670041 -9.4940806611476773 0 -9.4940806611476773 -19.173366516557735 0 0 0 0 -34.813195479202022 -67.399624568534065 0 -67.399624568534065 47.968947668157853 0 0 0 0 -10.101673455104901 -69.985327089159796 0 -69.985327089159796 32.654354366886309 0 0 0 0 -24.679814291157527 -52.045070303496914 0 -52.045070303496914 15.908713780169137 0 0 0 0 -26.193698280964327 -49.340166038045425 0 -49.340166038045425 42.071381842800747 0 0 0 0 -25.701981339345366 -22.365415574998678 0 -22.365415574998678 15.999928910930066 0 0 0 0 -20.173322680862046 -12.699268068014891 0 -12.699268068014891 10.114828441557552 0 0 0 0 -49.890934365697831 1.9478635175389627 0 1.9478635175389627 43.237328829150329 0 0 0 0 -39.109003269237292 -30.413238183112526 0 -30.413238183112526 36.462767251964578 0 0 0 0 -1.4438904250855558 -38.386285690695559 0 -38.386285690695559 23.93264089056629 0 0 0 0 -47.518364339688105 -32.479698819761637 0 -32.479698819761637 59.060328355058573 0 0 0 0 -41.46707481354315 -27.701288049192158 0 -27.701288049192158 62.320526937243585 0 0 0 0 -71.794370580955729 6.8707088736035757 0 6.8707088736035757 246.4646080283328 0 0 0 0 -30.000301392497931 -74.423149096880934 0 -74.423149096880934 -82.761025392728953 0 0 0 0 -39.298286902136169 8.0131586388666847 0 8.0131586388666847 122.86525843270624 0 0 0 0 -24.387409167686407 8.3906062785027355 0 8.3906062785027355 -2.4758182738625432 0 0 0 0 -58.62326614326048 4.918166337056789 0 4.918166337056789 59.207471893623904 0 0 0 0 -78.770077229377421 -81.563643666834594 0 -81.563643666834594 70.725738200314737 0 0 0 0 -71.660846923183271 -66.326804235014947 0 -66.326804235014947 64.742180798259994 0 0 0 0 -44.42159409793021 -60.123220887622665 0 -60.123220887622665 45.307210096130007 0 0 0 0 -51.604631381182116 -47.205982404568772 0 -47.205982404568772 77.154262275334872 0 0 0 0 -88.525082314048632 -41.546509453812178 0 -41.546509453812178 -100.86497957518299 0 0 0 0 -88.092128791459345 -43.142418984742285 0 -43.142418984742285 -110.76001432958049 0 0 0 0 -18.587220440389501 12.945191642490954 0 12.945191642490954 -60.230343111857678 0 0 0 0 -0.37237472461129073 -41.698837931897117 0 -41.698837931897117 93.317236940452517 0 0 0 0 -113.75321209718732 166.08412155297617 0 166.08412155297617 452.93339476117831 0 0 0 0 -18.518601545291425 6.5249960378386334 0 6.5249960378386334 -1.7047175570902151 0 0 0 0 -201.39085491052901 -107.45704350351431 0 -107.45704350351431 202.81391068485408 0 0 0 0 122.40568870160314 265.14593211530541 0 265.14593211530541 -177.535000319126 0 0 0 0 -892.60296090379779 200.5646020754952 0 200.5646020754952 -174.8590339712633 0 0 0 0 -89.598822998003016 -85.94427189862877 0 -85.94427189862877 -29.043336213331258 0 0 0 0 -43.644338317961228 14.007903291015488 0 14.007903291015488 -306.26386036860504 0 0 0 0 -169.34830395690005 31.350881477918904 0 31.350881477918904 -256.41384399348323 0 0 0 0 -149.43617466408068 239.90990173637471 0 239.90990173637471 -265.17682855744431 0 0 0 0 -106.06623862358992 118.15359613055875 0 118.15359613055875 -176.64648141571149 0 0 0 0 -133.35462438362811 240.75882464792653 0 240.75882464792653 -520.53428914310382 0 0 0 0 -1119.1854242445061 11.970551375023376 0 11.970551375023376 -40.883763574480554 0 0 0 0 -153.8958425967412 17.549489911006589 0 17.549489911006589 -836.27426471472234 0 0 0 0 -357.00079175326755 565.04520105219012 0 565.04520105219012 -702.48214067906508 0 0 0 0 -254.31417261391834 340.50656892657651 0 340.50656892657651 -220.27165776671541 0 0 0 0 -73.983984921289448 -38.427447164980634 0 -38.427447164980634 25.264030591115059 0 0 0 0 -78.42312832922471 -38.219562897810725 0 -38.219562897810725 34.667785499700678 0 0 0 0 -49.034995300251467 -79.53067794592647 0 -79.53067794592647 38.040554122623917 0 0 0 0 -76.593612158771066 81.131214686229555 0 81.131214686229555 -255.38502328344612 0 0 0 0 -56.656223023554958 -60.096445930181929 0 -60.096445930181929 -12.945452088638149 0 0 0 0 -102.47610707065178 4.9317361951607381 0 4.9317361951607381 -9.2803775421178827 0 0 0 0 -61.412567533050151 6.1098245146494197 0 6.1098245146494197 -66.170764852657129 0 0 0 0 -120.99523229851002 148.59643383052338 0 148.59643383052338 -160.92354417134857 0 0 0 0 -114.25291054080844 91.9788345510662 0 91.9788345510662 27.976766686326073 0 0 0 0 -150.80395339194001 62.037161156390368 0 62.037161156390368 4.2262714445731717 0 0 0 0 -167.94710711357129 207.85721652370304 0 207.85721652370304 -74.133284883213491 0 0 0 0 -160.74130543045158 328.15327649372097 0 328.15327649372097 -157.28845708895324 0 0 0 0 -137.54202025410268 223.22712643424768 0 223.22712643424768 -66.402772292598911 0 0 0 0 -131.53549978751289 173.59785479507531 0 173.59785479507531 -114.88801012288877 0 0 0 0 -140.01506236330897 252.6490705027386 0 252.6490705027386 -189.0846507759012 0 0 0 0 -95.745680046726193 244.67676165485216 0 244.67676165485216 -197.57685706516838 0 0 0 0 -147.80727382852319 254.01231121474984 0 254.01231121474984 -186.21360472297988 0 0 0 0 -86.523467413993785 181.99326568498486 0 181.99326568498486 -245.11185071635373 0 0 0 0 -108.57678092805509 294.2943398457362 0 294.2943398457362 -306.11153906607046 0 0 0 0 -113.62433961415991 286.89422399410125 0 286.89422399410125 -292.56616488928512 0 0 0 0 -171.85040602073059 365.83918390106464 0 365.83918390106464 -277.03266954577362 0 0 0 0 -94.697307023830945 262.73389756390685 0 262.73389756390685 -265.92189483108257 0 0 0 0 -90.928772903391746 52.346116945692074 0 52.346116945692074 -42.122658888834849 0 0 0 0 -538.05115368056795 273.20198499141202 0 273.20198499141202 -73.298012429543746 0 0 0 0 -0.53308842157552672 0.58750269454328929 0 0.58750269454328929 1.0832856326470433 0 0 0 0 -298.0696851659086 323.9428190809042 0 323.9428190809042 -213.48291024397017 0 0 0 0 -252.40854244223556 225.18729785086214 0 225.18729785086214 -170.92763107978999 0 0 0 0 -243.72990857130208 268.96880750667947 0 268.96880750667947 -180.43971302310757 0 0 0 0 -164.8627317365972 204.11575404485905 0 204.11575404485905 -141.66953103471906 0 0 0 0 -173.82268296961774 181.97797317027698 0 181.97797317027698 -149.10789458751805 0 0 0 0 -198.06726932609308 59.081821970059536 0 59.081821970059536 -28.340440189664378 0 0 0 0 -352.77148844932162 125.98379159537245 0 125.98379159537245 -47.230931980725018 0 0 0 0 -224.06967958867608 6.0174199404244746 0 6.0174199404244746 50.159603237278588 0 0 0 0 -273.77042076488215 44.452785785394354 0 44.452785785394354 82.258580443352685 0 0 0 0 -54.114895860275283 -26.130957594746228 0 -26.130957594746228 -69.603008570718202 0 0 0 0 1.5216830671722397 1.6413960632049793 0 1.6413960632049793 4.3081086107293673 0 0 0 0 -196.31541040555385 -102.1494442779953 0 -102.1494442779953 -60.60409919680734 0 0 0 0 -96.705831893534196 85.945766390282103 0 85.945766390282103 -129.96213408444828 0 0 0 0 -130.33732342423127 31.284750017022304 0 31.284750017022304 10.120825391885319 0 0 0 0 -122.7691355944462 60.342841743888812 0 60.342841743888812 -67.953562648397678 0 0 0 0 -74.017733995653543 -4.3876593441907517 0 -4.3876593441907517 -7.4122112747095912 0 0 0 0 -16.325267258659828 2.6621368094325817 0 2.6621368094325817 9.9150773883026755 0 0 0 0 -53.434503584507183 28.630615858165186 0 28.630615858165186 0.18987155944591905 0 0 0 0 -147.46549533019061 71.381236434051559 0 71.381236434051559 17.248512496991253 0 0 0 0 -45.525877577380015 44.391531292284753 0 44.391531292284753 -151.90505790283032 0 0 0 0 -11.000835581478896 43.058724830058736 0 43.058724830058736 -372.88626240576309 0 0 0 0 -25.862292492231063 136.49018830570401 0 136.49018830570401 -318.96440048031559 0 0 0 0 -28.81865517350252 173.3133873892111 0 173.3133873892111 -384.22678368958918 0 0 0 0 -56.535600513305326 148.92116038098897 0 148.92116038098897 -209.05824258573512 0 0 0 0 -114.42960684436002 131.3153597062352 0 131.3153597062352 -106.13922603290598 0 0 0 0 -89.254094822390471 58.529274826421556 0 58.529274826421556 -69.063318688592517 0 0 0 0 -36.650152866484859 74.421157116791846 0 74.421157116791846 -234.25666347230163 0 0 0 0 -76.741640320169608 41.186101236655531 0 41.186101236655531 16.02927631749867 0 0 0 0 -48.614416847825851 9.931768032842001 0 9.931768032842001 -51.922177116233286 0 0 0 0 -111.76183157109335 -16.47201674877806 0 -16.47201674877806 129.71984000332623 0 0 0 0 -33.664704678300041 -21.509139109994294 0 -21.509139109994294 -157.75172488788985 0 0 0 0 -71.24148414292722 -7.5577422580531675 0 -7.5577422580531675 -36.657374936364249 0 0 0 0 -101.13016067283024 -27.47124490311171 0 -27.47124490311171 -188.15706177718175 0 0 0 0 -11.853347504438716 10.421252898667262 0 10.421252898667262 -172.69333129871075 0 0 0 0 -80.892319661565125 -15.807968027251263 0 -15.807968027251263 -56.498483068600763 0 0 0 0 65.335858642298263 37.721145001357286 0 37.721145001357286 -38.135240732989587 0 0 0 0 9.0767910981776367 -72.938054851628294 0 -72.938054851628294 -24.64769350316692 0 0 0 0 -83.971645344634453 132.06543260470744 0 132.06543260470744 103.53978382753121 0 0 0 0 -66.579041618919888 7.3769975909385197 0 7.3769975909385197 1.0936105112449579 0 0 0 0 -634.27434547837038 -215.5887696119687 0 -215.5887696119687 301.42898047582651 0 0 0 0 -157.3964560302702 103.38657965707034 0 103.38657965707034 154.77254444057053 0 0 0 0 -249.98682017935789 27.977457843112461 0 27.977457843112461 93.879904049758579 0 0 0 0 -1.7944271420201403 33.46804894958359 0 33.46804894958359 139.99590772161582 0 0 0 0 -45.125572836994252 153.14118757797087 0 153.14118757797087 80.130070843140402 0 0 0 0 -743.57886804849477 -161.68228933186651 0 -161.68228933186651 4.8564155017168673 0 0 0 0 -312.95425161451203 93.623530568134584 0 93.623530568134584 183.64970844126947 0 0 0 0 -303.43527834596648 -50.889715810171282 0 -50.889715810171282 3.4489495468551468 0 0 0 0 -89.432278259407667 48.386722219109743 0 48.386722219109743 -252.22594491643986 0 0 0 0 -160.35764551145257 -66.138536842657231 0 -66.138536842657231 -184.14992486040364 0 0 0 0 -54.251290668737056 56.500762030307101 0 56.500762030307101 -69.864555483745789 0 0 0 0 -279.20555459652314 486.16705940883094 0 486.16705940883094 -1076.0276847870291 0 0 0 0 -8.4118568160472549 -3.7813416629422791 0 -3.7813416629422791 -0.79020067548567141 0 0 0 0 -662.19241609361779 -275.15399601131412 0 -275.15399601131412 -36.885665572790685 0 0 0 0 -14.0440052270785 -0.4715340963014345 0 -0.4715340963014345 3.7763637855115437 0 0 0 0 1.7038021375456083 63.720961077964034 0 63.720961077964034 -464.86894579159434 0 0 0 0 -634.2748949553752 656.72467762242468 0 656.72467762242468 -76.307467024049288 0 0 0 0 263.70072177737893 54.25689620331832 0 54.25689620331832 42.780444507520315 0 0 0 0 -741.56773902788564 917.68557727616337 0 917.68557727616337 -657.99453949042208 0 0 0 0 -10.889862620013055 0.76163755180658477 0 0.76163755180658477 -0.23241402144237047 0 0 0 0 -282.36159667711763 -430.5550720881244 0 -430.5550720881244 -482.09533161473735 0 0 0 0 -767.83373366035994 911.96587948775505 0 911.96587948775505 -275.56897358499839 0 0 0 0 -87.295946135684062 705.80372564715572 0 705.80372564715572 -257.54807255637786 0 0 0 0 -1506.6633692416181 522.74621782240308 0 522.74621782240308 -277.66957554352734 0 0 0 0 -145.28846551750212 -65.131265683377592 0 -65.131265683377592 -384.28798770376864 0 0 0 0 -145.12303858946507 40.682330239184125 0 40.682330239184125 -657.08072349836118 0 0 0 0 -576.00643682800001 774.76211838593122 0 774.76211838593122 -1125.0977889832734 0 0 0 0 -276.20729395816306 -298.43620806978555 0 -298.43620806978555 -1186.319125110849 0 0 0 0 -2.9511076749340646 147.27868811544801 0 147.27868811544801 -715.16418779596984 0 0 0 0 -173.15651425439319 394.73822857001898 0 394.73822857001898 -465.5095200499178 0 0 0 0 -343.61956286577515 482.39871698110642 0 482.39871698110642 -271.72324946716145 0 0 0 0 -229.00101618927602 290.46711392351347 0 290.46711392351347 -451.51943617360314 0 0 0 0 -166.75916404603413 -19.230784693903729 0 -19.230784693903729 -317.86228254228803 0 0 0 0 -495.74674969911757 53.592461252110695 0 53.592461252110695 92.939509440793586 0 0 0 0 -1259.1197338673383 -54.303735312480946 0 -54.303735312480946 -317.68202264546267 0 0 0 0 -189.13990522606218 46.329848122732983 0 46.329848122732983 -34.077988744449613 0 0 0 0 6.0869280124206853 266.4971364579477 0 266.4971364579477 133.88219195179113 0 0 0 0 126.84708754713984 -259.22400303022482 0 -259.22400303022482 216.39759293780253 0 0 0 0 -258.77852157875168 115.37774738853079 0 115.37774738853079 574.78819819988439 0 0 0 0 -209.43725228523545 150.67736143787357 0 150.67736143787357 147.79191852391446 0 0 0 0 -183.76244368457264 165.8852135173114 0 165.8852135173114 68.623444920402903 0 0 0 0 -286.18862048582741 313.25861486621767 0 313.25861486621767 95.53350118893411 0 0 0 0 -9.8350617350285461 -8.7632618765733543 0 -8.7632618765733543 -8.4373072405674883 0 0 0 0 -24.737896775573972 -51.583405359147434 0 -51.583405359147434 291.23319602613356 0 0 0 0 102.09548693838042 -322.59323670022559 0 -322.59323670022559 267.8933629204646 0 0 0 0 -0.79733880045630556 0.10101490276707992 0 0.10101490276707992 3.9224769700848237 0 0 0 0 -150.25789228573012 -156.73574161762531 0 -156.73574161762531 921.59167592971801 0 0 0 0 83.043712368043089 -434.64438216303199 0 -434.64438216303199 818.5311772661928 0 0 0 0 -251.78301684509643 115.34910895509222 0 115.34910895509222 452.2764060723963 0 0 0 0 3.7953262283635922 -245.38279856519557 0 -245.38279856519557 -610.46561317890837 0 0 0 0 -61.220904249177693 -309.63095963987575 0 -309.63095963987575 -510.23545399775765 0 0 0 0 189.43291853790151 -150.03322550419909 0 -150.03322550419909 -51.643323080967548 0 0 0 0 -5.7410465978326926 -2.6618642899389364 0 -2.6618642899389364 -3.3617416550781019 0 0 0 0 142.67197078862591 -560.93735575276878 0 -560.93735575276878 -364.50869240954881 0 0 0 0 177.21346844543223 -71.942859093465586 0 -71.942859093465586 -244.3452906198749 0 0 0 0 -196.61097369564868 104.74595521334561 0 104.74595521334561 175.83933243619686 0 0 0 0 -784.92360372410076 974.71331527101211 0 974.71331527101211 -355.6304119440299 0 0 0 0 -206.37499200447564 -22.987391033194598 0 -22.987391033194598 2.9199879392867842 0 0 0 0 -25.469047283921306 -4.3691203114395725 0 -4.3691203114395725 0.073624569861271943 0 0 0 0 -463.50162179182826 570.7575013518026 0 570.7575013518026 -442.82741398367477 0 0 0 0 -227.8266407175056 -197.62104570078694 0 -197.62104570078694 -666.13675710167036 0 0 0 0 -1.8139734758462964 -171.83653292656814 0 -171.83653292656814 -195.01521540812382 0 0 0 0 -20.402221268620075 -10.860740445839337 0 -10.860740445839337 0.76217840677418591 0 0 0 0 -23.965336363302413 -10.303256740090404 0 -10.303256740090404 11.487192800832183 0 0 0 0 -63.543939770508587 -325.33372212285963 0 -325.33372212285963 464.85752746883043 0 0 0 0 -19.434112486811095 -13.038902520085948 0 -13.038902520085948 -2.7481806551463741 0 0 0 0 -28.87883718565206 -9.0116283851186338 0 -9.0116283851186338 -0.50167688798556176 0 0 0 0 -392.72080827397804 136.17674672643426 0 136.17674672643426 692.09237810629122 0 0 0 0 -22.786430011507946 -10.65862423843069 0 -10.65862423843069 -5.4085604347017124 0 0 0 0 -31.120850641029392 -12.365900775545327 0 -12.365900775545327 11.757059232171976 0 0 0 0 -27.599317361827161 -13.866325501820967 0 -13.866325501820967 -4.9185619680968102 0 0 0 0 -34.628449020363405 -12.195338370095556 0 -12.195338370095556 11.791158146029147 0 0 0 0 -27.275140510531855 -5.2104052207697578 0 -5.2104052207697578 -9.0186019740760912 0 0 0 0 -82.609244693307119 33.562979753515606 0 33.562979753515606 479.55661578644725 0 0 0 0 -31.904797372316274 -8.8031362117845795 0 -8.8031362117845795 -0.78256268474815571 0 0 0 0 18.731438469642399 -75.404272336101997 0 -75.404272336101997 -131.93508135133595 0 0 0 0 45.363143935687731 142.357511890437 0 142.357511890437 117.93241335562152 0 0 0 0 -130.95177801395403 -93.973843573042444 0 -93.973843573042444 -17.378806287836241 0 0 0 0 -15.538502430168592 55.659207396139479 0 55.659207396139479 -6.0515024432149858 0 0 0 0 -164.32409898133483 -14.300351760274623 0 -14.300351760274623 -17.120492520028023 0 0 0 0 -283.51378375573768 -137.92574233099336 0 -137.92574233099336 -16.716835638521943 0 0 0 0 -136.66036679206627 -95.524860381362458 0 -95.524860381362458 -4.6486934538882707 0 0 0 0 -482.37720802055264 -47.978172016442898 0 -47.978172016442898 24.084663188582851 0 0 0 0 -326.73767524061441 -268.4671835599508 0 -268.4671835599508 -59.306360118323482 0 0 0 0 175.71350072945597 -204.97891989065391 0 -204.97891989065391 -305.14773380110648 0 0 0 0 -108.69431592725232 -552.45759915770077 0 -552.45759915770077 -52.211223174410407 0 0 0 0 166.07953575073407 -239.61554005019536 0 -239.61554005019536 -136.71770018484949 0 0 0 0 -1.4039570009214444 -3.265428175375277 0 -3.265428175375277 -4.9851630213481242 0 0 0 0 -5.7966909894194032 72.691382127029556 0 72.691382127029556 30.288052838823432 0 0 0 0 -7.6637498946229385 7.2956997728675912 0 7.2956997728675912 -6.3158788647027713 0 0 0 0 118.66541336772025 97.693774605650333 0 97.693774605650333 10.289457888511151 0 0 0 0 -176.61983763722196 337.16609127221483 0 337.16609127221483 -23.98068770476268 0 0 0 0 -51.90908886714351 86.388230692714387 0 86.388230692714387 102.02272437646889 0 0 0 0 78.135723845013899 -21.27406007277807 0 -21.27406007277807 14.125484751752992 0 0 0 0 -38.071798080845838 34.949930852637863 0 34.949930852637863 -6.6829628477476035 0 0 0 0 -101.97915967565496 -65.092284289729832 0 -65.092284289729832 -44.237163697445794 0 0 0 0 -62.878896528516634 15.465370053545485 0 15.465370053545485 13.072829448532502 0 0 0 0 -84.023230929102283 93.453003175714002 0 93.453003175714002 107.43211653398976 0 0 0 0 -79.968084201456804 78.044042978234074 0 78.044042978234074 139.95473978438446 0 0 0 0 33.750320163471542 -15.79746105550123 0 -15.79746105550123 -7.8089239254468339 0 0 0 0 -57.340975858750184 10.403319296433921 0 10.403319296433921 6.0143208791148179 0 0 0 0 -76.840252226771554 69.230426993148512 0 69.230426993148512 147.32516458892411 0 0 0 0 -76.693731668783585 71.730586680760553 0 71.730586680760553 167.24144044937748 0 0 0 0 -29.900790635965677 90.575209882082049 0 90.575209882082049 136.15981618564012 0 0 0 0 -14.656189938637247 -8.9056488209143332 0 -8.9056488209143332 3.055555857872859 0 0 0 0 46.069761439022841 -87.607104675221763 0 -87.607104675221763 -8.7266991111346215 0 0 0 0 -27.096281034508138 73.310128667334766 0 73.310128667334766 143.62696277792838 0 0 0 0 -107.53023865786599 44.443473951354008 0 44.443473951354008 37.06234964329451 0 0 0 0 -160.88730676024898 82.248102609103171 0 82.248102609103171 97.098760577146095 0 0 0 0 -73.075934836057058 -105.7179740846741 0 -105.7179740846741 -46.804954130831902 0 0 0 0 -2.231085010702337 12.836525873017155 0 12.836525873017155 2.7258650855267814 0 0 0 0 -96.175974906465854 -104.55311386360427 0 -104.55311386360427 71.391377874855607 0 0 0 0 -63.473688760828736 73.70070849231206 0 73.70070849231206 63.965194066264303 0 0 0 0 -1.7233281085913852 0.8642223136987397 0 0.8642223136987397 -0.58007046223259096 0 0 0 0 -65.267191129660887 6.1733537953774409 0 6.1733537953774409 11.612243477162705 0 0 0 0 -36.771448833405884 118.80696726101542 0 118.80696726101542 -116.85335458438635 0 0 0 0 -58.449328645192509 -89.262140793028266 0 -89.262140793028266 -91.849773697205819 0 0 0 0 36.90616467082873 -43.069950148715179 0 -43.069950148715179 -8.5594649977119843 0 0 0 0 -9.9769155313736686 -7.0058728901791927 0 -7.0058728901791927 1.4245612307038114 0 0 0 0 -32.581596661755611 -10.943364538206708 0 -10.943364538206708 1.5233983428935574 0 0 0 0 -28.254196938259156 0.25157457787573989 0 0.25157457787573989 2.3065393233799067 0 0 0 0 36.233290499530995 52.403630187866838 0 52.403630187866838 -6.8203444193577525 0 0 0 0 -32.707691435131217 -4.2781335470641508 0 -4.2781335470641508 0.31157238679029542 0 0 0 0 -74.661410780354345 89.801449754118607 0 89.801449754118607 220.19622366821216 0 0 0 0 -6.9081648180126649 74.44271755407982 0 74.44271755407982 132.73305489115614 0 0 0 0 -66.413515890460985 30.756623633032405 0 30.756623633032405 272.07486827701223 0 0 0 0 -44.122811306342555 78.561116490151392 0 78.561116490151392 32.413381837343763 0 0 0 0 -84.199526616215735 58.945076866569195 0 58.945076866569195 131.90450625595938 0 0 0 0 -96.454227814399928 28.470570332915031 0 28.470570332915031 18.485433296143167 0 0 0 0 -81.849705813307082 81.777295398513374 0 81.777295398513374 29.65385475112982 0 0 0 0 -56.045322104742809 56.538399827196855 0 56.538399827196855 45.821917075731619 0 0 0 0 -55.589638124907651 70.859989534415263 0 70.859989534415263 124.19879605015228 0 0 0 0 -79.795151183412599 88.949328377489167 0 88.949328377489167 117.94305371013218 0 0 0 0 -1.5823600455842097 68.934590530062337 0 68.934590530062337 97.523035211091013 0 0 0 0 -80.631500457442598 77.548981994187898 0 77.548981994187898 150.21678936345862 0 0 0 0 -79.930098530094256 77.274360557276168 0 77.274360557276168 140.19850423026 0 0 0 0 -67.182799461005288 100.78139063833471 0 100.78139063833471 82.065253061526505 0 0 0 0 -43.282803814738145 116.82888349552255 0 116.82888349552255 53.894576155655386 0 0 0 0 -47.731607869733125 64.830931242805406 0 64.830931242805406 43.551718845139085 0 0 0 0 -58.298677483101656 16.8373834444156 0 16.8373834444156 4.8455867558222243 0 0 0 0 -23.374886652203713 129.96034020029839 0 129.96034020029839 118.77110784784168 0 0 0 0 -159.350306751267 -2.0494734413636344 0 -2.0494734413636344 -152.31101833520529 0 0 0 0 -138.77244613615039 79.378589006450113 0 79.378589006450113 -21.697518225773649 0 0 0 0 -76.42071153265897 95.085808817069136 0 95.085808817069136 19.351591060510128 0 0 0 0 3.2736558599835917 112.28539595747327 0 112.28539595747327 14.373377603469059 0 0 0 0 -63.600311919577507 98.91321329714269 0 98.91321329714269 -25.50127128916731 0 0 0 0 -103.91117298151221 39.101114836927167 0 39.101114836927167 -12.771856937860491 0 0 0 0 -74.042575241357554 91.073637211363277 0 91.073637211363277 20.224762261231476 0 0 0 0 -93.509900840959745 57.238816524968456 0 57.238816524968456 -45.392776315959736 0 0 0 0 -129.92115971077874 2.5821469659786089 0 2.5821469659786089 -94.219702139757658 0 0 0 0 -98.626718517994959 39.500224035723079 0 39.500224035723079 -99.703618051616331 0 0 0 0 -70.779894997419888 41.873020556625256 0 41.873020556625256 -41.175148107128223 0 0 0 0 -109.82461307047015 18.933550069745472 0 18.933550069745472 -36.51325002272371 0 0 0 0 -73.590115917726507 49.748629275259198 0 49.748629275259198 -76.589554733565137 0 0 0 0 -96.839012550160987 5.5887731109605738 0 5.5887731109605738 -102.28612804793431 0 0 0 0 -158.39973451715559 -31.858738226621981 0 -31.858738226621981 -97.746829879786276 0 0 0 0 -234.33129073641248 13.267297015098748 0 13.267297015098748 -69.598509213789839 0 0 0 0 -95.491113782527464 -3.7631437623740567 0 -3.7631437623740567 -60.518210300370356 0 0 0 0 -144.75709763344275 86.94274758423245 0 86.94274758423245 -56.827921544353245 0 0 0 0 -41.334118915074214 72.080333465778153 0 72.080333465778153 -59.650634957129228 0 0 0 0 -122.07145955483429 32.194805308016953 0 32.194805308016953 -97.210865780655809 0 0 0 0 -148.59511344978637 87.279222194616153 0 87.279222194616153 -149.11067124492229 0 0 0 0 -49.099395793182339 13.518983012920103 0 13.518983012920103 -55.835868810018951 0 0 0 0 -53.223023450329492 -23.02684248500384 0 -23.02684248500384 27.119857149019253 0 0 0 0 25.606602680157039 -133.79200126160237 0 -133.79200126160237 110.22823414511731 0 0 0 0 -0.47791029131523999 0.11603243889401682 0 0.11603243889401682 0.21127579259640017 0 0 0 0 -106.83989111917617 118.04298427824767 0 118.04298427824767 -272.47345541050061 0 0 0 0 -31.597147826218134 63.236581047719881 0 63.236581047719881 -65.486902092276807 0 0 0 0 -3.1269910053421768 0.66586274231307208 0 0.66586274231307208 -0.018050587495478831 0 0 0 0 -40.307953054471 -29.177151094012288 0 -29.177151094012288 -7.0439377370951206 0 0 0 0 -64.561003373783024 -31.114146967405446 0 -31.114146967405446 -19.331810362268016 0 0 0 0 -68.554988198739011 -26.122992112269912 0 -26.122992112269912 -15.687341264157908 0 0 0 0 -316.28300513876275 -223.10256704449725 0 -223.10256704449725 -135.92698851787986 0 0 0 0 -422.97490092394946 -103.54240553377389 0 -103.54240553377389 -10.968637722643678 0 0 0 0 -331.83369703194694 18.339383536048388 0 18.339383536048388 -94.041421955096268 0 0 0 0 -150.92232669994519 -19.531230134431752 0 -19.531230134431752 -94.269179433686361 0 0 0 0 -201.17522522826403 -76.175151333067674 0 -76.175151333067674 -240.67461273764661 0 0 0 0 -183.85199863153684 -18.840102355226065 0 -18.840102355226065 -75.789045994755611 0 0 0 0 -256.85726460327896 -10.657426625852452 0 -10.657426625852452 39.696865235770474 0 0 0 0 -369.67636822303029 -106.77880355650939 0 -106.77880355650939 -27.387438657906841 0 0 0 0 -215.27342554583447 -49.54659264425436 0 -49.54659264425436 -99.255595118047495 0 0 0 0 -237.79640003359236 -2.6564093867486918 0 -2.6564093867486918 -24.022708907067738 0 0 0 0 -286.75946950080106 -60.771782143692917 0 -60.771782143692917 -6.2248254418643683 0 0 0 0 -221.71927307944861 4.5062307321938988 0 4.5062307321938988 23.848350788022572 0 0 0 0 -253.86826541723349 -12.769899374520037 0 -12.769899374520037 51.695492567077054 0 0 0 0 -168.29025776886192 46.388167455520545 0 46.388167455520545 41.504868605838737 0 0 0 0 -235.95309680181344 11.632670799479342 0 11.632670799479342 103.77811654361926 0 0 0 0 -269.08829779598364 67.809196735503491 0 67.809196735503491 5.6225834743215728 0 0 0 0 -68.30394473360866 3.2422627047534434 0 3.2422627047534434 35.953136647402744 0 0 0 0 -66.061631163989659 5.5158678108364256 0 5.5158678108364256 9.6144069186748311 0 0 0 0 -74.786714641515573 6.2769808411696886 0 6.2769808411696886 55.466092876188895 0 0 0 0 -72.522647683867945 -5.6448522646584252 0 -5.6448522646584252 103.87544353293697 0 0 0 0 -25.735784468328347 -7.9231568394056922 0 -7.9231568394056922 87.582674677927344 0 0 0 0 -43.888812674331348 -19.499797604974447 0 -19.499797604974447 101.65225122789388 0 0 0 0 1.8192783302438329 67.90823575664075 0 67.90823575664075 135.31985290220928 0 0 0 0 -201.3381042092733 -73.548239603892398 0 -73.548239603892398 99.166975673088842 0 0 0 0 -636.7914012341862 -156.85568955207555 0 -156.85568955207555 163.18979667593385 0 0 0 0 -245.0675921068505 3.5814860113534905 0 3.5814860113534905 211.97710889721611 0 0 0 0 -201.72180951138034 21.450984563449722 0 21.450984563449722 92.700092294765682 0 0 0 0 -196.03624603239223 -7.194207419767622 0 -7.194207419767622 139.12323448361053 0 0 0 0 -264.21496760552691 42.910853222261039 0 42.910853222261039 177.03084588631577 0 0 0 0 -155.09777384448171 64.277602365100165 0 64.277602365100165 57.984568513042092 0 0 0 0 -258.32933319834774 78.530408161236778 0 78.530408161236778 124.59076835639553 0 0 0 0 -396.42083908005952 23.000998878200335 0 23.000998878200335 53.358386542551898 0 0 0 0 -233.17718385154694 -56.788556878591976 0 -56.788556878591976 77.081849654521648 0 0 0 0 272.48590892724405 -356.96001057398206 0 -356.96001057398206 142.48741324615912 0 0 0 0 83.423663123299775 -37.223974028261978 0 -37.223974028261978 69.713529226981109 0 0 0 0 -156.02307033508623 99.593373191705155 0 99.593373191705155 75.560690349765537 0 0 0 0 -142.37527041451904 133.30607475892862 0 133.30607475892862 150.11850407743373 0 0 0 0 -486.08108854480088 228.1837523305187 0 228.1837523305187 329.51650771704863 0 0 0 0 -1072.6696242558901 -211.1773842946485 0 -211.1773842946485 113.73329142525563 0 0 0 0 -365.03278428490739 545.7772898028619 0 545.7772898028619 492.97790540470714 0 0 0 0 577.91373105462117 198.25976643756553 0 198.25976643756553 -34.155168663738777 0 0 0 0 -606.70161488426356 464.49684590620456 0 464.49684590620456 -530.15509123492893 0 0 0 0 -8.4458314580031626 -5.017185114502297 0 -5.017185114502297 0.59944783195326812 0 0 0 0 -643.63153636526113 -792.36230683804024 0 -792.36230683804024 -53.848775741716679 0 0 0 0 -16.829707534419697 -5.9629736112216598 0 -5.9629736112216598 2.9615911793379595 0 0 0 0 -542.23021991205542 164.19046998315096 0 164.19046998315096 -153.31915701795236 0 0 0 0 12.654428497342451 281.52138834755283 0 281.52138834755283 223.4940586801149 0 0 0 0 345.25733694484006 262.62560647498219 0 262.62560647498219 -325.78186040883838 0 0 0 0 110.1715555399569 307.57757457908247 0 307.57757457908247 -74.247057494970704 0 0 0 0 74.155323028688144 419.19102043797631 0 419.19102043797631 86.132036995384851 0 0 0 0 16.645074149215361 417.98351252772727 0 417.98351252772727 90.331918906849523 0 0 0 0 174.1877352025258 239.08957016008702 0 239.08957016008702 -361.56385042892714 0 0 0 0 30.440110165349324 214.64266552453239 0 214.64266552453239 -36.97183564685389 0 0 0 0 97.2325266955595 316.91086572340737 0 316.91086572340737 -60.918941628252469 0 0 0 0 2.0434717114838747 -4.5322288078371606 0 -4.5322288078371606 3.7679246305205867 0 0 0 0 7.0757802414373145 248.35800613814899 0 248.35800613814899 132.74695767014123 0 0 0 0 -28.34397544536408 2.3476923392067643 0 2.3476923392067643 3.836124740699201 0 0 0 0 23.030419249997067 -37.795648158016789 0 -37.795648158016789 52.177503397120859 0 0 0 0 21.322485764256271 -76.700812174386186 0 -76.700812174386186 55.778946592367589 0 0 0 0 37.489422048609413 -91.981202713889047 0 -91.981202713889047 13.744301221471915 0 0 0 0 20.000998504498057 -24.315120888675807 0 -24.315120888675807 -3.1543836874122917 0 0 0 0 -74.036253020633012 29.363301319964648 0 29.363301319964648 96.578396531427941 0 0 0 0 -141.2027979935956 -307.30497626572446 0 -307.30497626572446 -174.44906896666635 0 0 0 0 -0.97746294621802576 0.4232162512174007 0 0.4232162512174007 0.85141972710965774 0 0 0 0 -5.8965101402296511 2.0164192291216594 0 2.0164192291216594 -0.080943816831864801 0 0 0 0 -741.42198118852684 -410.26768742960053 0 -410.26768742960053 -227.11533797877109 0 0 0 0 14.40182580552937 -183.99946489650983 0 -183.99946489650983 -616.53380293920122 0 0 0 0 38.074250083765946 166.48659210963615 0 166.48659210963615 -46.609150153593077 0 0 0 0 -6.0767221775276994 11.5649251913228 0 11.5649251913228 -45.773286239344344 0 0 0 0 -35.465552503939762 -35.790211529727628 0 -35.790211529727628 18.494991311315061 0 0 0 0 -23.26636176005195 12.581361134750523 0 12.581361134750523 22.726126849076081 0 0 0 0 -15.615298402797634 9.4434474246484115 0 9.4434474246484115 -10.944783764649536 0 0 0 0 -44.137364510410407 -16.71457636804314 0 -16.71457636804314 -10.988773285932439 0 0 0 0 -19.35698410326404 5.810636414090709 0 5.810636414090709 4.2054495207466971 0 0 0 0 -10.079508419298961 8.2737673912712992 0 8.2737673912712992 -1.4085168036424403 0 0 0 0 -28.512972977612662 3.6595353416533953 0 3.6595353416533953 4.0666314318784771 0 0 0 0 -14.720929888171668 11.935196583588322 0 11.935196583588322 -2.8375401833027354 0 0 0 0 -5.8003377371278475 8.7610645392210245 0 8.7610645392210245 -1.7786879011373458 0 0 0 0 -1.4431022455719358 13.86147764696409 0 13.86147764696409 10.974902140253562 0 0 0 0 -25.914369900976453 -32.791537208716022 0 -32.791537208716022 12.010544555663728 0 0 0 0 -3.7418923906390589 1.4573009212385806 0 1.4573009212385806 0.059856485232507417 0 0 0 0 -3.4561120957116387 0.4710198272637669 0 0.4710198272637669 -0.35402901509662055 0 0 0 0 -355.69338137140221 121.68605131234688 0 121.68605131234688 255.04908188157742 0 0 0 0 -286.61651954675472 -287.99493864181204 0 -287.99493864181204 181.7710290513005 0 0 0 0 -12.203985022252603 -5.5914981284985572 0 -5.5914981284985572 0.7772775108365364 0 0 0 0 -1356.7892802670685 158.92982763622467 0 158.92982763622467 297.12899932625737 0 0 0 0 -1564.5656246921717 -393.56987269440492 0 -393.56987269440492 -280.13298491999171 0 0 0 0 -7.7316403738093271 -2.9814099655201964 0 -2.9814099655201964 -0.41450899384244 0 0 0 0 -553.90349738053919 919.7939321974635 0 919.7939321974635 -317.78518503510986 0 0 0 0 -38.110526964916062 4.5756954240547429 0 4.5756954240547429 4.7219803217903973 0 0 0 0 -22.271863641222808 -14.441864101193602 0 -14.441864101193602 4.7737732862789812 0 0 0 0 -4.7828571484703701 1.2930927985727614 0 1.2930927985727614 1.5108521041538692 0 0 0 0 -70.954345037243911 -5.2084053833656299 0 -5.2084053833656299 182.28024629649263 0 0 0 0 -29.690315290696162 15.410405925728895 0 15.410405925728895 -4.2244471342428369 0 0 0 0 -30.582491527828097 3.2783380674945874 0 3.2783380674945874 3.9970474493441088 0 0 0 0 -11.192027429715381 11.779302411366359 0 11.779302411366359 -3.6666199652927389 0 0 0 0 -9.9152111065183703 5.0362563086591763 0 5.0362563086591763 2.2642084261397795 0 0 0 0 -21.366129462607205 1.1448934905765782 0 1.1448934905765782 4.3185171446856216 0 0 0 0 -2.7200953818421496 -1.1252466038638929 0 -1.1252466038638929 0.20659375604247021 0 0 0 0 38.754073994659848 84.987874089065201 0 84.987874089065201 82.273716266334532 0 0 0 0 -163.86624789138295 83.021159921020967 0 83.021159921020967 -48.038936479615188 0 0 0 0 -144.59507448841396 76.584987910496466 0 76.584987910496466 -45.907531259868279 0 0 0 0 -14.647597195157275 -2.8325909376754161 0 -2.8325909376754161 0.50765281620740588 0 0 0 0 -24.015859307815845 0.46207828436939735 0 0.46207828436939735 23.230054785379252 0 0 0 0 -19.027695595787009 14.268649182489867 0 14.268649182489867 11.051090475181127 0 0 0 0 -203.86908953259262 333.68969795425471 0 333.68969795425471 -353.42135552695811 0 0 0 0 -358.1235859221124 265.1233212950691 0 265.1233212950691 -2.7721924764178532 0 0 0 0 -111.9356072088849 153.97239863951762 0 153.97239863951762 -66.806690450697687 0 0 0 0 -239.74630566888482 147.03593079106184 0 147.03593079106184 75.329764567711436 0 0 0 0 -186.49185223626046 141.33390521116218 0 141.33390521116218 88.966535601554597 0 0 0 0 -196.96623679188997 116.97104346945579 0 116.97104346945579 35.570882098155273 0 0 0 0 -71.350679847544598 20.018195101274564 0 20.018195101274564 43.058267645811441 0 0 0 0 -37.004743469962705 68.08582999572721 0 68.08582999572721 100.14668518349231 0 0 0 0 -1.5938283987832733 0.13986898998699715 0 0.13986898998699715 0.53581782960595326 0 0 0 0 -65.029095881555122 -119.49891336126406 0 -119.49891336126406 228.77657782320256 0 0 0 0 -203.4179719629883 -20.951362816827888 0 -20.951362816827888 110.86092756326823 0 0 0 0 -121.31968126859283 74.505966132512015 0 74.505966132512015 -5.2715143284978936 0 0 0 0 -274.51456054742084 106.81370864799001 0 106.81370864799001 15.417351921916804 0 0 0 0 -218.35162995256178 86.43645517912536 0 86.43645517912536 13.872829376319917 0 0 0 0 -214.51053641300166 141.19514620976364 0 141.19514620976364 -28.68457854995232 0 0 0 0 -221.06688141988889 87.265585030544116 0 87.265585030544116 -0.70952039595343308 0 0 0 0 -201.30004776952046 158.68312199704522 0 158.68312199704522 -9.536063135786776 0 0 0 0 -211.59350061820078 128.51539056071769 0 128.51539056071769 40.790843710012751 0 0 0 0 -84.405027293727471 -94.831901900103247 0 -94.831901900103247 329.03328307513164 0 0 0 0 -2.7224662404133824 0.75644522904503475 0 0.75644522904503475 1.3472942992550028 0 0 0 0 -4.8413212357263546 81.787931657542572 0 81.787931657542572 -34.158595162873127 0 0 0 0 -138.90044898132874 41.422769778031991 0 41.422769778031991 31.712169638765658 0 0 0 0 -150.68668076152608 91.017225245781049 0 91.017225245781049 -175.44349917877153 0 0 0 0 -153.24300818433767 -106.62281096454063 0 -106.62281096454063 80.869157212687924 0 0 0 0 -4.3875998862329197 3.958775997770438 0 3.958775997770438 -0.73035361383237996 0 0 0 0 -267.9696439429681 -6.0721843779194842 0 -6.0721843779194842 -149.43781061332075 0 0 0 0 -3.0048238208985936 2.2540219995169508 0 2.2540219995169508 -1.1999561835983266 0 0 0 0 -14.514358861291839 30.856011785126441 0 30.856011785126441 187.59032787973786 0 0 0 0 -32.081248048583802 -43.294877737836572 0 -43.294877737836572 -119.15416251764213 0 0 0 0 -114.14439945837967 -96.444798068260582 0 -96.444798068260582 -8.9597133647026226 0 0 0 0 -13.440395007259397 1.0473927461353796 0 1.0473927461353796 7.800039183058936 0 0 0 0 -3.6622739716376316 -1.7884358650756269 0 -1.7884358650756269 0.50154849194743034 0 0 0 0 -105.23002728356187 -86.383595576902252 0 -86.383595576902252 -147.15998792907703 0 0 0 0 -783.12491766892344 503.96229806743605 0 503.96229806743605 -71.840448356232272 0 0 0 0 37.096990258891452 -300.1139530148983 0 -300.1139530148983 32.82891937896693 0 0 0 0 33.094621242889843 161.89220323307498 0 161.89220323307498 -15.505746425221055 0 0 0 0 -91.34029391100421 -200.87925610355074 0 -200.87925610355074 234.16949299529409 0 0 0 0 -126.85485004639122 -4.8829699460984841 0 -4.8829699460984841 113.88845607708518 0 0 0 0 -351.43847251674742 -61.923033131570662 0 -61.923033131570662 159.93993313896001 0 0 0 0 -374.69327737103595 55.938696040320508 0 55.938696040320508 43.22333680225475 0 0 0 0 -176.96255878553347 -24.069805896732376 0 -24.069805896732376 52.988638977918697 0 0 0 0 -310.98404395397301 2.1899007345894574 0 2.1899007345894574 47.925033148040001 0 0 0 0 -277.49543620013355 -8.0679615932341733 0 -8.0679615932341733 -1.9590049624012522 0 0 0 0 -253.10053605756366 -58.623138411136765 0 -58.623138411136765 1.7332946894541692 0 0 0 0 86.367848213672914 135.79900037732619 0 135.79900037732619 12.694554923975673 0 0 0 0 -2.5899737436645225 2.9175872711042672 0 2.9175872711042672 -2.0639001884927106 0 0 0 0 -243.22700857587552 -34.954075074555647 0 -34.954075074555647 58.399179487878911 0 0 0 0 -217.93240446926575 -21.549184343391815 0 -21.549184343391815 60.161945731358742 0 0 0 0 -38.256276899282966 82.735187009906426 0 82.735187009906426 20.065296341571411 0 0 0 0 -134.14088654398438 -18.267614026224564 0 -18.267614026224564 89.819985531721187 0 0 0 0 -385.09120442435596 -19.361426734696408 0 -19.361426734696408 84.298374256644721 0 0 0 0 -0.71565039103012218 0.34753464508606413 0 0.34753464508606413 6.714806094652972 0 0 0 0 -156.40884789232587 42.145416832415002 0 42.145416832415002 -53.710170887857203 0 0 0 0 -105.80929517993354 185.20912286300029 0 185.20912286300029 129.02574741142439 0 0 0 0 -67.28670104180128 -135.21226593250321 0 -135.21226593250321 26.253364866507326 0 0 0 0 -388.33304854737548 17.428625398744984 0 17.428625398744984 37.41915089013105 0 0 0 0 -0.76794166733916924 0.31126224581349504 0 0.31126224581349504 6.3793324343207569 0 0 0 0 -331.2332949895499 27.857070567237471 0 27.857070567237471 100.06571201221638 0 0 0 0 -117.909330540886 4.9076884278927082 0 4.9076884278927082 179.92720098904385 0 0 0 0 -105.53062514839985 -41.661132329945985 0 -41.661132329945985 160.84303505143646 0 0 0 0 1.6804171213295689 -1.3482004655896986 0 -1.3482004655896986 2.3378405568068077 0 0 0 0 75.054627310235446 72.144394001328692 0 72.144394001328692 -37.473992785648079 0 0 0 0 -25.078050729396637 44.046892065072655 0 44.046892065072655 119.42624072672925 0 0 0 0 -37.226484944869298 -36.48172716480849 0 -36.48172716480849 5.6431255788894532 0 0 0 0 -34.220177969262295 -27.587637204643556 0 -27.587637204643556 -1.7231011088933883 0 0 0 0 60.063562684532371 -45.790532643758993 0 -45.790532643758993 -49.75242667919926 0 0 0 0 -88.343208985701494 4.0937676221439858 0 4.0937676221439858 -5.6247169285920222 0 0 0 0 -20.188256583322072 -46.437583110809896 0 -46.437583110809896 -9.8630943364632913 0 0 0 0 1.1901459128275746 10.291506225406309 0 10.291506225406309 -46.677906802279495 0 0 0 0 24.931195889679657 -96.501904428442629 0 -96.501904428442629 77.084427417344898 0 0 0 0 84.302441455722146 -87.923162330482455 0 -87.923162330482455 -12.957812649738798 0 0 0 0 -2.7922804673589638 -4.8363945531748342 0 -4.8363945531748342 8.0589344675583856 0 0 0 0 61.268303618751816 -31.439261050095421 0 -31.439261050095421 29.065840245319322 0 0 0 0 -289.87439605925465 13.660343518084801 0 13.660343518084801 34.529619921534788 0 0 0 0 -295.73736935370835 -69.79867429847053 0 -69.79867429847053 -43.836494595171644 0 0 0 0 -194.66882076884212 -1.2838011218919405 0 -1.2838011218919405 36.847362162221202 0 0 0 0 -114.8892624672153 -67.818143842937758 0 -67.818143842937758 -62.959166280398421 0 0 0 0 -475.62326199846211 -12.717143779939505 0 -12.717143779939505 106.50355575001606 0 0 0 0 -97.811631554872292 167.80014977670714 0 167.80014977670714 53.693916073141963 0 0 0 0 -223.33715936621593 -11.877376608483644 0 -11.877376608483644 -67.366232424666123 0 0 0 0 -0.43853490868375022 -0.23792129702106024 0 -0.23792129702106024 2.4061097798715321 0 0 0 0 -109.67854395044196 265.41532773061368 0 265.41532773061368 31.681767867458348 0 0 0 0 -597.38060566359491 -92.666335144618529 0 -92.666335144618529 113.34449491974817 0 0 0 0 -2.0887306575025946 4.7623791207980801 0 4.7623791207980801 -8.4554259689812277 0 0 0 0 -278.76375052020012 -101.44422387164593 0 -101.44422387164593 -139.19478746414032 0 0 0 0 -725.22063908684504 238.50680573281795 0 238.50680573281795 395.90265224576524 0 0 0 0 -689.34996775784748 374.97357031060176 0 374.97357031060176 332.46910436177996 0 0 0 0 -449.93362307520874 -735.7337524116781 0 -735.7337524116781 -763.07158448672294 0 0 0 0 178.99768811152899 542.69310930441043 0 542.69310930441043 -231.75282484326078 0 0 0 0 61.479201265177835 -75.721959402970896 0 -75.721959402970896 -41.060972815636205 0 0 0 0 -41.579380627174032 30.955563771208048 0 30.955563771208048 99.285494085698929 0 0 0 0 47.811073953846062 -13.691053098852876 0 -13.691053098852876 -80.975240952537661 0 0 0 0 -262.47603188537687 77.294261268063678 0 77.294261268063678 28.643710388460363 0 0 0 0 -268.2679883709352 -139.29207549196087 0 -139.29207549196087 -28.178614749642406 0 0 0 0 6.4248093686910579 -48.327047173352867 0 -48.327047173352867 28.036099365859684 0 0 0 0 -299.53134346272054 -259.23598583242097 0 -259.23598583242097 243.09014273211051 0 0 0 0 -39.511472625212861 -2.5355702509946259 0 -2.5355702509946259 2.5669262382626123 0 0 0 0 -182.79149462605346 -86.199932570010276 0 -86.199932570010276 180.38230326133686 0 0 0 0 -54.809741800978372 24.131205622883328 0 24.131205622883328 81.91386319325359 0 0 0 0 2.359801166177931 78.372145705308156 0 78.372145705308156 10.749858967080172 0 0 0 0 -35.728031282109441 5.1343488444043555 0 5.1343488444043555 21.25816089881657 0 0 0 0 -41.440069597530709 -2.5569172803732059 0 -2.5569172803732059 4.0159876497289888 0 0 0 0 -11.440081359961482 1.2167482631508371 0 1.2167482631508371 0.89408214731184965 0 0 0 0 -23.37336688432697 28.827435821832779 0 28.827435821832779 -23.532347761724338 0 0 0 0 -29.70541000564117 40.037296250772215 0 40.037296250772215 13.220165547379523 0 0 0 0 -3.5249934565297707 -0.27194747383009066 0 -0.27194747383009066 -0.044312414296795 0 0 0 0 -29.405014694548299 102.95063972600946 0 102.95063972600946 -163.99709899997873 0 0 0 0 -28.318778233831836 8.6876611908018049 0 8.6876611908018049 -51.20983490240701 0 0 0 0 -87.166809449354332 -109.77177524098556 0 -109.77177524098556 39.084883481407587 0 0 0 0 0.95529819746661815 -35.410857599983615 0 -35.410857599983615 98.555963009150901 0 0 0 0 0.8484196668578079 -120.51631081740561 0 -120.51631081740561 81.226431098816107 0 0 0 0 -131.07072489151665 -174.46968930203903 0 -174.46968930203903 54.006394264015626 0 0 0 0 27.313075619644223 -101.82994637242226 0 -101.82994637242226 257.1451578862841 0 0 0 0 3.113239966070978 -48.885237946535767 0 -48.885237946535767 182.46409087115808 0 0 0 0 42.98676029737544 -125.92221829453888 0 -125.92221829453888 179.27774245315922 0 0 0 0 6.1167911037118756 -96.883440387093287 0 -96.883440387093287 164.65986701727684 0 0 0 0 83.683138390417298 -119.52720556032455 0 -119.52720556032455 141.41095467249738 0 0 0 0 -70.351167805420118 -4.036836338190426 0 -4.036836338190426 37.457268391716525 0 0 0 0 64.126187849375128 -103.42878745915641 0 -103.42878745915641 140.60026636231191 0 0 0 0 -0.24189335869596107 -58.437641678290674 0 -58.437641678290674 -23.475975044812344 0 0 0 0 -4.2086366190262794 -4.0437824967511418 0 -4.0437824967511418 3.3893072103074831 0 0 0 0 -133.89217897662093 -126.72381945425343 0 -126.72381945425343 146.09659800859413 0 0 0 0 -13.958017458931408 -114.03793564146052 0 -114.03793564146052 116.86947926075823 0 0 0 0 -44.69937004691019 -40.379419733143664 0 -40.379419733143664 66.539902919267661 0 0 0 0 -33.702062783711881 -70.045775280184671 0 -70.045775280184671 120.54337629100121 0 0 0 0 6.979209184726642 114.77530087325192 0 114.77530087325192 322.10639311594684 0 0 0 0 -0.43585878747539653 -0.39689584090602992 0 -0.39689584090602992 0.75786445244613487 0 0 0 0 -47.679628315778245 -59.602611890890671 0 -59.602611890890671 199.38034577631561 0 0 0 0 -155.67355342772498 -150.63781792531915 0 -150.63781792531915 35.256204931956063 0 0 0 0 58.095206887497625 33.400369468909048 0 33.400369468909048 108.52030652725466 0 0 0 0 -8.6308647353580454 42.103955649690988 0 42.103955649690988 143.64381098835247 0 0 0 0 27.141572764059674 16.720105884314762 0 16.720105884314762 161.58065555433245 0 0 0 0 -2.1068748925026739 58.025600477156615 0 58.025600477156615 -14.007827280844367 0 0 0 0 -4.4904275984881679 102.16410701051473 0 102.16410701051473 -241.24976401711103 0 0 0 0 0.89869917780204389 -1.2877577933419921 0 -1.2877577933419921 1.464056165908836 0 0 0 0 -16.403970250898055 72.260623898942072 0 72.260623898942072 206.95289332140078 0 0 0 0 -194.73786087866029 -132.55229300226301 0 -132.55229300226301 93.68017431816611 0 0 0 0 -221.75387422352287 -96.77176063661318 0 -96.77176063661318 52.027796548273272 0 0 0 0 12.667615419515641 50.827771608157491 0 50.827771608157491 109.8960365710613 0 0 0 0 19.888054001555588 -88.84203571272414 0 -88.84203571272414 85.86442171577437 0 0 0 0 -115.13282264906957 -69.652466152058452 0 -69.652466152058452 286.18148345255838 0 0 0 0 -46.206525774781767 16.386226111648526 0 16.386226111648526 99.698225426076647 0 0 0 0 -75.139027905458988 -58.880768175961407 0 -58.880768175961407 8.2604972798070548 0 0 0 0 -95.981022246413886 38.597316097362757 0 38.597316097362757 37.175990537549296 0 0 0 0 -25.142822518286266 3.5625900774726347 0 3.5625900774726347 -21.389463790669396 0 0 0 0 -76.078521375108721 -34.980295821732938 0 -34.980295821732938 58.101807019122589 0 0 0 0 -48.714772950428596 -3.8057225288503105 0 -3.8057225288503105 71.382328859841778 0 0 0 0 -31.731158086547943 8.9607908424640499 0 8.9607908424640499 -0.13836317257200514 0 0 0 0 -88.495333447026496 33.84874520649533 0 33.84874520649533 1.9828467533058038 0 0 0 0 -61.641495206422405 -47.723831401587006 0 -47.723831401587006 -65.067597453449963 0 0 0 0 -145.65126437077561 56.704407692859718 0 56.704407692859718 106.69433234304029 0 0 0 0 83.674269232844324 -133.19175536542554 0 -133.19175536542554 181.60411526473729 0 0 0 0 -4.3857209194132523 2.0219730380372738 0 2.0219730380372738 2.0299031190377961 0 0 0 0 -93.152624078233202 11.163971925225663 0 11.163971925225663 135.22292327276307 0 0 0 0 -135.26336533233916 -0.73337262984199469 0 -0.73337262984199469 375.02088606208508 0 0 0 0 -69.116561509730673 23.532170926325776 0 23.532170926325776 137.90058317262273 0 0 0 0 -63.813235889254429 25.946723193768676 0 25.946723193768676 78.316882512744527 0 0 0 0 -96.492086878468399 35.881143696034592 0 35.881143696034592 245.62021553778857 0 0 0 0 -90.451891269818589 -7.4898888186227026 0 -7.4898888186227026 141.49348877643718 0 0 0 0 -88.288929959726374 -21.223239155301414 0 -21.223239155301414 228.65927089051667 0 0 0 0 -61.619881896211155 10.321361516856086 0 10.321361516856086 65.341661642793269 0 0 0 0 -54.628338464015542 -23.493497074857004 0 -23.493497074857004 139.51030545804457 0 0 0 0 -44.746716205107504 -6.6733550548437712 0 -6.6733550548437712 0.21191083790076887 0 0 0 0 5.9780191782338079 87.826890007560451 0 87.826890007560451 229.18911194800501 0 0 0 0 -28.044565003117896 -139.35171432969275 0 -139.35171432969275 286.15424968750608 0 0 0 0 -180.81817309303733 -211.83905427371161 0 -211.83905427371161 480.44342071005713 0 0 0 0 -9.0972815953200943 -0.85471361453102901 0 -0.85471361453102901 1.2289969621905521 0 0 0 0 -33.005657295468154 9.4118014780694068 0 9.4118014780694068 2.3113501155361291 0 0 0 0 -33.53733843435657 11.624784371289934 0 11.624784371289934 12.233570678182332 0 0 0 0 -18.667249149968402 8.5775373931832632 0 8.5775373931832632 5.4391559859817278 0 0 0 0 -32.805399317523552 16.518285842531668 0 16.518285842531668 5.3434828307708813 0 0 0 0 -38.480347442651691 19.859306671178729 0 19.859306671178729 7.8793855167402853 0 0 0 0 -37.700666465156246 21.535592288533053 0 21.535592288533053 -10.556987284367324 0 0 0 0 -80.924139962982736 43.065586932751785 0 43.065586932751785 23.915158548890076 0 0 0 0 -67.345079568920482 -64.29186537783653 0 -64.29186537783653 35.915496911906871 0 0 0 0 -81.433604016896425 -49.167706622925834 0 -49.167706622925834 80.784415236579207 0 0 0 0 -70.093430145236198 -25.201315916592648 0 -25.201315916592648 5.519311128518666 0 0 0 0 -87.900184511684984 49.724323272814864 0 49.724323272814864 48.439883347039427 0 0 0 0 -47.397481616480661 -12.269453389507472 0 -12.269453389507472 -1.5328239552405045 0 0 0 0 -72.382686514782108 -2.2807924883245505 0 -2.2807924883245505 217.54033710328437 0 0 0 0 51.050421964398993 -192.60665335664896 0 -192.60665335664896 216.2901393327393 0 0 0 0 -4.42213386630673 2.3137357242255696 0 2.3137357242255696 3.0317601323788912 0 0 0 0 34.695299854970699 -28.686288226391177 0 -28.686288226391177 114.44660738350353 0 0 0 0 -29.95254870269855 -32.061347936848733 0 -32.061347936848733 35.70516970509334 0 0 0 0 -77.627970251749502 -59.017840675987372 0 -59.017840675987372 21.463944097592275 0 0 0 0 -23.557637972287012 -67.355009517728178 0 -67.355009517728178 23.871498920656904 0 0 0 0 -28.750730671894416 -29.984475940548919 0 -29.984475940548919 21.926075996513191 0 0 0 0 -38.814696792687755 -5.3654420691498217 0 -5.3654420691498217 -17.723238071117976 0 0 0 0 -24.996621287933522 -36.498698978619927 0 -36.498698978619927 -45.128480112669877 0 0 0 0 -169.03733599176485 -88.431691586016541 0 -88.431691586016541 -31.835131856392536 0 0 0 0 -39.123728384372953 -12.57376822011247 0 -12.57376822011247 -161.25584697642375 0 0 0 0 -85.726398714708921 75.675473159016065 0 75.675473159016065 -76.374369347392303 0 0 0 0 -78.733394687089458 39.588469675283704 0 39.588469675283704 50.193015868963812 0 0 0 0 -37.231211726812035 10.825825831511111 0 10.825825831511111 -40.9477611182283 0 0 0 0 -34.977631992980605 23.235972792640723 0 23.235972792640723 -2.0567044557992631 0 0 0 0 -5.8184948215703685 0.69822603254601034 0 0.69822603254601034 1.779985924516942 0 0 0 0 -26.267710287880618 -20.028017667666745 0 -20.028017667666745 -33.749609100988891 0 0 0 0 -1.3024418014601622 -0.76777332844426027 0 -0.76777332844426027 -0.48106166476161683 0 0 0 0 -164.23135985117523 87.598103873617433 0 87.598103873617433 -44.867596144758409 0 0 0 0 -5.8828739485616097 -55.640814892766002 0 -55.640814892766002 -146.60183581920728 0 0 0 0 -175.30973004923726 -29.154140313653329 0 -29.154140313653329 17.49129113841559 0 0 0 0 -6.2626571083983436 -42.172139868052625 0 -42.172139868052625 -9.6654266221471516 0 0 0 0 -36.480351331851125 -42.865436329502018 0 -42.865436329502018 -5.1827342094020423 0 0 0 0 63.525989470570494 0.16035602259108828 0 0.16035602259108828 8.7136679148115945 0 0 0 0 -27.372157469046215 -131.80635593886166 0 -131.80635593886166 128.90322785161425 0 0 0 0 -119.89653622426704 16.117619094087217 0 16.117619094087217 154.31691029084823 0 0 0 0 -139.46914422146801 -54.52660129144806 0 -54.52660129144806 222.80106192211224 0 0 0 0 -159.54378700843154 -43.747515246762418 0 -43.747515246762418 43.328137181761576 0 0 0 0 -126.89329746600561 28.524861307047331 0 28.524861307047331 201.2090938177455 0 0 0 0 2.4726435922390166 -4.2773655394413197 0 -4.2773655394413197 12.475776215316975 0 0 0 0 0.31430344316319037 -1.6980528515194422 0 -1.6980528515194422 4.7944993157196603 0 0 0 0 23.371439967142578 -147.76974274260772 0 -147.76974274260772 -47.806549169847131 0 0 0 0 106.2137045409545 -174.49372819548967 0 -174.49372819548967 -39.981814318728084 0 0 0 0 48.850534447508835 159.79717110999286 0 159.79717110999286 203.89731848710016 0 0 0 0 18.811577053362271 -112.91643241421389 0 -112.91643241421389 265.40649484370181 0 0 0 0 10.326595357739279 -23.733218861458681 0 -23.733218861458681 -35.380835739464146 0 0 0 0 227.51565014004518 -30.088448663561621 0 -30.088448663561621 -68.881840432932222 0 0 0 0 -33.193221493922465 -17.525531193590496 0 -17.525531193590496 -53.623368273715528 0 0 0 0 -12.684076402365918 -6.4536484266933307 0 -6.4536484266933307 0.54322205403095269 0 0 0 0 -73.10226741148108 -81.982628652157246 0 -81.982628652157246 0.10925030718817652 0 0 0 0 40.695964754435408 -16.336631964373055 0 -16.336631964373055 -122.29130539951689 0 0 0 0 -12.468252312217373 -12.661893475947181 0 -12.661893475947181 12.518730992744622 0 0 0 0 -2.4331898177273956 -0.070956596286299245 0 -0.070956596286299245 0.4845675001947547 0 0 0 0 -138.21279639355635 -108.23724561572374 0 -108.23724561572374 -77.472089905039411 0 0 0 0 -8.3535063597100816 15.584247923118625 0 15.584247923118625 -26.964719352899465 0 0 0 0 -119.04543242975342 87.718586130413541 0 87.718586130413541 -73.315161489848833 0 0 0 0 -1.123003922277551 0.018228487964933038 0 0.018228487964933038 0.27325261637792764 0 0 0 0 -2.3996387981751468 11.721603453373973 0 11.721603453373973 24.265632543901461 0 0 0 0 -4.7120545464786119 0.77080002092179711 0 0.77080002092179711 4.0896808821391346 0 0 0 0 10.377346551802475 19.970515476162973 0 19.970515476162973 26.289171832110242 0 0 0 0 -3.2146030055475734 1.6719353203047671 0 1.6719353203047671 3.401906656507335 0 0 0 0 127.03596876545453 167.04192794112998 0 167.04192794112998 -58.146079960069983 0 0 0 0 -63.462528383718563 175.56524333890835 0 175.56524333890835 -33.191570176527421 0 0 0 0 -4.1906689702329487 -1.1581400926514362 0 -1.1581400926514362 3.5790375103544285 0 0 0 0 -2.0693227263348817 0.61749761920079749 0 0.61749761920079749 3.0202512430287127 0 0 0 0 -14.067917496086011 -3.8695390428655116 0 -3.8695390428655116 -7.7635790249964884 0 0 0 0 -161.55304758918828 -76.964944635069742 0 -76.964944635069742 -19.195240342045054 0 0 0 0 -0.28295650196182009 -0.97131315471722246 0 -0.97131315471722246 0.23180600186589295 0 0 0 0 -178.9151853865842 -59.319748915068885 0 -59.319748915068885 -6.7364512284428848 0 0 0 0 -232.95577641157797 -97.164881932903199 0 -97.164881932903199 275.46227775553757 0 0 0 0 -19.177362266211276 -35.752240039376034 0 -35.752240039376034 -45.423383087889079 0 0 0 0 -0.54875391903210868 -0.94789651991905544 0 -0.94789651991905544 6.8258336184535509 0 0 0 0 0.14106637046543113 -0.74782049666082173 0 -0.74782049666082173 2.5586165466748501 0 0 0 0 -137.96167976170227 25.768610610519758 0 25.768610610519758 69.415471026885825 0 0 0 0 -149.2639738302355 -71.739416580801731 0 -71.739416580801731 18.530797762293332 0 0 0 0 51.364861296780873 11.346063103663823 0 11.346063103663823 14.774187773175981 0 0 0 0 -81.46683181923072 74.037700103052657 0 74.037700103052657 28.890936889964905 0 0 0 0 -131.01316171121834 39.163618527950121 0 39.163618527950121 15.842086652942271 0 0 0 0 -103.79747116417639 5.4209291664659531 0 5.4209291664659531 42.549707283622865 0 0 0 0 -288.56376666130063 47.282889723189449 0 47.282889723189449 67.355300420041885 0 0 0 0 -96.101633683807449 119.28779452201036 0 119.28779452201036 52.382324721322789 0 0 0 0 -349.45747200847927 -59.673199809511445 0 -59.673199809511445 100.9160905115582 0 0 0 0 -0.32315111705659927 -0.056759581927003921 0 -0.056759581927003921 2.7585564214702618 0 0 0 0 -26.490703195559263 191.61066813935798 0 191.61066813935798 124.15091314483948 0 0 0 0 -171.97685466212351 35.841489145437549 0 35.841489145437549 200.92468997830406 0 0 0 0 -119.48338768545727 158.40973032642552 0 158.40973032642552 -16.365551888742175 0 0 0 0 -435.06146970740156 68.202826917031075 0 68.202826917031075 -30.343407698238025 0 0 0 0 -191.84309221065632 -107.32353975315255 0 -107.32353975315255 -8.7326453901098375 0 0 0 0 -267.40375469387436 -54.856801092819069 0 -54.856801092819069 21.386016030156156 0 0 0 0 -190.53435842019098 63.804562318229955 0 63.804562318229955 51.876842638197218 0 0 0 0 -180.93841266371328 -55.988579829893133 0 -55.988579829893133 -105.22161412196465 0 0 0 0 -152.19197599930339 -114.77844597389276 0 -114.77844597389276 -91.269842406538316 0 0 0 0 -283.60206655455477 5.0499232618461747 0 5.0499232618461747 0.70369623751821564 0 0 0 0 -108.18183139328175 20.151562215524791 0 20.151562215524791 -18.52553450655796 0 0 0 0 -1.8780650062145554 -0.13321646908887885 0 -0.13321646908887885 0.12732289495837446 0 0 0 0 -34.332165256578719 -130.23122970020194 0 -130.23122970020194 -66.799190123050266 0 0 0 0 -87.692722628853517 21.294941226808533 0 21.294941226808533 59.757143802189603 0 0 0 0 -81.584532021743144 58.616469451231438 0 58.616469451231438 19.943941592980536 0 0 0 0 -263.45084654590391 -24.629479147807388 0 -24.629479147807388 -245.73020062613205 0 0 0 0 -222.32445786888638 -122.13549876999321 0 -122.13549876999321 -46.808655629643908 0 0 0 0 -290.13708171832332 4.5036449111801176 0 4.5036449111801176 -66.052642633620508 0 0 0 0 -274.68683241305553 203.62373619367168 0 203.62373619367168 -164.99358081050696 0 0 0 0 -283.77183098953901 27.456480719932642 0 27.456480719932642 -226.35707590142033 0 0 0 0 -242.15112468749817 35.709874659552327 0 35.709874659552327 -234.93354240472172 0 0 0 0 -245.21269181305615 68.219305486150461 0 68.219305486150461 -170.03896219913827 0 0 0 0 -337.50530742732008 46.049080870222269 0 46.049080870222269 -170.20422891584758 0 0 0 0 -133.43464873040648 111.59443682132724 0 111.59443682132724 -295.20400836419958 0 0 0 0 -3.6737801947107016 -0.38751405004913408 0 -0.38751405004913408 0.42559647419743118 0 0 0 0 -58.678474497770367 136.34807193771712 0 136.34807193771712 -134.06378723076659 0 0 0 0 -124.55128027018145 70.667302000397285 0 70.667302000397285 -70.007247663180351 0 0 0 0 -101.43294968744885 100.16276947232814 0 100.16276947232814 -172.22396809178463 0 0 0 0 -159.95468053041259 193.90970640416208 0 193.90970640416208 -177.8963658223725 0 0 0 0 -157.5445867361741 177.22180697796227 0 177.22180697796227 -216.9959542395527 0 0 0 0 -135.14714895818543 103.53619028617902 0 103.53619028617902 -138.26621389243837 0 0 0 0 -8.8632241643790621 106.07380535232346 0 106.07380535232346 -119.55568590724442 0 0 0 0 -82.56063651812201 14.2667055710087 0 14.2667055710087 -8.4062286659695928 0 0 0 0 -101.56504683057574 141.94551983597194 0 141.94551983597194 -76.340556820387746 0 0 0 0 -3.1104400560492707 -0.1967753324367294 0 -0.1967753324367294 0.38268889038420451 0 0 0 0 -100.64039451607823 34.232342312248193 0 34.232342312248193 13.35652129013215 0 0 0 0 -139.47197274661085 109.36862717551639 0 109.36862717551639 -22.190898219291284 0 0 0 0 -56.738095441905898 -71.471808098081965 0 -71.471808098081965 -4.9549175094816746 0 0 0 0 -1.1522659674412239 -0.063280347814178128 0 -0.063280347814178128 -0.027568745916432214 0 0 0 0 -183.76451430803354 218.79403465063331 0 218.79403465063331 -165.60580255273499 0 0 0 0 -219.62217471955955 52.436490366602811 0 52.436490366602811 -159.02901066368042 0 0 0 0 -137.56984984900555 -42.465657233212141 0 -42.465657233212141 -116.2051922699336 0 0 0 0 -115.94040518290785 78.108217272776756 0 78.108217272776756 166.70073790510605 0 0 0 0 -32.241824474891473 41.401068593026025 0 41.401068593026025 5.7533851753432828 0 0 0 0 -44.496828742663638 42.062593987878813 0 42.062593987878813 59.319677927772773 0 0 0 0 -59.613576724601444 3.5227621428384737 0 3.5227621428384737 102.60916563922706 0 0 0 0 1.5838579237764634 1.6135566613665659 0 1.6135566613665659 2.1575235352163489 0 0 0 0 70.54128837990902 -175.48251348145186 0 -175.48251348145186 96.969509810785439 0 0 0 0 -92.176763804938673 45.909329324451846 0 45.909329324451846 -28.42531731388037 0 0 0 0 6.5602835387689993 8.4217260599421024 0 8.4217260599421024 -25.118778015581768 0 0 0 0 -43.505000496148568 -38.728846460651312 0 -38.728846460651312 65.736168310535504 0 0 0 0 27.75710790658195 32.804273925040889 0 32.804273925040889 98.209848003444677 0 0 0 0 -3.4990063835678953 -0.9145961620187677 0 -0.9145961620187677 0.2795964228681882 0 0 0 0 9.607978555635782 -40.139559618611202 0 -40.139559618611202 63.565741576326218 0 0 0 0 -44.812529590384656 27.973178131669101 0 27.973178131669101 53.129759068110616 0 0 0 0 0.96340518500204553 5.0618861693263995 0 5.0618861693263995 8.4611359216248783 0 0 0 0 -17.423573661915725 8.514937386689553 0 8.514937386689553 32.007586547246319 0 0 0 0 -52.489610468459432 29.767071416134741 0 29.767071416134741 47.716387198741131 0 0 0 0 -7.9430508526347694 16.735251516830431 0 16.735251516830431 33.588299486851611 0 0 0 0 -63.841067627239681 81.231269578258434 0 81.231269578258434 13.892695767735859 0 0 0 0 -136.57228610235325 104.29456385625394 0 104.29456385625394 17.391200109013425 0 0 0 0 -76.655470033819256 68.325360843371357 0 68.325360843371357 8.4474499343104981 0 0 0 0 -78.874342840761528 96.02739900388201 0 96.02739900388201 -60.602205996048838 0 0 0 0 -45.475185811978008 0.22413075018494055 0 0.22413075018494055 50.852436675858826 0 0 0 0 -93.63209119136809 47.027195494026842 0 47.027195494026842 34.334772137802247 0 0 0 0 -62.20256979764963 49.422495250117436 0 49.422495250117436 26.93789699816125 0 0 0 0 -163.47693717626862 85.280033733068478 0 85.280033733068478 -16.227065198066043 0 0 0 0 -43.473993454419542 189.57621437555864 0 189.57621437555864 -28.872534168207714 0 0 0 0 -270.3254535754786 170.43457668057317 0 170.43457668057317 -7.8220115293083836 0 0 0 0 -48.955096602793674 121.47680301605956 0 121.47680301605956 -24.587803525426921 0 0 0 0 -224.63779328193323 112.64250424811519 0 112.64250424811519 -30.365013350312779 0 0 0 0 -210.63142585227251 148.33257436798669 0 148.33257436798669 6.2108958352650347 0 0 0 0 -298.65261350992296 173.47417327708564 0 173.47417327708564 -53.624117974281717 0 0 0 0 -294.42631347880069 92.726241976513762 0 92.726241976513762 5.7818994004501292 0 0 0 0 -272.26365028774308 162.78777983921714 0 162.78777983921714 17.709330282376811 0 0 0 0 -444.47989103801228 109.73022620452826 0 109.73022620452826 25.525819771397664 0 0 0 0 -593.5580954138677 47.090059953016294 0 47.090059953016294 -14.566817293137007 0 0 0 0 -286.72786395465937 140.19130450325304 0 140.19130450325304 -4.5380595245580935 0 0 0 0 -498.82805106145679 143.70256227877735 0 143.70256227877735 13.067932511760546 0 0 0 0 -221.17640262912755 206.67502845769002 0 206.67502845769002 -43.956389766820507 0 0 0 0 -148.38104211598329 55.6595620211599 0 55.6595620211599 123.01639152799976 0 0 0 0 -6.0763555603566317 -0.64645738299962119 0 -0.64645738299962119 1.1930282754894237 0 0 0 0 -224.4340787670626 -28.744351400854725 0 -28.744351400854725 124.22433212476562 0 0 0 0 -151.88863917113167 143.70992204405007 0 143.70992204405007 76.159037450121787 0 0 0 0 -81.297356539897009 -208.39024692493723 0 -208.39024692493723 102.40483280222105 0 0 0 0 -3.5219837838103984 -0.13547647875194002 0 -0.13547647875194002 0.79615203360280429 0 0 0 0 -501.64939658747517 301.64833343218658 0 301.64833343218658 -75.886862637622244 0 0 0 0 -408.12024239392304 1.2884571163034977 0 1.2884571163034977 2.4449352040185204 0 0 0 0 -402.03595795535512 13.864198876169041 0 13.864198876169041 17.440976946542207 0 0 0 0 -465.63539106477765 -135.88247916220914 0 -135.88247916220914 -20.785921285125823 0 0 0 0 -1.0291592043594378 0.99977211512541686 0 0.99977211512541686 -1.0209239236091057 0 0 0 0 133.40845875356717 134.0910863876486 0 134.0910863876486 10.470561974758425 0 0 0 0 -138.90253154899256 115.83662280459828 0 115.83662280459828 10.998389701846023 0 0 0 0 -120.41004285202871 -5.1540635636313255 0 -5.1540635636313255 76.355382990394787 0 0 0 0 -129.65477172375904 27.420679705471741 0 27.420679705471741 -34.466902887846175 0 0 0 0 -178.66115993920721 130.7310858167877 0 130.7310858167877 48.31292358312453 0 0 0 0 -231.81322814585292 74.552738852349648 0 74.552738852349648 225.26629454657564 0 0 0 0 -125.78855433333047 87.673015241809054 0 87.673015241809054 -3.8237532647904118 0 0 0 0 -249.99324850000994 295.84029634450371 0 295.84029634450371 -202.35196835706756 0 0 0 0 -130.06304927775273 -181.02354338897317 0 -181.02354338897317 36.209207459069376 0 0 0 0 -3.0010232568641158 -0.14563232885634392 0 -0.14563232885634392 0.50957230513093155 0 0 0 0 15.768491528238883 -27.336014111702752 0 -27.336014111702752 -171.90944569275644 0 0 0 0 -153.4321398107204 -85.324866339119581 0 -85.324866339119581 -190.06765803836561 0 0 0 0 -299.6379565799416 0.55147826068872519 0 0.55147826068872519 -156.24983726517121 0 0 0 0 -146.37371564462956 -22.214212136585957 0 -22.214212136585957 -199.95656509229934 0 0 0 0 -129.15944478827441 63.978080845281738 0 63.978080845281738 -295.68262218052405 0 0 0 0 -83.369932885121671 3.6574842786405952 0 3.6574842786405952 -290.16641496736224 0 0 0 0 -128.94408249791377 -29.040697139163854 0 -29.040697139163854 -248.958696773067 0 0 0 0 -139.68912087867648 -9.9508330309858479 0 -9.9508330309858479 -293.19610945795512 0 0 0 0 -310.77273438918928 -88.018733080435368 0 -88.018733080435368 -234.45461074074012 0 0 0 0 -321.27589577274193 -71.231032577893757 0 -71.231032577893757 -249.40889478785175 0 0 0 0 -163.835100899807 38.738910152923381 0 38.738910152923381 -323.68627467399767 0 0 0 0 -396.00377300603213 88.721907196904795 0 88.721907196904795 -357.45087988670736 0 0 0 0 -758.94290582981921 -231.73849288571819 0 -231.73849288571819 -329.29863166973701 0 0 0 0 -338.74342340185285 78.504581977952611 0 78.504581977952611 -102.9768449091448 0 0 0 0 -155.17813252645163 54.752482134139548 0 54.752482134139548 -126.43854180361404 0 0 0 0 -48.859767125635699 81.99432214628041 0 81.99432214628041 -119.46014815502622 0 0 0 0 -466.28264768765075 98.288269155313742 0 98.288269155313742 33.068617871650531 0 0 0 0 -239.68231001583626 197.02041834120632 0 197.02041834120632 -25.208254400616397 0 0 0 0 -156.89841570310455 185.09049744229742 0 185.09049744229742 -109.15088390897336 0 0 0 0 -502.6499476137451 258.42600283668048 0 258.42600283668048 -17.624631193367804 0 0 0 0 -623.57090619516384 53.296693515957941 0 53.296693515957941 20.871842253275759 0 0 0 0 -712.32533850374932 444.39850714849399 0 444.39850714849399 -227.24489449043313 0 0 0 0 -629.16208002741246 -28.602642195634157 0 -28.602642195634157 -230.36084377437055 0 0 0 0 -846.82534129873238 -390.83218028027591 0 -390.83218028027591 225.28119709489863 0 0 0 0 -4.6738811830880422 1.0583803273817942 0 1.0583803273817942 0.44855872053439416 0 0 0 0 -150.96001362121751 248.63711534694551 0 248.63711534694551 115.20835861875958 0 0 0 0 -7.8213183771757571 1.9786883707274967 0 1.9786883707274967 0.89361687699172565 0 0 0 0 -167.88741801015203 66.866218623552641 0 66.866218623552641 90.051603341852626 0 0 0 0 -175.1790759879641 430.46447487082196 0 430.46447487082196 -350.03724525680082 0 0 0 0 -63.616274149198944 201.72057902565894 0 201.72057902565894 -223.06230044909807 0 0 0 0 -14.747675280065778 81.129428505165436 0 81.129428505165436 -15.352206076385301 0 0 0 0 -213.88459416894693 108.96050849640574 0 108.96050849640574 -1.5644870233458619 0 0 0 0 -156.66369427371319 136.77868423699306 0 136.77868423699306 -8.9631448453360463 0 0 0 0 -320.42949573384976 -64.936867705962186 0 -64.936867705962186 218.2695048729399 0 0 0 0 -332.37239773910551 -5.2211120822225894 0 -5.2211120822225894 279.08957761790703 0 0 0 0 -440.07905836986902 -98.130512010447887 0 -98.130512010447887 221.04755267544931 0 0 0 0 -444.52389718389531 -143.03778840196907 0 -143.03778840196907 261.78231485882179 0 0 0 0 -515.26593746227445 -111.27826462154019 0 -111.27826462154019 249.052810742681 0 0 0 0 -454.21309624777132 -121.37900871332579 0 -121.37900871332579 255.67644837869511 0 0 0 0 -197.66904621889262 -55.259994725623756 0 -55.259994725623756 116.07699208220288 0 0 0 0 -23.148605344910223 9.981812785757997 0 9.981812785757997 -4.9452687052747955 0 0 0 0 -235.7415260793714 -48.716982723341516 0 -48.716982723341516 129.52440905155504 0 0 0 0 -24.323639385168917 102.58473124734735 0 102.58473124734735 -119.94044861604198 0 0 0 0 27.128522425577103 91.737309044256108 0 91.737309044256108 -163.0065945410463 0 0 0 0 27.488752216737112 104.29021196688667 0 104.29021196688667 -721.66992837007638 0 0 0 0 -8.351306431173839 3.3495186505590642 0 3.3495186505590642 -2.1710864591323791 0 0 0 0 -285.69753225161367 -205.08355773598208 0 -205.08355773598208 -53.266056445906543 0 0 0 0 -972.97021645997302 270.4126390243469 0 270.4126390243469 -228.30298251881777 0 0 0 0 -867.67347469665401 -485.20083309687288 0 -485.20083309687288 -187.34548020759439 0 0 0 0 -628.55636932405469 -237.74719725655814 0 -237.74719725655814 -697.8940261403659 0 0 0 0 -524.39947487237077 -50.605183228656642 0 -50.605183228656642 1.4092635934907776 0 0 0 0 -343.44433448122436 -50.816715748409479 0 -50.816715748409479 171.86839140563711 0 0 0 0 -432.73557305345457 114.09689667564078 0 114.09689667564078 277.34520408308254 0 0 0 0 -471.72382505295536 -176.66423960741713 0 -176.66423960741713 223.27347024902826 0 0 0 0 -696.18066449775506 -235.97454212648177 0 -235.97454212648177 208.10077173557511 0 0 0 0 -602.19356893804797 50.203373160954015 0 50.203373160954015 135.81202791928581 0 0 0 0 -345.33902826868143 -59.184723638345304 0 -59.184723638345304 297.95534748087846 0 0 0 0 -543.98680793233143 -135.94253118421773 0 -135.94253118421773 313.03386625540361 0 0 0 0 118.74315010332793 12.179949618466253 0 12.179949618466253 185.32147698949757 0 0 0 0 -320.17821280633871 -85.57022853209719 0 -85.57022853209719 305.37586025903011 0 0 0 0 -4.9166702712628023 1.2342075529783827 0 1.2342075529783827 1.8407286317198572 0 0 0 0 6.5313794320827583 513.74628473072289 0 513.74628473072289 343.37318201662674 0 0 0 0 -723.77949912461918 -497.07726240081649 0 -497.07726240081649 -193.76298170503469 0 0 0 0 -791.21001139754662 -54.673543485376513 0 -54.673543485376513 79.570741612535585 0 0 0 0 -415.1394607101538 252.39004111166037 0 252.39004111166037 370.02701595784526 0 0 0 0 -204.18530751721482 82.627018267523681 0 82.627018267523681 33.94743135948147 0 0 0 0 -537.98502101291024 231.1790930425978 0 231.1790930425978 -30.305697516331293 0 0 0 0 -326.62454755445651 4.3399375235285333 0 4.3399375235285333 -390.80017076503964 0 0 0 0 -284.28061986177181 128.24453971949686 0 128.24453971949686 -257.50509271299779 0 0 0 0 -232.09626876457696 -4.999178283020683 0 -4.999178283020683 25.505572022957949 0 0 0 0 -426.61172724053904 129.87397112916653 0 129.87397112916653 0.88423627411157213 0 0 0 0 -130.02521187738785 47.260564613751853 0 47.260564613751853 -261.77791323934389 0 0 0 0 -120.4303187290152 -38.101816137926335 0 -38.101816137926335 -21.331536065642467 0 0 0 0 26.573995686474518 -34.127850804044783 0 -34.127850804044783 -267.20084457042958 0 0 0 0 1.4085315984681728 1.0090022745004674 0 1.0090022745004674 -1.1524554241031617 0 0 0 0 -117.26991140874816 12.856541629354979 0 12.856541629354979 28.561342455668182 0 0 0 0 -2.8928653156411563 7.5501133743170641 0 7.5501133743170641 -5.1779782892789452 0 0 0 0 100.32091734690766 -24.926954592075163 0 -24.926954592075163 -56.974233985127739 0 0 0 0 -69.875797216816864 50.255176634655982 0 50.255176634655982 64.228564436855322 0 0 0 0 -274.81524074477056 106.78213804899087 0 106.78213804899087 -94.024124446681185 0 0 0 0 -191.47436906474104 -77.59082433110359 0 -77.59082433110359 -60.687410258303316 0 0 0 0 -131.50431554487295 -63.303988322417126 0 -63.303988322417126 -65.406688975738689 0 0 0 0 -34.283813326699601 86.812206676329879 0 86.812206676329879 -91.187661195189321 0 0 0 0 71.444975344566046 -33.899019142561428 0 -33.899019142561428 -51.576239123125106 0 0 0 0 -1.1593832889993791 6.8055504583696234 0 6.8055504583696234 -6.1627523705265048 0 0 0 0 -5.6531443166547035 8.3381419220952182 0 8.3381419220952182 -4.0980823300339955 0 0 0 0 160.62108975760202 87.084047115735302 0 87.084047115735302 -93.972330295987831 0 0 0 0 -3.7109324466955513 30.036116135567291 0 30.036116135567291 22.409313363514698 0 0 0 0 -2.0711957303719828 21.013176671680696 0 21.013176671680696 9.4537649628262557 0 0 0 0 -13.704313709924463 16.603669856381543 0 16.603669856381543 10.597932239682905 0 0 0 0 -13.103705228597391 14.085576750389862 0 14.085576750389862 9.935757473028076 0 0 0 0 -13.019991587469121 13.53886156523248 0 13.53886156523248 3.9357118104855431 0 0 0 0 -16.185800266219303 14.760809823329055 0 14.760809823329055 6.5782686505646097 0 0 0 0 -16.634985626522393 13.447405570666376 0 13.447405570666376 7.4371609529403031 0 0 0 0 -5.1335186241194606 16.947408851161583 0 16.947408851161583 -3.169380612558939 0 0 0 0 -8.2382855643227231 16.122868047713496 0 16.122868047713496 5.3317244783347633 0 0 0 0 -8.504618907085387 18.14927712602605 0 18.14927712602605 11.549517418079176 0 0 0 0 -2.6802047011705596 2.0569112478621179 0 2.0569112478621179 0.84728715621853379 0 0 0 0 6.3384918934898451 27.624668499824338 0 27.624668499824338 6.3182684161262159 0 0 0 0 -244.47467052391994 -96.459037389737873 0 -96.459037389737873 -68.928594677690853 0 0 0 0 -84.952419780645869 -34.585488396333631 0 -34.585488396333631 61.611967464915779 0 0 0 0 -228.60275255578745 61.667914733036469 0 61.667914733036469 36.641485720001583 0 0 0 0 -109.40962302244588 118.15036836269269 0 118.15036836269269 62.499128546034633 0 0 0 0 -16.99460422329139 23.247530204549321 0 23.247530204549321 31.962160754331745 0 0 0 0 -28.219530440783274 -77.849953320770169 0 -77.849953320770169 -46.243333997993886 0 0 0 0 -17.102683566303028 9.7509629118251269 0 9.7509629118251269 -3.2846075674276873 0 0 0 0 -17.267329821130261 10.977529941123461 0 10.977529941123461 32.202914144656241 0 0 0 0 -17.360129072876589 13.830960673627667 0 13.830960673627667 17.414685005740488 0 0 0 0 -11.28056667810597 29.344087174687758 0 29.344087174687758 27.019019115081051 0 0 0 0 -23.204130833997624 9.2585727729180292 0 9.2585727729180292 19.530451856831153 0 0 0 0 -19.68233871558914 16.596653153915611 0 16.596653153915611 22.740453646320887 0 0 0 0 -13.160579670307925 18.85564312538434 0 18.85564312538434 18.270744684490012 0 0 0 0 -19.928929699381115 11.213559207030272 0 11.213559207030272 13.067952924383825 0 0 0 0 -18.298293752370228 14.846575803966061 0 14.846575803966061 14.072390246147393 0 0 0 0 -10.904597400251077 21.804439903689513 0 21.804439903689513 16.109011079727679 0 0 0 0 -17.575795039418153 17.019831154089445 0 17.019831154089445 17.853170201885348 0 0 0 0 -16.830712994633359 16.540656159780383 0 16.540656159780383 17.465492690106146 0 0 0 0 -21.849792601715308 11.287743831494538 0 11.287743831494538 15.570591348565848 0 0 0 0 -25.949433398040128 6.9261090246515806 0 6.9261090246515806 12.811142398594427 0 0 0 0 -20.720874959224602 11.936632544838957 0 11.936632544838957 12.67816646807438 0 0 0 0 -27.434263540810207 6.7663253740250013 0 6.7663253740250013 15.883015056201828 0 0 0 0 -21.273919784725877 10.943776495717231 0 10.943776495717231 15.356312424329701 0 0 0 0 -22.421906521805795 8.2412224861467607 0 8.2412224861467607 13.660931779329687 0 0 0 0 -30.505021793393098 6.4005572793877015 0 6.4005572793877015 17.305872035838945 0 0 0 0 -26.588055759842973 5.3065125646343851 0 5.3065125646343851 12.558510871865927 0 0 0 0 -28.780172922652127 3.002158031669012 0 3.002158031669012 10.461196269382924 0 0 0 0 -30.940273554908345 1.8599457388872125 0 1.8599457388872125 14.201598697118122 0 0 0 0 -32.103496691415785 3.4708790445817925 0 3.4708790445817925 12.737017849878853 0 0 0 0 -27.660166468964235 7.1607848104625713 0 7.1607848104625713 23.18441895989325 0 0 0 0 -27.700734565238236 4.5324053882682085 0 4.5324053882682085 15.15950495828092 0 0 0 0 -23.229443752999941 1.7466388113690758 0 1.7466388113690758 14.553684609171583 0 0 0 0 -38.549293676391244 -0.88696726486751487 0 -0.88696726486751487 8.9029750585257261 0 0 0 0 -41.749255841365084 -0.10308589116964839 0 -0.10308589116964839 12.045504074191996 0 0 0 0 -34.153062255871191 -0.71503666689590872 0 -0.71503666689590872 9.8895322630050941 0 0 0 0 -33.416500381717924 4.2988971162330429 0 4.2988971162330429 15.48793421125017 0 0 0 0 -33.593257798667764 -1.6949927665344298 0 -1.6949927665344298 12.443255118506144 0 0 0 0 -33.92698211507377 -0.32977612448187266 0 -0.32977612448187266 7.4642391215021036 0 0 0 0 -52.694145399407716 -13.826944998387296 0 -13.826944998387296 0.074613899912066031 0 0 0 0 -25.249528113185079 -0.41289652955867151 0 -0.41289652955867151 -5.6476123729812677 0 0 0 0 -35.347889679251239 -6.1981184494799741 0 -6.1981184494799741 8.5669992728617217 0 0 0 0 -60.508929096511565 3.1616405057835753 0 3.1616405057835753 6.9711061851778311 0 0 0 0 -17.365425049094483 -4.2260281884772457 0 -4.2260281884772457 -4.0237884646443005 0 0 0 0 -38.207723246996466 -2.9415450206154454 0 -2.9415450206154454 17.134886521596638 0 0 0 0 -13.87208844394263 -13.871772839871149 0 -13.871772839871149 20.607674037030595 0 0 0 0 -4.0862539423123962 12.630286315425773 0 12.630286315425773 19.56449252370701 0 0 0 0 -19.122900829286664 12.825248501413526 0 12.825248501413526 27.730787201994033 0 0 0 0 -10.361161501841707 34.727394383511047 0 34.727394383511047 76.158040301192017 0 0 0 0 -13.311051123618682 5.541022541157993 0 5.541022541157993 -1.0499990577880973 0 0 0 0 -24.088711160984531 -22.47038904420392 0 -22.47038904420392 39.456186392410103 0 0 0 0 -5.5901076726822794 -10.549732523556321 0 -10.549732523556321 -0.27469175008150792 0 0 0 0 -27.834112355856348 123.44908995307779 0 123.44908995307779 50.024141037660279 0 0 0 0 -5.5088118499289749 1.4718439572623936 0 1.4718439572623936 -0.025208671931448115 0 0 0 0 -901.89416942396201 -100.25295142287584 0 -100.25295142287584 0.87648600483893546 0 0 0 0 -817.94787243902829 -654.9576193497652 0 -654.9576193497652 -327.80709945183651 0 0 0 0 -423.20551066796907 -263.00891510997189 0 -263.00891510997189 -163.45807788702803 0 0 0 0 -576.2103189596819 -137.19034390671675 0 -137.19034390671675 39.80730513907838 0 0 0 0 -350.20467712674872 -146.05280373989575 0 -146.05280373989575 -36.491939255729449 0 0 0 0 -388.07191508567485 -141.54174300041211 0 -141.54174300041211 -8.7833125962681606 0 0 0 0 -360.29412276001676 -131.49710763785117 0 -131.49710763785117 -5.2420238507436352 0 0 0 0 -439.75529722300416 -30.901754406001601 0 -30.901754406001601 6.603591880147178 0 0 0 0 -437.55733659111138 -231.04453882341022 0 -231.04453882341022 9.5052891411971814 0 0 0 0 -391.3446523786497 -207.67530296446853 0 -207.67530296446853 -122.01472893795062 0 0 0 0 -362.11960120292861 -138.83729195267961 0 -138.83729195267961 -11.635044839279544 0 0 0 0 -11.077415004207666 2.445991231866806 0 2.445991231866806 4.694719256882772 0 0 0 0 -119.41995565269463 85.765345946071761 0 85.765345946071761 216.05866471450719 0 0 0 0 -371.65040613110068 -121.68905374575513 0 -121.68905374575513 -7.1972779792645269 0 0 0 0 -269.51970843956951 -100.42346593245432 0 -100.42346593245432 -38.275842760666023 0 0 0 0 -261.74563864667653 -169.78930126913417 0 -169.78930126913417 34.38670989116099 0 0 0 0 -447.69109431220568 -105.38166284294698 0 -105.38166284294698 203.30232060786653 0 0 0 0 -478.11282045784174 -187.83598315244376 0 -187.83598315244376 221.71304914472876 0 0 0 0 -556.80620588507736 -233.02012169606178 0 -233.02012169606178 57.490928685727795 0 0 0 0 -313.28216359537328 -169.28728405995975 0 -169.28728405995975 -146.15882859720426 0 0 0 0 -464.98139082099078 -337.83159886480007 0 -337.83159886480007 -267.16653512219062 0 0 0 0 28.292934441151374 -46.222781960532366 0 -46.222781960532366 16.932076722092461 0 0 0 0 -5.578360375904083 3.1284001727455362 0 3.1284001727455362 -1.322595834447488 0 0 0 0 36.058200986084557 -14.900817950911573 0 -14.900817950911573 43.949901543809574 0 0 0 0 -11.46096459836815 8.6329932541723338 0 8.6329932541723338 -0.48879973993560721 0 0 0 0 -235.81042783632438 -69.112380058808682 0 -69.112380058808682 -68.647694520960215 0 0 0 0 49.814503201341722 -37.679887535212913 0 -37.679887535212913 13.125321225043194 0 0 0 0 -3.0005054691275443 -0.43666744265047441 0 -0.43666744265047441 6.3616737470769245 0 0 0 0 -397.04511491661833 -117.78509976315456 0 -117.78509976315456 -7.3597269453142715 0 0 0 0 -401.96651911214576 39.522301938240645 0 39.522301938240645 4.0610444407982982 0 0 0 0 -1059.9134423551877 -233.69623496992031 0 -233.69623496992031 178.88699395106426 0 0 0 0 -0.49100627519591811 -0.79091162513995528 0 -0.79091162513995528 1.055947961472119 0 0 0 0 -675.30397163816815 -13.721171400677775 0 -13.721171400677775 -474.77042038098688 0 0 0 0 -231.57202182558467 -38.693913383446784 0 -38.693913383446784 0.051566549146397293 0 0 0 0 53.040639507576088 24.254346987183631 0 24.254346987183631 -109.2265288052316 0 0 0 0 -63.692202390462626 82.931265824079617 0 82.931265824079617 -26.932009387807653 0 0 0 0 -168.7632190343038 181.50957151520029 0 181.50957151520029 -68.077613422799203 0 0 0 0 -185.75383926227369 27.55060940974127 0 27.55060940974127 36.12158233552401 0 0 0 0 39.772111486789072 -48.185210707264787 0 -48.185210707264787 7.7569187949743537 0 0 0 0 -787.46875083593386 -196.61802398395173 0 -196.61802398395173 -126.60201034128919 0 0 0 0 -684.73288589115691 163.03913365420368 0 163.03913365420368 68.110291206918646 0 0 0 0 -532.48983756209782 -13.224838866430082 0 -13.224838866430082 0.095133269873509202 0 0 0 0 -487.95526652054104 -48.953082872437463 0 -48.953082872437463 -44.686039970648039 0 0 0 0 -562.18193171196617 110.45717218546257 0 110.45717218546257 -284.35470883713612 0 0 0 0 -492.07694833251298 61.05616738963306 0 61.05616738963306 57.886822368466824 0 0 0 0 -305.51609242067116 19.157272202666341 0 19.157272202666341 -107.53493631772585 0 0 0 0 -830.0342864282793 -491.59254237173872 0 -491.59254237173872 -177.87127902351256 0 0 0 0 -584.50342829705187 -49.145110451441838 0 -49.145110451441838 15.285495533738903 0 0 0 0 -1039.6609962719922 -141.13046042946374 0 -141.13046042946374 22.690973629447058 0 0 0 0 -766.01569463716442 -220.28972612853886 0 -220.28972612853886 66.447982699320164 0 0 0 0 -511.53153987740916 -27.872927856600242 0 -27.872927856600242 154.68063412347715 0 0 0 0 -536.94027669881325 -163.09028097069432 0 -163.09028097069432 182.24758497145331 0 0 0 0 -554.06789266556666 -100.12832841152905 0 -100.12832841152905 108.55873185495261 0 0 0 0 -527.86872678032523 -112.06196180888458 0 -112.06196180888458 84.929895586070188 0 0 0 0 -366.46177110877761 19.946530926217406 0 19.946530926217406 144.58241162378681 0 0 0 0 -280.22605128927444 -27.737625215301378 0 -27.737625215301378 86.825835001157202 0 0 0 0 -156.94321918049536 232.93140792074246 0 232.93140792074246 -211.56216121768352 0 0 0 0 -236.2940159986847 197.86736911098441 0 197.86736911098441 -153.86523745267004 0 0 0 0 -239.34468119416852 212.78212116614145 0 212.78212116614145 -205.02018382049232 0 0 0 0 -152.25959415177203 189.06622638559088 0 189.06622638559088 -201.51636244913402 0 0 0 0 -123.27766334472835 225.40554482237735 0 225.40554482237735 -220.81960762045765 0 0 0 0 -122.27979954532049 167.33420910565181 0 167.33420910565181 -109.18366808170776 0 0 0 0 -151.02564563599481 191.30684548646713 0 191.30684548646713 -256.60401205112339 0 0 0 0 -157.05461264141923 211.98427532415212 0 211.98427532415212 -159.99204570715301 0 0 0 0 -87.266336125874659 140.51133647444931 0 140.51133647444931 -61.419284127439823 0 0 0 0 -72.091152734457864 118.44477641970047 0 118.44477641970047 -158.50330755997277 0 0 0 0 -178.82798370114324 248.19267208596773 0 248.19267208596773 -245.6328517214647 0 0 0 0 -89.679660862937453 201.87136976541728 0 201.87136976541728 -238.58983882282359 0 0 0 0 -221.33606334646174 222.13171566230722 0 222.13171566230722 -172.85823743231867 0 0 0 0 -223.87432416850061 244.59812833700454 0 244.59812833700454 -220.67727894450718 0 0 0 0 -271.94855649506644 224.01483610526566 0 224.01483610526566 -194.12629705038694 0 0 0 0 -295.29796732069372 303.96045099348248 0 303.96045099348248 -238.63413824110137 0 0 0 0 -675.21592905224497 529.99360284736008 0 529.99360284736008 -365.23683937191777 0 0 0 0 -634.35018021588621 310.27944740246517 0 310.27944740246517 -136.23565445553413 0 0 0 0 -854.66206537969992 15.326385889706842 0 15.326385889706842 25.529777018415643 0 0 0 0 -710.79172955089598 -53.863299623666308 0 -53.863299623666308 9.7783063729953028 0 0 0 0 -770.3547003990534 207.32049742221352 0 207.32049742221352 -58.085548200330095 0 0 0 0 -831.95975654487847 198.40563768841889 0 198.40563768841889 -57.094091255551348 0 0 0 0 -687.99963808949178 102.1920000868887 0 102.1920000868887 -24.612696763097574 0 0 0 0 -594.50245530444954 135.26135103274237 0 135.26135103274237 -30.340125886394617 0 0 0 0 -624.41959306366334 -53.106901243965126 0 -53.106901243965126 17.775769655075237 0 0 0 0 -592.72928204511118 -17.234836274617237 0 -17.234836274617237 19.56388147777156 0 0 0 0 -491.34491526989586 49.396425510844438 0 49.396425510844438 -10.700846490550248 0 0 0 0 -519.48222970555798 19.102030435795768 0 19.102030435795768 -40.959823928090373 0 0 0 0 -493.96015393805283 -69.876955225316976 0 -69.876955225316976 8.9450108168412044 0 0 0 0 -368.04327817332523 240.05096504446396 0 240.05096504446396 -164.50314241503133 0 0 0 0 -522.21305003088492 164.61132164034075 0 164.61132164034075 -91.726497547263079 0 0 0 0 -361.8215063271291 212.39260282711473 0 212.39260282711473 -106.41720129068608 0 0 0 0 -323.08303953953146 105.01309196581633 0 105.01309196581633 -78.306657662294583 0 0 0 0 -326.92095403147687 176.2019594920373 0 176.2019594920373 -149.64811573274187 0 0 0 0 -273.93625885222718 40.211005593262371 0 40.211005593262371 -101.03853364074394 0 0 0 0 -398.78724060746754 61.55897182286219 0 61.55897182286219 -94.539644253320148 0 0 0 0 -428.80708042727929 -55.58094972429069 0 -55.58094972429069 -71.062146110153662 0 0 0 0 -375.23593199018796 -7.8727147976919696 0 -7.8727147976919696 -38.373760039529998 0 0 0 0 -321.52829259566352 -69.877133505029178 0 -69.877133505029178 -79.159021343889208 0 0 0 0 -151.11563097509679 -2.2135600567331153 0 -2.2135600567331153 -161.17538306878032 0 0 0 0 -298.37392950592039 -40.541233966238451 0 -40.541233966238451 -169.761486460387 0 0 0 0 -223.70866532977379 60.801509479011202 0 60.801509479011202 -125.83286887442841 0 0 0 0 -275.58098206525028 38.78793608422049 0 38.78793608422049 -101.882637361658 0 0 0 0 -218.70086972689023 35.475282367188015 0 35.475282367188015 -48.23880397879293 0 0 0 0 -49.782178087214561 91.458779565934947 0 91.458779565934947 -186.45190077187226 0 0 0 0 -185.77662654007145 122.08990680727925 0 122.08990680727925 -171.69629373588168 0 0 0 0 -167.7441490398196 119.40554630627946 0 119.40554630627946 -181.16140216031044 0 0 0 0 -233.87674294562748 147.08733033969429 0 147.08733033969429 -164.91669677763389 0 0 0 0 -99.21321035996516 147.47207885804301 0 147.47207885804301 -227.16068398115704 0 0 0 0 -111.15251299414922 171.16835150338102 0 171.16835150338102 -237.46241989111149 0 0 0 0 -131.13290874614177 90.30779128263589 0 90.30779128263589 -117.8231249562989 0 0 0 0 -103.68196316165995 87.513095570103928 0 87.513095570103928 -226.36178063466059 0 0 0 0 -160.63999212104682 193.4763463843949 0 193.4763463843949 -178.82370203682626 0 0 0 0 -278.5293099637056 140.85555971815393 0 140.85555971815393 -185.95108638742613 0 0 0 0 -220.12149561687238 275.71749311002264 0 275.71749311002264 -269.50338012270777 0 0 0 0 -58.616959915110783 233.36101062677585 0 233.36101062677585 -435.06376332776608 0 0 0 0 -115.55775840240676 -31.745899113072255 0 -31.745899113072255 31.340682814774595 0 0 0 0 -2.9556867113223859 0.14889531805678935 0 0.14889531805678935 -0.17532910240682698 0 0 0 0 -137.50015013020311 114.90118150141825 0 114.90118150141825 -357.61697441901379 0 0 0 0 -0.90804560709016968 0.42442904538451387 0 0.42442904538451387 -1.4349294628351785 0 0 0 0 -172.73543673730819 184.03585795166714 0 184.03585795166714 -206.78000244729355 0 0 0 0 -104.39521206658947 73.717036967348662 0 73.717036967348662 -74.580049408287323 0 0 0 0 -7.8501329228747636 15.489368824517896 0 15.489368824517896 12.789881864491775 0 0 0 0 -7.7860284680887162 1.5916584107403793 0 1.5916584107403793 -0.58047330532852504 0 0 0 0 -6.2108938163237326 11.508086118473443 0 11.508086118473443 -6.5105684265213313 0 0 0 0 7.60516487951827 19.117308247566257 0 19.117308247566257 -16.323350643754111 0 0 0 0 3.6082861755712656 -10.866619072287364 0 -10.866619072287364 -46.030454273897703 0 0 0 0 -8.412140503336559 -5.6320138944388418 0 -5.6320138944388418 -27.254066783876851 0 0 0 0 -23.097702534916607 -7.9074257037905227 0 -7.9074257037905227 -9.9658356798354362 0 0 0 0 -30.840663673341624 -15.987993762277029 0 -15.987993762277029 -4.5781510048044538 0 0 0 0 -27.215685015618874 -7.4007781324015696 0 -7.4007781324015696 8.4121560805542686 0 0 0 0 -16.246764956697007 -4.2989391747810259 0 -4.2989391747810259 -6.6633069217190268 0 0 0 0 -23.252349393995246 -8.9193717579835265 0 -8.9193717579835265 -5.103230322145464 0 0 0 0 -27.380484436609549 -8.5552166779473282 0 -8.5552166779473282 2.918746646721047 0 0 0 0 -20.474318285676418 -4.4725791627456601 0 -4.4725791627456601 1.999395151353383 0 0 0 0 -20.437195435391914 -11.125731269514972 0 -11.125731269514972 -17.276912053407614 0 0 0 0 -5.379148373613134 -1.033837366927628 0 -1.033837366927628 -20.283092989072884 0 0 0 0 -16.874987438863172 -2.0540214082687953 0 -2.0540214082687953 -5.0490772651546649 0 0 0 0 -18.374972595425788 0.11219019854888757 0 0.11219019854888757 -3.8319546300053844 0 0 0 0 -20.382754611811833 -4.1632761120504256 0 -4.1632761120504256 -0.49304227340735451 0 0 0 0 -20.095435154740699 -2.9362114670939263 0 -2.9362114670939263 3.7214565050309147 0 0 0 0 -17.584003643802134 2.9996624508767127 0 2.9996624508767127 4.5992148521676199 0 0 0 0 -3.3632196696795944 -1.0523565878222243 0 -1.0523565878222243 2.7288995403223524 0 0 0 0 -5.9522619920535362 8.7073598093245437 0 8.7073598093245437 -4.1673071951159955 0 0 0 0 -1.1382485226204153 3.4306663189531719 0 3.4306663189531719 -13.59246803160022 0 0 0 0 -167.70811586608033 270.28159586361721 0 270.28159586361721 -283.08279665243032 0 0 0 0 -285.04683820890205 81.408781240857195 0 81.408781240857195 5.8648374172976219 0 0 0 0 -82.110871102784586 -19.445808994120171 0 -19.445808994120171 -19.397951680451342 0 0 0 0 -67.015055320385727 56.399995069845318 0 56.399995069845318 -76.07213598066096 0 0 0 0 -23.686919806234073 -12.056493712414976 0 -12.056493712414976 -25.881499590482235 0 0 0 0 -31.60002038172388 -9.5067480349032394 0 -9.5067480349032394 12.280457669958196 0 0 0 0 -44.049616722331848 -28.915855132445813 0 -28.915855132445813 -11.143286046934691 0 0 0 0 -64.377224421032224 3.3405808511570854 0 3.3405808511570854 29.969686109725444 0 0 0 0 -83.95881452192225 115.81175808316891 0 115.81175808316891 -2.4782718414412557 0 0 0 0 -33.691693056578515 -8.4016795167151486 0 -8.4016795167151486 -35.995703545686638 0 0 0 0 -44.773411049107381 112.05054324368029 0 112.05054324368029 -158.20748962711605 0 0 0 0 -0.94017015057208653 -0.49665013961078586 0 -0.49665013961078586 0.42948280748921874 0 0 0 0 -18.881314743768598 -1.9637666069993429 0 -1.9637666069993429 2.5272696610288676 0 0 0 0 3.8946072679245844 -0.75944375184189994 0 -0.75944375184189994 2.0961574630132986 0 0 0 0 -1.3018451287965185 0.01183414501964819 0 0.01183414501964819 0.48914758016562132 0 0 0 0 -5.1116511037171222 1.0146701249520049 0 1.0146701249520049 6.3822274613398804 0 0 0 0 30.761861707509524 32.896278876097085 0 32.896278876097085 18.767862054037323 0 0 0 0 -22.89593743570731 26.781245029982301 0 26.781245029982301 38.640087768739477 0 0 0 0 -29.631179869742482 5.3285794233572688 0 5.3285794233572688 28.078225181640846 0 0 0 0 -45.424211897854548 -10.654163086030621 0 -10.654163086030621 17.310022029690117 0 0 0 0 -1.7798900423658779 8.9858687469188681 0 8.9858687469188681 14.719722625520717 0 0 0 0 -9.9437395915301749 6.7833327117136832 0 6.7833327117136832 14.271860411290163 0 0 0 0 -8.274071168678347 15.231836207232391 0 15.231836207232391 16.286192480267346 0 0 0 0 -2.0412090450408868 16.788088584392426 0 16.788088584392426 16.308273683570224 0 0 0 0 -4.3267507060954813 3.8516126585991515 0 3.8516126585991515 2.1447433292873939 0 0 0 0 -5.5641772088340389 1.9260572341512656 0 1.9260572341512656 0.97191487729387704 0 0 0 0 -10.703981519305444 5.0756361238712984 0 5.0756361238712984 -1.4265940588834609 0 0 0 0 -24.698954880288511 -2.4117297494487957 0 -2.4117297494487957 4.6119403783629851 0 0 0 0 -8.2977977815746158 3.3751422753979354 0 3.3751422753979354 -1.1985689807619968 0 0 0 0 0.099815343972466053 1.5801633333716363 0 1.5801633333716363 -0.81059367811066596 0 0 0 0 -22.324764087985386 -0.95343592792585241 0 -0.95343592792585241 16.729798038212493 0 0 0 0 1.3411646256427048 46.217699847987944 0 46.217699847987944 63.565825403551514 0 0 0 0 -44.084928686759667 -2.1691359247561195 0 -2.1691359247561195 24.178851347104228 0 0 0 0 -14.682901236138321 2.6965600572544117 0 2.6965600572544117 0.50311230609365298 0 0 0 0 -3.1561227664343399 0.79412534886738229 0 0.79412534886738229 0.48847525854124318 0 0 0 0 -7.8692752776075956 -0.71063160644416712 0 -0.71063160644416712 3.385513757160167 0 0 0 0 -19.456792277698696 -3.0010048960363065 0 -3.0010048960363065 3.26278355171371 0 0 0 0 -3.0288867545447573 -3.7977103362809004 0 -3.7977103362809004 4.5951374316104392 0 0 0 0 -20.68823409453546 10.681067761307737 0 10.681067761307737 4.8144980857102269 0 0 0 0 -19.837883465079358 13.769075359232772 0 13.769075359232772 9.6855446015213431 0 0 0 0 -18.977976617297827 11.700618450479624 0 11.700618450479624 8.5432132040701845 0 0 0 0 -21.077686795506452 12.094250043030243 0 12.094250043030243 7.7857308296215706 0 0 0 0 -20.720010277960682 11.617021719396249 0 11.617021719396249 5.7383376994403079 0 0 0 0 -22.770149851407041 10.657766228020051 0 10.657766228020051 8.9965139153370615 0 0 0 0 -20.245440105700254 12.4022938579159 0 12.4022938579159 6.3479491841360414 0 0 0 0 -18.752856270846678 13.420154740789314 0 13.420154740789314 6.0629852678725342 0 0 0 0 -18.740350606880384 13.31680790631998 0 13.31680790631998 6.7657618815974274 0 0 0 0 -16.734850099710457 13.935104282760527 0 13.935104282760527 6.9383302758003538 0 0 0 0 -15.924954884125327 13.983962710528886 0 13.983962710528886 4.1140718443525657 0 0 0 0 -20.074531021033181 10.936768800867753 0 10.936768800867753 3.6338329464238086 0 0 0 0 -17.861564534076024 12.018776431903518 0 12.018776431903518 2.6646434624348672 0 0 0 0 -20.677157482794428 11.542794630546467 0 11.542794630546467 4.6844200893065135 0 0 0 0 -16.207648844458163 9.9031949186357338 0 9.9031949186357338 0.038061574820574151 0 0 0 0 -6.2460972578685556 6.006978774479542 0 6.006978774479542 -3.7292830629445937 0 0 0 0 -20.287874546746025 12.056689502638619 0 12.056689502638619 5.0805512958598911 0 0 0 0 -22.33518428383104 8.1775473075242644 0 8.1775473075242644 1.6007830984166844 0 0 0 0 -19.147748607836547 -0.052280265647823398 0 -0.052280265647823398 6.0214272570715366 0 0 0 0 -24.640071582180099 4.9014445927216457 0 4.9014445927216457 10.95348765278527 0 0 0 0 -25.108026684625656 -4.7245344664152071 0 -4.7245344664152071 2.455329653860872 0 0 0 0 -24.873317566867627 -3.5996535942579158 0 -3.5996535942579158 6.5221529643886242 0 0 0 0 -34.04760940943379 -5.5811728573619348 0 -5.5811728573619348 15.378327665723646 0 0 0 0 -27.843172271037474 -3.1304080810509731 0 -3.1304080810509731 11.360643893430108 0 0 0 0 -29.631956097822695 -5.6344841990830901 0 -5.6344841990830901 8.3854283522914557 0 0 0 0 -34.346283558828873 6.8495570350528396 0 6.8495570350528396 19.746830352651898 0 0 0 0 -33.251009329804219 -0.95461331841374886 0 -0.95461331841374886 21.829191971590262 0 0 0 0 -32.280072944136919 -0.80531926020330502 0 -0.80531926020330502 11.660653953898532 0 0 0 0 -14.054791803682747 -0.66835958151062869 0 -0.66835958151062869 -4.9605571585808548 0 0 0 0 -21.820084256854898 15.556214632762533 0 15.556214632762533 -2.8757012075694419 0 0 0 0 -27.506755384962162 -3.3393972024539229 0 -3.3393972024539229 -0.040704333199094833 0 0 0 0 -4.8111465409628025 -4.0212179865820303 0 -4.0212179865820303 3.2898589056784182 0 0 0 0 -31.617143386178213 11.448005707667789 0 11.448005707667789 6.1333282064169907 0 0 0 0 -26.652898887550691 1.4434518679036046 0 1.4434518679036046 1.95292649687633 0 0 0 0 -30.481393578353163 0.070270648664951807 0 0.070270648664951807 7.4958837295425269 0 0 0 0 -29.287305675054085 2.2161899560218146 0 2.2161899560218146 9.0456040385120389 0 0 0 0 -28.520307615588536 2.2228469286213794 0 2.2228469286213794 8.4433541590943264 0 0 0 0 -30.488727022442617 -2.0980689193269768 0 -2.0980689193269768 4.9199970274802354 0 0 0 0 -32.786575031699613 2.6881414886886859 0 2.6881414886886859 13.217029411705752 0 0 0 0 -26.203880281733291 4.6028551498480752 0 4.6028551498480752 10.631996618532753 0 0 0 0 -26.588927250501001 7.0272462438476566 0 7.0272462438476566 13.423949695314974 0 0 0 0 -25.544013501144946 5.8597864341220429 0 5.8597864341220429 10.561355798770165 0 0 0 0 -22.752345106498979 8.1580135832759311 0 8.1580135832759311 5.4282512157992073 0 0 0 0 -23.662328796490328 10.252495273980969 0 10.252495273980969 12.695075062846314 0 0 0 0 -29.389590857172152 -9.6712930561672916 0 -9.6712930561672916 -7.5306639658339591 0 0 0 0 -38.660257130293758 -20.101238815579919 0 -20.101238815579919 -6.7563851064563796 0 0 0 0 -54.636428794940002 -5.2841705282411624 0 -5.2841705282411624 12.263948499205377 0 0 0 0 -40.788423017454988 -8.0913084172792686 0 -8.0913084172792686 7.8614613653037964 0 0 0 0 -35.915529034675274 -1.5711009543180765 0 -1.5711009543180765 11.773571389149026 0 0 0 0 -34.373302926993347 -1.8627185127705559 0 -1.8627185127705559 6.9480450860584728 0 0 0 0 -39.765640733778127 -6.4412221389420168 0 -6.4412221389420168 8.4503540117918874 0 0 0 0 -6.8251572663866682 -2.9872680684323263 0 -2.9872680684323263 -0.013742330349226487 0 0 0 0 13.352033607232443 3.8510438105787284 0 3.8510438105787284 -15.198970508678471 0 0 0 0 -1.2110336498180985 0.41222083814305677 0 0.41222083814305677 0.15421828731117118 0 0 0 0 -2.2170140110429202 -0.85937883772729085 0 -0.85937883772729085 0.96771443816472891 0 0 0 0 -55.250951533947955 -26.645032778486936 0 -26.645032778486936 1.597057800539524 0 0 0 0 -7.9858476038752997 4.1119775459850363 0 4.1119775459850363 6.9450074335948742 0 0 0 0 -1.2553503975989884 -0.29795989242835219 0 -0.29795989242835219 0.22819877654904208 0 0 0 0 -37.82101273004082 0.28141106941178962 0 0.28141106941178962 10.016885193332586 0 0 0 0 37.433525965567242 41.10293566221047 0 41.10293566221047 13.489020007301846 0 0 0 0 17.644785742661043 46.870610638715483 0 46.870610638715483 13.177629736863423 0 0 0 0 -25.873947638232494 -4.8455509495059275 0 -4.8455509495059275 -1.1080064581382754 0 0 0 0 -18.988136831208976 11.337239036655134 0 11.337239036655134 2.5316742939033361 0 0 0 0 0.16552218891792592 0.2499095904322246 0 0.2499095904322246 0.10305207774645944 0 0 0 0 -70.018449936542311 10.405440297602768 0 10.405440297602768 15.825693932381444 0 0 0 0 -31.749565897527646 42.013507720136843 0 42.013507720136843 0.018772451587539502 0 0 0 0 118.31074447723677 32.652796848865144 0 32.652796848865144 -19.139617875904037 0 0 0 0 26.614681985363859 58.866529512686313 0 58.866529512686313 0.068018434420911988 0 0 0 0 -68.904901193374826 5.2820945374797859 0 5.2820945374797859 9.7720035054816634 0 0 0 0 -110.34100832869444 64.547976175746342 0 64.547976175746342 -0.16993253794890439 0 0 0 0 -40.475624654631247 49.914167101612499 0 49.914167101612499 -17.025112410538156 0 0 0 0 18.155660646239085 33.099758912416853 0 33.099758912416853 -24.194976583275519 0 0 0 0 -6.7932217110137572 71.976134881355506 0 71.976134881355506 7.4630759050658071 0 0 0 0 -12.786443258614554 2.6504521165876236 0 2.6504521165876236 -0.31557652911144635 0 0 0 0 -69.023980331150597 32.457159427328591 0 32.457159427328591 138.08007223164554 0 0 0 0 -28.697054145406582 10.349463010519116 0 10.349463010519116 -216.23231120153105 0 0 0 0 -91.024849071225617 75.50541869626295 0 75.50541869626295 -45.653031075744849 0 0 0 0 0.56878806639724644 -28.542819618623298 0 -28.542819618623298 -35.67529635486585 0 0 0 0 -30.390630682260962 44.358314456016842 0 44.358314456016842 -103.19503713548761 0 0 0 0 -1345.7911407971988 129.79632569620617 0 129.79632569620617 -211.67334515656904 0 0 0 0 -1250.9755021006567 97.887705515850428 0 97.887705515850428 -1224.1078378879151 0 0 0 0 -1153.3398918570165 -50.89900589683208 0 -50.89900589683208 49.60282049854095 0 0 0 0 -1491.6642685252118 -63.184565753052823 0 -63.184565753052823 32.037321670811707 0 0 0 0 -839.87239816172223 -175.66210115647641 0 -175.66210115647641 19.981432035589989 0 0 0 0 -1005.048029823849 334.36633812054697 0 334.36633812054697 -163.33585881414547 0 0 0 0 -110.82677823903214 244.76491348263608 0 244.76491348263608 -453.51441040054669 0 0 0 0 -713.25942800399207 617.24799895094031 0 617.24799895094031 -656.05855123353672 0 0 0 0 -301.63080553107284 -211.31802351825561 0 -211.31802351825561 -30.214670707954951 0 0 0 0 -5.7375303966598494 1.0930748612691694 0 1.0930748612691694 -0.37079092195362806 0 0 0 0 -1054.5073308463761 -216.69015566187852 0 -216.69015566187852 167.96439440148208 0 0 0 0 -1440.0931884757592 -58.599532457281896 0 -58.599532457281896 -846.64009493931655 0 0 0 0 -1132.415509039809 455.40812088990469 0 455.40812088990469 -364.05886470048267 0 0 0 0 -1210.3920095899375 292.35250505803162 0 292.35250505803162 -6.8230372605859202 0 0 0 0 -750.24226029742567 165.77744083361608 0 165.77744083361608 18.639733429073431 0 0 0 0 -996.57995518476673 13.037272439043079 0 13.037272439043079 80.504864677058634 0 0 0 0 -413.11341619199447 -84.355467079537036 0 -84.355467079537036 12.654553465257806 0 0 0 0 -422.09246593634452 -9.0661883073611111 0 -9.0661883073611111 44.500393175082962 0 0 0 0 -599.35221357924092 94.776235053285319 0 94.776235053285319 0.28701125557344687 0 0 0 0 -515.06882564565421 211.8691578275826 0 211.8691578275826 10.17585994821934 0 0 0 0 -373.03612294881168 100.08318551293056 0 100.08318551293056 -0.10528360805021893 0 0 0 0 -157.16844511662202 154.0517020977116 0 154.0517020977116 -94.844335772359727 0 0 0 0 -224.97548425864079 116.31135332877847 0 116.31135332877847 -79.949995941469183 0 0 0 0 -341.35081467053169 282.67701718896257 0 282.67701718896257 -208.50666024855678 0 0 0 0 -488.06913616640668 210.89316415140317 0 210.89316415140317 9.5972958295768578 0 0 0 0 -829.16895548523462 387.19323589565874 0 387.19323589565874 -59.835422444318965 0 0 0 0 -96.512749440706102 44.849459364448329 0 44.849459364448329 -0.072909800495968555 0 0 0 0 -23.643156920341426 37.112154422974236 0 37.112154422974236 -36.22472404489308 0 0 0 0 -36.039665336575126 29.241389724026234 0 29.241389724026234 -35.585456757219703 0 0 0 0 -163.80381292867241 98.77587960322785 0 98.77587960322785 -21.306772371423477 0 0 0 0 -55.198582058626926 27.683460374307167 0 27.683460374307167 -48.604287801188576 0 0 0 0 -40.220717393196537 120.08850189029877 0 120.08850189029877 -172.65138899708643 0 0 0 0 -48.811292927268369 24.17539167926931 0 24.17539167926931 -59.966336431746264 0 0 0 0 -82.977938554715365 91.717746134443345 0 91.717746134443345 -86.157287746196744 0 0 0 0 -49.825982227834174 38.596651623646103 0 38.596651623646103 -84.794976955553892 0 0 0 0 -10.400501770101073 7.0286356181015925 0 7.0286356181015925 -19.902418789060075 0 0 0 0 -67.985162106735515 44.86919097784552 0 44.86919097784552 -38.344493767914983 0 0 0 0 -17.693131754494971 44.679666294789506 0 44.679666294789506 -58.37443943339251 0 0 0 0 -36.364325634262059 34.959484931380757 0 34.959484931380757 -48.243949047649139 0 0 0 0 -58.239777593087638 45.978420412791017 0 45.978420412791017 -37.751956532751279 0 0 0 0 31.237049135146663 1.3371915523454447 0 1.3371915523454447 -31.763597292681968 0 0 0 0 -46.50604811674566 34.123078117212003 0 34.123078117212003 -32.626904184027438 0 0 0 0 -1.2401632858994702 0.51348698927405678 0 0.51348698927405678 0.15511592695402898 0 0 0 0 -5.5842009810294257 22.37405185163886 0 22.37405185163886 -52.361617696170647 0 0 0 0 -3.2686587283471624 2.7790923432720867 0 2.7790923432720867 -0.04380175247166268 0 0 0 0 -8.1196503657993162 46.239456876770817 0 46.239456876770817 -34.99925248043985 0 0 0 0 -9.7832803867004259 2.6702422878219991 0 2.6702422878219991 -2.1547479236081699 0 0 0 0 -4.6434042279138126 7.0405904380465927 0 7.0405904380465927 -1.7916884445289196 0 0 0 0 -4.5588397403080307 -1.9999579519433439 0 -1.9999579519433439 -1.237190836393097 0 0 0 0 -0.57916785258834125 -0.72283422662381902 0 -0.72283422662381902 -0.23912331178182988 0 0 0 0 -10.827125994212111 -69.119202649484521 0 -69.119202649484521 178.28672282449679 0 0 0 0 -15.625217295645342 -1.8416827088762595 0 -1.8416827088762595 0.79015797225908679 0 0 0 0 79.285353947900148 -9.4463143179906695 0 -9.4463143179906695 -92.875347493805577 0 0 0 0 -132.00971864484018 73.736592717021267 0 73.736592717021267 103.21400201862815 0 0 0 0 -39.663797002845968 5.4928707237256731 0 5.4928707237256731 57.638788843173586 0 0 0 0 178.42569502841798 -34.364489422366319 0 -34.364489422366319 -105.84364829262813 0 0 0 0 -45.547320786165074 64.35389570466441 0 64.35389570466441 43.856678896655581 0 0 0 0 -26.644025825222343 53.150156790547612 0 53.150156790547612 -21.647697317265738 0 0 0 0 -0.27044361985559107 0.6071881718510781 0 0.6071881718510781 -1.4830354893193656 0 0 0 0 -19.972868127835682 7.8571894334718309 0 7.8571894334718309 53.575173047122689 0 0 0 0 13.107437075472262 83.437132121355774 0 83.437132121355774 -18.527877073169293 0 0 0 0 -2.4387422385934752 7.352420874678387 0 7.352420874678387 -2.2203769353124723 0 0 0 0 28.051221459027147 7.2359900705548341 0 7.2359900705548341 -6.0451484084973117 0 0 0 0 24.348949350089242 9.7059365037521275 0 9.7059365037521275 -7.240008964000765 0 0 0 0 1.3554543908121559 10.979511762338989 0 10.979511762338989 -7.7292926909017581 0 0 0 0 -636.20783692786063 625.22042019956234 0 625.22042019956234 -566.87217663306672 0 0 0 0 -1002.1293742554753 619.24250426899312 0 619.24250426899312 -564.68079542570058 0 0 0 0 -246.97031911409431 351.20174671834144 0 351.20174671834144 -379.93776665589661 0 0 0 0 -139.91713410012744 122.65724941576659 0 122.65724941576659 -189.93997324480208 0 0 0 0 -181.26128006655927 105.27285453129815 0 105.27285453129815 -131.52516410636454 0 0 0 0 -207.52158156842052 32.349274745207993 0 32.349274745207993 283.31418904291968 0 0 0 0 -13.439049604535342 -2.4260179502448125 0 -2.4260179502448125 0.023517405847540418 0 0 0 0 -55.606818333650153 77.219611522446996 0 77.219611522446996 -36.263151571532944 0 0 0 0 191.09428631754622 211.61284575936159 0 211.61284575936159 -12.565852488069822 0 0 0 0 -51.269584032095736 69.857573688650518 0 69.857573688650518 -95.424369814993497 0 0 0 0 -82.445583161039394 52.400069121530521 0 52.400069121530521 139.00299799957168 0 0 0 0 -76.732206757806125 84.829300596018129 0 84.829300596018129 93.197855345995549 0 0 0 0 -18.853175950156583 18.172260251636828 0 18.172260251636828 -30.260256469809065 0 0 0 0 -37.981267730472609 39.468943080635199 0 39.468943080635199 -50.339118197024618 0 0 0 0 -65.983368591776525 -22.96889212767303 0 -22.96889212767303 -83.646844658538157 0 0 0 0 -129.52396643230168 -38.79005428994742 0 -38.79005428994742 -56.995808250139589 0 0 0 0 56.830881301357294 -13.988566002413563 0 -13.988566002413563 -140.41415507729607 0 0 0 0 -250.87213348798105 -375.40143519102503 0 -375.40143519102503 -84.448161829781156 0 0 0 0 -212.93609283756814 -130.86226017161107 0 -130.86226017161107 -140.95757780027162 0 0 0 0 -5.9177126242970246 -1.1096798166351078 0 -1.1096798166351078 -0.56358415776365223 0 0 0 0 -201.8747190079157 -187.11517916810612 0 -187.11517916810612 -169.83247273901225 0 0 0 0 -309.42287847182888 -178.07764720347609 0 -178.07764720347609 -119.85521597069919 0 0 0 0 -123.52984459829895 -211.34744144892659 0 -211.34744144892659 -219.79425098845786 0 0 0 0 202.49015694559239 -89.947684357072575 0 -89.947684357072575 -180.06582734824906 0 0 0 0 -910.59829926470411 -389.82611862232125 0 -389.82611862232125 -50.895332864791726 0 0 0 0 -357.69783726331661 -335.62911390090176 0 -335.62911390090176 -143.34075308717274 0 0 0 0 -865.85583145468263 -256.47412968786944 0 -256.47412968786944 -46.943777869687892 0 0 0 0 -737.45908913550738 -176.32650965313255 0 -176.32650965313255 2.4747392921026403 0 0 0 0 -465.96310455810453 -226.72068024853502 0 -226.72068024853502 -66.128981736085734 0 0 0 0 -289.52464085056272 -160.59757858913849 0 -160.59757858913849 -105.67695195661713 0 0 0 0 -457.77674319779726 -189.46762989092338 0 -189.46762989092338 -93.357751425161041 0 0 0 0 -349.16096446429583 -90.574525750602902 0 -90.574525750602902 -22.300765976436196 0 0 0 0 -394.76401070412248 -143.29499067647657 0 -143.29499067647657 -35.675337816030378 0 0 0 0 -491.68816555815283 -144.11328754551187 0 -144.11328754551187 -28.481684862439124 0 0 0 0 -487.38964915997349 -118.20455860421316 0 -118.20455860421316 -24.092690777167263 0 0 0 0 -531.68396323802881 -131.35523992294929 0 -131.35523992294929 -9.3523545301034119 0 0 0 0 -498.91130288963905 -60.05462821267929 0 -60.05462821267929 0.16909229024281558 0 0 0 0 -466.24550141177315 -125.50175701089574 0 -125.50175701089574 1.5431409888597045 0 0 0 0 -477.42459532155772 -90.187921938000045 0 -90.187921938000045 -10.686898484995709 0 0 0 0 -416.10038709819491 -93.014224306242795 0 -93.014224306242795 0.785459869895476 0 0 0 0 -337.91249927518948 -122.44775298682521 0 -122.44775298682521 -29.174077394307915 0 0 0 0 -392.02752969646099 -113.95496387160551 0 -113.95496387160551 -1.7647557870450328 0 0 0 0 -441.47411396502866 -70.912130603205242 0 -70.912130603205242 -19.039853890692484 0 0 0 0 -441.26654777894146 -100.40103906317063 0 -100.40103906317063 8.1337196778117686 0 0 0 0 -211.48741391209478 -60.366139109908318 0 -60.366139109908318 -16.134603933498056 0 0 0 0 -245.42849330788886 -30.50356743907264 0 -30.50356743907264 7.4652783985850419 0 0 0 0 -362.75385307177203 -78.060256818293738 0 -78.060256818293738 15.062712454359826 0 0 0 0 -368.38166992884362 -101.76866497640549 0 -101.76866497640549 5.1941353236097711 0 0 0 0 -293.11307671359828 -94.105557590988838 0 -94.105557590988838 -17.387976526679267 0 0 0 0 -312.22674388668383 -69.813583076858777 0 -69.813583076858777 6.0464601844775103 0 0 0 0 -314.95294703096442 -80.172997645950431 0 -80.172997645950431 -2.6349894366248918 0 0 0 0 -212.06321113617742 -67.325352443034262 0 -67.325352443034262 -43.736976820023301 0 0 0 0 -128.7283620780363 -19.781390324631275 0 -19.781390324631275 -32.863358908947703 0 0 0 0 -172.72055352812458 -19.268061187237663 0 -19.268061187237663 -27.059810341149046 0 0 0 0 -207.12816367978667 -76.66844779161579 0 -76.66844779161579 -37.304193884002871 0 0 0 0 -191.72257692045241 -89.61319088339701 0 -89.61319088339701 -85.065096201344772 0 0 0 0 -304.05861144247319 -126.57983160434105 0 -126.57983160434105 -52.009581366566636 0 0 0 0 -103.68049421338219 -65.521296407971477 0 -65.521296407971477 -139.05284151150659 0 0 0 0 -290.08601770612938 -116.63868189935101 0 -116.63868189935101 -81.900587789712972 0 0 0 0 -89.511919406839297 8.5348956144714521 0 8.5348956144714521 -47.871768669139925 0 0 0 0 -82.420046353621728 -24.840289940658465 0 -24.840289940658465 -89.638057114934327 0 0 0 0 -53.518160262774472 38.178239788553697 0 38.178239788553697 -16.195059809793747 0 0 0 0 -57.15172219825763 35.934294459076682 0 35.934294459076682 25.617485291895719 0 0 0 0 -46.886986184674242 -17.268968924775521 0 -17.268968924775521 32.57828988746769 0 0 0 0 -45.993382150976686 -13.882961780386495 0 -13.882961780386495 -61.882222566513292 0 0 0 0 -0.83578179751390635 7.8023107855535159 0 7.8023107855535159 -3.8298670953642024 0 0 0 0 12.519082865172095 7.5418614350604116 0 7.5418614350604116 1.8107155835395758 0 0 0 0 15.701004311282304 8.3330914813230663 0 8.3330914813230663 -3.769659351128098 0 0 0 0 58.684679245463485 16.441124381428097 0 16.441124381428097 -45.560666850738016 0 0 0 0 0.78416458219577834 1.1655927491356834 0 1.1655927491356834 -3.9804147477677887 0 0 0 0 0.7943969690821433 5.835053464226597 0 5.835053464226597 -1.342737096169389 0 0 0 0 -9.1075898130657151 1.4759375483085933 0 1.4759375483085933 -8.7659173316997112 0 0 0 0 -2.3545048361284611 4.7519869478917229 0 4.7519869478917229 -1.65310315617138 0 0 0 0 1.8967147037765244 7.6674725779845403 0 7.6674725779845403 -10.749524123490573 0 0 0 0 -32.322913740186777 8.7000320763136187 0 8.7000320763136187 -36.024274388839331 0 0 0 0 -111.47372160227678 -47.43929208498048 0 -47.43929208498048 -22.371812626613291 0 0 0 0 4.7827322203229414 -47.172196409748949 0 -47.172196409748949 -27.50081140380712 0 0 0 0 -31.155623941074396 8.8563583279080049 0 8.8563583279080049 34.842527930359211 0 0 0 0 -31.378244862316933 0.021457493931848148 0 0.021457493931848148 -32.869677993131063 0 0 0 0 -107.52868710862822 -7.0301266787657823 0 -7.0301266787657823 -17.953961211553633 0 0 0 0 -101.70578373307944 -25.396177484966756 0 -25.396177484966756 -14.689454110037786 0 0 0 0 -97.397356061348546 15.697051277772516 0 15.697051277772516 -9.2664064367554602 0 0 0 0 -86.635824459648575 -18.689914095475444 0 -18.689914095475444 17.201272680907095 0 0 0 0 -230.03491239182767 12.18588899069573 0 12.18588899069573 22.573945964517861 0 0 0 0 -8.8773440034601663 -49.235173804956901 0 -49.235173804956901 19.784242340514993 0 0 0 0 0.90221696284226027 1.1315112500811324 0 1.1315112500811324 -1.5409401686755517 0 0 0 0 -7.1092531324975425 21.887341212412139 0 21.887341212412139 98.719393297415081 0 0 0 0 15.110855157938204 -10.06941314682399 0 -10.06941314682399 -21.356640377655367 0 0 0 0 36.395322446143837 15.025796237634495 0 15.025796237634495 -28.491345976340199 0 0 0 0 0.073809667011076385 -0.12760127319641157 0 -0.12760127319641157 -0.075862044458221867 0 0 0 0 -297.54710501566296 12.835262180024074 0 12.835262180024074 85.86096945763893 0 0 0 0 -205.51502696532407 94.23900805881749 0 94.23900805881749 80.613467687007869 0 0 0 0 -107.73938564535638 34.12850959749403 0 34.12850959749403 14.712789739560321 0 0 0 0 -7.1881437826827295 113.30648576101784 0 113.30648576101784 9.6673269127786625 0 0 0 0 -4.4567933339058072 6.2985733441512366 0 6.2985733441512366 2.0559286013726705 0 0 0 0 1.4706853944080649 5.2965525886660316 0 5.2965525886660316 -0.61640208343442282 0 0 0 0 0.3282761379230017 3.1800745407899882 0 3.1800745407899882 -1.2740746923047288 0 0 0 0 0.61266911470011109 3.2850456469702749 0 3.2850456469702749 -0.44228045591012233 0 0 0 0 -10.614039703417802 9.7526001367034496 0 9.7526001367034496 1.3585704378406263 0 0 0 0 -7.2542397689758218 -0.36017382740135417 0 -0.36017382740135417 0.27969282301637577 0 0 0 0 0.85043039197823589 0.64283009154566528 0 0.64283009154566528 -0.87333372188059788 0 0 0 0 -9.5236419418652076 0.44316607747214221 0 0.44316607747214221 2.2900022994955407 0 0 0 0 1.6414270294844755 3.2766242857157977 0 3.2766242857157977 -0.47844169442203111 0 0 0 0 -2.0220222569677802 2.9723989976376544 0 2.9723989976376544 0.21905372663872491 0 0 0 0 -1.7427824881648917 1.7190511260116992 0 1.7190511260116992 0.030697050713167862 0 0 0 0 -2.8540262716705911 8.7498255286983522 0 8.7498255286983522 0.54958412566566039 0 0 0 0 6.7778536433143017 -28.644730088576239 0 -28.644730088576239 -9.4697122921725168 0 0 0 0 -15.001090558107535 13.415896716952602 0 13.415896716952602 -34.004060741159947 0 0 0 0 -296.14122212883376 70.861999322648899 0 70.861999322648899 -25.311943661530506 0 0 0 0 -0.74389131438651646 -0.15371230018243409 0 -0.15371230018243409 -0.21584182172587774 0 0 0 0 -200.89821256815412 203.47702190171481 0 203.47702190171481 114.06674366350671 0 0 0 0 -586.94460262937355 12.384219007968113 0 12.384219007968113 32.055530435396577 0 0 0 0 -373.17071782753919 -45.756931229742122 0 -45.756931229742122 -7.9144228977456805 0 0 0 0 -379.00515258288215 -29.868317489310243 0 -29.868317489310243 -32.927034428483239 0 0 0 0 -422.73435444731149 0.053358617805770336 0 0.053358617805770336 -4.1115978710913623 0 0 0 0 -410.89093004964525 -25.806880887574152 0 -25.806880887574152 41.373599635259779 0 0 0 0 -443.08346275675285 -157.84866528712473 0 -157.84866528712473 -59.448977580299697 0 0 0 0 -523.61698496673489 -100.70873276048997 0 -100.70873276048997 34.292456787063202 0 0 0 0 -488.21947375264426 -160.06365372314212 0 -160.06365372314212 -54.684376012027769 0 0 0 0 -560.21528564183245 -49.368830892992946 0 -49.368830892992946 -351.54461338451779 0 0 0 0 -683.27372940145688 -337.11864061673691 0 -337.11864061673691 -196.18775382482272 0 0 0 0 -192.50189772930389 -124.60312384784146 0 -124.60312384784146 -235.58046336385678 0 0 0 0 -325.88665724664315 -189.18847566416275 0 -189.18847566416275 -265.96753400374837 0 0 0 0 -493.80149953639921 -190.30475494437474 0 -190.30475494437474 -191.17190792796623 0 0 0 0 -328.93858195713256 -134.09471938413799 0 -134.09471938413799 -134.19327176276556 0 0 0 0 -370.30478255716298 -147.69309562404578 0 -147.69309562404578 -138.36608833427749 0 0 0 0 -483.50400435340998 -239.73107328592732 0 -239.73107328592732 -118.97288359152662 0 0 0 0 -397.90795363936923 -165.87114144645375 0 -165.87114144645375 -94.961965124505468 0 0 0 0 -472.72607037101261 -148.17984546259481 0 -148.17984546259481 -5.2761225064323298 0 0 0 0 -414.16399481990084 -143.67295058730315 0 -143.67295058730315 -36.876587679362729 0 0 0 0 -410.40902253949207 -119.08657873956861 0 -119.08657873956861 7.8429781638724307 0 0 0 0 -389.30165008924814 -144.36203530562716 0 -144.36203530562716 -42.204951599490414 0 0 0 0 -420.25317526113213 -107.42410097053892 0 -107.42410097053892 -10.954496687681967 0 0 0 0 -411.68725554250705 -88.976296176661663 0 -88.976296176661663 -13.788869480779795 0 0 0 0 -382.52744845747657 -111.65236467310842 0 -111.65236467310842 -0.64378921162415281 0 0 0 0 -406.72159055514203 -119.46505128813033 0 -119.46505128813033 -0.71431108160345502 0 0 0 0 -399.66608927733614 -98.379439984172905 0 -98.379439984172905 16.423049945704406 0 0 0 0 -389.63982993036188 -91.572084105091903 0 -91.572084105091903 23.503513008919072 0 0 0 0 -332.15231579527608 -65.652652454394683 0 -65.652652454394683 23.198999411234581 0 0 0 0 -318.42254588329524 -63.263785118379019 0 -63.263785118379019 17.41456987559377 0 0 0 0 -224.49461143559893 -18.958215165345564 0 -18.958215165345564 14.888849786887477 0 0 0 0 -217.4000485886645 -29.36984209322145 0 -29.36984209322145 2.8567150834203403 0 0 0 0 -227.73105738237791 -0.66848846986840726 0 -0.66848846986840726 26.355062624162201 0 0 0 0 -343.43388224329101 -47.827986917811813 0 -47.827986917811813 27.84901513746604 0 0 0 0 -395.18121432779299 -29.86958721473593 0 -29.86958721473593 54.543084919021794 0 0 0 0 -288.47689515507591 2.5528370638096476 0 2.5528370638096476 21.420779935122482 0 0 0 0 -369.39197901888838 -63.098510510174947 0 -63.098510510174947 17.750200530987968 0 0 0 0 -401.34620758770325 -133.54835852452743 0 -133.54835852452743 -13.553261316559656 0 0 0 0 -440.8952024992177 -91.364347502440978 0 -91.364347502440978 39.329885294771429 0 0 0 0 -19.544461909845268 7.3679504584741977 0 7.3679504584741977 3.7192593294689686 0 0 0 0 39.074707121846586 24.691320636128722 0 24.691320636128722 5.8222363721118882 0 0 0 0 -2.6580701844354699 1.3403701101819507 0 1.3403701101819507 1.3927825167074235 0 0 0 0 -133.41287116317108 115.57401408863348 0 115.57401408863348 24.632077481654733 0 0 0 0 -23.595747971505261 -19.916252666432953 0 -19.916252666432953 -5.6554877857427073 0 0 0 0 -1.4782180120674866 0.29134326638529373 0 0.29134326638529373 -0.0017939557669467421 0 0 0 0 -23.4540960583181 26.630423659798566 0 26.630423659798566 16.703234302445367 0 0 0 0 -9.8127897418526118 1.2781324462449675 0 1.2781324462449675 12.521935704359976 0 0 0 0 -11.259414762650522 4.5271038551702851 0 4.5271038551702851 -0.91701012199740717 0 0 0 0 -3.2081280077469927 1.4148386068349339 0 1.4148386068349339 1.2379900835649416 0 0 0 0 -16.886470881671357 5.5250197802448895 0 5.5250197802448895 9.6767309052349901 0 0 0 0 -8.4784670386798098 8.1401957315357549 0 8.1401957315357549 2.033881872585539 0 0 0 0 -9.7299816245288184 4.4188646403380289 0 4.4188646403380289 -1.1801808708074297 0 0 0 0 -7.7540137793112081 7.0836559880928007 0 7.0836559880928007 2.7374941462733204 0 0 0 0 -3.2661972812202293 8.709603388678488 0 8.709603388678488 0.54160580323082286 0 0 0 0 -12.962304762295389 7.7474624249359749 0 7.7474624249359749 3.3609188832463133 0 0 0 0 -9.7422740326146595 5.2626612693075003 0 5.2626612693075003 3.6801271989654651 0 0 0 0 -6.9602609281937475 2.9029208680308329 0 2.9029208680308329 -1.3132629095175616 0 0 0 0 -13.406578146306856 2.2823478452851305 0 2.2823478452851305 1.2572967648652593 0 0 0 0 -9.6920194193153293 4.6940108500765518 0 4.6940108500765518 3.9416741433613538 0 0 0 0 -1.3093307113620636 0.85901527329761507 0 0.85901527329761507 0.25240696711448596 0 0 0 0 -7.2855271347068538 3.6346733798145472 0 3.6346733798145472 -1.4401677595413283 0 0 0 0 -6.8858602964537567 10.967291460818302 0 10.967291460818302 2.860008079625544 0 0 0 0 -10.116155452463317 4.0253925689249428 0 4.0253925689249428 3.3448928708060066 0 0 0 0 -17.866570973077614 4.7501974256459789 0 4.7501974256459789 7.6621084342604604 0 0 0 0 -4.750016318183043 6.4079221964735211 0 6.4079221964735211 -1.0935290387333794 0 0 0 0 -8.2298510682812775 4.6654249512875765 0 4.6654249512875765 -4.6168832259364905 0 0 0 0 -14.92227575720608 12.051118319858602 0 12.051118319858602 -6.3718868751838045 0 0 0 0 -15.156890065165271 3.3344716341326297 0 3.3344716341326297 -3.5081195232222626 0 0 0 0 -15.498647555715706 9.9077637334883963 0 9.9077637334883963 -1.2801308882421836 0 0 0 0 -26.757572522459668 0.21527581945932184 0 0.21527581945932184 -1.1004619068582997 0 0 0 0 -3.5119273864589076 1.6091975918656587 0 1.6091975918656587 2.4679495597286536 0 0 0 0 -7.5540344736291445 7.0263779065566041 0 7.0263779065566041 -1.6378049506868138 0 0 0 0 -2.4414856092389527 6.7615492245741891 0 6.7615492245741891 -1.7213588146442476 0 0 0 0 -11.005024756846979 10.417646399822331 0 10.417646399822331 -1.0786216901600483 0 0 0 0 -11.210222569087819 10.07382041442844 0 10.07382041442844 -1.4299867987950847 0 0 0 0 -25.713642633643758 13.302329151233721 0 13.302329151233721 -4.2904783100552777 0 0 0 0 -7.1893493355528335 11.664122538880179 0 11.664122538880179 -5.6690137490502934 0 0 0 0 0.34252113106864712 -0.023366632869411319 0 -0.023366632869411319 0.15137547733742363 0 0 0 0 97.365177064758427 -18.073952466783005 0 -18.073952466783005 -32.857378644887376 0 0 0 0 -36.631847069009382 8.5723926315466485 0 8.5723926315466485 1.597087725544668 0 0 0 0 -1.8405710014922079 -16.084814733385542 0 -16.084814733385542 17.436312320416505 0 0 0 0 -130.76153973612236 -91.279846803182835 0 -91.279846803182835 38.797302963428933 0 0 0 0 -16.380343990807887 54.903161577334544 0 54.903161577334544 -30.472005179862464 0 0 0 0 9.0328731325644185 51.008065201112515 0 51.008065201112515 -38.509996438729502 0 0 0 0 -11.921193977908842 65.941850424394403 0 65.941850424394403 -44.203516345059484 0 0 0 0 24.258106906101602 -13.497958023075071 0 -13.497958023075071 -68.214752199628265 0 0 0 0 -3.8471265958069125 -14.151165160606766 0 -14.151165160606766 20.600862803387258 0 0 0 0 11.209622517133539 20.0668186166358 0 20.0668186166358 21.344517646897256 0 0 0 0 -4.0807455373394248 1.2985087821231289 0 1.2985087821231289 0.10381181322915134 0 0 0 0 -0.33230616738001117 21.1169257150178 0 21.1169257150178 29.409508342368753 0 0 0 0 -1.3758162303201971 -12.78151440588374 0 -12.78151440588374 21.261150068388019 0 0 0 0 3.3581580364043475 -13.418641382230476 0 -13.418641382230476 18.65126227049268 0 0 0 0 -0.68326299707932492 0.59604402805533852 0 0.59604402805533852 0.38899458746713955 0 0 0 0 16.354577916841663 53.739377809368037 0 53.739377809368037 -109.80259859079004 0 0 0 0 -10.625997465205728 -19.273500887023047 0 -19.273500887023047 73.503766618278092 0 0 0 0 -2.0335658621115726 18.516101576619601 0 18.516101576619601 -5.4766851178025036 0 0 0 0 -27.472897497471422 11.673343289401515 0 11.673343289401515 -6.1270654166592919 0 0 0 0 -8.3541609193198383 70.686154788877062 0 70.686154788877062 -12.102404962083796 0 0 0 0 10.096095892615267 -20.18526490963454 0 -20.18526490963454 -31.743276393042919 0 0 0 0 -16.627938890720543 10.842079284653224 0 10.842079284653224 30.436134401922828 0 0 0 0 -14.854710514293402 11.563209954495619 0 11.563209954495619 -0.91138720683200347 0 0 0 0 -6.0609030328851077 7.1641739036452634 0 7.1641739036452634 -1.3104730242722264 0 0 0 0 -8.5217978017190035 13.865716734841678 0 13.865716734841678 -7.1799432267041681 0 0 0 0 -10.361077016365016 9.712822397649191 0 9.712822397649191 -7.3461168924003868 0 0 0 0 -0.098909171707816768 -0.085191701340116666 0 -0.085191701340116666 0.30517942060141162 0 0 0 0 -15.003986248833826 -2.2987812849947602 0 -2.2987812849947602 2.0548755920416255 0 0 0 0 -2.6711919487938758 0.14589788604153142 0 0.14589788604153142 2.0793779509391146 0 0 0 0 -21.890231003650115 24.508565571824271 0 24.508565571824271 14.579152409364003 0 0 0 0 -0.38897373441179184 0.60038351973625836 0 0.60038351973625836 0.28649386334801963 0 0 0 0 -1.2464996860653628 3.1394454568974197 0 3.1394454568974197 -1.8944986783637319 0 0 0 0 -11.530286701199657 24.701041043643556 0 24.701041043643556 -39.403475665787482 0 0 0 0 -1.1517548542039435 -0.10031292604777065 0 -0.10031292604777065 0.20850233445556843 0 0 0 0 -26.746516781942091 31.660717579151733 0 31.660717579151733 -11.50703192026009 0 0 0 0 -19.578657755777385 15.419267236190825 0 15.419267236190825 -9.7421965581503969 0 0 0 0 -22.418670229919371 11.02050651726735 0 11.02050651726735 -0.43371100952739994 0 0 0 0 -3.0215332439327085 2.6683981656239144 0 2.6683981656239144 0.12735253027406404 0 0 0 0 0.3193400728632696 4.0231797002464873 0 4.0231797002464873 -1.1531111564766547 0 0 0 0 -15.378984706330812 9.0904721907296562 0 9.0904721907296562 12.805930728676941 0 0 0 0 -9.544578397708392 9.2499158186555164 0 9.2499158186555164 -5.9323475318420265 0 0 0 0 -9.3796113669086481 8.6051687352338604 0 8.6051687352338604 -14.785297601359161 0 0 0 0 -0.73493932103522752 0.98096231389190436 0 0.98096231389190436 0.20221161573846624 0 0 0 0 -10.191379039752064 22.131941867532177 0 22.131941867532177 5.3387973590041753 0 0 0 0 -2.932646969522466 11.716409659565358 0 11.716409659565358 -10.904727350493232 0 0 0 0 -2.2675527779210825 8.6187946875545833 0 8.6187946875545833 -0.51822636402476974 0 0 0 0 -5.4583691667503444 24.887440306983223 0 24.887440306983223 -14.658902541676616 0 0 0 0 -22.271449646716064 18.366115673105522 0 18.366115673105522 -12.342748691668792 0 0 0 0 -5.189836778678 11.333255600528972 0 11.333255600528972 -13.052399411290423 0 0 0 0 -2.2239042459094662 1.268661654045907 0 1.268661654045907 -0.57162431435970795 0 0 0 0 20.453065946654533 1.8127550921600601 0 1.8127550921600601 -4.9179067460754311 0 0 0 0 -27.084937279927544 -2.7199387913491293 0 -2.7199387913491293 -5.1284069230236327 0 0 0 0 -0.17766136759249207 -0.25332879889288762 0 -0.25332879889288762 -0.12569360071985169 0 0 0 0 -23.205441842888831 49.130568425509907 0 49.130568425509907 -28.693659093634569 0 0 0 0 -46.155356999894138 25.672504773517083 0 25.672504773517083 23.178710579194181 0 0 0 0 -21.401982978757587 -14.467033142584707 0 -14.467033142584707 27.419150096629288 0 0 0 0 1.3574041240353836 -2.9674625524917637 0 -2.9674625524917637 -21.467270502759622 0 0 0 0 -28.719176803642767 8.5835004622757847 0 8.5835004622757847 -0.013862110756367996 0 0 0 0 -12.932136954121233 8.7241861962678922 0 8.7241861962678922 -3.6945366214712401 0 0 0 0 -27.718042714230251 33.89116926946771 0 33.89116926946771 -27.738626644545409 0 0 0 0 -0.30389451175778959 0.33289904432494666 0 0.33289904432494666 0.27612467717472183 0 0 0 0 -8.5326452361778138 33.258330601047653 0 33.258330601047653 -56.356200191650686 0 0 0 0 -0.91487994680937845 -24.505006864140423 0 -24.505006864140423 21.609726505958257 0 0 0 0 -21.037718357241829 41.366866655300953 0 41.366866655300953 -39.405887007240835 0 0 0 0 -4.5122171290859114 -10.57512391080752 0 -10.57512391080752 -19.1331475870291 0 0 0 0 -0.42556281156655018 0.21089354917487313 0 0.21089354917487313 0.039266576880316123 0 0 0 0 35.314880907426414 0.300366284556982 0 0.300366284556982 -3.4349256905586891 0 0 0 0 -33.763548160066421 -20.101190214207442 0 -20.101190214207442 -6.6242629050721442 0 0 0 0 -18.789162905566627 22.506216094898452 0 22.506216094898452 -19.868634681238447 0 0 0 0 8.6234095951367635 4.0022715489414074 0 4.0022715489414074 4.2732314900982971 0 0 0 0 3.3954361208088812 -0.86331197222887235 0 -0.86331197222887235 0.0037482227760611232 0 0 0 0 -0.051822470601678106 0.13453683958232077 0 0.13453683958232077 0.051663822116948685 0 0 0 0 7.6109773816424422 5.1234476124012467 0 5.1234476124012467 31.081585167358913 0 0 0 0 6.8741141459613573 32.378664979357794 0 32.378664979357794 -76.20773609430583 0 0 0 0 -3.7248994520905399 0.67349816553768704 0 0.67349816553768704 -43.700179059066159 0 0 0 0 -7.9043109572303365 26.524606017594564 0 26.524606017594564 -0.96009001171907471 0 0 0 0 -10.287816692747583 34.781328454398036 0 34.781328454398036 -29.434345140532919 0 0 0 0 -0.77497010914521525 3.1736324522061636 0 3.1736324522061636 -25.708318726281981 0 0 0 0 6.9189669463667087 32.875481826677607 0 32.875481826677607 0.023383040035862529 0 0 0 0 -7.6235037531005219 25.665452539275574 0 25.665452539275574 -0.74498925620866174 0 0 0 0 -8.2891639854278765 32.315832770530875 0 32.315832770530875 5.8416146216785663 0 0 0 0 -8.4157300373772159 36.769823591596321 0 36.769823591596321 0.019327924661665476 0 0 0 0 -23.890160128503339 25.813089086400083 0 25.813089086400083 3.8976719844287793 0 0 0 0 11.52971558860736 47.203447906245984 0 47.203447906245984 5.368924642331983 0 0 0 0 -17.205348463437986 40.518850131163539 0 40.518850131163539 15.323345870472792 0 0 0 0 -53.069521847857686 31.972103039700308 0 31.972103039700308 13.291917978717727 0 0 0 0 -77.145915148117638 6.454800336121636 0 6.454800336121636 22.292895226684308 0 0 0 0 -8.3379202744581562 25.373737110634163 0 25.373737110634163 -3.7505439777564078 0 0 0 0 -18.558112571055972 13.77525926871072 0 13.77525926871072 7.8263796150275766 0 0 0 0 -16.232981092623959 16.439452852125797 0 16.439452852125797 -8.8625677722462299 0 0 0 0 -24.964468173405635 7.5175156361852915 0 7.5175156361852915 17.439591852481414 0 0 0 0 -25.088329674741544 3.3192000119486806 0 3.3192000119486806 20.736976959888636 0 0 0 0 -45.920739917081619 5.5739548839969739 0 5.5739548839969739 14.506698605233652 0 0 0 0 -45.097222645446891 17.054444490116623 0 17.054444490116623 11.734438111698168 0 0 0 0 -63.763467880431563 22.243811779409711 0 22.243811779409711 35.043691660273836 0 0 0 0 -56.692677197497687 49.021602741701727 0 49.021602741701727 -19.887557384462013 0 0 0 0 -39.365255101613002 -1.4192503491848214 0 -1.4192503491848214 55.413661449041044 0 0 0 0 6.9062437388929538 -5.0253158532382116 0 -5.0253158532382116 22.103500375606529 0 0 0 0 10.472392980627774 22.037826525540112 0 22.037826525540112 26.660555397487535 0 0 0 0 -3.1174984846338134 1.2445300937155981 0 1.2445300937155981 -0.32513778605498056 0 0 0 0 -12.865625566089875 19.474005632496898 0 19.474005632496898 58.341693522294598 0 0 0 0 -6.6995716328456183 1.3213524681288789 0 1.3213524681288789 35.661377121329068 0 0 0 0 -7.1090111531448201 16.725468330160425 0 16.725468330160425 20.773191579086031 0 0 0 0 -5.8517152581007394 -4.6316604475541006 0 -4.6316604475541006 -5.0489928417931367 0 0 0 0 -5.3946916036729817 18.154647223961696 0 18.154647223961696 -21.480427995627309 0 0 0 0 -3.6439678431197535 4.806330091398074 0 4.806330091398074 1.3657264054977389 0 0 0 0 -4.8846984109550249 13.290699316273546 0 13.290699316273546 -1.8084611185859103 0 0 0 0 -5.6604807377507314 0.06569616987517124 0 0.06569616987517124 14.299351082686854 0 0 0 0 -130.37849999732862 -13.209153053749962 0 -13.209153053749962 -11.195817083117603 0 0 0 0 -68.450375816979431 64.884685303181826 0 64.884685303181826 0.064154346166392234 0 0 0 0 2.856993519642856 22.986258586978245 0 22.986258586978245 5.6551952222827104 0 0 0 0 56.659448113161488 61.666961561666824 0 61.666961561666824 0.44421844379951736 0 0 0 0 11.853818816877492 54.169625835082172 0 54.169625835082172 38.834828972803294 0 0 0 0 36.981261017914221 61.056632698338156 0 61.056632698338156 -0.024829205761413901 0 0 0 0 -0.23520399038260109 0.16682968027052425 0 0.16682968027052425 0.28506648914015054 0 0 0 0 69.854402553730324 85.921752838212512 0 85.921752838212512 19.199473310527935 0 0 0 0 -14.807119806129776 10.542643498390106 0 10.542643498390106 14.439667845742676 0 0 0 0 6.2922555257027852 30.260089785478435 0 30.260089785478435 -16.053286474126452 0 0 0 0 0.093896416251922687 0.6481225879063004 0 0.6481225879063004 0.87170850507508257 0 0 0 0 0.62476659752071839 0.68546510606508093 0 0.68546510606508093 0.86952010013983028 0 0 0 0 1.7770975727580662 6.5129760743199085 0 6.5129760743199085 56.808357880817965 0 0 0 0 48.593277207095525 6.1231634895288778 0 6.1231634895288778 -0.33348301237140276 0 0 0 0 38.710650186209023 61.124152680679771 0 61.124152680679771 48.344406312033811 0 0 0 0 -78.959823119905195 -5.1720919010683701 0 -5.1720919010683701 80.372925656647624 0 0 0 0 -91.65577357053553 64.862027948941801 0 64.862027948941801 108.61865479276292 0 0 0 0 14.627290734933922 75.528769269970667 0 75.528769269970667 40.5110977067975 0 0 0 0 -109.73293068714338 54.298007580734094 0 54.298007580734094 57.748951010079168 0 0 0 0 -98.918432494860099 21.075988511796361 0 21.075988511796361 54.420788814214234 0 0 0 0 -84.614164873646587 11.904739118878233 0 11.904739118878233 32.966564928172659 0 0 0 0 -109.20957760302917 -4.0694138677393994 0 -4.0694138677393994 23.66407675605501 0 0 0 0 -65.401857157750783 0.42824118046161175 0 0.42824118046161175 13.084312144193518 0 0 0 0 -62.565338526052074 -5.6921995551217606 0 -5.6921995551217606 3.7182522053826688 0 0 0 0 -58.351867050445435 30.072245560014949 0 30.072245560014949 22.023907092158652 0 0 0 0 -65.125776994853368 21.36174352215636 0 21.36174352215636 22.427978050121283 0 0 0 0 -18.267655409729741 2.5479577630893004 0 2.5479577630893004 6.6130865393115528 0 0 0 0 -16.305433584202547 10.006210375140313 0 10.006210375140313 0.6775070869080082 0 0 0 0 -36.425130645773606 14.615200668453099 0 14.615200668453099 3.4962953961723997 0 0 0 0 -17.294241603303817 2.2620462181537278 0 2.2620462181537278 -7.5363172917359407 0 0 0 0 -8.2155348106243764 13.025976246175105 0 13.025976246175105 0.44283482483206171 0 0 0 0 6.5242971016268712 10.117885238986901 0 10.117885238986901 10.060944432119186 0 0 0 0 1.8684260529771564 4.4240221347889701 0 4.4240221347889701 5.3619342728727588 0 0 0 0 4.4666640128780273 5.4772116078166846 0 5.4772116078166846 -0.30730068235016006 0 0 0 0 -0.23906537247744097 0.29883482039289788 0 0.29883482039289788 0.16572838202746265 0 0 0 0 4.8934742099081632 9.1216195988596951 0 9.1216195988596951 -0.49230444224235725 0 0 0 0 -0.047355410249849683 1.0266034785057343 0 1.0266034785057343 0.55537440981962716 0 0 0 0 -2.4836382235298515 -0.84850082869172638 0 -0.84850082869172638 14.068094098254832 0 0 0 0 8.4458946284430567 -24.201211124230568 0 -24.201211124230568 -3.1177381634978971 0 0 0 0 0.58172294491316734 2.897800413562436 0 2.897800413562436 3.8598296818392406 0 0 0 0 -5.2542403991540567 0.93284098933357029 0 0.93284098933357029 9.181871541786558 0 0 0 0 0.61924634005117696 14.55341220992841 0 14.55341220992841 21.182714094533367 0 0 0 0 -27.61360771577165 4.9784198802144601 0 4.9784198802144601 25.787119705278201 0 0 0 0 -10.332024954754161 -9.9782828268494086 0 -9.9782828268494086 8.7079201383085092 0 0 0 0 9.0197212107013911 0.35008717786502075 0 0.35008717786502075 9.6674037848160879 0 0 0 0 -7.3078061226260616 7.860046995722314 0 7.860046995722314 26.713751504404584 0 0 0 0 -14.838402735178533 -9.9885117007024746 0 -9.9885117007024746 27.180502528045508 0 0 0 0 -2.5438083761400776 -6.6391241831806838 0 -6.6391241831806838 5.9548158829265958 0 0 0 0 -1.5600057554057258 -0.15819160942625388 0 -0.15819160942625388 3.341177644406323 0 0 0 0 -1.2234026562920803 0.55534419659129952 0 0.55534419659129952 2.6099807399806929 0 0 0 0 -0.29369471371188638 0.18281768694675193 0 0.18281768694675193 0.018506245584739567 0 0 0 0 20.324932351613825 5.1603276925220598 0 5.1603276925220598 -6.4147408807757529 0 0 0 0 -17.073409061180428 -57.663710774923857 0 -57.663710774923857 -21.169902376110713 0 0 0 0 -22.803346422420873 4.5260946329010494 0 4.5260946329010494 -0.0028564189760800218 0 0 0 0 0.063972581583456645 0.074119265514916322 0 0.074119265514916322 -0.057071880918299733 0 0 0 0 -41.066584357991815 -61.71103238469459 0 -61.71103238469459 -18.099848011448557 0 0 0 0 -82.243705747154308 18.548964872582474 0 18.548964872582474 84.791725916627001 0 0 0 0 -102.31719471966062 2.1355021488661805 0 2.1355021488661805 14.688934719100871 0 0 0 0 -39.199057761466975 10.095043852637787 0 10.095043852637787 12.37882427232762 0 0 0 0 52.229205427269335 -15.568952810504925 0 -15.568952810504925 14.024795916920993 0 0 0 0 -29.736205806817452 19.98456154684618 0 19.98456154684618 52.548816234703736 0 0 0 0 -8.8937552814442711 4.2676148081386955 0 4.2676148081386955 0.077943881543409255 0 0 0 0 8.7895738096704008 21.05447249845156 0 21.05447249845156 8.4111132617699695 0 0 0 0 -50.222094135679072 -20.31320118537451 0 -20.31320118537451 57.407873961140467 0 0 0 0 14.029176242998801 24.089674340731108 0 24.089674340731108 -10.710429175352601 0 0 0 0 -21.93003777715785 10.615173213201615 0 10.615173213201615 -2.1822458204312625 0 0 0 0 -25.274734283342696 -4.7705722665315022 0 -4.7705722665315022 -10.236081029242541 0 0 0 0 -3.600884774725273 -8.9679756092233447 0 -8.9679756092233447 15.448359807450743 0 0 0 0 -6.66243443587868 2.9777128801497064 0 2.9777128801497064 -1.3976060377464581 0 0 0 0 -29.067608944504173 36.545097902736416 0 36.545097902736416 58.740032110991706 0 0 0 0 -30.443502243280818 20.955585524328399 0 20.955585524328399 30.552929101097675 0 0 0 0 -2.2485654749561945 71.262368443567311 0 71.262368443567311 47.347011028773977 0 0 0 0 2.4354056905795005 26.03990151732296 0 26.03990151732296 -5.9160235379490587 0 0 0 0 -19.732448106982019 -30.713826929072063 0 -30.713826929072063 -29.661456631882174 0 0 0 0 -22.339245443363325 23.834991281814496 0 23.834991281814496 7.9331559525408011 0 0 0 0 -0.64037084778112785 0.48217213511170343 0 0.48217213511170343 -0.37921250492888375 0 0 0 0 -29.203646401081642 63.446247184496812 0 63.446247184496812 -29.807416597378904 0 0 0 0 -30.932087478748144 -20.287342464706853 0 -20.287342464706853 -9.4842015872259253 0 0 0 0 -83.495562399213668 57.223176475654128 0 57.223176475654128 18.117504423526839 0 0 0 0 26.673347265575558 -1.5849963559819709 0 -1.5849963559819709 -32.271432614462583 0 0 0 0 25.720839242909278 16.02735790593573 0 16.02735790593573 -65.819923253122113 0 0 0 0 -1.1628876137228872 0.55053798134201948 0 0.55053798134201948 -0.18997276122470785 0 0 0 0 -62.404700386549621 68.933722237956317 0 68.933722237956317 -7.3754469629989785 0 0 0 0 24.408097039726272 45.348981777413627 0 45.348981777413627 -135.06340750960092 0 0 0 0 -55.777047230789321 -45.402021793783348 0 -45.402021793783348 -6.72064634231333 0 0 0 0 -1.5597156032376915 6.4487520352730154 0 6.4487520352730154 -82.689268533941117 0 0 0 0 -11.479357910604449 -17.260801576916723 0 -17.260801576916723 4.9957371106759894 0 0 0 0 -0.34811595981858545 0.015808386888281234 0 0.015808386888281234 2.1835485530584973 0 0 0 0 -10.31109198131162 10.717249208212898 0 10.717249208212898 54.209879316024313 0 0 0 0 -25.417238210407959 -10.752441185291815 0 -10.752441185291815 37.851365154827938 0 0 0 0 -19.008504360535881 61.980591270454667 0 61.980591270454667 20.668802671588963 0 0 0 0 8.1177014810746186 9.5153077126754582 0 9.5153077126754582 34.995860437200129 0 0 0 0 -1.7893959451268984 1.3308947465053436 0 1.3308947465053436 -1.063853771034883 0 0 0 0 -2.2140333154584368 -9.651253481065126 0 -9.651253481065126 -6.8123554969704401 0 0 0 0 -14.75580330468074 -2.1211611839576676 0 -2.1211611839576676 22.083844270627992 0 0 0 0 -14.567811317043379 12.936946936157824 0 12.936946936157824 37.361735510676908 0 0 0 0 -6.8073171183059458 -5.376701721646242 0 -5.376701721646242 8.4089573882239392 0 0 0 0 -3.8275829047005061 2.0102367614407299 0 2.0102367614407299 1.5082440263350658 0 0 0 0 -0.6699078534002183 6.1830653444239587 0 6.1830653444239587 7.9210338530491304 0 0 0 0 -0.45539679586363491 4.3145688316566293 0 4.3145688316566293 7.6023431684052127 0 0 0 0 -6.3636604740386247 4.6158071062138788 0 4.6158071062138788 9.5383384883889448 0 0 0 0 -1.3214531868434278 3.0238938791459304 0 3.0238938791459304 7.7333957122900756 0 0 0 0 0.21493680522956993 3.3733949618064329 0 3.3733949618064329 5.8669625068141169 0 0 0 0 -3.6952399094224972 2.4020638991012717 0 2.4020638991012717 7.6926206281931533 0 0 0 0 -2.0589077320910292 4.8529590782120522 0 4.8529590782120522 9.5065555828250581 0 0 0 0 -1.9835195637861034 1.468905848139002 0 1.468905848139002 16.63427059944479 0 0 0 0 -10.18471420557762 6.4920888029705566 0 6.4920888029705566 23.683551874559086 0 0 0 0 -5.7293081047889416 1.9580033870875475 0 1.9580033870875475 1.4265679752647353 0 0 0 0 -6.6842128504358698 6.9816766097110303 0 6.9816766097110303 11.361301676442622 0 0 0 0 -4.8190348923235433 6.8331302833757945 0 6.8331302833757945 7.9709300468082347 0 0 0 0 -5.0842284346290398 2.8443237686599332 0 2.8443237686599332 10.381797726972422 0 0 0 0 -8.0239112331692013 2.2274015520197281 0 2.2274015520197281 10.57430871007881 0 0 0 0 -3.881104233286095 0.98391480201300396 0 0.98391480201300396 -0.4094039192101192 0 0 0 0 -15.164022751516313 10.138968230703057 0 10.138968230703057 29.589230258975988 0 0 0 0 -7.8262583511095727 1.7179180086607744 0 1.7179180086607744 11.819458557084772 0 0 0 0 -14.638401976972091 14.091417171134026 0 14.091417171134026 15.888067235729523 0 0 0 0 -8.6437088307684462 4.4628594178150678 0 4.4628594178150678 15.027386321347649 0 0 0 0 -10.807626245910839 3.8228955366267741 0 3.8228955366267741 -1.3097866584731443 0 0 0 0 -6.113246193638588 8.1298805243507104 0 8.1298805243507104 3.0589292782883604 0 0 0 0 -8.1243540028808638 9.3568175759171481 0 9.3568175759171481 2.0552368492569713 0 0 0 0 -4.9946000070212904 15.242560581182161 0 15.242560581182161 5.6155229065775529 0 0 0 0 -9.147526245972486 4.4669118554818894 0 4.4669118554818894 -0.19399804017652622 0 0 0 0 -5.2964892275122111 5.4514811386374049 0 5.4514811386374049 4.3292258669563353 0 0 0 0 -9.2453503137439839 7.0746140000303512 0 7.0746140000303512 6.4430648456082054 0 0 0 0 -0.20085552681283048 2.7589883865501434 0 2.7589883865501434 4.2779550643733284 0 0 0 0 -6.6971605033031665 7.3226997560889231 0 7.3226997560889231 3.7274277590178713 0 0 0 0 -4.8601019243797055 4.6199108680864356 0 4.6199108680864356 4.2222230513564227 0 0 0 0 1.6126187855552416 -0.45942242195224026 0 -0.45942242195224026 3.745455420450071 0 0 0 0 1.9186388313464704 0.24061488295342315 0 0.24061488295342315 3.6930219101559487 0 0 0 0 3.3080733487440739 1.6875782760712355 0 1.6875782760712355 3.0702186087225982 0 0 0 0 2.9170305858933716 0.043657886876871999 0 0.043657886876871999 -0.94934998941334925 0 0 0 0 6.295187878604338 4.1515947768438082 0 4.1515947768438082 0.74067719270806265 0 0 0 0 4.1885261059724144 7.1909783016835718 0 7.1909783016835718 5.269991879927602 0 0 0 0 0.42942006522207521 4.6782033285739999 0 4.6782033285739999 4.1121664067259189 0 0 0 0 -0.13811538838695014 1.2829780918394285 0 1.2829780918394285 0.34322726383704349 0 0 0 0 2.4261621875014754 6.2741328544435149 0 6.2741328544435149 1.3060317191242223 0 0 0 0 4.07189396265494 4.7948376969928859 0 4.7948376969928859 0.2100779176330434 0 0 0 0 5.7446361496186 2.5179364944946201 0 2.5179364944946201 -0.22250039594382542 0 0 0 0 -0.74136824006927782 -1.5771846923150861 0 -1.5771846923150861 -1.9120961199291742 0 0 0 0 16.186421782891557 3.836829611533858 0 3.836829611533858 -14.412330281757022 0 0 0 0 -5.0959343666440589 6.3295988123744635 0 6.3295988123744635 -2.1998035263815332 0 0 0 0 18.008680228151206 14.054637588079459 0 14.054637588079459 -2.7145943502343357 0 0 0 0 -13.092626277910313 9.41209483544921 0 9.41209483544921 3.9694783225550054 0 0 0 0 -4.0566625340652536 8.7525194714305599 0 8.7525194714305599 -3.450380465996659 0 0 0 0 -2.0844014398123392 -1.0895097435164516 0 -1.0895097435164516 2.6077040603224333 0 0 0 0 -9.1664595794827619 -0.94617306038742299 0 -0.94617306038742299 -4.682828239416267 0 0 0 0 -5.2354577824680746 11.030992783034094 0 11.030992783034094 -7.5357244271690433 0 0 0 0 -13.304019583996705 12.407450945591791 0 12.407450945591791 0.93007034948459477 0 0 0 0 -6.2250968751250184 10.249188166794966 0 10.249188166794966 -0.40050606357362994 0 0 0 0 -3.98194230336982 0.83628203512025578 0 0.83628203512025578 4.262693552858817 0 0 0 0 -67.548245096309984 86.464216978104787 0 86.464216978104787 -27.192106703931586 0 0 0 0 29.198664644571181 4.3811203264901337 0 4.3811203264901337 -31.296299365270443 0 0 0 0 -24.247550920874346 6.7904775896829506 0 6.7904775896829506 42.904705888888202 0 0 0 0 -14.323401735440711 6.1083897015114417 0 6.1083897015114417 -8.8836069900326038 0 0 0 0 -36.06152377698163 1.7781148601775385 0 1.7781148601775385 9.3462942580272284 0 0 0 0 -36.370751443100744 15.883463823148759 0 15.883463823148759 -13.217286772453917 0 0 0 0 -61.335653508693213 38.811561124783111 0 38.811561124783111 4.7556399297608323 0 0 0 0 -21.844248015760968 66.196966892217461 0 66.196966892217461 -65.441993962067272 0 0 0 0 -40.53016608443977 26.328794844770755 0 26.328794844770755 -2.7425282080030229 0 0 0 0 -129.32735273346771 68.797296315563472 0 68.797296315563472 -2.9009685022492704 0 0 0 0 -98.688657533653895 14.589250332548545 0 14.589250332548545 38.66283261965782 0 0 0 0 -78.143459321028786 9.1633162639459442 0 9.1633162639459442 12.75001083454481 0 0 0 0 -73.036078350953176 -27.624319420289794 0 -27.624319420289794 8.8036399719212568 0 0 0 0 -22.892594897304662 -9.2754881985265456 0 -9.2754881985265456 3.1284906348319055 0 0 0 0 -48.802562906321668 -5.2616836531259921 0 -5.2616836531259921 9.6844616704911459 0 0 0 0 -70.339990735716128 3.9866598800545034 0 3.9866598800545034 16.173480946098607 0 0 0 0 -48.635319791588699 6.5955455654002435 0 6.5955455654002435 8.6062091591702483 0 0 0 0 -45.118657154442189 -1.4921241167423887 0 -1.4921241167423887 -0.052545781771186739 0 0 0 0 -50.308950865910447 1.158454201919767 0 1.158454201919767 12.762352092515357 0 0 0 0 -33.600270501570776 3.1330190659018626 0 3.1330190659018626 -0.30741029422824795 0 0 0 0 -38.547761457124579 -23.918460793263876 0 -23.918460793263876 -48.507030246804788 0 0 0 0 -48.411877588761854 11.903253710004719 0 11.903253710004719 17.42025845977696 0 0 0 0 -64.545533565156802 -3.4423042392759271 0 -3.4423042392759271 15.029046998119156 0 0 0 0 -24.782054270457593 13.161449755861668 0 13.161449755861668 10.365733381124301 0 0 0 0 -45.333673149376409 2.1369073383980322 0 2.1369073383980322 12.022867574398333 0 0 0 0 -46.934510857812711 5.0197824464512451 0 5.0197824464512451 15.79265069795423 0 0 0 0 -26.099450143461581 0.13656241105582012 0 0.13656241105582012 8.3750119388846542 0 0 0 0 -13.24631720551406 -3.7924295276475277 0 -3.7924295276475277 -0.25805029188722983 0 0 0 0 -21.987379241443705 5.6134086090287383 0 5.6134086090287383 5.1793693264503418 0 0 0 0 -16.446210379741387 2.5690868188412423 0 2.5690868188412423 5.9017126737487615 0 0 0 0 -19.371096994640538 18.122062357207142 0 18.122062357207142 18.385775992511753 0 0 0 0 -14.70462254951417 3.9993867775392573 0 3.9993867775392573 4.9275762956031031 0 0 0 0 8.419054694037186 4.4464244860478175 0 4.4464244860478175 4.6297667698872829 0 0 0 0 1.7789672874496318 -4.7782181147904339 0 -4.7782181147904339 10.727194991132819 0 0 0 0 2.4865823758518673 0.76824127110648988 0 0.76824127110648988 -0.81755132050420798 0 0 0 0 1.2817021925147856 -0.6198285108048367 0 -0.6198285108048367 3.1392314145755336 0 0 0 0 26.209567675512517 0.47729593141912119 0 0.47729593141912119 -13.888973464607034 0 0 0 0 2.5587999310300802 0.25061236218039085 0 0.25061236218039085 -0.67282013797466789 0 0 0 0 2.6011129469115986 0.50595389232057641 0 0.50595389232057641 -1.8835304560163877 0 0 0 0 -22.368509082903074 -11.915879109930984 0 -11.915879109930984 -1.6603682749928339 0 0 0 0 -1.6873523317663057 0.24566090759236658 0 0.24566090759236658 1.9495215746487702 0 0 0 0 -1.1077105194582089 0.47994956153720381 0 0.47994956153720381 -0.26062995323848615 0 0 0 0 12.599370456380711 18.682640063285362 0 18.682640063285362 15.768350766757521 0 0 0 0 -12.795826773581211 29.659844883094138 0 29.659844883094138 -41.073336791261227 0 0 0 0 -4.7186566678792587 -12.206810498238156 0 -12.206810498238156 -15.579853060287405 0 0 0 0 -166.75185166244773 76.772595756790906 0 76.772595756790906 -19.829065293349231 0 0 0 0 -17.902742205154027 41.134493438471054 0 41.134493438471054 -73.958954612476646 0 0 0 0 -0.61917887384272774 0.24790500267335247 0 0.24790500267335247 -0.11917924732563101 0 0 0 0 -244.21294934023172 49.957014302825883 0 49.957014302825883 -16.777146977305165 0 0 0 0 -105.52128326159436 -71.755434568434794 0 -71.755434568434794 7.0471074747871398 0 0 0 0 5.7275354551784403 -37.422313238741367 0 -37.422313238741367 -13.888252879272841 0 0 0 0 -216.714725735299 36.704175469879601 0 36.704175469879601 34.812273337208353 0 0 0 0 -34.922868812460365 63.081766038307819 0 63.081766038307819 -12.470038871002544 0 0 0 0 -52.093853156016849 93.264788911724963 0 93.264788911724963 -20.151171457012879 0 0 0 0 -130.23584453752483 122.18835591205527 0 122.18835591205527 -18.962419971631789 0 0 0 0 16.808584123471519 99.135884580833135 0 99.135884580833135 -18.120085891535297 0 0 0 0 -214.44587475548906 8.7857242195930212 0 8.7857242195930212 -41.819481596414334 0 0 0 0 -0.9854315838234271 0.74410290031849513 0 0.74410290031849513 -0.400224557851665 0 0 0 0 -211.16683315771661 -50.015296301341323 0 -50.015296301341323 59.764596155414893 0 0 0 0 -25.853039484747569 -4.1941318561181333 0 -4.1941318561181333 52.277503318154686 0 0 0 0 39.540848003627616 11.10396972955823 0 11.10396972955823 5.6442074562596645 0 0 0 0 -40.863941590043851 3.6489864133525032 0 3.6489864133525032 28.946475778692729 0 0 0 0 -38.006936189856788 14.080220328100722 0 14.080220328100722 26.705238347389695 0 0 0 0 -32.017165599987493 56.112069638023058 0 56.112069638023058 -19.663112925172754 0 0 0 0 -57.011987989411864 121.31072245864789 0 121.31072245864789 5.9868138309534515 0 0 0 0 37.236938536072557 -64.025404058902495 0 -64.025404058902495 -56.353936798168434 0 0 0 0 -1.6276266311093366 1.4361940591069313 0 1.4361940591069313 -0.90036842724331478 0 0 0 0 -27.03021685584099 27.765718699019317 0 27.765718699019317 45.207524914151861 0 0 0 0 -104.95982172428285 -66.8765579168942 0 -66.8765579168942 43.140975371424702 0 0 0 0 8.195526519069972 -43.640180242340193 0 -43.640180242340193 3.1242695291983864 0 0 0 0 -106.89947440938704 -52.001858638584963 0 -52.001858638584963 8.2612877999923739 0 0 0 0 -43.144984706577816 14.179242368249447 0 14.179242368249447 7.9623380469811309 0 0 0 0 -55.096623224428185 10.031514543505182 0 10.031514543505182 7.3683861470799457 0 0 0 0 -16.885939011917799 0.53169048186816781 0 0.53169048186816781 7.1520724003066789 0 0 0 0 -4.5430266677322635 3.2327898128749197 0 3.2327898128749197 2.1127549355517274 0 0 0 0 -32.844761604264932 12.135796059272195 0 12.135796059272195 16.85479401406019 0 0 0 0 -9.2288896232203115 2.4576844328921652 0 2.4576844328921652 20.737788371977786 0 0 0 0 -135.44221678443137 32.739993614367449 0 32.739993614367449 -15.555404874451597 0 0 0 0 -0.71440414174998068 -0.35715002654098527 0 -0.35715002654098527 -0.49520102677543676 0 0 0 0 -99.681304709381493 29.832136151712383 0 29.832136151712383 11.503112327869076 0 0 0 0 -4.4332951588822027 -2.3698677507006707 0 -2.3698677507006707 -0.95412594359736236 0 0 0 0 -97.056295527698239 78.476199707112073 0 78.476199707112073 -20.01078854362197 0 0 0 0 -159.54074506166216 113.92386675918613 0 113.92386675918613 -71.841886393429377 0 0 0 0 -1.2986821408926943 -0.77699206927496789 0 -0.77699206927496789 -0.54033628043625015 0 0 0 0 -90.228423224347353 -38.961792252893019 0 -38.961792252893019 77.407246814344262 0 0 0 0 -4.3141521912548342 15.932906116785261 0 15.932906116785261 -7.0462933314713609 0 0 0 0 -3.946331284379994 1.2855586530681649 0 1.2855586530681649 12.931879482917111 0 0 0 0 -156.50559671030157 -31.538101750590268 0 -31.538101750590268 21.180100080317061 0 0 0 0 -16.527023006969102 4.0076333221043114 0 4.0076333221043114 1.4095500451353473 0 0 0 0 -11.564600913236063 3.8288317132032716 0 3.8288317132032716 -3.21424330018408 0 0 0 0 -16.018155292922529 2.4799878963713411 0 2.4799878963713411 -4.805972813453991 0 0 0 0 -4.4914196227564105 -2.0012153853502141 0 -2.0012153853502141 -0.52031081366615339 0 0 0 0 -13.112123936869466 9.7442691735388962 0 9.7442691735388962 -0.74178180183116638 0 0 0 0 -11.546459371128549 3.5172595204032575 0 3.5172595204032575 1.8144964840557805 0 0 0 0 -0.96208580638813146 6.1361634228591129 0 6.1361634228591129 2.5205034540249471 0 0 0 0 13.201072921659943 29.919498050451239 0 29.919498050451239 -4.7368899404361287 0 0 0 0 -5.1745670925247538 4.7460772479749593 0 4.7460772479749593 -0.27978847643393578 0 0 0 0 -1.2149169445237931 11.714741746115237 0 11.714741746115237 1.5525267338609865 0 0 0 0 -9.4692077730942401 2.867370278110684 0 2.867370278110684 2.4903260985311135 0 0 0 0 -15.884590565347025 9.1124784279584219 0 9.1124784279584219 -2.0227937805575493 0 0 0 0 5.9649670887538377 8.8591064563980808 0 8.8591064563980808 -5.830937688585891 0 0 0 0 6.0062636100701638 9.4077012313376827 0 9.4077012313376827 -0.085388231691922556 0 0 0 0 -4.9618533743923763 4.5630609586469291 0 4.5630609586469291 -2.2271752090368864 0 0 0 0 7.3842756911981269 3.8932105050589598 0 3.8932105050589598 -7.1619200766017457 0 0 0 0 9.4096991430415073 -0.66414460611531467 0 -0.66414460611531467 3.4077066849960147 0 0 0 0 7.4772360513998137 5.1043710391909372 0 5.1043710391909372 -2.304062354414782 0 0 0 0 -22.063745348474185 0.37468248943105209 0 0.37468248943105209 -3.745421991254716 0 0 0 0 -8.4660272597757285 10.333606899630354 0 10.333606899630354 -8.2251560085569508 0 0 0 0 -26.122767438471783 5.2404725544861321 0 5.2404725544861321 -9.2698515971894295 0 0 0 0 -25.941754164693748 -8.5552405037882124 0 -8.5552405037882124 -10.790554992261605 0 0 0 0 -32.328766406426439 -4.7671308679700815 0 -4.7671308679700815 -8.9069956296182369 0 0 0 0 -167.23554255648924 129.22887211218858 0 129.22887211218858 -154.08317218699449 0 0 0 0 -32.046184642545995 -6.6427807839199886 0 -6.6427807839199886 -11.249197164735961 0 0 0 0 -5.4602173321668488 5.8080255290552429 0 5.8080255290552429 -5.6867264363130783 0 0 0 0 -17.396966970412905 -1.7625424592834236 0 -1.7625424592834236 -3.968221796375019 0 0 0 0 -15.536377813739819 -0.30285600590855211 0 -0.30285600590855211 -9.6157276510625707 0 0 0 0 -6.5268296006907462 4.41308732213772 0 4.41308732213772 -4.4438886571038303 0 0 0 0 -15.738776588196743 -0.620046016530722 0 -0.620046016530722 -4.7590950542721657 0 0 0 0 125.56907954625785 -92.583419458191202 0 -92.583419458191202 23.579725339885044 0 0 0 0 2.6083940998469188 -9.8609593948067413 0 -9.8609593948067413 -28.920932810451632 0 0 0 0 -1.4429671752047 1.4405387221616479 0 1.4405387221616479 -1.3749280377898501 0 0 0 0 25.868326914416684 -64.774283214326715 0 -64.774283214326715 1.2553108746019461 0 0 0 0 -9.3453188633611717 15.404241304809148 0 15.404241304809148 -40.781818867292714 0 0 0 0 -12.407421503168734 28.388598608553366 0 28.388598608553366 -1.2787966453161062 0 0 0 0 -33.907170754857361 42.395361773133573 0 42.395361773133573 -33.003799750320013 0 0 0 0 -8.7512642392248381 30.230262575229062 0 30.230262575229062 -27.359905708033693 0 0 0 0 -16.175266993035621 37.257405245169139 0 37.257405245169139 -10.548978620790876 0 0 0 0 -14.542389753496764 10.788159410369929 0 10.788159410369929 -19.671241608833952 0 0 0 0 -4.9805057725025108 45.886465215775388 0 45.886465215775388 -2.6715567791869717 0 0 0 0 10.606398366471694 37.932547675956812 0 37.932547675956812 -14.604833119497926 0 0 0 0 -5.7770705764516066 4.2532976029530936 0 4.2532976029530936 -3.2120347161869027 0 0 0 0 18.655455568507023 17.613252700482235 0 17.613252700482235 -18.980480623333278 0 0 0 0 -10.987416650343221 -34.265979783082003 0 -34.265979783082003 9.7054930558369961 0 0 0 0 -27.109090028148785 44.193442904430412 0 44.193442904430412 -42.398147341159302 0 0 0 0 -10.025600093897083 -9.9427984341800766 0 -9.9427984341800766 -13.136486768214127 0 0 0 0 -15.812401205461356 -43.866180316906593 0 -43.866180316906593 57.501963925924429 0 0 0 0 -3.3991743918102628 1.1676971811563419 0 1.1676971811563419 -0.14649605297955937 0 0 0 0 -23.166686561518873 -1.3186207892129005 0 -1.3186207892129005 2.3362814038350734 0 0 0 0 -10.320518787612244 6.2675461787522337 0 6.2675461787522337 -2.3160569563881577 0 0 0 0 -16.56585544632253 2.8097662641164334 0 2.8097662641164334 3.707401691196992 0 0 0 0 -19.478644766120851 -1.7604646771388843 0 -1.7604646771388843 9.5371499096554544 0 0 0 0 -5.836965566224535 16.068074570272529 0 16.068074570272529 -20.24962903250605 0 0 0 0 -8.5588235458817508 20.655725834676389 0 20.655725834676389 8.7222954143471725 0 0 0 0 -30.886405208129872 1.1565378837017306 0 1.1565378837017306 3.7003377462797289 0 0 0 0 -54.093307087838184 32.938765255792987 0 32.938765255792987 -20.312632108049456 0 0 0 0 -3.8829550547103047 5.0735335360390295 0 5.0735335360390295 -3.5202848207029742 0 0 0 0 -0.92429946663429519 0.24465197487694468 0 0.24465197487694468 0.093292523881457257 0 0 0 0 -458.29799624429143 -296.64586440860603 0 -296.64586440860603 -118.73264623931482 0 0 0 0 -17.51899507618873 -4.3725755496868715 0 -4.3725755496868715 1.9736128534732416 0 0 0 0 -0.49684306010021828 5.7201953031872108 0 5.7201953031872108 -7.676362807203077 0 0 0 0 -6.1207248494465603 17.447999145103495 0 17.447999145103495 -2.5779688858051486 0 0 0 0 -10.425601961751738 6.4963919095534166 0 6.4963919095534166 -2.1067157715614506 0 0 0 0 -17.469331761720241 11.57604004473751 0 11.57604004473751 -6.9252582282288131 0 0 0 0 -10.282158225454268 7.4525956076915101 0 7.4525956076915101 -4.726076658543505 0 0 0 0 -12.590542225370882 -3.1126450632011711 0 -3.1126450632011711 -15.069188164507977 0 0 0 0 -29.222598694985209 17.626567547579725 0 17.626567547579725 23.372720766809834 0 0 0 0 -351.27516364208714 -51.167345359334831 0 -51.167345359334831 78.645441370810659 0 0 0 0 -1.9880028604973177 -1.4263697336108194 0 -1.4263697336108194 2.3390651922871726 0 0 0 0 -469.71362509920436 -203.57905057903463 0 -203.57905057903463 -79.20799682801271 0 0 0 0 -1142.613829099173 -589.78699855717787 0 -589.78699855717787 -106.56163972985655 0 0 0 0 -686.59425472859584 -447.7987014147767 0 -447.7987014147767 159.53112751161279 0 0 0 0 -840.27142538205226 70.921118409376504 0 70.921118409376504 193.63577597239237 0 0 0 0 -23.946719546744134 -17.538611241990111 0 -17.538611241990111 5.3312664001141457 0 0 0 0 -33.633185844053514 16.53986828007146 0 16.53986828007146 -24.780483401636047 0 0 0 0 -75.8344156066305 -0.39801084624332361 0 -0.39801084624332361 6.2924056686729273 0 0 0 0 0.26348310343029624 -1.4260883509442692 0 -1.4260883509442692 -2.6213160598081018 0 0 0 0 -34.118540093713818 21.170507974879456 0 21.170507974879456 -22.713419867392986 0 0 0 0 -2.8999629114396299 -3.1270552079898408 0 -3.1270552079898408 -1.9159097220389718 0 0 0 0 -1511.1439260450679 424.18886591331614 0 424.18886591331614 123.85235654474855 0 0 0 0 -502.87201391657254 131.9978370810129 0 131.9978370810129 -226.81947492827203 0 0 0 0 -697.31422545472378 -215.7516696637972 0 -215.7516696637972 156.17233999067184 0 0 0 0 -717.21209007828293 196.45924189388097 0 196.45924189388097 -263.05252573274083 0 0 0 0 29.336284990469721 -70.291606073959429 0 -70.291606073959429 229.8851047015969 0 0 0 0 403.54407115990034 -546.87204118721183 0 -546.87204118721183 39.773966506476427 0 0 0 0 384.34032274586207 -233.69256085554935 0 -233.69256085554935 58.874263661533405 0 0 0 0 -23.138727937533986 -192.09305524194133 0 -192.09305524194133 66.025463583579494 0 0 0 0 -157.00210999094634 -51.953628670398075 0 -51.953628670398075 24.619453596682433 0 0 0 0 -181.66126883435936 -69.449377876263952 0 -69.449377876263952 145.99474629923657 0 0 0 0 -71.765784976385476 -182.60279827809131 0 -182.60279827809131 30.135028307640823 0 0 0 0 -10.834732820083445 -581.37573236012577 0 -581.37573236012577 172.05466402513503 0 0 0 0 -114.24839712515677 -193.19429122201291 0 -193.19429122201291 113.61672710401763 0 0 0 0 -1.1161224292336556 62.219426717610986 0 62.219426717610986 70.242576846753309 0 0 0 0 4.4180575943182703 61.60056833258983 0 61.60056833258983 68.565144070196766 0 0 0 0 -199.83131270340527 -216.89063088081912 0 -216.89063088081912 73.726323750403935 0 0 0 0 -0.81945658543973821 -0.16199463453646246 0 -0.16199463453646246 2.8125133582375774 0 0 0 0 -184.12271241897542 -13.111805574617392 0 -13.111805574617392 -26.82828754526895 0 0 0 0 -169.29484999638407 22.550425417703764 0 22.550425417703764 22.403473390753788 0 0 0 0 -0.60080782510468111 -0.86806712766878746 0 -0.86806712766878746 6.0403106266706637 0 0 0 0 -110.90076227801546 -6.3904142235960535 0 -6.3904142235960535 142.82282378555578 0 0 0 0 -234.05510728308218 26.460059606235518 0 26.460059606235518 29.787305511500108 0 0 0 0 -24.750328422844177 -13.821781763912441 0 -13.821781763912441 -62.239234297293024 0 0 0 0 -323.31348579332553 168.97707768295663 0 168.97707768295663 -19.009080967628506 0 0 0 0 -2.4157607303846902 -2.9975837783418058 0 -2.9975837783418058 6.5036712008588555 0 0 0 0 -26.665907344771767 -6.2519790065102825 0 -6.2519790065102825 6.8279695777900997 0 0 0 0 -362.16284195912885 -186.77965728648223 0 -186.77965728648223 7.9863469459432963 0 0 0 0 -325.10231665249376 -193.34105282182873 0 -193.34105282182873 -90.439516985945374 0 0 0 0 -270.59853063660557 -311.79410898700644 0 -311.79410898700644 82.667733430393127 0 0 0 0 -469.03745293683824 -223.53035844997771 0 -223.53035844997771 44.90517574522346 0 0 0 0 -290.94845440419886 -140.78577209249642 0 -140.78577209249642 32.991614283042509 0 0 0 0 -267.91350623922335 -40.006569001865273 0 -40.006569001865273 25.358863413359359 0 0 0 0 -263.28572888826784 -42.568379161710141 0 -42.568379161710141 25.12180496592282 0 0 0 0 -613.80339081745478 -153.44632525389306 0 -153.44632525389306 11.186547142416202 0 0 0 0 -322.31205501587829 -223.21685382499027 0 -223.21685382499027 -49.228335686500941 0 0 0 0 -365.30926435168476 -284.79576555955828 0 -284.79576555955828 -177.70983893875473 0 0 0 0 -330.49907497556705 -202.17335956095212 0 -202.17335956095212 -91.43593252996925 0 0 0 0 -458.85070430094953 -183.37449529046347 0 -183.37449529046347 -73.728272574252514 0 0 0 0 -293.32664450061748 -119.76114807690351 0 -119.76114807690351 -27.595256071675976 0 0 0 0 -381.50762620546448 30.17731940966496 0 30.17731940966496 -263.72998677963722 0 0 0 0 -443.78968981339131 -204.76132015959229 0 -204.76132015959229 63.652447978109421 0 0 0 0 -602.13625936086464 -160.30171614878964 0 -160.30171614878964 52.163197156606202 0 0 0 0 -213.6295961970045 13.210691494193384 0 13.210691494193384 -34.056445850476848 0 0 0 0 -9.5530148945437503 7.3570240953336636 0 7.3570240953336636 -2.2853874271021155 0 0 0 0 -66.936361508254777 -29.892255145435229 0 -29.892255145435229 69.729786457804039 0 0 0 0 -10.334242744814944 -2.5444472291987488 0 -2.5444472291987488 0.58702960324572251 0 0 0 0 -56.750271457640338 -3.2010864369935916 0 -3.2010864369935916 -4.7176492963508281 0 0 0 0 -92.153240463296243 -29.959703156082924 0 -29.959703156082924 74.246010354360806 0 0 0 0 -101.5161009197036 -2.5556489765201604 0 -2.5556489765201604 5.5424779717704951 0 0 0 0 -289.14642267071758 -327.34686174453191 0 -327.34686174453191 -162.84135781223239 0 0 0 0 -3.9639763560057162 -1.4575074939657711 0 -1.4575074939657711 -0.49407421254699813 0 0 0 0 -84.197451079817256 -35.986516062350802 0 -35.986516062350802 -33.013378965727497 0 0 0 0 -106.02559341565211 -14.341347291046304 0 -14.341347291046304 -6.7504252692057776 0 0 0 0 -260.01826050613454 -292.51072676110425 0 -292.51072676110425 10.759252379377585 0 0 0 0 -443.0595256981178 -108.92915757030482 0 -108.92915757030482 138.1988959302887 0 0 0 0 -438.08010105855647 -179.41185365210367 0 -179.41185365210367 -91.148338262462175 0 0 0 0 -382.95763743264433 -235.15113128824873 0 -235.15113128824873 -45.848358622725755 0 0 0 0 -489.37421738186003 -384.03972222152515 0 -384.03972222152515 -270.48247997945919 0 0 0 0 -929.19294237210124 -467.29012641820509 0 -467.29012641820509 -157.88106213705487 0 0 0 0 -3.3433056451647474 1.1397259425829915 0 1.1397259425829915 0.11457828919903879 0 0 0 0 -571.73077375238063 -125.70041269053348 0 -125.70041269053348 -73.10246461432962 0 0 0 0 17.792803348969755 -93.100325256686006 0 -93.100325256686006 -196.11735956078383 0 0 0 0 -267.58771280047949 -208.49510829826977 0 -208.49510829826977 -241.74784179537164 0 0 0 0 -265.89399618251628 -111.22304023558013 0 -111.22304023558013 -181.40306888240229 0 0 0 0 -26.378838951288344 18.246509246403548 0 18.246509246403548 12.346435945680014 0 0 0 0 4.0620977059516008 -7.0172032656337251 0 -7.0172032656337251 -5.8040667354239304 0 0 0 0 -449.55324027235474 -262.30267163782753 0 -262.30267163782753 -53.353630962901292 0 0 0 0 -392.46277390804062 -207.20881467154084 0 -207.20881467154084 -50.086927820987512 0 0 0 0 -8.2160835707701523 4.0146484245981071 0 4.0146484245981071 -0.46437785867285974 0 0 0 0 -2.3418490905605722 35.409066444854716 0 35.409066444854716 31.603765479053436 0 0 0 0 38.492687857247802 -17.950796001330218 0 -17.950796001330218 -16.02765405460832 0 0 0 0 2.6079422281909501 -29.550616832717424 0 -29.550616832717424 51.943436133249179 0 0 0 0 -6.4385695116689021 0.49060479133049739 0 0.49060479133049739 -22.429250700058674 0 0 0 0 -1.8511831064648732 2.4480520191491451 0 2.4480520191491451 2.6926029192557621 0 0 0 0 -55.221132186990872 -1.7429282198609144 0 -1.7429282198609144 27.532781307764935 0 0 0 0 -1.3890887815514077 1.8842020339338106 0 1.8842020339338106 -0.61181152626714042 0 0 0 0 -21.607087912016141 -4.4194719988624911 0 -4.4194719988624911 -1.9353258413488135 0 0 0 0 -8.5165486822443199 1.7014020934493601 0 1.7014020934493601 -2.2196445848162512 0 0 0 0 -3.6133293366874568 3.6659285429529973 0 3.6659285429529973 5.404110568881265 0 0 0 0 0.95077459771619033 8.0463470511566584 0 8.0463470511566584 4.7495744247012226 0 0 0 0 17.57273150247056 0.7395608216202163 0 0.7395608216202163 -10.356484730863031 0 0 0 0 -3.2235816462707589 22.531049442411586 0 22.531049442411586 -27.344665521025036 0 0 0 0 -26.658223327505766 8.6723646989258327 0 8.6723646989258327 6.5292295823137465 0 0 0 0 -12.673474735784112 5.9707516867529193 0 5.9707516867529193 0.5730191326226759 0 0 0 0 -11.513815142276144 12.568561996676806 0 12.568561996676806 3.9804119960390381 0 0 0 0 -17.607338355381216 -1.2968933500869753 0 -1.2968933500869753 5.0683703954834982 0 0 0 0 -12.038043229822506 5.6826347888072348 0 5.6826347888072348 13.074681454561414 0 0 0 0 -38.657208815217018 16.900074076745568 0 16.900074076745568 8.4564410494872391 0 0 0 0 0.16131359452120897 0.27742241982916482 0 0.27742241982916482 0.43064819557014644 0 0 0 0 -7.4939907252810372 -12.725166330258389 0 -12.725166330258389 17.432459452506919 0 0 0 0 -32.900082090491196 -6.7655068170536197 0 -6.7655068170536197 35.360834530356897 0 0 0 0 -72.577114038964282 24.170357648035065 0 24.170357648035065 20.470708435610504 0 0 0 0 -25.642690711934847 31.609599106728524 0 31.609599106728524 -34.0294640585671 0 0 0 0 -13.334649718519358 11.358932066248144 0 11.358932066248144 -5.9724202679237806 0 0 0 0 -18.330049781732669 -11.338153083872612 0 -11.338153083872612 -30.785432668667056 0 0 0 0 -12.635981447356244 3.496234077828035 0 3.496234077828035 -5.1220334254103363 0 0 0 0 -45.82319004562487 4.9774989351000158 0 4.9774989351000158 8.5654241910192468 0 0 0 0 7.4384020762445289 19.620580277880663 0 19.620580277880663 -18.203226687691313 0 0 0 0 -14.838949378241523 11.488086238009828 0 11.488086238009828 1.5019502746763109 0 0 0 0 -85.926162003910576 19.173228153132186 0 19.173228153132186 -74.854060343707175 0 0 0 0 7.0578008322481764 21.154501636542363 0 21.154501636542363 -3.8641541953011256 0 0 0 0 -9.0495010615244098 6.803330018064031 0 6.803330018064031 -2.043497159144227 0 0 0 0 -5.8220553587973107 4.8022543645736064 0 4.8022543645736064 -1.7426502147892293 0 0 0 0 4.3653555087730638 6.0767950878441752 0 6.0767950878441752 -2.0206687147297089 0 0 0 0 -5.0843287437802402 2.958233054620969 0 2.958233054620969 2.4203542665256439 0 0 0 0 -15.624185579719779 -62.342133496264069 0 -62.342133496264069 10.913274261628999 0 0 0 0 5.0454746633913601 5.0186462759118058 0 5.0186462759118058 -15.781686858125795 0 0 0 0 -0.96052573631374116 0.32528173778143099 0 0.32528173778143099 -0.089917253142425935 0 0 0 0 -195.69741714481643 159.86670304978929 0 159.86670304978929 -20.562110861275414 0 0 0 0 -1.3571423401519382 -1.0262955759883567 0 -1.0262955759883567 -0.83357403547934972 0 0 0 0 -150.02716171795328 -4.4200981915278135 0 -4.4200981915278135 96.691775924788317 0 0 0 0 -125.54694366362128 61.71564543626576 0 61.71564543626576 -69.691672839745934 0 0 0 0 -229.09690148897789 106.01925602816027 0 106.01925602816027 64.418890092796971 0 0 0 0 -1497.6902901411522 187.94643764591973 0 187.94643764591973 178.23005987335878 0 0 0 0 -1394.4464027921276 194.52895329392589 0 194.52895329392589 105.9516793592242 0 0 0 0 -1500.3781523526995 89.20061585075959 0 89.20061585075959 3.0725174644806561 0 0 0 0 -3.0653816481302805 -12.414103834705628 0 -12.414103834705628 -6.6311065801610116 0 0 0 0 -60.599795488422387 -34.936381902486232 0 -34.936381902486232 10.640288228683403 0 0 0 0 -93.23727490174133 -2.3676426503550374 0 -2.3676426503550374 -6.3976906853645232 0 0 0 0 -79.486770233081188 0.69786897181097629 0 0.69786897181097629 -10.715588149738096 0 0 0 0 -79.243751200658153 18.794875518764684 0 18.794875518764684 -11.510705687481959 0 0 0 0 -62.191384231809934 20.908056506473372 0 20.908056506473372 -11.299797598351233 0 0 0 0 -2.8096626934002842 -2.6084148848386803 0 -2.6084148848386803 -1.4110402618530795 0 0 0 0 -39.428200362424832 16.08681757992872 0 16.08681757992872 50.849972162333415 0 0 0 0 4.9649001921934541 23.670248878390794 0 23.670248878390794 12.352285304649286 0 0 0 0 -36.53343174992915 15.377161274673767 0 15.377161274673767 30.790234852981484 0 0 0 0 -35.942256481386721 80.054885387218974 0 80.054885387218974 -64.776722560439794 0 0 0 0 -2.3137885007625698 -0.18429301776518492 0 -0.18429301776518492 -0.0015678546184273445 0 0 0 0 -41.1994180118636 52.842457086046579 0 52.842457086046579 -83.076730666412004 0 0 0 0 -30.573245117786428 -8.5861952100077588 0 -8.5861952100077588 -16.353102633124763 0 0 0 0 -59.275903935580573 17.306496251839917 0 17.306496251839917 30.629106455171495 0 0 0 0 -2.9217808051955672 -115.9401670914196 0 -115.9401670914196 94.564481338089081 0 0 0 0 -230.50412849860732 -2.0983190107667724 0 -2.0983190107667724 154.23461286262466 0 0 0 0 141.88286385861284 45.535263299974531 0 45.535263299974531 -179.65628109294767 0 0 0 0 -134.42920750651683 48.705412631462195 0 48.705412631462195 -35.993566986565384 0 0 0 0 -127.8272998350044 -12.463838453028913 0 -12.463838453028913 16.407625021887725 0 0 0 0 -101.25075404300151 -20.56079798642088 0 -20.56079798642088 16.53413229969442 0 0 0 0 -55.896867137969821 0.55381007700771079 0 0.55381007700771079 -12.533704733307104 0 0 0 0 -73.085500665074505 -36.652049396683083 0 -36.652049396683083 15.526121526590714 0 0 0 0 3.4545871426380472 -21.189644529045154 0 -21.189644529045154 2.6163410684711152 0 0 0 0 -78.829232080046495 -33.457753894553093 0 -33.457753894553093 14.268038577933126 0 0 0 0 -77.467856454245521 -25.641874017718919 0 -25.641874017718919 8.2525038336348189 0 0 0 0 -19.023490698717069 -4.6761296100726213 0 -4.6761296100726213 0.51355050741403829 0 0 0 0 -97.23453766619059 -36.732050790124163 0 -36.732050790124163 0.089624926564511043 0 0 0 0 -90.688819879063885 0.97209768543366692 0 0.97209768543366692 5.1121925444581393 0 0 0 0 -77.986312758901477 -27.635315038414006 0 -27.635315038414006 -10.396345682227775 0 0 0 0 -91.088402430817951 -23.747395358570998 0 -23.747395358570998 17.3173943982016 0 0 0 0 -1358.9086442576954 -297.738982122528 0 -297.738982122528 -64.036277659412491 0 0 0 0 -100.80649180511682 4.3608047252088795 0 4.3608047252088795 77.429669917976398 0 0 0 0 -8.8345039490727686 2.9284304600692579 0 2.9284304600692579 -2.3890334168335761 0 0 0 0 -80.116597986147099 -29.730047107810492 0 -29.730047107810492 -0.070088399732469497 0 0 0 0 -75.736294709626236 -106.91292885800146 0 -106.91292885800146 -44.255844374315075 0 0 0 0 112.41646557439071 -135.31237141335762 0 -135.31237141335762 -60.674297863621177 0 0 0 0 -24.770520525737084 -50.692743725545142 0 -50.692743725545142 1.7534117559312108 0 0 0 0 -219.12656007823534 -69.114687143496781 0 -69.114687143496781 81.758028128552951 0 0 0 0 3.452559852743434 -108.44941636164617 0 -108.44941636164617 -249.77940199999784 0 0 0 0 -628.08816396756447 480.03015985577406 0 480.03015985577406 -397.63790032903592 0 0 0 0 -4.5396313709031411 -9.2519772378219471 0 -9.2519772378219471 -5.6247439907594181 0 0 0 0 -8.1746707817824387 -2.1909834768272916 0 -2.1909834768272916 -1.4036885179823804 0 0 0 0 -3.904880921393115 -8.6803177649834993 0 -8.6803177649834993 -0.35964060948391008 0 0 0 0 -1498.9471429551631 18.665507776499776 0 18.665507776499776 47.454164914977909 0 0 0 0 -35.137954904585058 6.6064638178554063 0 6.6064638178554063 2.9745199285312438 0 0 0 0 -13.466848216179642 -7.4370578855560812 0 -7.4370578855560812 -3.7041926370487115 0 0 0 0 -2.2491597432558788 -5.7251036852520514 0 -5.7251036852520514 -0.027478142289333797 0 0 0 0 -1448.2853280291274 61.935403305119515 0 61.935403305119515 12.805092574174642 0 0 0 0 -51.489339646195731 0.85594635558905008 0 0.85594635558905008 8.6899053454563084 0 0 0 0 -1500.4600021200567 117.68715562463204 0 117.68715562463204 -17.559972565816118 0 0 0 0 -20.436815968998417 -15.652980672041632 0 -15.652980672041632 3.8871186401874205 0 0 0 0 -17.512783594858774 -0.71481965841158512 0 -0.71481965841158512 -1.1704277456467924 0 0 0 0 -33.490691178601992 -7.1463554631759925 0 -7.1463554631759925 0.020090516997890655 0 0 0 0 -1550.8628042509627 4.1288226374615631 0 4.1288226374615631 0.61244673748807044 0 0 0 0 -1.8982720985327539 -1.9722083119544322 0 -1.9722083119544322 0.058463160162860503 0 0 0 0 -23.549755499348976 -16.646195876175383 0 -16.646195876175383 -0.019181851323404463 0 0 0 0 -65.607895461438602 28.480218436071354 0 28.480218436071354 42.483285980985485 0 0 0 0 -18.198291116764267 -6.4025346254319455 0 -6.4025346254319455 12.510858387899653 0 0 0 0 -13.383433142920694 -8.9438098108601931 0 -8.9438098108601931 15.228316752133489 0 0 0 0 9.1767383176775184 -3.3116286114161468 0 -3.3116286114161468 8.9304662453669881 0 0 0 0 -0.29761795791273471 46.39347095541725 0 46.39347095541725 37.004557181221074 0 0 0 0 -1.4215992440120004 0.41721158040720496 0 0.41721158040720496 0.097327801422978283 0 0 0 0 -6.0789952235663804 14.040728192925743 0 14.040728192925743 13.272492240880135 0 0 0 0 -3.5518094665836486 2.2489447158353499 0 2.2489447158353499 -0.45117744514268171 0 0 0 0 -79.302592800486309 -35.790506436857754 0 -35.790506436857754 -22.805739259320262 0 0 0 0 -170.45015172711283 -121.17688924472509 0 -121.17688924472509 -29.977113344920213 0 0 0 0 -42.941063914433471 13.456088274005083 0 13.456088274005083 5.8063157888552723 0 0 0 0 -174.18375139386262 -26.760695984315078 0 -26.760695984315078 84.844773279123103 0 0 0 0 1.1374502839655491 0.60671228836179836 0 0.60671228836179836 0.59287071659998647 0 0 0 0 -42.961259076044371 14.284730232127004 0 14.284730232127004 -12.752789075225905 0 0 0 0 19.369883783088881 18.11041595926595 0 18.11041595926595 33.530266195816097 0 0 0 0 9.4896647581554134 -93.466565415042922 0 -93.466565415042922 107.16654382652287 0 0 0 0 -41.18033002557604 38.11308730020744 0 38.11308730020744 -11.996005800420747 0 0 0 0 31.530674052399263 -39.039524117195342 0 -39.039524117195342 -93.68569456446015 0 0 0 0 -115.01623275505699 -25.869037922239542 0 -25.869037922239542 98.239145650424007 0 0 0 0 -226.65771995035175 -164.70164953178093 0 -164.70164953178093 -71.462769827403946 0 0 0 0 -72.012629901408218 -7.5029171090681004 0 -7.5029171090681004 -1.3446354230551449 0 0 0 0 -79.346155559567705 14.351355064845151 0 14.351355064845151 -52.325108869347545 0 0 0 0 -87.043760850741819 -43.936822854303571 0 -43.936822854303571 -61.867654323830529 0 0 0 0 -161.21302749396273 -43.97414967049 0 -43.97414967049 0.037698320941847246 0 0 0 0 -71.004925735615871 -2.8217719489646371 0 -2.8217719489646371 -0.028385197529665507 0 0 0 0 -36.492140815156745 10.957892465079755 0 10.957892465079755 -32.133535767315259 0 0 0 0 -30.886947717179282 -5.3070502894387444 0 -5.3070502894387444 11.55926720319777 0 0 0 0 -26.634150130586931 22.918616976250462 0 22.918616976250462 -1.9253495432794168 0 0 0 0 -11.213794339873857 9.9108715048476981 0 9.9108715048476981 5.3289816652177961 0 0 0 0 -60.156927005133184 26.263849405668722 0 26.263849405668722 42.972280732217115 0 0 0 0 -60.217055339795479 25.109904280905596 0 25.109904280905596 20.839009592900709 0 0 0 0 -96.404705717999605 -27.727686150088928 0 -27.727686150088928 32.395154178108214 0 0 0 0 -0.78702200457273364 0.69357609563249412 0 0.69357609563249412 -0.47008852944940671 0 0 0 0 -40.706112272640894 10.802639502144849 0 10.802639502144849 29.230423338761227 0 0 0 0 34.728584555326961 52.595397698429224 0 52.595397698429224 21.628977510159984 0 0 0 0 66.341256391979641 75.494373131165915 0 75.494373131165915 14.988771134997393 0 0 0 0 23.817054960105452 41.981575916675283 0 41.981575916675283 45.113310016666716 0 0 0 0 20.801374025846599 11.291978360911969 0 11.291978360911969 18.334964050517048 0 0 0 0 -2.5801937702106557 1.8863454415084391 0 1.8863454415084391 1.3391545661421249 0 0 0 0 -8.5695300366933225 11.189068531832149 0 11.189068531832149 15.672261099273442 0 0 0 0 20.763069348409772 65.165124640854202 0 65.165124640854202 59.462515178819707 0 0 0 0 -2.0331130039677987 -0.50020258284072838 0 -0.50020258284072838 1.5617356409887586 0 0 0 0 -1.7787836167262867 4.9518883790415629 0 4.9518883790415629 9.0210416321776847 0 0 0 0 -5.2019024026958505 2.8520013339935986 0 2.8520013339935986 7.8526087992478466 0 0 0 0 -5.8372414114419371 2.4055525622084133 0 2.4055525622084133 4.3316019926143667 0 0 0 0 -5.4863300351344435 2.7291525050565508 0 2.7291525050565508 2.794594199015596 0 0 0 0 -5.6889478590049407 5.5018285370070004 0 5.5018285370070004 1.8502916277491694 0 0 0 0 -8.6947332921375775 0.34748744361012029 0 0.34748744361012029 2.81023442052562 0 0 0 0 -5.0550214773671343 2.4997409532028882 0 2.4997409532028882 0.48039041508900571 0 0 0 0 -0.97429989121155813 5.8762745071662721 0 5.8762745071662721 5.5538536397939424 0 0 0 0 -5.3208233800083065 6.005349788355538 0 6.005349788355538 -2.5927237421012048 0 0 0 0 -4.2331449374942167 2.6292609360390315 0 2.6292609360390315 7.8973440365466558 0 0 0 0 -3.8383765159629775 2.2825818847482613 0 2.2825818847482613 0.71684668021015474 0 0 0 0 -6.9574964598056397 0.7413492705414626 0 0.7413492705414626 2.0443232309706385 0 0 0 0 -5.2107687837655874 5.4480634472978622 0 5.4480634472978622 1.5599105652997958 0 0 0 0 -78.478686687428308 48.19202786799066 0 48.19202786799066 82.588853879931065 0 0 0 0 -36.881083339932957 -88.236078073454664 0 -88.236078073454664 10.819378348826035 0 0 0 0 1.6386520367116475 3.2094939308619317 0 3.2094939308619317 2.6374990814816321 0 0 0 0 28.952955867593118 68.126587532142338 0 68.126587532142338 38.356545137977776 0 0 0 0 -9.4793012106456445 15.858096764998436 0 15.858096764998436 5.7218631463188103 0 0 0 0 -7.7892436437032302 4.5688976710450788 0 4.5688976710450788 -3.3901302295614641 0 0 0 0 -46.370760681260435 -10.819826739342034 0 -10.819826739342034 -0.37605600126107674 0 0 0 0 -15.414747089656885 15.020689730149115 0 15.020689730149115 -12.949238761863228 0 0 0 0 -17.68071507505374 18.618289106855855 0 18.618289106855855 41.625139873269291 0 0 0 0 -6.0988310315370597 0.81445485667176531 0 0.81445485667176531 0.0098300111591527184 0 0 0 0 -25.711517038136662 -3.4882745798956876 0 -3.4882745798956876 4.6009597055985978 0 0 0 0 -8.8107973032565496 19.383971810899197 0 19.383971810899197 7.837322058668633 0 0 0 0 19.067348142605624 19.379941596146864 0 19.379941596146864 9.2316143469311669 0 0 0 0 -1.5300302173272939 12.691588906179277 0 12.691588906179277 4.1541267516373637 0 0 0 0 -7.8211527826206293 1.9673434608807838 0 1.9673434608807838 20.929152684162318 0 0 0 0 -4.367199905875168 2.5067204798992861 0 2.5067204798992861 3.4260022853604823 0 0 0 0 -0.1525679525511805 8.5544489185758721 0 8.5544489185758721 1.1765303224833588 0 0 0 0 -3.1733757428592071 4.5224945340009981 0 4.5224945340009981 0.71104095918281018 0 0 0 0 -4.0482847138264333 6.6848510136287587 0 6.6848510136287587 -24.391279296111406 0 0 0 0 2.8112813209299929 -17.321319412562843 0 -17.321319412562843 -0.90254045737037814 0 0 0 0 -1.0523926267208878 -0.23723502559713694 0 -0.23723502559713694 0.21580120554813309 0 0 0 0 -14.349087750029867 28.657707602809751 0 28.657707602809751 -17.81383155501419 0 0 0 0 -33.961019048056187 46.633945014957249 0 46.633945014957249 21.086260820714415 0 0 0 0 -22.631688974382996 2.0845214561777539 0 2.0845214561777539 9.9160648966928875 0 0 0 0 -4.6178541644372331 0.26091971505823608 0 0.26091971505823608 0.21608972987468089 0 0 0 0 -35.665532741266361 13.574313005230806 0 13.574313005230806 32.875538550318652 0 0 0 0 -23.429030976854847 6.1712606628993854 0 6.1712606628993854 18.537342779097543 0 0 0 0 -23.001684802258751 6.4047398231363104 0 6.4047398231363104 5.9217068585899142 0 0 0 0 -21.736632580745209 1.3799115098656785 0 1.3799115098656785 5.4935990865215985 0 0 0 0 -8.1170158007387272 13.998164352335891 0 13.998164352335891 4.2693233948016314 0 0 0 0 9.0474384879053105 24.737333224641134 0 24.737333224641134 5.8053124718024947 0 0 0 0 -9.1495428272863535 4.3845421583938062 0 4.3845421583938062 -0.42971165477014672 0 0 0 0 -8.2431757716476568 11.658779645133563 0 11.658779645133563 4.6418507237490303 0 0 0 0 -15.045083444536431 8.9730617471577716 0 8.9730617471577716 11.052573340422327 0 0 0 0 -2.7068374482623767 4.0669894206837398 0 4.0669894206837398 -13.125036899848965 0 0 0 0 3.0123170790975564 -4.631980468956499 0 -4.631980468956499 7.9052992569249909 0 0 0 0 -4.2105275860667462 6.7042697179222159 0 6.7042697179222159 -8.3236678624671185 0 0 0 0 -11.684568894066615 14.693533010584815 0 14.693533010584815 4.8342240736465101 0 0 0 0 -20.219375774890068 2.6983639583413606 0 2.6983639583413606 8.9265936830870487 0 0 0 0 -25.253710548364324 -5.650749221305432 0 -5.650749221305432 -2.9060366049532149 0 0 0 0 -24.287450201183674 -4.4061970050909167 0 -4.4061970050909167 -16.478184517001864 0 0 0 0 -49.018395593026071 -58.579048592620666 0 -58.579048592620666 -36.772339128469895 0 0 0 0 -54.961461331513419 -20.828044960313946 0 -20.828044960313946 -11.544092428743397 0 0 0 0 -11.291098599638644 -3.961047761396685 0 -3.961047761396685 -21.557810614340269 0 0 0 0 -9.7625578766310355 10.672219342232893 0 10.672219342232893 -8.5426061746879896 0 0 0 0 -10.590079471246554 -20.709346588629359 0 -20.709346588629359 -40.903923350438163 0 0 0 0 -41.392250792643608 33.562628821747012 0 33.562628821747012 -23.538069591943326 0 0 0 0 -7.9653326551560895 16.663330084209406 0 16.663330084209406 6.0503438955038291 0 0 0 0 -11.626881269010482 20.190823203467289 0 20.190823203467289 14.185869355284012 0 0 0 0 -18.06471155807958 22.615991370051688 0 22.615991370051688 19.39936139897145 0 0 0 0 -3.3477302828978281 5.3760901638929681 0 5.3760901638929681 5.2237543513247147 0 0 0 0 -4.7708185281080659 4.2767515585323963 0 4.2767515585323963 6.7082118095100327 0 0 0 0 -4.0165819188223395 4.8936507950418218 0 4.8936507950418218 7.56424992084726 0 0 0 0 -7.883502355588746 2.2371200958947597 0 2.2371200958947597 1.8568436121317591 0 0 0 0 26.208950077852933 12.966978106978331 0 12.966978106978331 21.013530907929635 0 0 0 0 -8.4453163830733189 3.3754308961079147 0 3.3754308961079147 0.085418331066161812 0 0 0 0 -15.580363406072138 12.096606189167687 0 12.096606189167687 25.241797809831951 0 0 0 0 -15.801047551052761 11.81288758212122 0 11.81288758212122 13.731436301099166 0 0 0 0 -215.72542792600871 -94.107826159291903 0 -94.107826159291903 25.565776604689518 0 0 0 0 -157.48429793222749 -58.854573252673163 0 -58.854573252673163 -11.36627385563736 0 0 0 0 -1.3685697461964423 0.35970216774627772 0 0.35970216774627772 -0.84688584314200721 0 0 0 0 -163.41656246152343 -49.043108426508525 0 -49.043108426508525 -6.3736396568758664 0 0 0 0 -147.31076748999931 -47.062026394860197 0 -47.062026394860197 -11.801255466709335 0 0 0 0 -204.17125418297292 -32.469057750443653 0 -32.469057750443653 -26.264506601803305 0 0 0 0 -161.720663743974 -6.4157401266209035 0 -6.4157401266209035 -10.534719212760365 0 0 0 0 -201.7443874775563 -20.759389021883607 0 -20.759389021883607 16.588129930711602 0 0 0 0 -231.21836348796933 -0.067709573778302001 0 -0.067709573778302001 15.658054102580081 0 0 0 0 -217.67558895245384 22.137750546826283 0 22.137750546826283 5.3619205484577037 0 0 0 0 -200.6474407334681 23.276943637643626 0 23.276943637643626 5.2707677175590106 0 0 0 0 -280.0982355769811 -22.005627458206163 0 -22.005627458206163 16.875098473336379 0 0 0 0 -299.22532409432461 -25.608338904062407 0 -25.608338904062407 43.60812592423872 0 0 0 0 -645.65484407182157 -80.23976152507214 0 -80.23976152507214 40.841602006613357 0 0 0 0 -292.71278124729724 -19.13621137797486 0 -19.13621137797486 33.523311605689059 0 0 0 0 -287.94691476450612 72.74540358133055 0 72.74540358133055 -7.7341689844934081 0 0 0 0 -142.77901085242775 53.827708407043929 0 53.827708407043929 -28.169263932425679 0 0 0 0 -14.299901806538401 132.35056491907534 0 132.35056491907534 -37.8671345045327 0 0 0 0 -321.53681903193865 165.16281739725713 0 165.16281739725713 -34.816473686712698 0 0 0 0 -881.16124631533603 -27.793146274624178 0 -27.793146274624178 -90.356270565372853 0 0 0 0 -488.12856779131835 -36.24413874019092 0 -36.24413874019092 -150.72677448366744 0 0 0 0 -4.3060778839367089 2.0067523333921784 0 2.0067523333921784 -0.97700157391166098 0 0 0 0 -686.20283190598275 -168.39748361116074 0 -168.39748361116074 -136.42828758109783 0 0 0 0 -328.94898534676759 -308.49275602202306 0 -308.49275602202306 -94.628663452761998 0 0 0 0 -13.523613808509253 -198.65313616046137 0 -198.65313616046137 -125.94937733564029 0 0 0 0 -385.33261053797833 -116.19142410562711 0 -116.19142410562711 24.445618304486288 0 0 0 0 -9.093090938818662 4.7544187303380099 0 4.7544187303380099 -2.0820253963484756 0 0 0 0 -26.94740544637898 35.3910873001455 0 35.3910873001455 25.189109515983205 0 0 0 0 -3.6979182218128699 22.437732371320408 0 22.437732371320408 -8.9896519717942738 0 0 0 0 0.19387851853190341 0.69626278357247218 0 0.69626278357247218 -0.92217019324372407 0 0 0 0 -0.92097012233756459 0.40735854817829775 0 0.40735854817829775 -0.15279736958427356 0 0 0 0 26.447614613504811 12.735838868772213 0 12.735838868772213 -32.926714957390544 0 0 0 0 28.232166387169855 4.5349192011964305 0 4.5349192011964305 16.862391243613587 0 0 0 0 -64.44058176157705 57.003878105145418 0 57.003878105145418 -3.8848660948116276 0 0 0 0 -277.85820437234361 113.54654116336246 0 113.54654116336246 9.1211224411104013 0 0 0 0 -144.5531230779452 -141.03241251126744 0 -141.03241251126744 119.83117743986406 0 0 0 0 -7.5979627859851462 -28.667334897534857 0 -28.667334897534857 24.09615955828167 0 0 0 0 76.198753608445713 4.8152996650977418 0 4.8152996650977418 13.497603697336444 0 0 0 0 24.834569760059821 -53.55888630816483 0 -53.55888630816483 37.742839434876544 0 0 0 0 -1.4353577522151681 70.528095086654019 0 70.528095086654019 -60.045500701432843 0 0 0 0 21.702766397625965 32.913849741092697 0 32.913849741092697 -57.167458231574074 0 0 0 0 -2.0876217193518443 1.5630820030444355 0 1.5630820030444355 -0.74935428723924213 0 0 0 0 -8.9864047888677305 31.193772122324642 0 31.193772122324642 33.56257147791473 0 0 0 0 27.256526689809107 113.56354287838525 0 113.56354287838525 33.360923678073902 0 0 0 0 -8.2142575238067366 -4.7342144487422928 0 -4.7342144487422928 19.067237472826147 0 0 0 0 -1.4727044963086371 0.78963694556009756 0 0.78963694556009756 -0.26698615074718257 0 0 0 0 6.071553140038759 60.772228715645504 0 60.772228715645504 9.4805792096542092 0 0 0 0 -19.209994729160826 9.7639535741809222 0 9.7639535741809222 -0.048973573836510922 0 0 0 0 -221.32037621598283 5.3496657352121408 0 5.3496657352121408 -0.010791002829855914 0 0 0 0 -287.82421437065204 -41.252828043983996 0 -41.252828043983996 -24.305636237545563 0 0 0 0 -316.91176990837266 -10.72485210800397 0 -10.72485210800397 0.063299566977873478 0 0 0 0 -328.58283990505879 46.785540477075671 0 46.785540477075671 -14.689710209094882 0 0 0 0 -422.25472292290215 -41.336815883700041 0 -41.336815883700041 89.598570977129214 0 0 0 0 -367.07332176873751 -52.396359396082715 0 -52.396359396082715 90.52760352574947 0 0 0 0 -109.97869799064938 -63.054430655500859 0 -63.054430655500859 -10.187225486535418 0 0 0 0 -376.16663659440383 -30.145638853367529 0 -30.145638853367529 68.588604372425436 0 0 0 0 -261.79275797729861 -17.892638825317796 0 -17.892638825317796 30.440716213208596 0 0 0 0 -224.51928229670739 -13.914996146205908 0 -13.914996146205908 28.351236562444583 0 0 0 0 -4.5324011654468421 2.593246050644396 0 2.593246050644396 -0.48309836077987556 0 0 0 0 -119.97949633522512 -179.67501909570092 0 -179.67501909570092 -66.879859264011031 0 0 0 0 -126.95919672083551 -44.51168687482911 0 -44.51168687482911 -8.2771592614325868 0 0 0 0 -234.39806223083542 -93.364262761727588 0 -93.364262761727588 7.1482299539021597 0 0 0 0 -245.09097177055264 -68.918894727668601 0 -68.918894727668601 76.457709079603717 0 0 0 0 -479.10560299435747 -153.97207535094225 0 -153.97207535094225 49.580256140202749 0 0 0 0 -307.69835957114992 -43.689276624238403 0 -43.689276624238403 91.780196204824506 0 0 0 0 -434.93179503018291 -22.41766522844749 0 -22.41766522844749 140.15857973285051 0 0 0 0 -773.38523833993531 -52.624779699200872 0 -52.624779699200872 139.89258103416873 0 0 0 0 -846.987306505991 -113.66314876682331 0 -113.66314876682331 -136.38897394267349 0 0 0 0 -345.47164010787674 176.94254201233639 0 176.94254201233639 -31.759854205126487 0 0 0 0 -2.8714359493943391 1.318094748424457 0 1.318094748424457 -0.074069559264822171 0 0 0 0 -461.78460467059995 -419.33807293052234 0 -419.33807293052234 -141.61395141055425 0 0 0 0 -75.798566545478025 -56.00088626369994 0 -56.00088626369994 29.612975894520787 0 0 0 0 -119.53636080405704 0.15295150158294746 0 0.15295150158294746 52.523070348530609 0 0 0 0 -204.99832945510207 -19.968568156597708 0 -19.968568156597708 56.352564024758863 0 0 0 0 -202.94824109318142 -38.202060598041044 0 -38.202060598041044 52.282890282449983 0 0 0 0 -246.20825055214095 -37.528802864232404 0 -37.528802864232404 17.04599532357264 0 0 0 0 -248.08769548738928 -112.71245813937939 0 -112.71245813937939 -26.77443756259586 0 0 0 0 -124.23794497350536 -49.241423527420636 0 -49.241423527420636 5.496143168568949 0 0 0 0 -55.618707588584584 30.187236644282443 0 30.187236644282443 4.0796486974414776 0 0 0 0 -3.6270594732772281 1.8343314906828283 0 1.8343314906828283 -0.043721513473407025 0 0 0 0 -1.7668632491975131 0.48605671488028435 0 0.48605671488028435 0.086662790442419049 0 0 0 0 5.0131444656763051 24.202554289133122 0 24.202554289133122 -0.037219343504604999 0 0 0 0 -117.82794390830895 6.8596498356550626 0 6.8596498356550626 -27.513749919296796 0 0 0 0 -81.519614521203039 -38.045801383720963 0 -38.045801383720963 3.4883707241582043 0 0 0 0 -295.29376840002806 55.999480754577064 0 55.999480754577064 -0.3396275994587295 0 0 0 0 -578.43636681859061 -198.11709226304487 0 -198.11709226304487 -38.833466744014352 0 0 0 0 -241.64025507468614 -61.893862549484396 0 -61.893862549484396 -39.898147143900069 0 0 0 0 -300.51882348858999 -47.201937820402392 0 -47.201937820402392 45.173197092573844 0 0 0 0 -216.92428917995858 65.503994041130966 0 65.503994041130966 18.410932777994631 0 0 0 0 -182.1482511699287 64.37695763934812 0 64.37695763934812 56.57977888734203 0 0 0 0 -226.90819438121252 4.2094299121075096 0 4.2094299121075096 60.420994724369962 0 0 0 0 -241.43184992087481 -51.311164588085376 0 -51.311164588085376 32.640684335781089 0 0 0 0 -201.8911000641383 -8.5478308838692101 0 -8.5478308838692101 59.16818337441066 0 0 0 0 -178.37090847493528 19.835886481740772 0 19.835886481740772 68.762500720273181 0 0 0 0 -161.40292276154287 6.3512686734875388 0 6.3512686734875388 46.989394187342668 0 0 0 0 -157.93273419638717 -6.4933413989344331 0 -6.4933413989344331 32.875958089351116 0 0 0 0 -135.37408377272368 22.801524521768442 0 22.801524521768442 44.124841141728609 0 0 0 0 -176.22752246444725 9.866266283306345 0 9.866266283306345 45.658034513977782 0 0 0 0 -186.3084160909566 2.3678574544424009 0 2.3678574544424009 40.083230890552613 0 0 0 0 -202.38843383627682 -7.1340106918554511 0 -7.1340106918554511 56.070107034071043 0 0 0 0 -194.83153622854297 -17.242832861197257 0 -17.242832861197257 51.252688011687383 0 0 0 0 -182.66491445021893 -16.658552569382834 0 -16.658552569382834 22.259540888428546 0 0 0 0 -136.88547410461615 -5.2095754563142691 0 -5.2095754563142691 -6.7150987782035827 0 0 0 0 -154.14121052247356 -42.185717566579797 0 -42.185717566579797 42.949712863761874 0 0 0 0 -168.61218886290226 11.743268617837884 0 11.743268617837884 -3.4835178392772832 0 0 0 0 -166.97913788091682 14.475428967434141 0 14.475428967434141 -12.667206929874283 0 0 0 0 -186.93322982530663 12.154270315890471 0 12.154270315890471 8.6501678995598468 0 0 0 0 -179.11576930271258 -2.8593007101087551 0 -2.8593007101087551 27.136259924299793 0 0 0 0 -191.23722250298306 22.850118509046524 0 22.850118509046524 13.906727380062534 0 0 0 0 -186.4334772332295 21.895065206966592 0 21.895065206966592 5.6537957532113978 0 0 0 0 -192.34792502454366 36.173920550712637 0 36.173920550712637 -10.858689888214741 0 0 0 0 -181.63134599713885 29.286703755011729 0 29.286703755011729 -13.279853598361115 0 0 0 0 -191.66917026208284 1.5257919662055315 0 1.5257919662055315 7.4273232007440129 0 0 0 0 -169.67366394227429 26.225597517126289 0 26.225597517126289 -13.200970850162349 0 0 0 0 -179.02313689414223 49.097177749062666 0 49.097177749062666 -62.641724468747725 0 0 0 0 -197.58721203023379 39.834836159493534 0 39.834836159493534 5.4385882897790907 0 0 0 0 -251.80263855850717 95.665795714795422 0 95.665795714795422 -40.673185999190537 0 0 0 0 -197.60162352805492 -96.83647805559724 0 -96.83647805559724 -27.988088316756148 0 0 0 0 -295.04082812068373 -3.0060183266641616 0 -3.0060183266641616 32.785876014286828 0 0 0 0 -149.43280929293542 -22.854525732885122 0 -22.854525732885122 19.890509343860458 0 0 0 0 -148.5668315666037 -4.9078569748456538 0 -4.9078569748456538 18.667760096507209 0 0 0 0 -192.27853346173652 23.89785625525019 0 23.89785625525019 18.817456104080748 0 0 0 0 -188.43033940723399 0.441623852902012 0 0.441623852902012 41.49389446645489 0 0 0 0 -193.85414944784497 -99.661564266747746 0 -99.661564266747746 50.70373786155028 0 0 0 0 -246.45831415456632 141.48238457338164 0 141.48238457338164 -24.44078419092466 0 0 0 0 -79.042599398053881 41.72657875464995 0 41.72657875464995 20.987030558806055 0 0 0 0 -2.8160138230803682 1.0251475437482718 0 1.0251475437482718 -0.36602581197223127 0 0 0 0 2.4236211475890741 73.521138377686214 0 73.521138377686214 -95.640590229166264 0 0 0 0 -131.3335805358729 57.125144709997471 0 57.125144709997471 -127.98246367998399 0 0 0 0 -88.6453897737847 -10.415584147471918 0 -10.415584147471918 -59.58408020603909 0 0 0 0 -163.58260501512996 -92.932239924196892 0 -92.932239924196892 60.696884265578774 0 0 0 0 -0.31127838240602301 -0.39323787965325607 0 -0.39323787965325607 1.4941283827476415 0 0 0 0 43.679834563492932 -68.809493997283894 0 -68.809493997283894 20.557628189177649 0 0 0 0 -292.83240048801599 -13.833424542478269 0 -13.833424542478269 38.414524201147287 0 0 0 0 -343.44721169961804 -46.787579619396467 0 -46.787579619396467 58.843597786032205 0 0 0 0 -537.03123086916457 -75.534251752769478 0 -75.534251752769478 24.5898177174995 0 0 0 0 -100.41751775210832 -2.3318226228112735 0 -2.3318226228112735 45.637943046644523 0 0 0 0 -78.58896406261556 -36.917584013299347 0 -36.917584013299347 23.085526770712249 0 0 0 0 -61.461326738288335 20.219170332484737 0 20.219170332484737 21.253816605689355 0 0 0 0 -67.912352448736783 1.5845595738041993 0 1.5845595738041993 42.477045253156575 0 0 0 0 -64.129895566091363 -6.3289859543277771 0 -6.3289859543277771 37.792958044307852 0 0 0 0 -23.90845158045704 11.377740515113828 0 11.377740515113828 24.412967787617845 0 0 0 0 -73.217436438448203 -9.4887252163698577 0 -9.4887252163698577 36.751848158972962 0 0 0 0 -58.077123160235715 6.6432235835634401 0 6.6432235835634401 17.162579174671919 0 0 0 0 -81.443726432922631 17.395515860772321 0 17.395515860772321 12.223234514291107 0 0 0 0 -44.160246365387138 -8.0143955942903631 0 -8.0143955942903631 8.3684791924497404 0 0 0 0 -74.727863240895203 -23.846347238762661 0 -23.846347238762661 4.0512442652880054 0 0 0 0 -0.63526349705267648 0.63379028826404493 0 0.63379028826404493 -0.60330304840835147 0 0 0 0 54.306663375733024 48.730569555147383 0 48.730569555147383 -1.9072339108111009 0 0 0 0 -130.64638955789997 -26.403658804735187 0 -26.403658804735187 13.647199490470712 0 0 0 0 27.534372480378806 -36.061825745600345 0 -36.061825745600345 -55.667574248024721 0 0 0 0 -85.029027254167886 32.254670245674674 0 32.254670245674674 -11.344388201320726 0 0 0 0 -26.594880264659878 5.5456009901154175 0 5.5456009901154175 -4.0500271116975455 0 0 0 0 -106.31682941508188 8.7955320460246185 0 8.7955320460246185 106.2015364065328 0 0 0 0 -4.9078103080246365 -5.643939631426278 0 -5.643939631426278 8.8175224215760863 0 0 0 0 -42.295891287166697 0.28705238722952586 0 0.28705238722952586 3.7684244168502423 0 0 0 0 -63.955141579066549 -77.629903757127977 0 -77.629903757127977 91.02406059036548 0 0 0 0 65.162801855865837 70.454690849976487 0 70.454690849976487 22.499249821145895 0 0 0 0 -6.7379776927694799 0.06305973894513528 0 0.06305973894513528 -0.67289677738792264 0 0 0 0 -577.62704772088546 238.01695382881167 0 238.01695382881167 -11.438649951783191 0 0 0 0 -71.783773465798731 14.593104092651174 0 14.593104092651174 121.52582472744598 0 0 0 0 -180.97969503013883 49.099449514220851 0 49.099449514220851 111.07404687899725 0 0 0 0 -34.87441381565516 2.0261614562906729 0 2.0261614562906729 5.8882217231999592 0 0 0 0 -34.106851663262205 -42.981788120528449 0 -42.981788120528449 53.751148917594492 0 0 0 0 -29.081795662692457 -1.1284340020251875 0 -1.1284340020251875 24.675585679161486 0 0 0 0 -5.577490805725688 -1.5183472531083879 0 -1.5183472531083879 12.555356374478736 0 0 0 0 -794.0865270256545 104.69400710559739 0 104.69400710559739 193.36281749666841 0 0 0 0 80.782828488621817 46.561301367547969 0 46.561301367547969 -109.6817140588455 0 0 0 0 -47.51323012595094 -6.0863959538019117 0 -6.0863959538019117 15.112572821394679 0 0 0 0 -14.191910317935253 -2.6315354146301217 0 -2.6315354146301217 5.3698997421042804 0 0 0 0 -18.079513117503666 -16.918789785835315 0 -16.918789785835315 17.346348723084247 0 0 0 0 -696.00372227090702 -366.70163556172884 0 -366.70163556172884 -79.050647689414518 0 0 0 0 0.80843295279028382 -1.5583462289538943 0 -1.5583462289538943 4.7349817882261451 0 0 0 0 -215.04542635834832 -35.511281430525912 0 -35.511281430525912 -41.203981488327372 0 0 0 0 -3.6058853441084437 -1.2060984646583925 0 -1.2060984646583925 -0.36113682999147478 0 0 0 0 -388.00797191948368 -478.17903865857079 0 -478.17903865857079 361.08901726611793 0 0 0 0 -674.12418817350408 410.88159112353378 0 410.88159112353378 -232.46109706627067 0 0 0 0 -68.448654142877785 82.06278491521789 0 82.06278491521789 -120.8229693545718 0 0 0 0 -9.7666339901714139 -1.5572546011721649 0 -1.5572546011721649 -0.039206799479039489 0 0 0 0 -54.767494142663054 67.951744698819311 0 67.951744698819311 372.93761845391919 0 0 0 0 -108.93489046816103 179.75122378888955 0 179.75122378888955 196.51809688143294 0 0 0 0 -894.8427886798745 377.74050033213234 0 377.74050033213234 -63.242432000763984 0 0 0 0 -192.52804122537782 34.499305859316337 0 34.499305859316337 89.11623756667359 0 0 0 0 -1007.2172486081181 -353.80075982748622 0 -353.80075982748622 243.52510769833225 0 0 0 0 -848.14296065968665 -261.91217497077832 0 -261.91217497077832 289.33974426837085 0 0 0 0 -11.406236056056088 -2.8796094849077605 0 -2.8796094849077605 1.1381934469919202 0 0 0 0 -411.74154487199849 -350.12372295054729 0 -350.12372295054729 -200.45186435669075 0 0 0 0 16.552864223471261 237.49887940385042 0 237.49887940385042 -756.88949527178374 0 0 0 0 -935.31887499601544 -298.8266721630979 0 -298.8266721630979 -146.12501010451797 0 0 0 0 174.90377577317122 107.34182022639015 0 107.34182022639015 -45.772049711336422 0 0 0 0 -632.23290177662784 514.95298127777778 0 514.95298127777778 -314.34966026788766 0 0 0 0 -4.4652802742158713 -5.083346458705698 0 -5.083346458705698 -1.7788107257603958 0 0 0 0 -19.94548669863434 -8.2434786989247186 0 -8.2434786989247186 0.46304602708551101 0 0 0 0 -12.682130097495246 -15.848024874415614 0 -15.848024874415614 -6.9002149349221327 0 0 0 0 22.77645748179566 -433.50569515744019 0 -433.50569515744019 -61.369303759479919 0 0 0 0 -14.301355478706498 -10.513114227962873 0 -10.513114227962873 -8.5863580738257088 0 0 0 0 -23.03034342477531 -12.933311153930106 0 -12.933311153930106 15.690687332954894 0 0 0 0 347.14078761680867 173.39981770780696 0 173.39981770780696 -13.739558506764297 0 0 0 0 158.98331555330697 -66.524653234795551 0 -66.524653234795551 -203.68919789506162 0 0 0 0 -15.83905063624843 -21.817172050101135 0 -21.817172050101135 -5.9841746385409351 0 0 0 0 -33.723409094538511 -11.054761090803254 0 -11.054761090803254 30.654427523147206 0 0 0 0 -20.513532332424376 -11.327392220318785 0 -11.327392220318785 -4.9415726260932011 0 0 0 0 -6.5449907516218389 3.1604063304516714 0 3.1604063304516714 -8.8923431821216017 0 0 0 0 -23.681010704349319 7.7969126670769811 0 7.7969126670769811 -5.1110285566337552 0 0 0 0 -21.450108262884896 0.31561044438558383 0 0.31561044438558383 1.756428664795294 0 0 0 0 -73.229332950417302 19.419486548197256 0 19.419486548197256 27.443760804878366 0 0 0 0 -23.812612390282084 11.109155026728331 0 11.109155026728331 -47.555745130525793 0 0 0 0 -129.10244319267076 330.1853599585678 0 330.1853599585678 128.89120869035469 0 0 0 0 159.19002377185097 262.45909720155123 0 262.45909720155123 136.20930410856431 0 0 0 0 -3.8516679651398746 4.4897563520620523 0 4.4897563520620523 -4.3890345313162094 0 0 0 0 -3.475777143779851 12.235566134982491 0 12.235566134982491 -16.052958172749641 0 0 0 0 -24.14358173020446 1.9766858955115367 0 1.9766858955115367 -0.79749447193535161 0 0 0 0 -24.379509136771958 1.6896807086964145 0 1.6896807086964145 -0.86858382903938036 0 0 0 0 -59.098115008921013 -5.2022975916074756 0 -5.2022975916074756 -2.2562008020370286 0 0 0 0 -21.488077271500515 5.3845748810208534 0 5.3845748810208534 -27.491973708332353 0 0 0 0 -74.883815730778224 52.010155145011083 0 52.010155145011083 -26.966051062157931 0 0 0 0 -4.6832931154072099 -0.66351483936248101 0 -0.66351483936248101 -0.75886533545285317 0 0 0 0 -85.136515253223479 26.986161922439123 0 26.986161922439123 20.946112194464149 0 0 0 0 -80.679763814656326 31.029655245506092 0 31.029655245506092 4.3837622113005636 0 0 0 0 -53.274516257944924 -5.8242072008929426 0 -5.8242072008929426 33.428731645114112 0 0 0 0 17.362315354388556 82.342857730312062 0 82.342857730312062 -32.923570818886219 0 0 0 0 -2.6314096508883296 0.39623422461890101 0 0.39623422461890101 0.7708310945429524 0 0 0 0 -214.1029002027135 103.56430246641867 0 103.56430246641867 -22.68114640187423 0 0 0 0 -231.84015498043664 73.519653945775644 0 73.519653945775644 13.669865568691421 0 0 0 0 -130.86203487743478 110.5522497774009 0 110.5522497774009 -36.37373125699196 0 0 0 0 -214.16545808494294 106.73341454842233 0 106.73341454842233 -32.807249890373896 0 0 0 0 -318.78193785152689 146.08026360132908 0 146.08026360132908 -11.027161754703229 0 0 0 0 -211.53337068569454 94.012681303978525 0 94.012681303978525 9.9354511407637176 0 0 0 0 -190.98494239520733 44.63817929692982 0 44.63817929692982 5.9611740754958191 0 0 0 0 -318.4397478500141 9.8520845062794251 0 9.8520845062794251 54.064994514492355 0 0 0 0 -229.93518337378555 -10.281147062190144 0 -10.281147062190144 9.4773197888393952 0 0 0 0 -225.5207391701515 2.8815430278873464 0 2.8815430278873464 48.674559827748851 0 0 0 0 -211.50674833504308 3.2264473032903993 0 3.2264473032903993 16.137544352864552 0 0 0 0 -195.21028734388346 22.038642836937129 0 22.038642836937129 3.5539666183117333 0 0 0 0 -158.01680322465836 -17.550113639219944 0 -17.550113639219944 -1.7278235681887963 0 0 0 0 -125.52914866137871 -1.5455516919394086 0 -1.5455516919394086 -23.910598351134922 0 0 0 0 -115.43316283391323 -10.34456761544709 0 -10.34456761544709 -17.319262692781649 0 0 0 0 -128.35934515644476 20.600662797115319 0 20.600662797115319 3.1687124750192197 0 0 0 0 -48.433384441479575 13.459763743588837 0 13.459763743588837 -12.001762419133229 0 0 0 0 -65.336552647986537 -26.635947690444027 0 -26.635947690444027 -16.646492549444247 0 0 0 0 -94.11786492079591 -44.665338289162889 0 -44.665338289162889 -12.106795082499048 0 0 0 0 -66.230668371848878 -27.569391932449435 0 -27.569391932449435 -12.988944106731651 0 0 0 0 -55.412033911969047 -38.345203037892588 0 -38.345203037892588 -18.946342383318552 0 0 0 0 -58.030437034756687 -31.627174691330026 0 -31.627174691330026 -21.46357263927257 0 0 0 0 -32.647334011649946 -9.4903417098348655 0 -9.4903417098348655 -11.67697832056092 0 0 0 0 -32.544425901185605 -10.309313442618304 0 -10.309313442618304 -8.8963382431547871 0 0 0 0 -0.92867299497447675 1.6064625069468548 0 1.6064625069468548 -8.1779995671608958 0 0 0 0 -0.98561663889404372 15.101751411610467 0 15.101751411610467 -4.9857056668943187 0 0 0 0 -12.465745411336684 9.3036281155015104 0 9.3036281155015104 -12.250398398745347 0 0 0 0 -16.741329605822102 -2.0717471252287396 0 -2.0717471252287396 -14.281044966632635 0 0 0 0 -25.771840948495083 -0.024540341681131395 0 -0.024540341681131395 -27.92660253689246 0 0 0 0 -11.092478206812046 5.3544331669188949 0 5.3544331669188949 -2.115029672748638 0 0 0 0 -0.038449715590104461 3.9766134396577399 0 3.9766134396577399 -7.3705629069769429 0 0 0 0 -19.189899658000414 -4.0586655751136149 0 -4.0586655751136149 -1.7408490272626223 0 0 0 0 -12.990266583371266 -6.8894614670993235 0 -6.8894614670993235 -3.2195019791196477 0 0 0 0 -10.814300842898497 1.2186685579483623 0 1.2186685579483623 -2.984625640821978 0 0 0 0 -8.9401742039335659 -2.4324092335755267 0 -2.4324092335755267 0.69415685640160518 0 0 0 0 18.493397767291754 -1.0211335637300181 0 -1.0211335637300181 -21.570092017142997 0 0 0 0 -38.317394045145193 -0.13554941258530562 0 -0.13554941258530562 -13.083236616063004 0 0 0 0 -3.701860855632642 -7.914356638202996 0 -7.914356638202996 -7.5441736585089938 0 0 0 0 -24.08685258027981 -16.298795375520854 0 -16.298795375520854 4.2166241545642151 0 0 0 0 1.6033991967094607 0.43387055639700378 0 0.43387055639700378 -2.0229660805530427 0 0 0 0 -14.52753688764642 13.788075758418472 0 13.788075758418472 -26.652294617992538 0 0 0 0 3.9438228679209715 -6.0877475528318428 0 -6.0877475528318428 -16.778069426817183 0 0 0 0 -6.7295059528478305 8.5937177092682759 0 8.5937177092682759 -10.090463137021288 0 0 0 0 4.6074803718402109 11.610866218743013 0 11.610866218743013 -30.414809830316244 0 0 0 0 -28.172834060671448 -11.041753849414818 0 -11.041753849414818 -19.409123014055126 0 0 0 0 -21.777856904680448 -16.659693062478652 0 -16.659693062478652 -8.7833644359188838 0 0 0 0 -74.414293581314269 -19.176151832068626 0 -19.176151832068626 7.9717324581723688 0 0 0 0 -13.048908995966485 8.1368409135823185 0 8.1368409135823185 -42.892636445063772 0 0 0 0 -9.466894109395291 -8.0826969448340762 0 -8.0826969448340762 -7.2721562869885368 0 0 0 0 -18.038046395093261 -38.564375079449974 0 -38.564375079449974 -4.0163903175744053 0 0 0 0 -5.0121085384525941 -41.575709269311119 0 -41.575709269311119 -26.70291801772953 0 0 0 0 -9.3275040781481948 -31.968222074746791 0 -31.968222074746791 -47.633492594439304 0 0 0 0 25.440739121346269 -94.578245954340218 0 -94.578245954340218 -25.091126583915866 0 0 0 0 -41.31009961408563 -50.882652190171029 0 -50.882652190171029 55.305794282264287 0 0 0 0 11.509853035808192 -42.029393829330729 0 -42.029393829330729 -124.94239668997261 0 0 0 0 -75.686971254370292 -48.757601333761158 0 -48.757601333761158 103.85048758504854 0 0 0 0 -55.054307241749484 -11.647770905311518 0 -11.647770905311518 28.492669401957755 0 0 0 0 -193.98447020736057 -86.212616676551079 0 -86.212616676551079 -5.4676202859523073 0 0 0 0 -73.973099020899099 40.845338781829469 0 40.845338781829469 -72.29731816119056 0 0 0 0 -131.3915623525827 -38.156143712819812 0 -38.156143712819812 -14.366682416318326 0 0 0 0 -46.444630771037737 -69.542179693920332 0 -69.542179693920332 -29.11463103648066 0 0 0 0 -124.56494108893821 92.186061048409556 0 92.186061048409556 -44.063067469647422 0 0 0 0 -1.4693966493216095 -0.72281773263379634 0 -0.72281773263379634 -0.30250554965998866 0 0 0 0 -74.947787839264493 5.2552213213539289 0 5.2552213213539289 48.47232549817727 0 0 0 0 -45.290057856604108 25.462646744822678 0 25.462646744822678 -8.1489966941298917 0 0 0 0 -90.99777881281625 38.092029925531278 0 38.092029925531278 15.489023113125768 0 0 0 0 -59.074505317919829 3.623159350278911 0 3.623159350278911 33.395832064930573 0 0 0 0 16.789294899193919 -103.24325339746883 0 -103.24325339746883 54.941427049016966 0 0 0 0 -20.060002612102835 -62.90346410130087 0 -62.90346410130087 22.203407791161226 0 0 0 0 -119.75576392073344 -8.9444224418584781 0 -8.9444224418584781 50.155586432934797 0 0 0 0 -23.813179439079249 -59.376063266780875 0 -59.376063266780875 38.415944090291532 0 0 0 0 2.5591469579521799 -2.3018886529716838 0 -2.3018886529716838 38.912367262847511 0 0 0 0 35.521794858153953 -81.101213623051308 0 -81.101213623051308 26.887289834106923 0 0 0 0 -71.579908711981261 -1.7374023052007033 0 -1.7374023052007033 43.003308015899165 0 0 0 0 -27.505000376145972 -9.6661061288314905 0 -9.6661061288314905 -1.5993952470083772 0 0 0 0 -5.5772630743435769 1.4321981525299492 0 1.4321981525299492 3.1112705768153326 0 0 0 0 -38.083570195125048 -5.0753139542550656 0 -5.0753139542550656 -1.7818572492792555 0 0 0 0 -36.370676914924616 -18.544619031803506 0 -18.544619031803506 3.2319651188463467 0 0 0 0 -51.274156568899343 -14.539370969595552 0 -14.539370969595552 3.6029141214827405 0 0 0 0 -0.76620844213175587 -57.110074674285897 0 -57.110074674285897 -38.28123990129825 0 0 0 0 0.59181101086034005 -2.6168676465806904 0 -2.6168676465806904 -1.4139855705987365 0 0 0 0 -23.763267138460677 -10.683554511509065 0 -10.683554511509065 -3.2639119609485245 0 0 0 0 -14.704053402658246 -16.005758379821884 0 -16.005758379821884 -3.8945197057146288 0 0 0 0 -31.700897004069702 -9.8624285579394382 0 -9.8624285579394382 3.4475163612440127 0 0 0 0 -33.13736700030131 -24.307739381700685 0 -24.307739381700685 -6.5319045402911797 0 0 0 0 -44.789425861866221 -6.9938459714583132 0 -6.9938459714583132 -5.487902837762249 0 0 0 0 -42.718381559512636 -14.203059071695634 0 -14.203059071695634 6.1234562058730262 0 0 0 0 -36.094594229311042 -17.189158523470269 0 -17.189158523470269 7.3913930781950512 0 0 0 0 -73.780044157640077 -32.500042447687974 0 -32.500042447687974 1.2939859710620567 0 0 0 0 -31.368583686420607 -36.790449720961533 0 -36.790449720961533 -22.393122295726243 0 0 0 0 -75.323710338094656 1.2687656567903716 0 1.2687656567903716 62.625036121488847 0 0 0 0 -16.139020093523868 -19.253251598886663 0 -19.253251598886663 -7.9303629053229088 0 0 0 0 -15.64011401807511 -19.001319909297763 0 -19.001319909297763 -12.761151010369304 0 0 0 0 -62.793951756659226 74.01399310036777 0 74.01399310036777 -14.815087566909142 0 0 0 0 -79.182638738479 -89.40762912086609 0 -89.40762912086609 -71.338745744004655 0 0 0 0 -2.2744881104816095 -11.942754102153231 0 -11.942754102153231 -1.2252829571297106 0 0 0 0 -43.314564581745799 5.9984005147307471 0 5.9984005147307471 16.64873583475628 0 0 0 0 -4.6862543393610387 -2.665413959828534 0 -2.665413959828534 -1.492116382179475 0 0 0 0 -68.340528818363964 -3.8347827467234197 0 -3.8347827467234197 -0.067134077859009267 0 0 0 0 36.423688544744891 -13.952202076111973 0 -13.952202076111973 -38.133799975837974 0 0 0 0 -84.956499057469046 -56.613227695065234 0 -56.613227695065234 15.523187777462113 0 0 0 0 -25.535891219504265 -37.786797613449608 0 -37.786797613449608 8.2266898384204978 0 0 0 0 -43.054835488794197 -8.9587110178734974 0 -8.9587110178734974 -1.1444305715913288 0 0 0 0 -42.996164478397986 -8.5256994913324888 0 -8.5256994913324888 -3.4493317580890448 0 0 0 0 -6.1099701957087831 -3.4822899125523321 0 -3.4822899125523321 0.50125302593232668 0 0 0 0 -11.706593304312506 -12.172719365346161 0 -12.172719365346161 -1.8713149006858067 0 0 0 0 -31.616930027988928 -25.852497022461989 0 -25.852497022461989 11.251089116727599 0 0 0 0 -31.098625788761964 -10.148377503927893 0 -10.148377503927893 -2.3484077729985677 0 0 0 0 -40.59663988052489 -6.4677146957790228 0 -6.4677146957790228 -11.528537748362396 0 0 0 0 72.291347043479618 -17.490562161781099 0 -17.490562161781099 -36.275856070536975 0 0 0 0 -9.9359125766073344 -1.8714768760384928 0 -1.8714768760384928 0.29542559306398886 0 0 0 0 -68.113165972534262 -18.847643831392361 0 -18.847643831392361 25.068235835780797 0 0 0 0 -37.567605859375988 -7.5723808450823249 0 -7.5723808450823249 -1.2141156757582297 0 0 0 0 -65.446626638731686 23.653090401760892 0 23.653090401760892 34.6887104881813 0 0 0 0 -54.491707826176935 -20.632364847045096 0 -20.632364847045096 14.654858991623087 0 0 0 0 -36.943460389481942 -2.1351552232687805 0 -2.1351552232687805 0.12855567047650185 0 0 0 0 -41.608630210288538 4.6223699545478212 0 4.6223699545478212 11.901593132130927 0 0 0 0 -41.863723093383044 10.922240443428901 0 10.922240443428901 -1.5477994903303625 0 0 0 0 -40.275104112268309 16.612541304927504 0 16.612541304927504 4.2340303229314031 0 0 0 0 -40.184611064623027 19.880640981375556 0 19.880640981375556 -5.7617964082983235 0 0 0 0 -47.527773094467193 -12.811804224617163 0 -12.811804224617163 18.274095921884964 0 0 0 0 -90.254694986646882 -0.42836052293341709 0 -0.42836052293341709 14.685626581269844 0 0 0 0 -58.883212188142352 13.580170172659905 0 13.580170172659905 7.6406510204903952 0 0 0 0 -86.815037800126447 3.8616458502140176 0 3.8616458502140176 19.735958746090546 0 0 0 0 -198.77579256696845 44.05994907942204 0 44.05994907942204 10.214245800179242 0 0 0 0 -91.797169500683822 43.923890833500593 0 43.923890833500593 -9.7944374496955788 0 0 0 0 -13.759724851588544 25.691526308820926 0 25.691526308820926 -40.265249747388339 0 0 0 0 -4.6027286062610813 1.0357912382974979 0 1.0357912382974979 -1.4955888080177213 0 0 0 0 -20.703973976822908 11.36522813777799 0 11.36522813777799 -12.574558350962434 0 0 0 0 -1.5145321772212412 -0.39976837594274883 0 -0.39976837594274883 -0.096983936791847802 0 0 0 0 -85.235340388288023 90.931300488098032 0 90.931300488098032 -99.093650395079976 0 0 0 0 -81.860756264184602 -73.017739268842774 0 -73.017739268842774 -50.02769724271252 0 0 0 0 -768.09515740718052 421.30349507078654 0 421.30349507078654 -178.70487616677991 0 0 0 0 -5.0127823686812008 0.62280178210670911 0 0.62280178210670911 -1.536774832071099 0 0 0 0 59.125639557530121 -31.992691591766945 0 -31.992691591766945 -176.96821005835787 0 0 0 0 -1.3577649571178174 2.4506399171336355 0 2.4506399171336355 -6.381921833317814 0 0 0 0 -18.041793610540481 -1.9960669536305886 0 -1.9960669536305886 -12.310100383360322 0 0 0 0 -0.92619904328423974 4.9749968300948026 0 4.9749968300948026 -6.6479330384358137 0 0 0 0 -6.7980631494065165 8.4135108042088405 0 8.4135108042088405 -18.771351883180387 0 0 0 0 -197.0543626880135 -197.96337701465484 0 -197.96337701465484 -228.74375791292414 0 0 0 0 -1493.1979382451807 100.15961399900672 0 100.15961399900672 277.47582877604037 0 0 0 0 -57.850326161733392 102.47977855565978 0 102.47977855565978 -190.98362870475773 0 0 0 0 -2.3810317200031603 4.8574801038196966 0 4.8574801038196966 -7.0545630276046669 0 0 0 0 -25.961071266010549 12.94030573073303 0 12.94030573073303 -3.0744649492539793 0 0 0 0 -13.471563888339006 -0.36219345857557528 0 -0.36219345857557528 -2.5802682222363273 0 0 0 0 -21.113775743670836 3.3638578910744705 0 3.3638578910744705 -2.5059890235709386 0 0 0 0 -11.725150507862626 -0.20137340035820017 0 -0.20137340035820017 -5.3183864498656037 0 0 0 0 -712.5616532220447 -315.065580145225 0 -315.065580145225 -138.35044162788458 0 0 0 0 -1476.1890429156047 165.11319093132212 0 165.11319093132212 173.92083249119787 0 0 0 0 -3.0866484855101533 1.5308181321698981 0 1.5308181321698981 -2.4549224596386705 0 0 0 0 -1495.6146624340472 336.48732008999991 0 336.48732008999991 96.081054738277047 0 0 0 0 194.79546133961412 -76.624998835950251 0 -76.624998835950251 -245.30698383975528 0 0 0 0 -45.41253096559376 311.10287882591319 0 311.10287882591319 -94.977832125591803 0 0 0 0 -2.6462002860533858 -0.92499137588049152 0 -0.92499137588049152 -0.89404634988294229 0 0 0 0 -1.9209239629243484 -1.1853335780723739 0 -1.1853335780723739 -3.2896765259777863 0 0 0 0 -1520.9402181464175 249.31011185860891 0 249.31011185860891 -47.582977469602604 0 0 0 0 -11.352695301977363 -5.1574680873814227 0 -5.1574680873814227 -2.5239856191104471 0 0 0 0 -253.35330780134609 -87.085834101392223 0 -87.085834101392223 219.5294423787702 0 0 0 0 -520.95562426310607 -48.705830717088794 0 -48.705830717088794 26.140304829512303 0 0 0 0 -6.0203425731131262 -6.3290709487637749 0 -6.3290709487637749 -2.8476912229432725 0 0 0 0 -15.293852507144038 -5.8312327784799436 0 -5.8312327784799436 -0.56808664067330028 0 0 0 0 -638.31017738955416 -959.29186208047645 0 -959.29186208047645 -669.68195989348681 0 0 0 0 -1498.0051799981156 -563.10767917787518 0 -563.10767917787518 88.344132524615361 0 0 0 0 -1028.4265490485232 -125.02179103091839 0 -125.02179103091839 116.58661713728392 0 0 0 0 -808.51815839991832 -320.50425377365605 0 -320.50425377365605 -160.01987779196082 0 0 0 0 -5.7659276399673107 -17.0392861250088 0 -17.0392861250088 -5.028746788576604 0 0 0 0 -65.812409376088908 -0.34202012078776534 0 -0.34202012078776534 5.6985908852597049 0 0 0 0 -26.059732086246584 7.7063978858567737 0 7.7063978858567737 -0.86651216103155315 0 0 0 0 -13.754298684689275 4.1540076959136059 0 4.1540076959136059 -5.6411714756911238 0 0 0 0 -17.143208290337498 -0.77576541413645828 0 -0.77576541413645828 -7.1215380280195859 0 0 0 0 -15.087133092601874 -0.99950920279006006 0 -0.99950920279006006 -2.1145454716053149 0 0 0 0 -14.38711818406485 -0.72430734898421889 0 -0.72430734898421889 -2.7703657156534356 0 0 0 0 -21.609207856898138 0.34202244431980944 0 0.34202244431980944 -6.9725255653580689 0 0 0 0 -23.479913613748067 -5.2552745640381318 0 -5.2552745640381318 -7.3010346957332786 0 0 0 0 -34.65984674802894 12.763317578101464 0 12.763317578101464 -24.38409266137046 0 0 0 0 -4.5277562801857698 -3.4460602167661065 0 -3.4460602167661065 0.81147615547047813 0 0 0 0 -61.824223127114237 -62.267845071422471 0 -62.267845071422471 5.4314111420497966 0 0 0 0 -79.474208228949919 16.257532345740913 0 16.257532345740913 6.8117834831305117 0 0 0 0 -63.916927498343284 11.973544078137138 0 11.973544078137138 6.7772112233732287 0 0 0 0 -48.494595495823887 5.8414914324366691 0 5.8414914324366691 5.0016507284550471 0 0 0 0 -67.774394684587605 8.4406355167222955 0 8.4406355167222955 9.9463095198934184 0 0 0 0 -53.698090517213132 1.2402315534322952 0 1.2402315534322952 11.233362734888715 0 0 0 0 -9.9679304099772708 -5.4979361397874982 0 -5.4979361397874982 -10.824096834928241 0 0 0 0 -43.161443598739424 12.090111249251891 0 12.090111249251891 10.416399137815802 0 0 0 0 -66.497915169515181 131.62069501098676 0 131.62069501098676 -133.48235245313117 0 0 0 0 -21.809342035705498 8.8511270322624398 0 8.8511270322624398 0.024009459637464481 0 0 0 0 -34.085819523286773 2.3590960465708122 0 2.3590960465708122 -17.310673363213937 0 0 0 0 -83.564813842589501 -170.53616071835449 0 -170.53616071835449 26.366030234554273 0 0 0 0 -6.8807472296934691 -2.7070716735747808 0 -2.7070716735747808 -0.90103449967016491 0 0 0 0 -20.650600300062024 6.3613021519090509 0 6.3613021519090509 0.20480345572837955 0 0 0 0 -40.348470559649286 7.4765411264204999 0 7.4765411264204999 -13.757967361753799 0 0 0 0 -37.752429973703329 7.3882624015333249 0 7.3882624015333249 -17.683086774555704 0 0 0 0 -37.543800767889479 6.1719351724455009 0 6.1719351724455009 -14.498448860959797 0 0 0 0 -45.458499539963668 14.465491734555826 0 14.465491734555826 -24.001887272089334 0 0 0 0 -56.988446231087437 17.893932686042263 0 17.893932686042263 -8.5830470024448005 0 0 0 0 -60.469029333646176 23.14620521075517 0 23.14620521075517 -13.904189960874646 0 0 0 0 -30.119815906811709 -2.0210128237010849 0 -2.0210128237010849 -14.042153275825513 0 0 0 0 -17.547416102868738 22.011859094756801 0 22.011859094756801 -1.9871611112025676 0 0 0 0 -9.0962881058012925 -0.34964503989316142 0 -0.34964503989316142 -0.94485543975524511 0 0 0 0 -28.852252753582434 -0.32732137974358011 0 -0.32732137974358011 37.275687307694398 0 0 0 0 -26.350242721135146 13.409457879185197 0 13.409457879185197 -3.4140024060627638 0 0 0 0 -17.214776037943693 11.9220507004644 0 11.9220507004644 -11.861090039895771 0 0 0 0 -26.303010017246592 3.6148707867280172 0 3.6148707867280172 -11.920465481878637 0 0 0 0 -62.241535525980915 -9.0511741100791436 0 -9.0511741100791436 -5.6101647538544057 0 0 0 0 -81.286388178334164 -3.1679009396348192 0 -3.1679009396348192 3.343256183617541 0 0 0 0 -3.5557724540874389 -15.527768137636905 0 -15.527768137636905 -5.7536306354067639 0 0 0 0 -1358.0457043675124 9.9853977162465171 0 9.9853977162465171 47.013338862028213 0 0 0 0 -1499.9360659837657 -28.471698978117946 0 -28.471698978117946 124.57968694645095 0 0 0 0 -42.151575747074617 -8.3424658216355994 0 -8.3424658216355994 -14.598239315120054 0 0 0 0 -99.817830630069238 -27.436123659038003 0 -27.436123659038003 -22.99464962510217 0 0 0 0 -1499.9008061226532 -14.863238905148815 0 -14.863238905148815 -14.841644612923043 0 0 0 0 -1.6455522513184988 11.328375933126701 0 11.328375933126701 -25.566698284965241 0 0 0 0 -2.0717693854402501 13.509458312653518 0 13.509458312653518 -13.336995493109493 0 0 0 0 -1498.0550594083634 -18.894671413903161 0 -18.894671413903161 -11.418670042937272 0 0 0 0 -63.929491128604695 1.0578050768019693 0 1.0578050768019693 -2.7362972493192501 0 0 0 0 -102.75126357255931 37.368377469789493 0 37.368377469789493 -0.95146298919735273 0 0 0 0 -107.83801454728109 48.767347133494013 0 48.767347133494013 -1.4098655971265543 0 0 0 0 -88.577027965889854 14.775867768377168 0 14.775867768377168 -6.6307906539832402 0 0 0 0 -132.95568968156226 61.096440344682492 0 61.096440344682492 -11.336189554612702 0 0 0 0 -78.366041748077123 38.159500225375268 0 38.159500225375268 -66.681647420497029 0 0 0 0 -6.4472440523200021 -9.1159908847680526 0 -9.1159908847680526 -36.243978007265014 0 0 0 0 -109.07747060944132 -0.17996421562429532 0 -0.17996421562429532 -13.602169207446877 0 0 0 0 -69.931049728734479 -12.920293350294742 0 -12.920293350294742 -19.437843436179719 0 0 0 0 -51.925653810967106 -4.4038620389783318 0 -4.4038620389783318 -49.231816239805084 0 0 0 0 -93.823230681436371 -9.3219613714124989 0 -9.3219613714124989 -14.349677512040216 0 0 0 0 -110.2708499015954 -34.632061061490276 0 -34.632061061490276 -35.530350794562764 0 0 0 0 -69.494959300095843 -8.1684259826512005 0 -8.1684259826512005 0.081667225352248352 0 0 0 0 -37.873890257622406 25.143812061558492 0 25.143812061558492 -7.7695357228220701 0 0 0 0 -124.76191080951321 -9.0308947111734597 0 -9.0308947111734597 -3.9814623597640093 0 0 0 0 -116.18708396802322 68.934856011017018 0 68.934856011017018 -2.372268975294503 0 0 0 0 -279.11775510815852 71.167560148120913 0 71.167560148120913 15.879262268276761 0 0 0 0 -0.3663336884362598 -0.34243539769548725 0 -0.34243539769548725 -1.0289117462238586 0 0 0 0 -94.780478572221909 105.67436685707526 0 105.67436685707526 -60.645741149777677 0 0 0 0 -1500.0876205855566 -11.228046775849188 0 -11.228046775849188 -18.562384492575639 0 0 0 0 36.764307254184132 40.576469944573546 0 40.576469944573546 -92.407301892934811 0 0 0 0 -1498.2566133490036 -14.875878265584529 0 -14.875878265584529 -15.364842740142752 0 0 0 0 -2.2218333209224892 17.741079951367205 0 17.741079951367205 -17.333701645297054 0 0 0 0 -2.1473371479835519 21.930280468504293 0 21.930280468504293 -19.846527964556085 0 0 0 0 -46.774366914370148 43.443037998255477 0 43.443037998255477 -35.640767821600093 0 0 0 0 -1495.0251615314992 -8.5913607818598141 0 -8.5913607818598141 -17.221632010842853 0 0 0 0 -1499.7159991419412 -2.3504772767424962 0 -2.3504772767424962 -10.227243712264547 0 0 0 0 -102.05907111872966 11.016612992314549 0 11.016612992314549 -16.655061523981203 0 0 0 0 -180.78732361179431 40.442136421622877 0 40.442136421622877 13.813849812793705 0 0 0 0 0.88397005873064161 -0.59940238865666817 0 -0.59940238865666817 -3.3086412701180805 0 0 0 0 -100.24565879179636 26.833848804139052 0 26.833848804139052 -10.477338532822387 0 0 0 0 -13.485764638238544 3.203319384621099 0 3.203319384621099 -6.4049057745042859 0 0 0 0 -1374.7645393915554 29.090240994905585 0 29.090240994905585 -21.04169301776983 0 0 0 0 -4.716341716517169 25.409292145830218 0 25.409292145830218 -21.495729290258833 0 0 0 0 -204.56764550125808 19.474475339092216 0 19.474475339092216 122.61572841636607 0 0 0 0 -1500.8776141979743 13.03355033212552 0 13.03355033212552 -249.74881947128645 0 0 0 0 -81.110853195383868 18.377598735687414 0 18.377598735687414 -14.259119066940002 0 0 0 0 -1555.2401563432686 281.70097666036958 0 281.70097666036958 -1.1249829389136323 0 0 0 0 -10.834175386394705 9.8886463366681561 0 9.8886463366681561 -0.55422838664291096 0 0 0 0 -55.115080758646172 39.22983947851985 0 39.22983947851985 -135.82286242909524 0 0 0 0 -4.2812543185342919 3.4060367289278375 0 3.4060367289278375 0.44727552070790255 0 0 0 0 103.82982650055214 -164.24374793500377 0 -164.24374793500377 205.46087698459689 0 0 0 0 -15.917120034669082 7.0217954144492083 0 7.0217954144492083 -7.9245616981097253 0 0 0 0 -56.073089941525154 -0.29706920759883104 0 -0.29706920759883104 6.6477775202842651 0 0 0 0 28.602078238777722 79.305839545762467 0 79.305839545762467 -26.52254253884221 0 0 0 0 -32.294693926336549 -8.8466480785453427 0 -8.8466480785453427 -11.92805753068069 0 0 0 0 -1497.3783213761599 -33.68885007987609 0 -33.68885007987609 308.26950985615724 0 0 0 0 -708.69936576752661 -355.70639154299528 0 -355.70639154299528 22.604748452430684 0 0 0 0 -2152.7487677952013 -268.18674547688778 0 -268.18674547688778 25.854574728492612 0 0 0 0 -411.55215051985579 -813.71552575732676 0 -813.71552575732676 -348.48720190318591 0 0 0 0 -465.45768333064916 168.77931304932213 0 168.77931304932213 43.202427670491232 0 0 0 0 -23.60645562076752 20.002687032940692 0 20.002687032940692 28.828889007931725 0 0 0 0 -753.16777520290816 -272.61886973442552 0 -272.61886973442552 -40.946200182743169 0 0 0 0 -174.03000748350132 3.7827487238099593 0 3.7827487238099593 14.821157812564252 0 0 0 0 -26.177752594590856 -1.9868094195969661 0 -1.9868094195969661 -5.3776548239713975 0 0 0 0 -25.932826880334687 -0.62948307572168005 0 -0.62948307572168005 -22.469127722521534 0 0 0 0 -43.768171226067352 -37.672115352372771 0 -37.672115352372771 -8.5308785611849203 0 0 0 0 -54.753520811810262 -1.9875276727876994 0 -1.9875276727876994 6.7372886660792659 0 0 0 0 -42.050665539683905 -25.375769736745724 0 -25.375769736745724 28.106617849860868 0 0 0 0 -56.492511090416883 11.022228989042333 0 11.022228989042333 -8.6617853249831569 0 0 0 0 -90.79920780098837 -7.1543733994492413 0 -7.1543733994492413 15.732882540795799 0 0 0 0 -94.917347559818154 -28.322490715271329 0 -28.322490715271329 74.09663293943504 0 0 0 0 -59.561857448521501 -4.1864281318842167 0 -4.1864281318842167 7.822436550964099 0 0 0 0 -164.38956872986114 6.3672657525926297 0 6.3672657525926297 243.53933719710403 0 0 0 0 -64.111939870244157 28.626309833858159 0 28.626309833858159 8.0044176147821418 0 0 0 0 -13.256476823403233 19.385609525549569 0 19.385609525549569 -26.138094128897137 0 0 0 0 -37.619365186269988 32.335373069087836 0 32.335373069087836 -6.9219461536849849 0 0 0 0 -33.700499604842719 28.614929604234931 0 28.614929604234931 -32.310578651065953 0 0 0 0 -53.63455568988843 22.29319130611384 0 22.29319130611384 -25.310170167641445 0 0 0 0 -39.107700197773454 -14.879324246760461 0 -14.879324246760461 -116.18892612720447 0 0 0 0 -146.87500242475153 -40.420388782994451 0 -40.420388782994451 -35.910443844713882 0 0 0 0 -141.99731774710835 -26.311132309328968 0 -26.311132309328968 -38.111078308798824 0 0 0 0 -231.79640667067019 -81.017441103237616 0 -81.017441103237616 -71.180095036081184 0 0 0 0 242.87236671357732 -485.08464028742492 0 -485.08464028742492 -174.35081204211747 0 0 0 0 -232.68706954868813 2.1616618460032946 0 2.1616618460032946 -20.499552087594566 0 0 0 0 -306.83059297565751 627.48684839105226 0 627.48684839105226 -247.43809188848456 0 0 0 0 -108.82718134589368 -88.136105581168522 0 -88.136105581168522 -192.53604696526418 0 0 0 0 -25.801274931579883 -128.50979978543364 0 -128.50979978543364 250.53532791433554 0 0 0 0 -4.7950819216694169 -4.9192017229574745 0 -4.9192017229574745 0.097572203903458998 0 0 0 0 11.58061204317346 -21.567761948164843 0 -21.567761948164843 58.199528099510644 0 0 0 0 -9.488820806746844 2.5895735290552722 0 2.5895735290552722 -3.2433117976835 0 0 0 0 17.006511891901027 -13.243885124978988 0 -13.243885124978988 63.263347991960472 0 0 0 0 -93.2306402251088 17.20503356943027 0 17.20503356943027 28.081757768569332 0 0 0 0 -145.019662727146 53.691601399644242 0 53.691601399644242 -37.574982187271416 0 0 0 0 -53.979824195385056 -8.171913805435409 0 -8.171913805435409 7.5253934656459371 0 0 0 0 7.3480044470325652 -17.911863710771801 0 -17.911863710771801 -2.0395012849168141 0 0 0 0 30.305734956218657 -20.276004215826106 0 -20.276004215826106 38.568774047213083 0 0 0 0 -26.771579286833003 -48.247190421254345 0 -48.247190421254345 41.052476502343779 0 0 0 0 -72.033604640815611 -11.422749960704095 0 -11.422749960704095 31.249175176897552 0 0 0 0 -18.230959081554829 -46.806739778909105 0 -46.806739778909105 36.864149982162985 0 0 0 0 -16.283495497897782 -10.804038257596559 0 -10.804038257596559 0.83814936968287768 0 0 0 0 -55.106759895961659 16.386520470425694 0 16.386520470425694 -1.8686161030527728 0 0 0 0 -56.671240231971751 -22.248996375717979 0 -22.248996375717979 -23.414018220995786 0 0 0 0 -62.326318078299664 68.121325505236427 0 68.121325505236427 -45.45454148178942 0 0 0 0 0.53622318897032528 -0.42235973862635845 0 -0.42235973862635845 -0.77440660799008487 0 0 0 0 -157.97190524647885 -12.036687454492494 0 -12.036687454492494 20.202617803239718 0 0 0 0 -172.82271511357976 82.074329443994429 0 82.074329443994429 -8.8193298714234061 0 0 0 0 -110.06434573372098 34.580633113185513 0 34.580633113185513 -32.247510306156755 0 0 0 0 -63.912943280134641 -52.050812887895745 0 -52.050812887895745 13.769023002955464 0 0 0 0 -21.511949395197007 -4.694034894649576 0 -4.694034894649576 -16.525674934106519 0 0 0 0 -22.177135130077659 12.11815112223394 0 12.11815112223394 -0.23202436237397706 0 0 0 0 -1.9320071741848341 -13.690761027868277 0 -13.690761027868277 -2.2264319261654038 0 0 0 0 -91.841183698397799 -50.860031694205873 0 -50.860031694205873 -141.18293650400301 0 0 0 0 -6.4639676028924988 -0.64295053276856606 0 -0.64295053276856606 0.42794979890008644 0 0 0 0 -67.457462505220974 -19.033523415622597 0 -19.033523415622597 -2.8679144804755197 0 0 0 0 63.692910595344983 28.150622211939435 0 28.150622211939435 -49.805881345014313 0 0 0 0 -189.167709885769 -92.031433551192549 0 -92.031433551192549 78.289939811979309 0 0 0 0 -162.29175109895641 43.075348476229124 0 43.075348476229124 26.269195636743916 0 0 0 0 -116.46638568669368 52.005834322917508 0 52.005834322917508 12.528559725426021 0 0 0 0 -1.9646550518370418 -1.5809642798843448 0 -1.5809642798843448 0.44773008902825939 0 0 0 0 -3.9588184478125186 -6.8461472694050372 0 -6.8461472694050372 -8.6038670905093966 0 0 0 0 -13.02647528057787 -16.818525835809396 0 -16.818525835809396 -12.44575344493478 0 0 0 0 -93.13388223845223 30.838442600391254 0 30.838442600391254 8.5740007590461573 0 0 0 0 -6.4089915169824963 -19.760699245494607 0 -19.760699245494607 -17.252731940055469 0 0 0 0 -0.92269200241598526 -0.20484789754927846 0 -0.20484789754927846 -0.094516641924998535 0 0 0 0 -39.494737344612076 -83.27386101730076 0 -83.27386101730076 -139.09213187215209 0 0 0 0 -24.478076672494353 0.70936904656468869 0 0.70936904656468869 4.084711307359612 0 0 0 0 -22.623878681015412 -6.9416543542091915 0 -6.9416543542091915 6.590323877004721 0 0 0 0 -3.8813732012895343 -4.7969802191332747 0 -4.7969802191332747 -1.7116518770192215 0 0 0 0 -15.342258684631815 -18.328084325407929 0 -18.328084325407929 1.459692007943886 0 0 0 0 -0.87658762134486778 -1.5306915960757337 0 -1.5306915960757337 2.4780855779633502 0 0 0 0 -34.69382064103047 -13.809710682621244 0 -13.809710682621244 0.93761526469324963 0 0 0 0 -60.976280444403528 17.862194268647272 0 17.862194268647272 1.9069853207587926 0 0 0 0 -138.60350267384365 -23.266640954277079 0 -23.266640954277079 48.180394507237907 0 0 0 0 48.109869520500069 -10.667296136531604 0 -10.667296136531604 -17.263872808058068 0 0 0 0 -46.133206260903535 -19.868399946835439 0 -19.868399946835439 14.085061119797047 0 0 0 0 -34.153553225855617 -8.5713067482377276 0 -8.5713067482377276 2.4043377204626086 0 0 0 0 138.20836799760582 13.389900928933457 0 13.389900928933457 18.017001860882601 0 0 0 0 -26.949808289437183 0.18725485498767469 0 0.18725485498767469 2.1529404841205446 0 0 0 0 -141.94058080138348 1.9674488554951495 0 1.9674488554951495 -28.841919166281514 0 0 0 0 -50.191199357668665 -134.43098518008594 0 -134.43098518008594 -3.1346702892142275 0 0 0 0 -36.770576804206939 7.1274726275296416 0 7.1274726275296416 -2.2762740177422529 0 0 0 0 -10.040990619017975 -42.245250077077799 0 -42.245250077077799 26.245963606711484 0 0 0 0 -33.68615998008535 6.7628976711375834 0 6.7628976711375834 -4.1332043686136917 0 0 0 0 -60.111614602531461 0.24854439523435534 0 0.24854439523435534 7.0744153727412353 0 0 0 0 -34.198518246445019 10.855893332528467 0 10.855893332528467 3.9951447708999694 0 0 0 0 -49.452223175029374 -8.9141411468538294 0 -8.9141411468538294 4.2703410546097542 0 0 0 0 -17.82038256177475 -12.178487437006879 0 -12.178487437006879 26.950096786702488 0 0 0 0 -71.703698779381483 12.158140360253118 0 12.158140360253118 4.2329985445618625 0 0 0 0 -41.502728906562211 -18.824291641006027 0 -18.824291641006027 12.188671574181967 0 0 0 0 -14.23892197911664 12.372598806809492 0 12.372598806809492 32.66802358160885 0 0 0 0 0.2042674913709277 -0.23239707150843714 0 -0.23239707150843714 0.94214934147909535 0 0 0 0 -102.4028248129689 22.858200285749717 0 22.858200285749717 47.91241787430863 0 0 0 0 -19.747658707536175 -26.04572029546307 0 -26.04572029546307 46.16750058475418 0 0 0 0 -56.380574062499363 -40.23926058172583 0 -40.23926058172583 28.27644717585099 0 0 0 0 -34.748545109514623 18.299309174948561 0 18.299309174948561 -1.7728426893181677 0 0 0 0 -33.15058695011038 -16.513184390924785 0 -16.513184390924785 -13.094338772405536 0 0 0 0 -32.591943427699334 -4.181822986895213 0 -4.181822986895213 24.284609152556186 0 0 0 0 -78.030872798647579 39.216558720013381 0 39.216558720013381 -44.103700331835853 0 0 0 0 -71.173705108965805 -47.542974839107728 0 -47.542974839107728 28.712713651998456 0 0 0 0 -1.0416056934706077 -1.498480284642294 0 -1.498480284642294 -0.15494017383480241 0 0 0 0 -185.48663859693761 50.584700723741662 0 50.584700723741662 2.7606690553238877 0 0 0 0 -13.414911203017596 -2.6814744930743473 0 -2.6814744930743473 -33.596273539973481 0 0 0 0 3.9695355967530759 -25.650512998479826 0 -25.650512998479826 -26.242936380851461 0 0 0 0 -59.553186876434552 -9.1713075250831935 0 -9.1713075250831935 20.003687967660881 0 0 0 0 -16.049403372869619 36.890280218502085 0 36.890280218502085 -16.352052533527285 0 0 0 0 -17.035423003100533 13.334587152127028 0 13.334587152127028 -28.781367812613098 0 0 0 0 -9.9668195040486136 -0.42238218239872083 0 -0.42238218239872083 -2.7049889442125981 0 0 0 0 -32.161238584310539 -4.1647363392226797 0 -4.1647363392226797 1.9280231037834987 0 0 0 0 -58.324045077286868 14.290207122114566 0 14.290207122114566 1.1238939603645122 0 0 0 0 -62.142612177951619 24.932688762682346 0 24.932688762682346 8.7585396954145835 0 0 0 0 -7.127633044341624 -0.43260287953179277 0 -0.43260287953179277 0.32048184787583978 0 0 0 0 -41.055452204116591 -3.3628567763735191 0 -3.3628567763735191 -6.0716412853980728 0 0 0 0 -22.09122054147819 -6.661228729661655 0 -6.661228729661655 3.8328171658896579 0 0 0 0 -50.373354785530296 49.398802717008948 0 49.398802717008948 -40.053857717958635 0 0 0 0 -73.208898976965656 55.291701845610987 0 55.291701845610987 -38.112572887869646 0 0 0 0 -128.92955469550748 47.097123525382813 0 47.097123525382813 -16.213088947190045 0 0 0 0 -75.300082750074353 22.72297033592713 0 22.72297033592713 -7.7949126364892436 0 0 0 0 -107.34222987466805 30.049333033810399 0 30.049333033810399 2.6446268250365392 0 0 0 0 -140.63550786979266 -3.6933917700580423 0 -3.6933917700580423 -3.1884185342987621 0 0 0 0 -181.71454848213716 -27.432062305777436 0 -27.432062305777436 -16.394024647895094 0 0 0 0 -159.06042332465927 27.116211286984253 0 27.116211286984253 -12.403834297597768 0 0 0 0 -133.19084908916091 14.493591181393015 0 14.493591181393015 -7.5710824915095145 0 0 0 0 -130.92881837557366 24.91123898749629 0 24.91123898749629 0.2832572980059922 0 0 0 0 -135.6429550122931 -7.4239598962130913 0 -7.4239598962130913 -0.84435357159054547 0 0 0 0 -108.93933299477828 3.2345162067986166 0 3.2345162067986166 3.4093677791211121 0 0 0 0 -121.26806145706792 15.387884338103504 0 15.387884338103504 11.93782227016527 0 0 0 0 -106.90096467055177 12.981058304525504 0 12.981058304525504 4.7101958288894821 0 0 0 0 -104.40075706621579 15.588655389120959 0 15.588655389120959 6.1793653328418259 0 0 0 0 -75.709118469032433 5.9429861533540134 0 5.9429861533540134 16.830177708998235 0 0 0 0 -76.210306115351273 17.913168081861841 0 17.913168081861841 2.4618279939268177 0 0 0 0 -102.20614320940496 23.489489064728787 0 23.489489064728787 14.144185312960417 0 0 0 0 -79.379807934159999 21.819801395577997 0 21.819801395577997 15.14802799254727 0 0 0 0 -83.167372352362349 14.948311831899446 0 14.948311831899446 8.219249746776768 0 0 0 0 -76.177308870074057 -0.31683195593200253 0 -0.31683195593200253 3.0681136931557376 0 0 0 0 -99.109380881831498 20.274894809841498 0 20.274894809841498 11.294341643002554 0 0 0 0 -100.83480542447191 17.224412914151344 0 17.224412914151344 6.2032642147387378 0 0 0 0 -109.74010720774095 22.213909566298753 0 22.213909566298753 10.85819054787089 0 0 0 0 -106.62581699191125 24.361374531715455 0 24.361374531715455 -4.9861246097834737 0 0 0 0 -113.20759098457785 27.888201441377078 0 27.888201441377078 6.3904972489226566 0 0 0 0 -120.46495471525998 39.996840268043115 0 39.996840268043115 -4.0453553370099655 0 0 0 0 -106.0138198256524 1.3396157850855843 0 1.3396157850855843 5.8993999931103644 0 0 0 0 -113.48262200275769 26.77893336682655 0 26.77893336682655 4.2644270132185511 0 0 0 0 -118.38999243777926 7.6750789459363205 0 7.6750789459363205 2.7784749647059925 0 0 0 0 -102.49147371852814 -28.158834292613619 0 -28.158834292613619 -3.1444002237681161 0 0 0 0 -93.15366482637819 -24.651984844214439 0 -24.651984844214439 -4.5083878758944138 0 0 0 0 -80.671689953359191 14.189540281182872 0 14.189540281182872 19.879786677183006 0 0 0 0 0.91127662689649158 0.81136097520882799 0 0.81136097520882799 -1.7020637949131352 0 0 0 0 -8.1006031423339664 -48.817435312814268 0 -48.817435312814268 -24.64938323541719 0 0 0 0 -57.772066731317409 -63.580723972193937 0 -63.580723972193937 -25.144894355033102 0 0 0 0 -380.94535154864025 -8.1277100433208034 0 -8.1277100433208034 61.997518887885235 0 0 0 0 -162.35054751354977 -230.5625755496124 0 -230.5625755496124 -60.253620868563303 0 0 0 0 -44.239461175059091 -24.661786185289429 0 -24.661786185289429 -26.208754895935272 0 0 0 0 -55.53782521990388 10.353808323025305 0 10.353808323025305 -2.0860757770760756 0 0 0 0 0.407085662732942 -0.90160263605387558 0 -0.90160263605387558 0.30446969517846512 0 0 0 0 -86.530772960213426 1.2726464927249026 0 1.2726464927249026 1.6226174051244016 0 0 0 0 -62.82142261806348 -27.160091405083222 0 -27.160091405083222 -6.2556844097257454 0 0 0 0 -63.702337621030892 -97.488256385875502 0 -97.488256385875502 0.27854045141248207 0 0 0 0 -160.5721837151321 74.793285224163924 0 74.793285224163924 -16.200314788386095 0 0 0 0 -165.86190918091694 -77.575486209816773 0 -77.575486209816773 37.093069402875699 0 0 0 0 -24.617496167049467 -69.178001223893261 0 -69.178001223893261 32.94232177355434 0 0 0 0 -62.350901426906603 10.659467720096018 0 10.659467720096018 25.344714930757164 0 0 0 0 -74.01446997088533 31.608805609427691 0 31.608805609427691 31.515169968117334 0 0 0 0 -56.23305961695587 57.618327508544098 0 57.618327508544098 10.999771820427668 0 0 0 0 -43.233768598238385 -23.927204610013177 0 -23.927204610013177 2.5142026604661396 0 0 0 0 38.974095335516949 20.683001926455972 0 20.683001926455972 -28.208265063973158 0 0 0 0 -171.14028654397043 -16.597168856911367 0 -16.597168856911367 18.686502026316703 0 0 0 0 -43.695444364690957 -17.297680014167781 0 -17.297680014167781 -92.291994408252776 0 0 0 0 -150.10210199396897 25.523295268134234 0 25.523295268134234 45.009629026207222 0 0 0 0 -2.013095343382755 -0.30966584347788428 0 -0.30966584347788428 0.32906662359628935 0 0 0 0 10.51108756618487 -73.342243512507139 0 -73.342243512507139 -1.1657879565063922 0 0 0 0 48.610582831405281 -32.435039475991971 0 -32.435039475991971 -9.3347345788915845 0 0 0 0 18.451799435362773 -79.962651440126365 0 -79.962651440126365 -2.4717260167186357 0 0 0 0 11.251748715911162 -49.487246334154406 0 -49.487246334154406 106.15155840185776 0 0 0 0 -438.47648006153031 75.048550821535173 0 75.048550821535173 -157.2681590028169 0 0 0 0 -4.441460371754375 2.3561702294047873 0 2.3561702294047873 2.768049169215983 0 0 0 0 276.74571240383739 120.15003117314336 0 120.15003117314336 -203.70316105487291 0 0 0 0 -17.02466232082752 -5.6581331302583484 0 -5.6581331302583484 -1.5749603096056362 0 0 0 0 47.312548696418162 10.675960344308578 0 10.675960344308578 -2.1259834393640631 0 0 0 0 -391.27876018498273 162.98871394363596 0 162.98871394363596 -41.544311595926047 0 0 0 0 38.326004979674053 140.35530068086291 0 140.35530068086291 -338.79128459336425 0 0 0 0 -184.39201882239286 18.286896559713568 0 18.286896559713568 -87.667684915930295 0 0 0 0 -50.284156985986556 -90.806868865367505 0 -90.806868865367505 45.264052451218163 0 0 0 0 8.119032499763307 -46.239789873452537 0 -46.239789873452537 35.070461476754645 0 0 0 0 -0.75352721150011348 -25.545176391026871 0 -25.545176391026871 -5.6315929212898936 0 0 0 0 -29.594334527163205 -9.4609953493755334 0 -9.4609953493755334 -2.3736799107748308 0 0 0 0 -134.77942198699975 6.5277340274783455 0 6.5277340274783455 -78.9973457527758 0 0 0 0 -2.5227884224430372 -2.4360097946803787 0 -2.4360097946803787 -1.4707763030384395 0 0 0 0 -8.9800511870125774 78.474346520792551 0 78.474346520792551 293.95896601128857 0 0 0 0 187.13312197833147 -114.19532907830262 0 -114.19532907830262 -79.567007972221745 0 0 0 0 -167.71363423656294 -308.0254051778785 0 -308.0254051778785 382.06842251992555 0 0 0 0 -90.15528733180399 -5.6430540134892926 0 -5.6430540134892926 12.546372722064763 0 0 0 0 -95.828013052000301 65.029203099131792 0 65.029203099131792 -60.285209088788179 0 0 0 0 51.791283276012109 -311.37639318614595 0 -311.37639318614595 80.207769815026211 0 0 0 0 -182.86334058166176 -221.99813123076004 0 -221.99813123076004 10.425138004971359 0 0 0 0 -122.02278917787316 -23.897125904987206 0 -23.897125904987206 -14.352616401154137 0 0 0 0 -238.1957169068337 -61.923554073458718 0 -61.923554073458718 -6.6335456851493291 0 0 0 0 -96.635459694080055 -98.013436890899754 0 -98.013436890899754 -14.189815791454294 0 0 0 0 -120.68768052726227 -101.31291401610292 0 -101.31291401610292 209.0964561962046 0 0 0 0 -0.80566609624297314 -0.25020005621306041 0 -0.25020005621306041 -0.091017171225596716 0 0 0 0 171.30474949217023 5.1790653732239207 0 5.1790653732239207 -308.65474489870553 0 0 0 0 -84.933983843446185 -17.669955240338595 0 -17.669955240338595 -54.065509863939951 0 0 0 0 -1.0975725970249357 -4.6646761323815991 0 -4.6646761323815991 -0.57658076570770245 0 0 0 0 21.106751148297917 -37.760962940588342 0 -37.760962940588342 -36.956614669828241 0 0 0 0 27.621737562512862 -80.68425010184751 0 -80.68425010184751 71.634027444919525 0 0 0 0 -43.05993067608506 -62.685004453516967 0 -62.685004453516967 118.52616383520808 0 0 0 0 -4.0095325813017553 18.048534387537984 0 18.048534387537984 76.748041836903667 0 0 0 0 -9.020331244362751 -134.04780974374989 0 -134.04780974374989 20.272744556037651 0 0 0 0 -25.967970011903162 33.15268599879073 0 33.15268599879073 -88.974259213092864 0 0 0 0 -66.38685018605311 -0.64922698677559154 0 -0.64922698677559154 12.407798532101644 0 0 0 0 -16.183596700426278 -170.67667855237733 0 -170.67667855237733 96.713130839682208 0 0 0 0 -75.719668941837881 22.974098649443476 0 22.974098649443476 -57.715859652842482 0 0 0 0 -42.302542878592391 -16.432945740024206 0 -16.432945740024206 -7.6205115305492015 0 0 0 0 -79.613725760494162 24.814441639369306 0 24.814441639369306 46.964955192688649 0 0 0 0 -53.180152165959953 -5.2151861576489864 0 -5.2151861576489864 75.696672979461709 0 0 0 0 -30.501371019472572 39.228497006792622 0 39.228497006792622 22.174311363574816 0 0 0 0 -10.790305551783606 -3.3132029556520717 0 -3.3132029556520717 -0.84099982823802932 0 0 0 0 -19.521034222922481 -7.5050524887062693 0 -7.5050524887062693 -35.959585958303251 0 0 0 0 -30.180020995314408 15.789184942589145 0 15.789184942589145 37.149156990594292 0 0 0 0 -58.537137991966461 -5.5346116632010727 0 -5.5346116632010727 -16.302491734758721 0 0 0 0 -99.703618013934033 -18.444469781080443 0 -18.444469781080443 25.345932992493545 0 0 0 0 -36.398382503353645 -6.5877540975301958 0 -6.5877540975301958 -0.61233089603794788 0 0 0 0 -29.788124284037664 -1.7976245366195283 0 -1.7976245366195283 2.9864585559475332 0 0 0 0 -37.220718365926587 0.73214653001105034 0 0.73214653001105034 -9.103510590544829 0 0 0 0 -35.932514947053278 -6.6848888206568517 0 -6.6848888206568517 22.415138921930293 0 0 0 0 -31.988850277440644 -6.7431834687473753 0 -6.7431834687473753 0.54374887488316048 0 0 0 0 -28.023439173964547 -13.25360699843867 0 -13.25360699843867 14.835373191771247 0 0 0 0 -21.04326073237462 -13.212484537265482 0 -13.212484537265482 0.015876806063374715 0 0 0 0 -29.67631758376956 9.3335030769924288 0 9.3335030769924288 66.911405868198472 0 0 0 0 -10.37047903419807 -64.576733139661997 0 -64.576733139661997 70.823720374046388 0 0 0 0 -32.852254271587299 -31.888977249748905 0 -31.888977249748905 27.829540442071902 0 0 0 0 69.378997972300567 -76.806728721671334 0 -76.806728721671334 52.124168049520904 0 0 0 0 -5.9719895497774118 -1.0926959578997568 0 -1.0926959578997568 0.44260332683026427 0 0 0 0 66.696699916472426 -60.019392553781245 0 -60.019392553781245 5.0093809432141825 0 0 0 0 22.737970640388085 -26.79297195021968 0 -26.79297195021968 69.927948981951545 0 0 0 0 11.112114534511647 17.055777598930973 0 17.055777598930973 -52.692173056731917 0 0 0 0 11.930099304467149 -21.706582720137703 0 -21.706582720137703 -15.216441696201287 0 0 0 0 8.6688421982617001 -21.643881544925307 0 -21.643881544925307 -14.494093468086021 0 0 0 0 -7.2712366510604625 -42.93918790291832 0 -42.93918790291832 29.570835581729199 0 0 0 0 -0.6830159627879766 -9.8475074615802782 0 -9.8475074615802782 -25.811165859655375 0 0 0 0 -5.6047375337362837 -2.0480711349385601 0 -2.0480711349385601 0.26781502002697088 0 0 0 0 -31.618912803514831 -2.3437659835857403 0 -2.3437659835857403 9.6369718452642701 0 0 0 0 -22.804848308900546 3.3742428709447267 0 3.3742428709447267 -0.36728886588059595 0 0 0 0 0.96347224328452796 -3.7898018025134945 0 -3.7898018025134945 1.1560129949051241 0 0 0 0 -15.209943784981078 -3.7276100664656724 0 -3.7276100664656724 4.4102935486744173 0 0 0 0 -317.25264483380988 258.93951502411937 0 258.93951502411937 -73.109451108336543 0 0 0 0 -13.806552593273338 -9.3934729304545854 0 -9.3934729304545854 -5.199413693637112 0 0 0 0 -429.09167905114373 -181.2062720108072 0 -181.2062720108072 243.77180905743728 0 0 0 0 -1.9447148682976376 -0.30237688149738773 0 -0.30237688149738773 -0.27024413674042425 0 0 0 0 -6.2382526445799158 -0.0058148451539636881 0 -0.0058148451539636881 -69.228932122189349 0 0 0 0 -10.865151408289421 -37.558531856557238 0 -37.558531856557238 48.236153461914455 0 0 0 0 -98.481909768852347 172.57420515371359 0 172.57420515371359 33.143179439211508 0 0 0 0 -72.776210695217742 12.444479760384525 0 12.444479760384525 -58.55961333529649 0 0 0 0 131.36405733730044 -163.35121699171077 0 -163.35121699171077 -233.69516288104364 0 0 0 0 -156.32104885530862 -132.0973207486241 0 -132.0973207486241 -142.20857486532054 0 0 0 0 -43.689492289471673 5.1381742061153091 0 5.1381742061153091 -82.407564249994721 0 0 0 0 -60.166253393876104 -4.2849014150235689 0 -4.2849014150235689 -51.662944675794733 0 0 0 0 -12.708230619849928 -17.683269581814557 0 -17.683269581814557 -68.692513187212626 0 0 0 0 -15.181335097920964 -19.490746546390255 0 -19.490746546390255 -13.519905771428057 0 0 0 0 45.92005194642843 -44.152540758760097 0 -44.152540758760097 41.26081497819996 0 0 0 0 -43.044918253683136 -37.686375086146654 0 -37.686375086146654 45.911991656026203 0 0 0 0 34.353857423096997 -27.825407745256712 0 -27.825407745256712 -26.012572342686326 0 0 0 0 -61.307564255634134 -85.362522355595843 0 -85.362522355595843 -71.03030632532591 0 0 0 0 -262.65627968568879 -23.859559740560371 0 -23.859559740560371 23.659471584958737 0 0 0 0 -706.0408960405457 -47.3020289809308 0 -47.3020289809308 201.65924836229146 0 0 0 0 -443.93702931876032 -240.2846313438173 0 -240.2846313438173 -42.183926916762061 0 0 0 0 -27.574953423129045 -129.08296993531894 0 -129.08296993531894 85.998333153320573 0 0 0 0 -509.64878108224912 220.01204088332094 0 220.01204088332094 -157.44408943478675 0 0 0 0 -104.07917815876499 -68.976322494596616 0 -68.976322494596616 -419.53421843210822 0 0 0 0 -6.5464866587125243 -3.4647151407798802 0 -3.4647151407798802 -1.7330757950074709 0 0 0 0 -757.82921899229405 341.89494213389526 0 341.89494213389526 -34.310858679222292 0 0 0 0 -411.372857427079 284.67895664727484 0 284.67895664727484 -31.414785051976935 0 0 0 0 -693.44912295427139 -113.79486514102204 0 -113.79486514102204 -105.18818009933375 0 0 0 0 -141.40087482158924 -17.865992514760819 0 -17.865992514760819 -98.668916429411638 0 0 0 0 -565.64034047806854 141.94184020003104 0 141.94184020003104 11.753604166764489 0 0 0 0 -50.86989952683507 128.33169930428653 0 128.33169930428653 -1.923343099194426 0 0 0 0 30.170453828159225 6.4359050840355394 0 6.4359050840355394 -18.811465315716305 0 0 0 0 -23.628151969263854 -54.76170419539767 0 -54.76170419539767 -32.385294135139702 0 0 0 0 -145.77789152494734 -8.681766806320411 0 -8.681766806320411 -32.528939593736062 0 0 0 0 -39.642331818098683 -87.727114823526449 0 -87.727114823526449 -132.67925362506094 0 0 0 0 61.959515852300683 4.2266545685040455 0 4.2266545685040455 -192.63599776558465 0 0 0 0 53.974364572763079 5.7333231291736979 0 5.7333231291736979 -85.576706297709734 0 0 0 0 -115.27895636457833 -21.803828654769973 0 -21.803828654769973 -55.026164461474082 0 0 0 0 86.548820233951119 172.3041547066631 0 172.3041547066631 -151.1088465153822 0 0 0 0 -2.9431420119490213 123.9719831548411 0 123.9719831548411 282.76904645237983 0 0 0 0 66.01789317947987 34.817816527847413 0 34.817816527847413 -117.44117071669325 0 0 0 0 -70.928310905601393 156.6479855906955 0 156.6479855906955 350.20545867448504 0 0 0 0 -9.8559663254736591 5.060450976219748 0 5.060450976219748 -1.5685280169582736 0 0 0 0 -89.054470578892506 -30.388199972367261 0 -30.388199972367261 78.214247659726425 0 0 0 0 -42.4084668683372 118.30313542935306 0 118.30313542935306 -7.4028600323044884 0 0 0 0 -28.227309614889236 19.045708696488759 0 19.045708696488759 181.30683365401592 0 0 0 0 66.331574544519754 154.99747449431598 0 154.99747449431598 -36.241194671633593 0 0 0 0 -4.5848476940344085 2.7428511918079632 0 2.7428511918079632 -0.95797094656965864 0 0 0 0 -547.46731767536403 -1.4614740054006461 0 -1.4614740054006461 365.01091945378198 0 0 0 0 -291.87752666280448 153.226639338322 0 153.226639338322 -245.01213248515523 0 0 0 0 -555.09262878356458 54.161807178952813 0 54.161807178952813 156.50209100184543 0 0 0 0 -335.46666197549348 145.16711102719171 0 145.16711102719171 305.86643248808025 0 0 0 0 -323.73932458099443 -191.09218812725817 0 -191.09218812725817 -43.308305659886059 0 0 0 0 -603.13182682761908 44.984599599522369 0 44.984599599522369 283.30743243821098 0 0 0 0 49.864000658853911 43.964289668643801 0 43.964289668643801 63.113263473956295 0 0 0 0 -434.14007948835933 312.01354971975746 0 312.01354971975746 66.636306519854884 0 0 0 0 -73.824174804478389 332.83422563985567 0 332.83422563985567 -78.394801745720883 0 0 0 0 -91.55724174977513 119.92432333926649 0 119.92432333926649 145.7810345744972 0 0 0 0 -82.374548214785591 -46.347517023284126 0 -46.347517023284126 -5.3859601730005124 0 0 0 0 -103.4350006725099 -10.972075160984954 0 -10.972075160984954 10.307951067905865 0 0 0 0 -328.7855612952153 18.346774331210838 0 18.346774331210838 341.71345772380937 0 0 0 0 -6.6465721331128584 -0.79656935737334678 0 -0.79656935737334678 0.43175688635016574 0 0 0 0 34.941505248308204 9.6846545650432745 0 9.6846545650432745 -73.776371932703796 0 0 0 0 -345.76977681119024 539.00424562382568 0 539.00424562382568 -92.527071204158858 0 0 0 0 -146.2903419769118 120.29353126206206 0 120.29353126206206 -75.73981692929749 0 0 0 0 -113.72604486012278 97.455378966266153 0 97.455378966266153 -118.9932260416429 0 0 0 0 -154.91635132510055 -388.56662612381649 0 -388.56662612381649 -15.439519993088197 0 0 0 0 -107.26414249255927 -12.740749506991659 0 -12.740749506991659 9.3397574936782295 0 0 0 0 -175.41218001850211 79.335033182606992 0 79.335033182606992 -141.58762866007046 0 0 0 0 -96.936475497240508 -21.938727643610736 0 -21.938727643610736 2.9665613399968973 0 0 0 0 -113.47645485456451 65.924101754660171 0 65.924101754660171 -377.32369491608836 0 0 0 0 -124.71447582602468 -4.8252609735308543 0 -4.8252609735308543 -362.71896223710684 0 0 0 0 -301.45451034826692 191.190476941729 0 191.190476941729 -201.84637746863149 0 0 0 0 -35.18855321169702 3.1082296603818236 0 3.1082296603818236 -0.40957746253552824 0 0 0 0 -330.89111265698739 -37.557189018228144 0 -37.557189018228144 -175.27606821896768 0 0 0 0 -97.877536258789405 70.957922499798855 0 70.957922499798855 -126.82402949574475 0 0 0 0 -163.19624380936511 -32.046839577302421 0 -32.046839577302421 -71.148941816748902 0 0 0 0 -194.86048106651288 69.751539979049539 0 69.751539979049539 -20.933523686167831 0 0 0 0 -60.772042990778573 154.2756063760387 0 154.2756063760387 -139.62220187846714 0 0 0 0 -94.570981174865665 158.90077567614065 0 158.90077567614065 -147.98632360540392 0 0 0 0 -96.088381628582283 199.89613177765193 0 199.89613177765193 -39.578979447255534 0 0 0 0 -228.41725148957448 209.7596424515562 0 209.7596424515562 -157.07491841596732 0 0 0 0 -301.59880474473539 92.814796350062124 0 92.814796350062124 82.76312073850977 0 0 0 0 -148.45056957067027 116.10451017150672 0 116.10451017150672 -10.762169125480796 0 0 0 0 27.958891511514594 25.622474300692488 0 25.622474300692488 -47.838414997483596 0 0 0 0 -193.48555646418663 -43.13405215046356 0 -43.13405215046356 -22.977039927076476 0 0 0 0 2.1744897859028134 -1.7026456084388144 0 -1.7026456084388144 3.2056973843251493 0 0 0 0 -176.76652419393804 -20.915482591076454 0 -20.915482591076454 -0.5730720548770023 0 0 0 0 -120.24487180501455 -8.0070248340492753 0 -8.0070248340492753 -0.44328317414977247 0 0 0 0 -145.12521750374344 -8.5865443599687765 0 -8.5865443599687765 21.097307768903306 0 0 0 0 -24.235301883391283 -2.5779727197581526 0 -2.5779727197581526 9.4219719752837712 0 0 0 0 109.79663794050043 17.202912486872236 0 17.202912486872236 -87.879785956959495 0 0 0 0 -204.77594914677229 -49.686604423867493 0 -49.686604423867493 34.654169807081871 0 0 0 0 -436.68612965805005 82.49794079772073 0 82.49794079772073 84.601389827104867 0 0 0 0 -430.22537606138644 4.0494441984575644 0 4.0494441984575644 130.50995582687619 0 0 0 0 -391.45075119553076 -15.957577494260704 0 -15.957577494260704 131.06720980462367 0 0 0 0 -2.4528502085798642 -0.54209495627428961 0 -0.54209495627428961 0.27759741857942455 0 0 0 0 -334.2323718710104 49.397749673755015 0 49.397749673755015 89.440516942705926 0 0 0 0 70.080963307510501 -20.816875596468435 0 -20.816875596468435 -38.816471662846197 0 0 0 0 -3.2108701273646147 -122.00047557070582 0 -122.00047557070582 -7.4298985786913363 0 0 0 0 -47.260296540016498 -41.214937066447078 0 -41.214937066447078 -29.300780317561475 0 0 0 0 -29.760306891126675 -42.538577792983915 0 -42.538577792983915 -43.500874898540133 0 0 0 0 -319.83580479679586 38.768182695009841 0 38.768182695009841 45.888955793070636 0 0 0 0 -156.79360931353494 -119.16659832797836 0 -119.16659832797836 -1.5182572252704176 0 0 0 0 -148.71770708744953 20.671673025387236 0 20.671673025387236 46.937514669743905 0 0 0 0 -37.626882652912172 17.757869223841908 0 17.757869223841908 -6.9882339306225276 0 0 0 0 -88.391659229872857 103.23585654170574 0 103.23585654170574 11.030216911991829 0 0 0 0 -53.433213058189722 -22.545943316777766 0 -22.545943316777766 -17.435862076392368 0 0 0 0 -58.00286801004404 -9.5514312366758531 0 -9.5514312366758531 -26.716371541124772 0 0 0 0 -51.824357891105137 -14.221944106971989 0 -14.221944106971989 -25.554423982338903 0 0 0 0 -65.515215872062072 -12.665302610683852 0 -12.665302610683852 -17.717391275190948 0 0 0 0 -67.774857865550985 -25.697351513114654 0 -25.697351513114654 3.9014878753519042 0 0 0 0 -84.253913790420484 -1.9284345845724147 0 -1.9284345845724147 -21.106141352383929 0 0 0 0 47.793869646670828 62.904992452200247 0 62.904992452200247 -22.263498981845714 0 0 0 0 -55.473605930590566 -8.3965823472054524 0 -8.3965823472054524 12.195093406940259 0 0 0 0 0.12687236037516314 -0.62746295776021732 0 -0.62746295776021732 0.1956081697289731 0 0 0 0 -200.97556550231457 141.24837769763917 0 141.24837769763917 -75.136046462318632 0 0 0 0 -430.48013640306328 51.314163831013275 0 51.314163831013275 23.579604050018588 0 0 0 0 -0.62556493414410186 -0.29229947588313188 0 -0.29229947588313188 0.45812721126281453 0 0 0 0 -0.70284322323841231 1.0305621632291366 0 1.0305621632291366 -1.9971997189166215 0 0 0 0 -418.80858452741961 -102.20549908645931 0 -102.20549908645931 66.922434887459985 0 0 0 0 -258.88576517814727 152.15451347375983 0 152.15451347375983 12.756843447661424 0 0 0 0 -277.41164915197328 -123.18555353001989 0 -123.18555353001989 80.334982010556359 0 0 0 0 -329.14127324171977 121.53368412352779 0 121.53368412352779 53.760027453879047 0 0 0 0 -167.52803405771556 -52.056421379511335 0 -52.056421379511335 -49.395854625141737 0 0 0 0 -303.1922161725397 -73.237324196805162 0 -73.237324196805162 -3.3386765925030204 0 0 0 0 -4.7616049272183165 6.8004191068596302 0 6.8004191068596302 -3.6084386608955699 0 0 0 0 138.72675899196747 -58.580980525667655 0 -58.580980525667655 95.115607722093955 0 0 0 0 -466.73910624756627 -281.53642933654623 0 -281.53642933654623 -205.20322148560263 0 0 0 0 281.59473808136522 363.66627661022608 0 363.66627661022608 -29.996477458487107 0 0 0 0 -2.854669806586724 2.385462590393864 0 2.385462590393864 -1.6575176111273517 0 0 0 0 -692.76450858449971 -276.85257661490823 0 -276.85257661490823 73.624643604519406 0 0 0 0 -880.24620267338469 -69.462633042543075 0 -69.462633042543075 118.33128958874522 0 0 0 0 -562.62229057049626 281.66275778281579 0 281.66275778281579 -223.5253655212673 0 0 0 0 -296.92339940931106 -155.793711162725 0 -155.793711162725 123.09534607969681 0 0 0 0 -160.92235025737318 -16.000170917424683 0 -16.000170917424683 81.810064943330417 0 0 0 0 -111.31249547063635 -29.767006358177809 0 -29.767006358177809 28.141947636125224 0 0 0 0 -114.89111139001034 -56.374374241408304 0 -56.374374241408304 -122.05337647140178 0 0 0 0 -350.10955930468572 72.562578458207383 0 72.562578458207383 38.71026587549477 0 0 0 0 -0.13434451844040574 0.52135849734580475 0 0.52135849734580475 -1.3526158065322047 0 0 0 0 218.74596416467739 299.51571628346915 0 299.51571628346915 35.19794437195705 0 0 0 0 -304.52712572992459 43.617099212444259 0 43.617099212444259 56.439957492416625 0 0 0 0 -0.58063237018676439 1.4851998395682209 0 1.4851998395682209 -2.558977769895761 0 0 0 0 -293.96462595948105 1.3268032237872376 0 1.3268032237872376 48.19583802346142 0 0 0 0 -27.292785990008269 129.45694841286436 0 129.45694841286436 6.5294777891242575 0 0 0 0 -124.42129657063015 39.409359123077763 0 39.409359123077763 117.29746170766714 0 0 0 0 -73.357126213474658 66.061400276342454 0 66.061400276342454 82.169736537118993 0 0 0 0 -110.76160526314288 -0.51870343038586952 0 -0.51870343038586952 73.310435248481326 0 0 0 0 -66.3046979057317 56.705881265172835 0 56.705881265172835 28.524039773949113 0 0 0 0 -305.20371370454814 44.118968206536749 0 44.118968206536749 105.00454325476954 0 0 0 0 -241.28557591136587 36.711969092840256 0 36.711969092840256 4.7076916752948819 0 0 0 0 70.958906878138805 116.79620998491191 0 116.79620998491191 101.23627263140861 0 0 0 0 -0.3882505472166109 1.1496032761359789 0 1.1496032761359789 -2.0126404494567742 0 0 0 0 -168.17480525553788 95.681510110799195 0 95.681510110799195 -59.130906744098183 0 0 0 0 45.505708998258342 225.85058568947352 0 225.85058568947352 -187.2500349734737 0 0 0 0 -118.2591057355292 92.794186766106762 0 92.794186766106762 -97.670377618950397 0 0 0 0 -81.105632655824593 64.286979567530352 0 64.286979567530352 -102.89277844142254 0 0 0 0 -37.054601756062766 26.494653960930009 0 26.494653960930009 -78.472002524392792 0 0 0 0 110.23505635953552 135.52645522641808 0 135.52645522641808 -170.72432689749166 0 0 0 0 -86.089385861334449 10.911625218883216 0 10.911625218883216 -11.542178436614165 0 0 0 0 -28.982852616602031 130.51842047977902 0 130.51842047977902 -17.290031363753144 0 0 0 0 102.96508307509612 84.7038027625523 0 84.7038027625523 -11.376967670724298 0 0 0 0 0.7181518957231674 -23.191006044509521 0 -23.191006044509521 58.364921977902668 0 0 0 0 -18.894912177242077 10.219646402118769 0 10.219646402118769 66.173986220130473 0 0 0 0 -73.038848369647894 18.338322968820648 0 18.338322968820648 69.231842437176169 0 0 0 0 -25.140493690440053 -20.902197166721351 0 -20.902197166721351 70.635651414083895 0 0 0 0 -183.58816791451864 -15.166697775956685 0 -15.166697775956685 1.6005261094963998 0 0 0 0 -11.212863613210175 11.580379037009795 0 11.580379037009795 1.4599110654226592 0 0 0 0 0.04264370915374105 -0.97751134063045697 0 -0.97751134063045697 0.64573089669514538 0 0 0 0 -144.74042658219332 -21.270561813265687 0 -21.270561813265687 -4.558115944597338 0 0 0 0 -132.85309654871162 -20.740798846041912 0 -20.740798846041912 -4.5350438365860768 0 0 0 0 -37.88356895065408 3.3401460553207585 0 3.3401460553207585 23.257782012475445 0 0 0 0 -90.010163066141104 3.9850231254879134 0 3.9850231254879134 -7.2409319256200888 0 0 0 0 -101.75431645636672 -11.79141771350487 0 -11.79141771350487 -7.7576696683020145 0 0 0 0 0.094432149945578026 -0.72121794679156892 0 -0.72121794679156892 0.7104410040114788 0 0 0 0 11.599105397015592 -30.328516419072372 0 -30.328516419072372 -17.834646309396703 0 0 0 0 -0.96380744478187452 1.9786660793050128 0 1.9786660793050128 -3.5537688218342467 0 0 0 0 7.1473395571589435 23.507767678469577 0 23.507767678469577 5.1854124086878528 0 0 0 0 43.179462303278342 22.383167590689254 0 22.383167590689254 -58.952674502311766 0 0 0 0 -60.484151190876219 2.2460174999243918 0 2.2460174999243918 66.889731336768847 0 0 0 0 -60.406351660274595 0.55242449215324996 0 0.55242449215324996 44.60484674527379 0 0 0 0 34.304253674694337 -68.14769501667547 0 -68.14769501667547 -246.57110068685552 0 0 0 0 24.797750978278145 -44.393002339199967 0 -44.393002339199967 -21.381374897618798 0 0 0 0 -29.589258857685309 35.71722991462093 0 35.71722991462093 30.619848199262833 0 0 0 0 -101.5814700776057 8.9535678362377844 0 8.9535678362377844 -5.0147932988365937 0 0 0 0 -101.77230074290947 2.3047839946348176 0 2.3047839946348176 12.154899740057772 0 0 0 0 -110.24514355775318 10.683961211253745 0 10.683961211253745 2.7452048374472042 0 0 0 0 -110.50393667898425 9.3123448216190354 0 9.3123448216190354 -4.1907257454708997 0 0 0 0 -122.24319503849983 16.205748230923291 0 16.205748230923291 -5.3268474029002704 0 0 0 0 -122.26096892242776 17.029158166967825 0 17.029158166967825 -7.0263411250966783 0 0 0 0 -124.35168873112343 11.725809683297825 0 11.725809683297825 -3.2126037430000451 0 0 0 0 -121.58595072875687 15.854994206050662 0 15.854994206050662 -1.0753201052732777 0 0 0 0 -114.10717411072073 6.0648087204265835 0 6.0648087204265835 1.477080083823239 0 0 0 0 -0.50997904685129414 -2.1582478122760875 0 -2.1582478122760875 -6.8205019357660124 0 0 0 0 -143.63326363094347 11.619167809074781 0 11.619167809074781 -1.7707484260690762 0 0 0 0 -140.53960263254294 7.2062779950903462 0 7.2062779950903462 0.20752604640119898 0 0 0 0 -133.75895450083772 11.679429783876913 0 11.679429783876913 -2.8575538477118698 0 0 0 0 -139.25852642323616 16.190325827919423 0 16.190325827919423 -6.4879326203022174 0 0 0 0 -131.8939768133514 16.066797605713077 0 16.066797605713077 -0.74364449634123275 0 0 0 0 -126.38774750039465 8.8161889298602603 0 8.8161889298602603 -4.2903317294661178 0 0 0 0 -115.75219023295358 10.514041327551666 0 10.514041327551666 -1.1942769350466733 0 0 0 0 -125.65010474865642 15.849047200389887 0 15.849047200389887 -0.83567647134543677 0 0 0 0 -125.69037537696749 17.43398239563885 0 17.43398239563885 -4.1864566783578425 0 0 0 0 -129.55474486286403 7.6826112362101071 0 7.6826112362101071 2.487043241991671 0 0 0 0 -124.53881424972133 6.9869589112224375 0 6.9869589112224375 0.66837514531539455 0 0 0 0 -132.48621649131474 18.667304592552028 0 18.667304592552028 -13.550939187048542 0 0 0 0 -160.02310520522587 2.0536746447032499 0 2.0536746447032499 0.11974986968731116 0 0 0 0 -178.20087879273262 33.48057857202771 0 33.48057857202771 -12.944119267738188 0 0 0 0 -128.71633401442614 11.730344115138301 0 11.730344115138301 -4.0328573280473812 0 0 0 0 -113.49525394938746 23.989672831366555 0 23.989672831366555 -18.360140426524652 0 0 0 0 -96.274896941151837 9.2719132364940293 0 9.2719132364940293 -14.791470459221443 0 0 0 0 0.05801610044255387 -1.4941320496414683 0 -1.4941320496414683 -6.1644481604372761 0 0 0 0 -110.15067274743433 -0.5074115128134622 0 -0.5074115128134622 -2.8012159082607013 0 0 0 0 -117.0853365773728 19.502449985226406 0 19.502449985226406 -30.94053079124858 0 0 0 0 -85.715894387110893 14.901266269944472 0 14.901266269944472 -56.052364832774231 0 0 0 0 -119.61561918912577 44.88977309077157 0 44.88977309077157 -58.349640406946037 0 0 0 0 -104.57453296188032 37.440385762763469 0 37.440385762763469 -59.28977867640333 0 0 0 0 -126.84536144188678 21.725860869099733 0 21.725860869099733 -31.107295275937815 0 0 0 0 -171.25520348259147 48.46575563979637 0 48.46575563979637 -42.850168287827955 0 0 0 0 -115.51260186823765 27.132439160671971 0 27.132439160671971 -45.347376733320743 0 0 0 0 -7.5094729204820396 6.7733932183458592 0 6.7733932183458592 -7.1273037296841153 0 0 0 0 -18.039251358089132 30.907083399472754 0 30.907083399472754 17.845461331385195 0 0 0 0 120.75305728879044 1.0289074636797864 0 1.0289074636797864 -47.066316062532451 0 0 0 0 -0.13547129245508316 0.41732195312429088 0 0.41732195312429088 -0.30667993119483317 0 0 0 0 -56.751525258487163 -24.256883332684311 0 -24.256883332684311 20.982729482655031 0 0 0 0 173.34574439336757 233.60986667082585 0 233.60986667082585 -282.7225637417846 0 0 0 0 34.675191640234289 -29.889545192216076 0 -29.889545192216076 -68.605476845270914 0 0 0 0 84.256122674940343 -43.011836689441566 0 -43.011836689441566 -100.77663817072744 0 0 0 0 -13.724911204330056 112.62134110435818 0 112.62134110435818 -98.521661893720648 0 0 0 0 59.237999477938502 -89.063742860748221 0 -89.063742860748221 -9.8437974351503499 0 0 0 0 79.470122578026348 -65.446168480906408 0 -65.446168480906408 15.824202116061201 0 0 0 0 25.136643030353298 -71.544119100769592 0 -71.544119100769592 110.21555472672981 0 0 0 0 43.04448519202424 -122.78983383940209 0 -122.78983383940209 -19.607861147761355 0 0 0 0 8.4212982140131771 3.6392098695366997 0 3.6392098695366997 -10.675967882688951 0 0 0 0 -10.442791096346582 -8.1145682395946608 0 -8.1145682395946608 -13.814306233878938 0 0 0 0 0.4756475491940364 2.1852542336787337 0 2.1852542336787337 -6.1795448411994585 0 0 0 0 -2.4220985035854028 5.4140310500387159 0 5.4140310500387159 -8.3939390324284204 0 0 0 0 -7.1494530116532662 0.34591707169379449 0 0.34591707169379449 -0.5087577385531129 0 0 0 0 -1.6546585969990701 9.3240704858498376 0 9.3240704858498376 5.5340372543464298 0 0 0 0 -142.29994403700402 9.0552084380447013 0 9.0552084380447013 -13.222371624351581 0 0 0 0 -141.98708077397714 5.9881310756470612 0 5.9881310756470612 -18.449003735231145 0 0 0 0 -1.2468087649416935 -0.62374044241907711 0 -0.62374044241907711 -3.1023515010580809 0 0 0 0 -205.28455072994166 11.918302347494432 0 11.918302347494432 3.7880232561242337 0 0 0 0 -148.28293677101829 8.4871414235353768 0 8.4871414235353768 -9.3794026466861169 0 0 0 0 -135.48187807457361 19.297090842034549 0 19.297090842034549 -15.042434073822278 0 0 0 0 -148.55459915183837 21.247162197449484 0 21.247162197449484 -16.79731227970251 0 0 0 0 -128.00417299728724 12.08892921087886 0 12.08892921087886 -18.754391156828888 0 0 0 0 -170.20536798271496 -4.9594312197402814 0 -4.9594312197402814 -14.917636531252242 0 0 0 0 -89.111826992782881 -5.1402753339609717 0 -5.1402753339609717 -4.8595521438376181 0 0 0 0 -101.28586346494649 10.793540910162619 0 10.793540910162619 -19.416579335269034 0 0 0 0 -117.70072480199542 16.938298916108351 0 16.938298916108351 -16.041260158766363 0 0 0 0 -110.99235117208991 5.4051207685058671 0 5.4051207685058671 -4.1388885799305228 0 0 0 0 -128.30145783656917 10.481913637964453 0 10.481913637964453 -8.7053380893472649 0 0 0 0 -104.41835847656694 17.943774956481775 0 17.943774956481775 -30.075451463858826 0 0 0 0 -128.18621795110266 13.833095732415813 0 13.833095732415813 -13.911367108962395 0 0 0 0 -90.583445879612555 1.1066846618225554 0 1.1066846618225554 -17.997653312852492 0 0 0 0 -77.412887766233325 6.7857484928009626 0 6.7857484928009626 -30.53160281991768 0 0 0 0 -88.052165211413012 8.1696639491958649 0 8.1696639491958649 -29.422980197959305 0 0 0 0 -87.58181472119395 9.0228036644944041 0 9.0228036644944041 -28.797460715380623 0 0 0 0 -126.50550721914806 36.327866181893683 0 36.327866181893683 -38.192739445605639 0 0 0 0 -66.547385450136062 20.938722396729418 0 20.938722396729418 -48.195884949909441 0 0 0 0 -76.640948781244333 8.741502360002869 0 8.741502360002869 -43.13943910452258 0 0 0 0 -49.941547220908774 -1.0270846603826271 0 -1.0270846603826271 -43.387674912411512 0 0 0 0 -170.97929523261337 40.928294477223858 0 40.928294477223858 -5.5906115997090637 0 0 0 0 -149.06977236684725 14.329947282777539 0 14.329947282777539 -16.872511448111148 0 0 0 0 -284.26471649112682 22.895422478158252 0 22.895422478158252 -1.7308813956142046 0 0 0 0 -194.81341760937175 90.648775992563287 0 90.648775992563287 -31.48726684339681 0 0 0 0 -42.377846924644473 74.883944284117433 0 74.883944284117433 -79.424034221874535 0 0 0 0 -0.15554693296658417 -0.36195587490172976 0 -0.36195587490172976 -1.02201083361832 0 0 0 0 -1.7697229686291394 9.3658531700793901 0 9.3658531700793901 -51.561901369129828 0 0 0 0 -64.253535479173479 -15.931022504717703 0 -15.931022504717703 -3.9389437397885558 0 0 0 0 -3.8520561286486767 -1.2711854747597702 0 -1.2711854747597702 0.046784179306041729 0 0 0 0 -49.084905670306398 -82.862231179822857 0 -82.862231179822857 106.32096932469312 0 0 0 0 -3.433231038316535 37.631234207357579 0 37.631234207357579 38.659750850542878 0 0 0 0 -162.26142572934077 -17.551345214557386 0 -17.551345214557386 -1.760775134850519 0 0 0 0 3.4282882076903434 46.785521913141565 0 46.785521913141565 18.023152217891493 0 0 0 0 -122.91227941510647 61.560201267315108 0 61.560201267315108 2.2870428513620027 0 0 0 0 -62.195445173506414 21.642966290878121 0 21.642966290878121 28.130987512295633 0 0 0 0 -6.3413170980500126 -13.346001888620833 0 -13.346001888620833 -6.9766507285739863 0 0 0 0 -65.651009599454881 10.603141869773253 0 10.603141869773253 11.214588783186173 0 0 0 0 -36.122610453616289 41.556104392476414 0 41.556104392476414 -59.267084804023398 0 0 0 0 2.0017713781288595 -13.085349193732993 0 -13.085349193732993 -30.194411858366948 0 0 0 0 -143.07872466556807 -33.493105305023391 0 -33.493105305023391 -10.533834997574218 0 0 0 0 18.675698125068266 3.3736036114075887 0 3.3736036114075887 -14.5379790574057 0 0 0 0 1.0068711022227035 -15.561105531764383 0 -15.561105531764383 -15.31435002826159 0 0 0 0 -0.13370543550059555 0.11637294506867413 0 0.11637294506867413 -1.6011638039674319 0 0 0 0 -122.56409631156527 -20.325062390415439 0 -20.325062390415439 -6.2016941655019764 0 0 0 0 -127.81984003123515 3.0391074442537729 0 3.0391074442537729 2.3029366514658705 0 0 0 0 -127.40087006977456 44.960485544199059 0 44.960485544199059 0.70084961458314865 0 0 0 0 -148.71408990718362 32.311124961697715 0 32.311124961697715 6.1511063411872442 0 0 0 0 -158.99762020426419 38.792165958586111 0 38.792165958586111 -0.35457720567228534 0 0 0 0 -178.10456072322933 51.605739216786674 0 51.605739216786674 -8.2138221662978594 0 0 0 0 -172.42774685303357 12.627683575509081 0 12.627683575509081 1.5472758903309796 0 0 0 0 -173.69215662071707 8.6323825396691518 0 8.6323825396691518 -5.3642629601874887 0 0 0 0 -241.14326941006721 21.136384199237511 0 21.136384199237511 -7.1369566378386509 0 0 0 0 -199.40510251650733 -20.824201500407852 0 -20.824201500407852 -17.107251419323234 0 0 0 0 -159.15933806197768 44.839497708335671 0 44.839497708335671 -30.962074369197069 0 0 0 0 -200.09756742996822 66.325126465014421 0 66.325126465014421 -42.234142489300893 0 0 0 0 -462.61849613064066 174.0436723626255 0 174.0436723626255 9.0735272896477568 0 0 0 0 -156.62366487118882 107.35829645029622 0 107.35829645029622 -20.626991098788892 0 0 0 0 -253.21536270225874 -43.046407602734973 0 -43.046407602734973 -10.178440768269752 0 0 0 0 -442.46675734635369 -90.283874999584299 0 -90.283874999584299 29.064579798317538 0 0 0 0 -72.868678278863172 -121.82054775853825 0 -121.82054775853825 -77.591837900732173 0 0 0 0 -1.5139970657382946 53.567979535262737 0 53.567979535262737 -16.110043610328802 0 0 0 0 -201.91266517852728 -20.644909026879418 0 -20.644909026879418 -12.145849598294404 0 0 0 0 0.26038978406088864 -0.41653948095491167 0 -0.41653948095491167 -0.96496077772684119 0 0 0 0 -2.9216805955059044 -26.965415734485134 0 -26.965415734485134 -40.605473957081131 0 0 0 0 15.853210439215218 10.732177254464432 0 10.732177254464432 -64.225529783485015 0 0 0 0 -17.552265552674271 40.689449154743471 0 40.689449154743471 44.052060436620422 0 0 0 0 4.4419438574502692 3.418404905001978 0 3.418404905001978 5.749295666248031 0 0 0 0 -8.8656177809546222 1.5601107846479345 0 1.5601107846479345 0.19812990058502614 0 0 0 0 -243.89465942827064 1.1342651103208254 0 1.1342651103208254 413.04876349110668 0 0 0 0 272.84457685952611 -46.858523866586097 0 -46.858523866586097 -69.807904233244244 0 0 0 0 -431.22363608708781 476.5540352192013 0 476.5540352192013 33.012722921572731 0 0 0 0 -4.2646785058181624 1.8017364826079536 0 1.8017364826079536 -0.41733055736085722 0 0 0 0 -269.75067963520587 -145.13614853289846 0 -145.13614853289846 -42.277008869279371 0 0 0 0 -87.449028633606758 590.35532349762093 0 590.35532349762093 -375.11564598360155 0 0 0 0 -8.3753569739282341 -1.0672463805425316 0 -1.0672463805425316 -0.26746849229298686 0 0 0 0 -1024.3481108934993 50.552661212136513 0 50.552661212136513 -59.751848650476859 0 0 0 0 -184.1707702803451 -186.6616744846001 0 -186.6616744846001 -116.04760915824727 0 0 0 0 81.045110932856915 0.49182067226752224 0 0.49182067226752224 -620.36616759332537 0 0 0 0 -667.76183500214847 317.77302672673977 0 317.77302672673977 -162.88137277518661 0 0 0 0 -90.893472385434961 -71.006911821512233 0 -71.006911821512233 92.496221845375203 0 0 0 0 -492.20878041746232 -255.83743667946098 0 -255.83743667946098 -17.919200498063219 0 0 0 0 -260.86969036565824 -90.755114815755633 0 -90.755114815755633 81.725043016883347 0 0 0 0 -220.18290179688847 -126.45866041756085 0 -126.45866041756085 82.693356918032805 0 0 0 0 -298.519786336381 -81.738158915789768 0 -81.738158915789768 84.451535122492032 0 0 0 0 -1.4445240756213948 0.41650076488364274 0 0.41650076488364274 1.6877806092378966 0 0 0 0 -267.56720106674311 78.941999188783484 0 78.941999188783484 171.30974097679609 0 0 0 0 27.203256337088533 40.468871412732028 0 40.468871412732028 52.810835353770472 0 0 0 0 -135.03717463600788 -57.1510539506383 0 -57.1510539506383 26.728801474186128 0 0 0 0 -105.41925775056006 31.267248252738455 0 31.267248252738455 13.679038148417249 0 0 0 0 -218.00392562369234 -62.303327635858068 0 -62.303327635858068 52.466058638312916 0 0 0 0 25.646882017781536 -103.91842415519159 0 -103.91842415519159 59.571459960878428 0 0 0 0 0.88456557265166502 0.11175321821509421 0 0.11175321821509421 -0.50145526018418973 0 0 0 0 -255.63068266506184 -82.823500724795167 0 -82.823500724795167 -88.840411445886275 0 0 0 0 -49.958012910989964 2.8384263716664009 0 2.8384263716664009 60.931891817056567 0 0 0 0 -36.277361012099391 29.900283985494752 0 29.900283985494752 62.514001224801177 0 0 0 0 -14.301579158875938 -35.353794127994092 0 -35.353794127994092 62.153340291694349 0 0 0 0 -3.6494214514216203 1.3039730970355983 0 1.3039730970355983 1.5568516841811411 0 0 0 0 46.016578520508119 40.039425584192941 0 40.039425584192941 -42.885941909044277 0 0 0 0 -94.452412985986939 269.90257844595408 0 269.90257844595408 -203.42110426753618 0 0 0 0 -83.980754901033549 228.43785766402783 0 228.43785766402783 -164.30314180200276 0 0 0 0 -20.06891078559909 -6.2113849028520924 0 -6.2113849028520924 -1.1308263890399726 0 0 0 0 -422.41051629688309 -211.18462847897393 0 -211.18462847897393 -6.5151387954292659 0 0 0 0 -14.601498617054604 -4.1575462313544094 0 -4.1575462313544094 0.65010600897335258 0 0 0 0 -17.96145478556312 -3.5867155041839371 0 -3.5867155041839371 0.58257370959925936 0 0 0 0 -13.975454595343763 -1.0702728490321931 0 -1.0702728490321931 3.8953400588877685 0 0 0 0 70.148859502679443 -37.450244630493735 0 -37.450244630493735 -46.250787401517805 0 0 0 0 -31.220390454845983 -0.553063557373207 0 -0.553063557373207 18.353647158182525 0 0 0 0 -31.593755930940461 -0.289873769040355 0 -0.289873769040355 21.670265456081324 0 0 0 0 -40.677854255014154 11.063485391241244 0 11.063485391241244 19.677979109640319 0 0 0 0 -39.422981504123527 1.5056420797196779 0 1.5056420797196779 45.52090450056312 0 0 0 0 -21.067902215844924 -8.6717991604487281 0 -8.6717991604487281 23.959448058338239 0 0 0 0 -35.618034816071031 12.284410765810549 0 12.284410765810549 29.453979656001593 0 0 0 0 -53.784981954871 33.16747233102069 0 33.16747233102069 15.988525449447138 0 0 0 0 -22.28135318609975 32.04822509751245 0 32.04822509751245 2.4299322561087138 0 0 0 0 -58.856799374980255 4.804316007024795 0 4.804316007024795 27.283930282585061 0 0 0 0 -6.7721586968546035 24.524581944519582 0 24.524581944519582 6.1032134748404019 0 0 0 0 -1497.9125908694673 -11.319435591405387 0 -11.319435591405387 -1.3195858598791013 0 0 0 0 -4.4742067960747782 16.432424618047612 0 16.432424618047612 4.7971670092891809 0 0 0 0 -1491.8886535579104 70.809242358617368 0 70.809242358617368 2.2935687356842038 0 0 0 0 -1499.9104024914486 -19.315716563113074 0 -19.315716563113074 7.2369988706575725 0 0 0 0 -22.588222173129907 26.68801127844506 0 26.68801127844506 11.46543515779058 0 0 0 0 -24.504590184942572 18.901586700235157 0 18.901586700235157 22.722136968808172 0 0 0 0 -1514.8092919220317 -106.18332100857194 0 -106.18332100857194 9.0720366169093989 0 0 0 0 -1500.2761030821948 -9.5067466777476266 0 -9.5067466777476266 -2.5027515130870461 0 0 0 0 3.9099317795647659 1.1291966279864876 0 1.1291966279864876 -1.6644815987820445 0 0 0 0 -16.295424491849094 10.829626995328987 0 10.829626995328987 2.7848762279337165 0 0 0 0 -1487.5172270852904 -12.419713793122321 0 -12.419713793122321 0.42487357098190115 0 0 0 0 -25.608320435839914 12.171613739286286 0 12.171613739286286 6.3565819657525253 0 0 0 0 -5.8078877512629576 4.9331007357380194 0 4.9331007357380194 2.815407621633923 0 0 0 0 -17.093825272655067 3.4577676229768031 0 3.4577676229768031 7.9758695776943114 0 0 0 0 -10.598261950632946 12.358169527054812 0 12.358169527054812 3.8303754191758657 0 0 0 0 -19.001179940144713 4.2610914413631411 0 4.2610914413631411 4.9579299386619695 0 0 0 0 -15.132110596009998 2.7242027201751657 0 2.7242027201751657 2.9875056924820766 0 0 0 0 -1418.5173474899857 -20.675728075351746 0 -20.675728075351746 0.2166426971429827 0 0 0 0 -2.513724339240937 8.6618741139937008 0 8.6618741139937008 -1.3984386610075732 0 0 0 0 -16.711068221702114 3.05550442783737 0 3.05550442783737 -1.3089666337330357 0 0 0 0 -33.128780284607593 3.6962812842448898 0 3.6962812842448898 3.0646242498445986 0 0 0 0 -1498.995176268259 211.78304870989973 0 211.78304870989973 3.9416257008913567 0 0 0 0 -21.085424356058525 10.2530620251095 0 10.2530620251095 -2.9974711796949123 0 0 0 0 -14.777645936199377 1.4400557483784104 0 1.4400557483784104 1.0483673620618541 0 0 0 0 -6.8750596633451888 9.1758993262140933 0 9.1758993262140933 -1.5334010573081613 0 0 0 0 -1396.6654887255918 -269.21432451304645 0 -269.21432451304645 -58.237575083438315 0 0 0 0 -7.0384665430206041 6.5523913409707575 0 6.5523913409707575 -9.3326522725687937 0 0 0 0 -3.8108804512577708 5.6031607851785159 0 5.6031607851785159 -2.9884797506121257 0 0 0 0 -1498.9281414651464 -22.518635876068469 0 -22.518635876068469 18.379582139625185 0 0 0 0 -23.090211206854292 -0.0085661021403211635 0 -0.0085661021403211635 -6.3705228170927057 0 0 0 0 -38.661221095810106 21.125888416571797 0 21.125888416571797 -11.492760016595014 0 0 0 0 -16.721724765099445 10.208173160370286 0 10.208173160370286 -1.9214837961489906 0 0 0 0 -16.267928776077952 -3.5028617627783944 0 -3.5028617627783944 3.0902507787810976 0 0 0 0 -23.890060081555475 0.44800881419121197 0 0.44800881419121197 -14.045242251259992 0 0 0 0 -31.499250868860145 1.068785545372215 0 1.068785545372215 6.893994620734702 0 0 0 0 -14.702643640318406 0.37227546270478928 0 0.37227546270478928 -1.0655482797514748 0 0 0 0 -24.657551180754012 5.2836019888186172 0 5.2836019888186172 0.058652594551915627 0 0 0 0 3.860748536238475 -30.488973379603522 0 -30.488973379603522 -30.360099186096932 0 0 0 0 -2.6421092738597816 0.47263744388407414 0 0.47263744388407414 1.0856107967318378 0 0 0 0 -36.77294353646721 7.9620816623444739 0 7.9620816623444739 0.80333697158256712 0 0 0 0 -166.27303622915929 96.720627183641 0 96.720627183641 -7.9703689944768001 0 0 0 0 -10.385667637198821 23.041720967718618 0 23.041720967718618 -79.686130504909443 0 0 0 0 -0.61310101949760476 -0.24142591343963637 0 -0.24142591343963637 -1.1450187644181553 0 0 0 0 -172.25607317213397 65.860412839893428 0 65.860412839893428 -17.349818878016777 0 0 0 0 -65.225542708745706 46.266668430391064 0 46.266668430391064 -28.527267360029096 0 0 0 0 -64.686562475919345 100.0285500839783 0 100.0285500839783 -98.676544076744079 0 0 0 0 -30.673464619774222 24.366117975911607 0 24.366117975911607 -34.677774207989614 0 0 0 0 -92.082605258641195 51.48583411127828 0 51.48583411127828 -16.783309398015263 0 0 0 0 -93.892979859410048 47.235628778673345 0 47.235628778673345 -13.92139207090986 0 0 0 0 -121.26566030217225 69.174727806176747 0 69.174727806176747 -19.130803643770605 0 0 0 0 -128.9245539454356 46.755369248828288 0 46.755369248828288 0.4728135721588842 0 0 0 0 -84.531502580521192 40.442288372895746 0 40.442288372895746 -8.7176852843365396 0 0 0 0 -50.784122533533264 23.234329319813014 0 23.234329319813014 -5.9239678985586579 0 0 0 0 -1.6131103033881962 9.3262676712596519 0 9.3262676712596519 -8.3679521960985834 0 0 0 0 -1500.284805109226 -19.068404966227401 0 -19.068404966227401 -11.02883903847326 0 0 0 0 -2.3190213837797273 4.6353178726084252 0 4.6353178726084252 -16.807490639915613 0 0 0 0 -1498.675546481488 -25.632594738039096 0 -25.632594738039096 15.600273314713927 0 0 0 0 -47.061519732953457 25.606544510672506 0 25.606544510672506 -10.316581887183247 0 0 0 0 -17.03672134232329 -6.7660755698061905 0 -6.7660755698061905 36.629187460021598 0 0 0 0 -34.081776475220977 10.473718779873593 0 10.473718779873593 65.259302424130965 0 0 0 0 0.11510361539292546 -0.045855459286180178 0 -0.045855459286180178 8.4239276274127111 0 0 0 0 -23.290601082451758 -8.3939795854296904 0 -8.3939795854296904 14.927859665007958 0 0 0 0 -3.5895032591506606 13.467942910274331 0 13.467942910274331 14.02555876471019 0 0 0 0 6.0382789813374984 24.157052572880957 0 24.157052572880957 25.504843825282592 0 0 0 0 -32.546537320311472 22.507022750326115 0 22.507022750326115 44.814071666468408 0 0 0 0 -12.190110284373077 42.507530058175348 0 42.507530058175348 64.434809091215016 0 0 0 0 -49.48041583878512 28.856237206277399 0 28.856237206277399 68.462330186646454 0 0 0 0 26.309678527253709 53.531681306643037 0 53.531681306643037 40.988211857801844 0 0 0 0 -24.225705169716093 62.010989124411594 0 62.010989124411594 90.32978744191837 0 0 0 0 -78.352779682223627 10.609577910856387 0 10.609577910856387 70.77951460061837 0 0 0 0 -51.750629908668998 30.633719108349823 0 30.633719108349823 72.629200582940143 0 0 0 0 -56.012092240941456 -38.681299901610515 0 -38.681299901610515 48.081970392159519 0 0 0 0 -16.54389862165408 -14.433361275509256 0 -14.433361275509256 60.217821302610218 0 0 0 0 -11.996043279432342 -27.725087709107243 0 -27.725087709107243 40.261291429065466 0 0 0 0 -11.164486281661198 -83.856695265403772 0 -83.856695265403772 61.740701214245291 0 0 0 0 -22.097102772337294 -8.7370783843893349 0 -8.7370783843893349 -1.9081166676675934 0 0 0 0 -21.722314571201423 -50.975632766122828 0 -50.975632766122828 21.017529210455542 0 0 0 0 -3.0450042480441084 -13.166262048008104 0 -13.166262048008104 16.016680765386468 0 0 0 0 -30.364562608989218 -33.657687811116787 0 -33.657687811116787 69.006142227071422 0 0 0 0 -19.069204429627291 -6.6930495648955066 0 -6.6930495648955066 -0.45880468515950568 0 0 0 0 -2.7146083125131213 -21.894271063586128 0 -21.894271063586128 8.7993981520811531 0 0 0 0 -8.4908567681522982 -8.4473888609485073 0 -8.4473888609485073 -0.26145525761477018 0 0 0 0 -6.8079176159881172 -30.186460516143292 0 -30.186460516143292 -22.998135395540729 0 0 0 0 -1.8222095454675582 -7.1560387399727006 0 -7.1560387399727006 -12.743512261376566 0 0 0 0 -5.9303309339338739 -6.9175007593761393 0 -6.9175007593761393 -9.1586712851223666 0 0 0 0 -3.6060194629644684 -6.0283657798566423 0 -6.0283657798566423 0.9251460283810502 0 0 0 0 -8.3050237929319337 -7.2179689660166133 0 -7.2179689660166133 7.2399122772335431 0 0 0 0 -12.27009968218772 2.4749715128486969 0 2.4749715128486969 16.259792891455845 0 0 0 0 -31.09049669178421 -6.4200228823279986 0 -6.4200228823279986 19.054001487393293 0 0 0 0 -3.7618035444431328 1.4178362240346942 0 1.4178362240346942 10.45181031133691 0 0 0 0 -24.971829852453084 -0.43441374711977687 0 -0.43441374711977687 16.338777399647647 0 0 0 0 -79.860591531029968 111.28976751692306 0 111.28976751692306 65.072296057479434 0 0 0 0 -16.016515383722847 -4.5915532596569939 0 -4.5915532596569939 2.3163878235319584 0 0 0 0 15.135467700671143 22.345597098436428 0 22.345597098436428 -14.080714860223907 0 0 0 0 -20.038016736922145 0.64137970249481668 0 0.64137970249481668 0.58410066508849923 0 0 0 0 -5.3931472429748979 6.0894802131479082 0 6.0894802131479082 -1.3552868661068851 0 0 0 0 -24.019597895872721 30.985741867249885 0 30.985741867249885 -32.458898814572649 0 0 0 0 -4.6218011940230026 0.28401642923716253 0 0.28401642923716253 2.3102762074402916 0 0 0 0 -12.116750223485724 -2.5961601580877982 0 -2.5961601580877982 3.6303966952411884 0 0 0 0 -2.3666149222091377 1.7436300220065775 0 1.7436300220065775 0.21281448618473364 0 0 0 0 -14.136319880504317 6.0738170135259679 0 6.0738170135259679 4.0143692796499533 0 0 0 0 -50.51566756000102 -32.160486142312948 0 -32.160486142312948 47.989837595503559 0 0 0 0 -125.12006669896073 23.117954314027202 0 23.117954314027202 -6.4464144550232731 0 0 0 0 -143.37584087868527 72.154861020401114 0 72.154861020401114 -26.50992192550666 0 0 0 0 -169.54532438894967 38.719088255430961 0 38.719088255430961 4.4857103386314634 0 0 0 0 -53.478896215478017 -0.30109573659410671 0 -0.30109573659410671 -27.833070242517806 0 0 0 0 -87.577698786219116 16.20880231764113 0 16.20880231764113 -6.9636952229152485 0 0 0 0 -120.5349551722029 -40.958292570074946 0 -40.958292570074946 34.639024771368895 0 0 0 0 -251.66962876787875 43.417296972037775 0 43.417296972037775 8.1387620488106904 0 0 0 0 -73.289779757382348 34.277821655525258 0 34.277821655525258 -22.004954162572293 0 0 0 0 -215.27761407929211 -28.4320446702136 0 -28.4320446702136 -22.277189125756383 0 0 0 0 -185.05750075094329 23.376521612418742 0 23.376521612418742 14.167966856250587 0 0 0 0 -288.9938134875265 70.683030744460666 0 70.683030744460666 24.076273934607684 0 0 0 0 -256.00044881003851 65.098585817684238 0 65.098585817684238 24.829313652923531 0 0 0 0 -201.37808852582384 57.229989754706025 0 57.229989754706025 15.286815281860129 0 0 0 0 -216.10150332302146 104.6325941423728 0 104.6325941423728 -1.2741488936965197 0 0 0 0 -231.30448866670486 74.770461623282415 0 74.770461623282415 8.7844033127751118 0 0 0 0 -284.23014056610555 132.41245358512344 0 132.41245358512344 37.509220701944287 0 0 0 0 -285.78353696669365 115.30930390522462 0 115.30930390522462 21.851479925288004 0 0 0 0 -326.85767197073073 165.64615472954893 0 165.64615472954893 11.751881775270704 0 0 0 0 -350.32698725881346 159.09231241775854 0 159.09231241775854 57.769569490802283 0 0 0 0 -340.67968650390139 140.44047621137008 0 140.44047621137008 55.626147774273477 0 0 0 0 -339.95573654346663 132.90830683295985 0 132.90830683295985 48.480736503266712 0 0 0 0 -317.84192941188485 113.52912367548413 0 113.52912367548413 65.357466183819724 0 0 0 0 -267.36987753134781 101.59567558155365 0 101.59567558155365 31.925237576715517 0 0 0 0 -324.60231160779222 97.035423243170271 0 97.035423243170271 36.799387416158652 0 0 0 0 -327.02068792604405 72.22726357050044 0 72.22726357050044 52.697604922248729 0 0 0 0 -368.39921431393304 99.016074779090332 0 99.016074779090332 62.463502994459759 0 0 0 0 -369.66599980210867 128.51915749840589 0 128.51915749840589 101.78492919747578 0 0 0 0 -364.45448274117371 105.69407455464227 0 105.69407455464227 73.048973273581851 0 0 0 0 -397.00243633951322 94.808007228717088 0 94.808007228717088 89.339352780810259 0 0 0 0 -400.73620855054469 81.859147751616774 0 81.859147751616774 72.110147847506141 0 0 0 0 -395.13563480587618 123.17688091316529 0 123.17688091316529 103.9445260046607 0 0 0 0 -376.62394226980541 56.586275237766017 0 56.586275237766017 53.497331548109059 0 0 0 0 -386.0148016064968 52.956645077308508 0 52.956645077308508 55.509037152474093 0 0 0 0 -392.8428290168813 -1.1480996221764599 0 -1.1480996221764599 28.569405561272561 0 0 0 0 -4.8670340683395423 10.782764466765443 0 10.782764466765443 -14.016234529313859 0 0 0 0 -319.32613155302897 21.027586936316425 0 21.027586936316425 22.581952659678336 0 0 0 0 -267.31809187781619 -2.6846951811800182 0 -2.6846951811800182 -5.5035821669455345 0 0 0 0 -345.78967909421772 0.98001473679732953 0 0.98001473679732953 24.341868466170467 0 0 0 0 -268.49391198233207 -19.222921147191528 0 -19.222921147191528 -19.323928304228048 0 0 0 0 -255.50649613397763 40.424070421019564 0 40.424070421019564 14.755728130668558 0 0 0 0 -301.89461352850776 28.527733851699622 0 28.527733851699622 12.117798132698795 0 0 0 0 -326.74782650938141 66.807231426428189 0 66.807231426428189 39.512777612896997 0 0 0 0 -288.94690493794769 74.506081482860623 0 74.506081482860623 38.081680275879535 0 0 0 0 -374.62126348331731 85.18339282062999 0 85.18339282062999 64.041611637401843 0 0 0 0 -292.17682628736475 -68.983444647078841 0 -68.983444647078841 -12.437343104544311 0 0 0 0 -316.79879602518486 43.853352763166129 0 43.853352763166129 87.542673798398084 0 0 0 0 -347.87146299871165 149.20795301825211 0 149.20795301825211 88.781276660951903 0 0 0 0 -344.63692047692166 147.63831765310431 0 147.63831765310431 59.282446590565087 0 0 0 0 -345.9282260339678 147.0081138604246 0 147.0081138604246 82.059788694921281 0 0 0 0 -338.62285041896394 145.94872358859368 0 145.94872358859368 57.801319478359289 0 0 0 0 -339.45519760138268 137.31272905259016 0 137.31272905259016 77.753886765879088 0 0 0 0 -355.19168136753433 114.46680259753248 0 114.46680259753248 85.957007651665094 0 0 0 0 -351.32354587685404 129.0154019610776 0 129.0154019610776 113.37549440266594 0 0 0 0 -261.97916548890134 137.90922029409782 0 137.90922029409782 90.478620452378436 0 0 0 0 -269.5056426328083 117.53320044238615 0 117.53320044238615 94.235763371695157 0 0 0 0 -345.19910011911998 124.9148088776448 0 124.9148088776448 111.28880520921166 0 0 0 0 -216.91533464937675 -6.5644712156764626 0 -6.5644712156764626 122.96449062911404 0 0 0 0 -183.49666382272335 85.123286755395668 0 85.123286755395668 70.54913813539963 0 0 0 0 -224.95654679479776 61.247335714470296 0 61.247335714470296 114.65357487494489 0 0 0 0 -286.6094966461078 100.30105472319246 0 100.30105472319246 122.05795192598498 0 0 0 0 -32.822667217813432 -73.073909095822955 0 -73.073909095822955 200.00029893052351 0 0 0 0 -132.59654815590329 -37.267256928027621 0 -37.267256928027621 161.60361529577909 0 0 0 0 -194.48579391201929 70.327130846387377 0 70.327130846387377 110.63212263390346 0 0 0 0 -117.98855246141056 88.558452216249805 0 88.558452216249805 77.584566698450772 0 0 0 0 42.896558730732067 24.749128590485611 0 24.749128590485611 34.727407540175932 0 0 0 0 -129.11509829221905 157.68075506067566 0 157.68075506067566 34.50541803833255 0 0 0 0 -362.12903976492817 122.28418040963197 0 122.28418040963197 98.196505453174382 0 0 0 0 -345.06522164960916 110.26658006619266 0 110.26658006619266 108.48600816314877 0 0 0 0 -191.10563420969311 147.70715925181798 0 147.70715925181798 73.729044405031573 0 0 0 0 -355.01184057911087 130.21397007757645 0 130.21397007757645 79.556252692758108 0 0 0 0 -465.24808302467864 110.11735620398463 0 110.11735620398463 100.62102293412636 0 0 0 0 -361.21598445390691 102.22444868320376 0 102.22444868320376 56.780361398396508 0 0 0 0 -327.04853972022465 137.84269959397221 0 137.84269959397221 58.195564930482305 0 0 0 0 -1.7294266980303803 0.65268853875030608 0 0.65268853875030608 0.20469657610253322 0 0 0 0 -216.09796227160768 11.531427794239335 0 11.531427794239335 -205.81992291119934 0 0 0 0 -470.66861016931944 27.462264710684167 0 27.462264710684167 21.223632993151568 0 0 0 0 -490.59457019098045 115.68114659219509 0 115.68114659219509 69.48364189082713 0 0 0 0 -592.06654595521104 292.85086787009595 0 292.85086787009595 -73.773888381424513 0 0 0 0 -338.45080651588069 -411.03093834499646 0 -411.03093834499646 261.91930335655252 0 0 0 0 332.43989592774233 -14.053730189665771 0 -14.053730189665771 -349.84936051681962 0 0 0 0 -52.550709967850707 -50.216106416008643 0 -50.216106416008643 50.541330922840189 0 0 0 0 -2.0833240939262083 -4.9665054784538665 0 -4.9665054784538665 -0.60773774125988145 0 0 0 0 9.5783906828510226 -58.822990210157059 0 -58.822990210157059 -47.771925519844217 0 0 0 0 -53.39710782541988 -53.196148999253296 0 -53.196148999253296 44.563273942546402 0 0 0 0 -37.492169463423267 -16.580214908740363 0 -16.580214908740363 -1.4334064960447965 0 0 0 0 -524.17365489981603 -101.71522901500452 0 -101.71522901500452 -12.961954913062186 0 0 0 0 -137.41229360732359 -106.57165478493459 0 -106.57165478493459 29.674666891068227 0 0 0 0 -3.9515057044343429 7.5729128654314763 0 7.5729128654314763 -10.847867953729473 0 0 0 0 -336.59360381488659 -68.240598144638966 0 -68.240598144638966 -35.792004709868706 0 0 0 0 -442.34639117032202 -120.72082724113602 0 -120.72082724113602 -43.15723837426367 0 0 0 0 -461.26894868565796 -37.123162359034211 0 -37.123162359034211 27.838901225460177 0 0 0 0 -402.62827452360216 -17.262060249938713 0 -17.262060249938713 2.5685422420915529 0 0 0 0 -439.48548243595724 30.779925604075288 0 30.779925604075288 58.001330554065945 0 0 0 0 -431.26205379196472 31.180846798272682 0 31.180846798272682 48.07035285944994 0 0 0 0 -430.86671528831357 90.006333984075354 0 90.006333984075354 99.183137729378956 0 0 0 0 -444.3319653146973 75.645903349165792 0 75.645903349165792 89.131926583086624 0 0 0 0 -420.08313079721847 80.470133649294212 0 80.470133649294212 70.673957440558752 0 0 0 0 -454.21947669481597 68.916002514833508 0 68.916002514833508 62.488225281572795 0 0 0 0 -506.08017291150463 53.908378425352566 0 53.908378425352566 85.322605429891382 0 0 0 0 -524.15334501422331 44.169061884229109 0 44.169061884229109 18.80668657642309 0 0 0 0 -546.41054662076931 55.860340045700468 0 55.860340045700468 72.338216087750993 0 0 0 0 -522.2589907203801 -5.6014526364161839 0 -5.6014526364161839 58.793200014697049 0 0 0 0 -494.61190674392856 -75.190601997260387 0 -75.190601997260387 -15.33967124869605 0 0 0 0 -492.79270180145977 22.335741643812895 0 22.335741643812895 54.057565936749597 0 0 0 0 -574.51165639230749 -18.92449398103372 0 -18.92449398103372 33.326316044082432 0 0 0 0 -584.33770795071541 -141.05432231863324 0 -141.05432231863324 -87.891664148871769 0 0 0 0 -622.25784034871322 9.437349872647701 0 9.437349872647701 17.866221806063095 0 0 0 0 -587.67074861298897 86.886396097816032 0 86.886396097816032 0.58173420158664157 0 0 0 0 -492.97343608277833 45.781770040776273 0 45.781770040776273 17.887124938632041 0 0 0 0 -588.07742785624578 7.4431438749249992 0 7.4431438749249992 3.3524060667621143 0 0 0 0 -591.3793129429323 35.825575339954867 0 35.825575339954867 -57.156941838478815 0 0 0 0 -634.6231857483217 221.09859643779555 0 221.09859643779555 -173.72254720715694 0 0 0 0 -480.69223651309585 78.528791994979542 0 78.528791994979542 -143.63078114417112 0 0 0 0 -823.56856799161324 141.16597461052493 0 141.16597461052493 -60.365642964179415 0 0 0 0 -682.17035839089658 229.78115602268213 0 229.78115602268213 -22.495461669801216 0 0 0 0 -697.5880809184091 194.80649259030042 0 194.80649259030042 -78.723278611951173 0 0 0 0 -710.94907470399812 5.5418712904129634 0 5.5418712904129634 -64.634437297474051 0 0 0 0 -815.92644883567846 50.362080186388994 0 50.362080186388994 -69.57388437780628 0 0 0 0 -804.43077115226333 -226.42263085445984 0 -226.42263085445984 -117.97522035443831 0 0 0 0 27.049119916966447 235.77404693049252 0 235.77404693049252 -38.874309552980549 0 0 0 0 -520.24223890473513 -62.278076859584246 0 -62.278076859584246 -20.931061418843797 0 0 0 0 0.048578313199174161 -0.74717857583104319 0 -0.74717857583104319 3.3589782369649188 0 0 0 0 -386.56285631061473 62.451286569555464 0 62.451286569555464 146.64656710480517 0 0 0 0 318.90715828704356 365.98238231956287 0 365.98238231956287 -155.18572728095523 0 0 0 0 276.71285961750982 -269.7161403762683 0 -269.7161403762683 19.976695450580799 0 0 0 0 -1125.4689744628195 -207.45333645648338 0 -207.45333645648338 -69.955566504544095 0 0 0 0 -846.94735224031683 87.20801254449384 0 87.20801254449384 -145.17193585403629 0 0 0 0 -1070.9181807061541 87.84957956400126 0 87.84957956400126 -114.22811933054436 0 0 0 0 -1.5906960580878611 2.3339090196029844 0 2.3339090196029844 -4.6972466973347009 0 0 0 0 -359.03739368688548 29.670974586756984 0 29.670974586756984 146.15892731625536 0 0 0 0 -1393.1952698697751 -31.041338226362086 0 -31.041338226362086 72.076919891163925 0 0 0 0 -1.0633429402511183 -0.92819321522411968 0 -0.92819321522411968 -2.119857138029011 0 0 0 0 -901.96201954175922 -22.723006336378376 0 -22.723006336378376 -118.96782302382735 0 0 0 0 -840.18297224840717 130.1590940586957 0 130.1590940586957 -158.47568953947075 0 0 0 0 -62.666713590984727 106.18387087018277 0 106.18387087018277 -205.67099636921239 0 0 0 0 -1314.8666384244607 912.63868947634364 0 912.63868947634364 -85.682386844551729 0 0 0 0 -1114.4997488509835 101.20098033927297 0 101.20098033927297 -118.26944970636316 0 0 0 0 -467.99491683808446 660.29452441859985 0 660.29452441859985 49.81756963566113 0 0 0 0 -304.14741023037641 460.24192908807299 0 460.24192908807299 -23.985368733483483 0 0 0 0 -429.46894036447338 478.49461478583908 0 478.49461478583908 23.400378462145454 0 0 0 0 46.350796804457786 350.25822526144589 0 350.25822526144589 -35.761932312802855 0 0 0 0 -346.24022746543051 200.85434927456026 0 200.85434927456026 -86.177189948515206 0 0 0 0 -213.42315517531824 330.76548651120902 0 330.76548651120902 123.99285097401889 0 0 0 0 21.994985954101139 529.03852378874694 0 529.03852378874694 24.660487652765823 0 0 0 0 2.0026382545547676 232.94447372377795 0 232.94447372377795 134.64109860963072 0 0 0 0 -325.39538444222126 630.22623967326854 0 630.22623967326854 -2.0789517092921415 0 0 0 0 -89.301661708697793 458.54042518115648 0 458.54042518115648 -5.7315315178452693 0 0 0 0 -0.29878778183046961 -50.749944912554156 0 -50.749944912554156 4.0421323769187438 0 0 0 0 -49.543170289631234 -35.737678245796928 0 -35.737678245796928 41.303738807400549 0 0 0 0 -30.803135578300683 -20.601068461888271 0 -20.601068461888271 -1.6636831971118999 0 0 0 0 -115.25538014979975 -52.560445555757553 0 -52.560445555757553 17.122185994956453 0 0 0 0 -99.822197649409645 -41.575403237677165 0 -41.575403237677165 -4.6748636734091633 0 0 0 0 -48.167730473363918 -30.323218709324806 0 -30.323218709324806 61.66880426583225 0 0 0 0 184.08628223562482 -6.3176206698242368 0 -6.3176206698242368 -1.7209925973120335 0 0 0 0 -12.708424420597105 -5.6907394433043024 0 -5.6907394433043024 0.18358587876939758 0 0 0 0 -126.24605538188189 -13.233086736799123 0 -13.233086736799123 23.024788577238724 0 0 0 0 -445.78665573780381 -143.74273711372189 0 -143.74273711372189 243.66801211227357 0 0 0 0 -9.1504681433725636 -322.43760466204412 0 -322.43760466204412 78.857160227531494 0 0 0 0 -24.511316403847395 -21.583519529154263 0 -21.583519529154263 -10.639923775664151 0 0 0 0 -45.91200051013584 -27.920309186318264 0 -27.920309186318264 -41.438012301241542 0 0 0 0 -1.5174051908543333 -60.880581868860645 0 -60.880581868860645 -46.393011318124081 0 0 0 0 -58.028012887069053 -71.505388382257138 0 -71.505388382257138 -18.930234536564058 0 0 0 0 -46.894928016907215 -11.539534339224133 0 -11.539534339224133 -1.2625849266643456 0 0 0 0 -4.5070701232182699 -10.103468241219936 0 -10.103468241219936 15.806290514708778 0 0 0 0 -15.993912893951347 -82.656100131175663 0 -82.656100131175663 -19.602667022976675 0 0 0 0 -36.74099623823713 6.0458723317074146 0 6.0458723317074146 48.109790581355355 0 0 0 0 34.831523257493245 -98.415070484863463 0 -98.415070484863463 95.299496471945531 0 0 0 0 -4.1852029294423119 -23.103528857833794 0 -23.103528857833794 25.892070765346944 0 0 0 0 -50.316240405563804 -24.174343904275474 0 -24.174343904275474 270.38489626097544 0 0 0 0 45.117907791916878 158.76870353690413 0 158.76870353690413 230.21291298896267 0 0 0 0 -91.209021582171772 -18.438148483268378 0 -18.438148483268378 122.77789764959834 0 0 0 0 -639.32230138756131 299.01906079522496 0 299.01906079522496 -49.029380603431491 0 0 0 0 -564.05783852051172 135.32402207519635 0 135.32402207519635 -135.58947208346126 0 0 0 0 -556.15801819719127 111.98327251399655 0 111.98327251399655 -141.83992245770787 0 0 0 0 -504.11107349798112 176.28912873356194 0 176.28912873356194 -270.38042166714422 0 0 0 0 -283.99373116640709 37.472758769081111 0 37.472758769081111 -135.1370016899873 0 0 0 0 -411.57568181183888 231.98491228499893 0 231.98491228499893 -100.89192162371 0 0 0 0 -77.52414070607847 14.11495341021805 0 14.11495341021805 41.204015262949724 0 0 0 0 103.99936248220911 11.748917669995535 0 11.748917669995535 35.618673328674959 0 0 0 0 -613.55041121708928 386.08688768680395 0 386.08688768680395 8.2910748362246522 0 0 0 0 -3.6594961514551869 -0.87791048329357579 0 -0.87791048329357579 -3.6696660920362376 0 0 0 0 11.29489006667427 64.684090755476973 0 64.684090755476973 18.285156202962753 0 0 0 0 -19.03001762501583 -13.347203400886656 0 -13.347203400886656 -6.8617077271887368 0 0 0 0 -48.54546604189818 -28.055755204992238 0 -28.055755204992238 53.541523632871758 0 0 0 0 59.234557451651199 10.233348553029373 0 10.233348553029373 -23.167789355627974 0 0 0 0 -182.00453862347422 -141.47236304471664 0 -141.47236304471664 220.50989583275805 0 0 0 0 -31.856095362418273 -82.160420011005954 0 -82.160420011005954 238.97851891651044 0 0 0 0 -35.518460913790477 -117.65905440038841 0 -117.65905440038841 89.328209277482529 0 0 0 0 63.904669345596631 54.672744391276865 0 54.672744391276865 118.67239728501954 0 0 0 0 -10.463816478400418 -8.3215546415624146 0 -8.3215546415624146 -5.7938120692463428 0 0 0 0 -1.5383768041501753 -178.8244145224844 0 -178.8244145224844 140.87837931647664 0 0 0 0 -760.34266636733082 177.81876105844003 0 177.81876105844003 -60.165445226703014 0 0 0 0 1.7741152221543501 0.48327620537421012 0 0.48327620537421012 -2.4314212833194482 0 0 0 0 -622.99728835564019 217.04815241037932 0 217.04815241037932 -173.31868891411159 0 0 0 0 -841.10850491521705 357.80971049334676 0 357.80971049334676 -249.24345691356177 0 0 0 0 -746.31099845416611 193.82208746500078 0 193.82208746500078 -150.44046993054144 0 0 0 0 -773.17865504463043 169.72422370826212 0 169.72422370826212 -147.84741461236172 0 0 0 0 -684.4907604473774 73.778924982980129 0 73.778924982980129 -56.689395669458463 0 0 0 0 0.070623181173264271 -1.0289287267291982 0 -1.0289287267291982 -1.8500601741617047 0 0 0 0 -167.78990174311821 64.774074605458964 0 64.774074605458964 -30.562920955912887 0 0 0 0 -340.16534193356711 -50.961766677843116 0 -50.961766677843116 -204.14119848798691 0 0 0 0 -297.3767558704385 67.494071826807271 0 67.494071826807271 102.2300886550488 0 0 0 0 -364.53048366785515 -92.078585098503027 0 -92.078585098503027 -150.79349617381104 0 0 0 0 -428.86489825796343 7.1169676751645738 0 7.1169676751645738 -102.17154526839568 0 0 0 0 -435.65517244237708 -14.642526294202526 0 -14.642526294202526 -161.34901318707944 0 0 0 0 -375.23188724616921 -74.047941415658443 0 -74.047941415658443 -66.384809459379994 0 0 0 0 -94.29487707811586 -109.68998988695287 0 -109.68998988695287 -99.638527745521515 0 0 0 0 -307.29428889006158 296.72382442952824 0 296.72382442952824 232.75956967593868 0 0 0 0 -359.67576756324706 -84.322687060257067 0 -84.322687060257067 -79.240009733434135 0 0 0 0 -349.13464179894436 -203.82884386542241 0 -203.82884386542241 -35.212748163717038 0 0 0 0 -382.19270474746281 -109.81465339660247 0 -109.81465339660247 226.61610823118394 0 0 0 0 -3.8240745009598527 -0.28369121705785894 0 -0.28369121705785894 -0.022962163405473857 0 0 0 0 -52.153902984569868 -121.98939990595795 0 -121.98939990595795 -315.2904461985097 0 0 0 0 -136.46716348665268 -114.90086208800328 0 -114.90086208800328 -40.562640061035609 0 0 0 0 -62.244958659437543 12.114732838227951 0 12.114732838227951 65.557038594497783 0 0 0 0 -139.98556913165612 5.7690708656232932 0 5.7690708656232932 106.01697322130372 0 0 0 0 -65.38846524208202 37.27161026102624 0 37.27161026102624 88.430551674129106 0 0 0 0 302.7596342120969 201.58401857521932 0 201.58401857521932 -4.1836047615736334 0 0 0 0 -14.098954632805544 -65.430294483519106 0 -65.430294483519106 -36.987242350199267 0 0 0 0 -65.025201618154824 -31.170712427142576 0 -31.170712427142576 45.808778368306605 0 0 0 0 -25.063088985280046 -19.236806552226653 0 -19.236806552226653 -30.339781317080877 0 0 0 0 -25.196765799501009 -10.889683176395238 0 -10.889683176395238 -124.09600314276327 0 0 0 0 -9.1408476825489231 -2.141262920057402 0 -2.141262920057402 -0.45503604784175988 0 0 0 0 -0.70583069871281623 -0.16761288760426396 0 -0.16761288760426396 -74.926816456896859 0 0 0 0 11.669424589521441 -52.863918027817931 0 -52.863918027817931 72.943002385325144 0 0 0 0 58.796004922060092 29.823301066325712 0 29.823301066325712 -174.3277091229088 0 0 0 0 72.827955552490948 -51.915019175286147 0 -51.915019175286147 -51.342040889531745 0 0 0 0 17.105268939132657 34.468440159369493 0 34.468440159369493 -86.426895621846597 0 0 0 0 34.907335902396881 -0.48080911478450616 0 -0.48080911478450616 -35.76795317439155 0 0 0 0 13.662283223125996 -16.958437725842487 0 -16.958437725842487 -21.999002991403358 0 0 0 0 11.381596486222406 -12.685541764404206 0 -12.685541764404206 -28.593111326609687 0 0 0 0 5.2887939103820827 -10.411199599004703 0 -10.411199599004703 -21.544411892357857 0 0 0 0 4.8885246521344925 -12.940373331603411 0 -12.940373331603411 -13.573803855435472 0 0 0 0 8.9468691771689919 -16.207886732410316 0 -16.207886732410316 -14.783339693322887 0 0 0 0 8.6972890691831708 -14.607000677428914 0 -14.607000677428914 -18.992400627462757 0 0 0 0 8.2493960022038664 -21.42424786307447 0 -21.42424786307447 -15.004608662647115 0 0 0 0 7.4692364466682193 -24.761232110748779 0 -24.761232110748779 -3.5395287110948175 0 0 0 0 3.9935927353944862 -15.077089687581065 0 -15.077089687581065 -10.799799696626906 0 0 0 0 -9.4469757619372103 -22.367304874290085 0 -22.367304874290085 17.776166105534685 0 0 0 0 -12.896280351277312 -3.1939528738676142 0 -3.1939528738676142 -0.22017761952421555 0 0 0 0 -15.509621155080822 -9.9623419094743895 0 -9.9623419094743895 8.2875092217846031 0 0 0 0 -2.5989578865410294 -21.929621413783025 0 -21.929621413783025 -29.394580657502956 0 0 0 0 -2.1983525579292689 -3.3256214932178381 0 -3.3256214932178381 -0.35556841112297022 0 0 0 0 44.683434623790163 -78.416380039870887 0 -78.416380039870887 26.243287940503706 0 0 0 0 -25.319114774625632 -154.13556901489119 0 -154.13556901489119 89.106060616846662 0 0 0 0 3.6200863342928642 -14.156296407479203 0 -14.156296407479203 -13.066688927959149 0 0 0 0 0.87404500626405479 -0.58927300298618945 0 -0.58927300298618945 -0.31132298025595517 0 0 0 0 -255.59738488442963 295.037826415175 0 295.037826415175 -188.02600482284106 0 0 0 0 -30.782244021324004 4.5870745004785363 0 4.5870745004785363 -28.365130039768701 0 0 0 0 -29.285989521900774 -24.328505971061986 0 -24.328505971061986 -45.942876325635552 0 0 0 0 -74.224123859647079 -48.814504196857797 0 -48.814504196857797 -8.7783280368630585 0 0 0 0 -8.924045285697602 4.7094082852876653 0 4.7094082852876653 -5.6826870550240542 0 0 0 0 -42.933690565187135 -14.810128732440262 0 -14.810128732440262 -8.8531641726360704 0 0 0 0 -21.709648919091705 8.3132573783461794 0 8.3132573783461794 -17.438488077585134 0 0 0 0 -4.0006751710097888 7.8631341721361423 0 7.8631341721361423 -8.7789460293406592 0 0 0 0 -15.551106236845953 0.28597717390675825 0 0.28597717390675825 -7.8755523666273746 0 0 0 0 8.4448682323418325 -4.7901091538710716 0 -4.7901091538710716 -11.110927118374093 0 0 0 0 22.794020521672792 52.902759935901486 0 52.902759935901486 9.6930533532568006 0 0 0 0 -22.50286490873259 5.0503690408306738 0 5.0503690408306738 0.52923018254841736 0 0 0 0 -40.400427794607822 -7.7980030650701337 0 -7.7980030650701337 -2.8567230327071229 0 0 0 0 -6.9078137070828234 22.021116739694662 0 22.021116739694662 -48.45922968756895 0 0 0 0 1.2058126529445872 -7.3788984131415418 0 -7.3788984131415418 8.4908761745873562 0 0 0 0 3.6557434654969256 3.3622191195981941 0 3.3622191195981941 4.7967913397096709 0 0 0 0 1.7816566005058121 -1.2387399040471792 0 -1.2387399040471792 -3.024528523108529 0 0 0 0 -0.030306499089704175 0.25149075475874838 0 0.25149075475874838 0.49217064182218895 0 0 0 0 38.453010052573518 -19.836017013744367 0 -19.836017013744367 -2.2353461298696402 0 0 0 0 15.625598747537879 45.176412844396737 0 45.176412844396737 -41.394921714776046 0 0 0 0 -2.614312609766074 -6.1200584916421512 0 -6.1200584916421512 0.13822692686778915 0 0 0 0 -63.065014905609132 -88.963941543080182 0 -88.963941543080182 74.573112311584936 0 0 0 0 -34.487169810326705 -0.97377287734639495 0 -0.97377287734639495 3.5055603711184138 0 0 0 0 4.5195647419895977 -9.0547158314475382 0 -9.0547158314475382 70.928550980089653 0 0 0 0 -11.219366832901869 -15.107084883547486 0 -15.107084883547486 8.8539724415468299 0 0 0 0 -3.7152337918741978 -15.283038391953141 0 -15.283038391953141 0.78039320253265032 0 0 0 0 -22.00958968186751 -11.718579683836651 0 -11.718579683836651 -15.015614420726706 0 0 0 0 1.0014339966698742 -1.546032877885434 0 -1.546032877885434 -2.0229740789969908 0 0 0 0 -100.75749042995449 49.306369723452462 0 49.306369723452462 46.635705182521633 0 0 0 0 -119.70633308120887 -9.0128538142330399 0 -9.0128538142330399 47.19911979521703 0 0 0 0 -15.432880886051862 -14.286804219955229 0 -14.286804219955229 -0.41653181889398638 0 0 0 0 2.5563328310236102 -3.5539258015760424 0 -3.5539258015760424 6.8318576565870899 0 0 0 0 -10.62491581612656 -18.373333144463892 0 -18.373333144463892 9.3594794976943376 0 0 0 0 -18.593167274044873 -9.3967390200156302 0 -9.3967390200156302 3.4703016537206866 0 0 0 0 -68.80334002058953 -14.644038347669266 0 -14.644038347669266 16.060182910944604 0 0 0 0 -12.458278801925417 -35.311787891362457 0 -35.311787891362457 15.259083193561764 0 0 0 0 -5.8166540150205748 -8.4549641842704162 0 -8.4549641842704162 5.8369560957295139 0 0 0 0 -18.956327831176168 -14.352317203372422 0 -14.352317203372422 0.74273628779337741 0 0 0 0 51.237577894196875 -91.662761361012826 0 -91.662761361012826 2.1319330561432253 0 0 0 0 -9.9419924439289389 -6.2960844796408537 0 -6.2960844796408537 -5.7170295994728804 0 0 0 0 -10.732273764325143 -8.0228936239283755 0 -8.0228936239283755 -2.0870354410116869 0 0 0 0 -15.581423020586499 -9.6271477038054485 0 -9.6271477038054485 0.84417316641338402 0 0 0 0 -6.7217151100578576 -5.9386061702471764 0 -5.9386061702471764 3.6768517387417248 0 0 0 0 -11.02342751652759 -10.838350487251773 0 -10.838350487251773 5.9970279497565571 0 0 0 0 -19.811895625746274 -9.9098142204834971 0 -9.9098142204834971 1.6534281606418517 0 0 0 0 -16.399945474413244 -8.2024809706163282 0 -8.2024809706163282 0.18464748514418083 0 0 0 0 30.04777749184359 -105.34624302110569 0 -105.34624302110569 109.26996336687625 0 0 0 0 -50.948070306847512 27.560162141443584 0 27.560162141443584 53.982025159114528 0 0 0 0 -19.419677289587071 19.842927406196281 0 19.842927406196281 29.56027758845994 0 0 0 0 -44.511198411451915 44.700228161512769 0 44.700228161512769 -34.822630877050699 0 0 0 0 -5.1761566662817913 -2.2085735949649745 0 -2.2085735949649745 0.39215918590118903 0 0 0 0 -33.033269487448706 -20.800578515246002 0 -20.800578515246002 7.9014739868577522 0 0 0 0 -27.414413451454571 -8.6235188003456749 0 -8.6235188003456749 4.4117527430517969 0 0 0 0 -31.24325680128959 -18.446196035305434 0 -18.446196035305434 6.5058175124663649 0 0 0 0 -34.138887437311496 -16.863538029723657 0 -16.863538029723657 43.760736614332473 0 0 0 0 -10.479094648217725 -2.0596195311189263 0 -2.0596195311189263 2.5283662688656072 0 0 0 0 26.027807692451461 -39.191118806757402 0 -39.191118806757402 30.989107742397437 0 0 0 0 16.847830175414856 -62.066128108127032 0 -62.066128108127032 27.781651559570108 0 0 0 0 17.810761226242903 -64.505874078112527 0 -64.505874078112527 14.978139431497482 0 0 0 0 24.172161228656478 -53.824256337618635 0 -53.824256337618635 3.2048116148929466 0 0 0 0 -20.204595481483011 -22.025206547433214 0 -22.025206547433214 9.7060851158702235 0 0 0 0 -13.159325371059822 -4.7241710719330285 0 -4.7241710719330285 -32.284165882458893 0 0 0 0 22.72450444426795 -33.227005155437269 0 -33.227005155437269 -16.410313085855364 0 0 0 0 77.180345986271277 6.1722704969672577 0 6.1722704969672577 -119.84460753789381 0 0 0 0 56.090761395274967 43.738618603019404 0 43.738618603019404 -151.6798739640426 0 0 0 0 -85.410578200331656 36.268979251978863 0 36.268979251978863 231.89650415949836 0 0 0 0 36.799866330165969 9.89216007808011 0 9.89216007808011 -119.02895730942055 0 0 0 0 -46.752220181358439 -1.4195224004706795 0 -1.4195224004706795 3.4962440427859725 0 0 0 0 -110.3321599457413 380.07018934359485 0 380.07018934359485 -177.38911907551665 0 0 0 0 -68.814332987676607 -119.18891646840757 0 -119.18891646840757 -342.83309172510508 0 0 0 0 -380.90691119195253 107.69197006654599 0 107.69197006654599 -77.394253362174823 0 0 0 0 -126.79261761522503 74.519381265809443 0 74.519381265809443 -84.203179170337989 0 0 0 0 -20.34123209858808 136.34168364353991 0 136.34168364353991 -149.56226616384629 0 0 0 0 -1.9509542812392766 0.83941863762547797 0 0.83941863762547797 2.0803786169765779 0 0 0 0 -117.74188648475683 208.66198368637151 0 208.66198368637151 -202.90948765656231 0 0 0 0 22.880480721258209 -327.55901647812425 0 -327.55901647812425 -438.02781590007635 0 0 0 0 -3.9166340239494843 -0.32253056613030218 0 -0.32253056613030218 0.69035072338650405 0 0 0 0 -11.537211296381429 -40.983739341903856 0 -40.983739341903856 -480.97926019105762 0 0 0 0 19.305891671582685 -454.71279768739225 0 -454.71279768739225 -244.44991610127545 0 0 0 0 -169.75641799391451 -137.50757019676485 0 -137.50757019676485 217.45494865220189 0 0 0 0 -44.396951430274243 -1.9152969900913881 0 -1.9152969900913881 2.8886753231432887 0 0 0 0 -110.27530440068949 6.5092127234984218 0 6.5092127234984218 42.996064333193488 0 0 0 0 -164.54845839508926 -375.8830317648185 0 -375.8830317648185 192.4397297990372 0 0 0 0 -77.774013517941057 59.907255526441304 0 59.907255526441304 26.721639112496177 0 0 0 0 -81.370258782888413 40.410902247528611 0 40.410902247528611 -28.150005512619828 0 0 0 0 -109.82755004477076 -11.585134240016941 0 -11.585134240016941 16.494786984251732 0 0 0 0 2.42147790773015 18.175815482877397 0 18.175815482877397 -35.996447015751073 0 0 0 0 -33.224161331323558 33.234976296530476 0 33.234976296530476 -25.742829673913093 0 0 0 0 -0.86180195823617112 1.2867916038221381 0 1.2867916038221381 1.5798815411246441 0 0 0 0 -10.824573273479473 -1.8294043758573935 0 -1.8294043758573935 -16.445283753099829 0 0 0 0 -35.283633169194218 13.11231793111142 0 13.11231793111142 -9.8990392168184371 0 0 0 0 -3.7775962639361893 -4.0576797461790761 0 -4.0576797461790761 -0.7245500753398888 0 0 0 0 -8.0410995337385174 -1.7244125148602336 0 -1.7244125148602336 1.2504710322871286 0 0 0 0 221.11571753204043 104.45645329891704 0 104.45645329891704 1.9192464837992702 0 0 0 0 -97.395931469247444 -35.314372205859399 0 -35.314372205859399 90.58712886471767 0 0 0 0 -5.6048994691082044 -0.3494974282793919 0 -0.3494974282793919 13.02737646644664 0 0 0 0 -129.59788951347218 -8.0283920671927262 0 -8.0283920671927262 169.64474595496858 0 0 0 0 -368.8208925404615 75.51947757678272 0 75.51947757678272 109.39996340572998 0 0 0 0 80.658298883911812 -1.5905660604981335 0 -1.5905660604981335 -264.75781736555382 0 0 0 0 -239.65168702822484 188.9597427637907 0 188.9597427637907 -66.259680136028692 0 0 0 0 -307.03847575161035 24.152643350671724 0 24.152643350671724 116.4893846111222 0 0 0 0 -3.2255011012421875 2.1924756972322088 0 2.1924756972322088 -0.99362000790478255 0 0 0 0 -37.499370001831267 -68.660571201070525 0 -68.660571201070525 85.204131513172683 0 0 0 0 -207.45900978339887 -64.075917765070471 0 -64.075917765070471 127.43499345926421 0 0 0 0 -140.05507748476157 202.44073414150307 0 202.44073414150307 -42.453806888852341 0 0 0 0 -59.977458450597624 203.33950962739755 0 203.33950962739755 -53.428531490287696 0 0 0 0 -138.9416413844956 208.20598270794972 0 208.20598270794972 -47.091288920114494 0 0 0 0 51.113858545064431 100.06472886276163 0 100.06472886276163 -93.604052153807743 0 0 0 0 -21.322970041866029 -66.866470855017951 0 -66.866470855017951 -66.672035127674462 0 0 0 0 -28.745717027886712 83.382476654281845 0 83.382476654281845 247.11144178874872 0 0 0 0 -8.6600553164427225 4.3052419897863876 0 4.3052419897863876 -1.4438513376073994 0 0 0 0 22.504288685155188 80.458890173290229 0 80.458890173290229 149.36641640227242 0 0 0 0 -70.334002638584934 37.273283045408448 0 37.273283045408448 -36.674123725491313 0 0 0 0 -75.791588019605115 -63.955920179890313 0 -63.955920179890313 -7.136887360088167 0 0 0 0 52.608384412951636 92.34613363755966 0 92.34613363755966 119.29301695680533 0 0 0 0 -36.846529300848488 -48.593081965044206 0 -48.593081965044206 130.2010367849382 0 0 0 0 -59.05278147291574 -47.510587682661537 0 -47.510587682661537 13.760191858330927 0 0 0 0 -96.20028638448639 8.5747601927101869 0 8.5747601927101869 88.834531622125382 0 0 0 0 -121.27160750437542 -19.846055708332585 0 -19.846055708332585 1.9115266401627196 0 0 0 0 -139.22905841174725 -35.843030744477687 0 -35.843030744477687 44.392163481316175 0 0 0 0 -150.27854591621508 -24.786517054191904 0 -24.786517054191904 93.452944192264567 0 0 0 0 -122.78842065177741 -68.275212708197387 0 -68.275212708197387 85.471803713019199 0 0 0 0 -95.215690093187732 9.8019947569531496 0 9.8019947569531496 53.756156034038895 0 0 0 0 -164.98022631073036 -30.009832599014203 0 -30.009832599014203 129.54871039580183 0 0 0 0 -189.5932730432296 21.713144761622857 0 21.713144761622857 86.716731901912681 0 0 0 0 -135.24331396356138 -45.004850919739283 0 -45.004850919739283 -0.76227624867351551 0 0 0 0 -137.44457765780498 -35.046983371243414 0 -35.046983371243414 38.631934686376553 0 0 0 0 -178.359804877035 -116.46872190383056 0 -116.46872190383056 -26.39425398487856 0 0 0 0 -139.49988781272532 -49.146696909217383 0 -49.146696909217383 4.7550667180657911 0 0 0 0 -151.32108888160292 -77.106071424330935 0 -77.106071424330935 -21.3709919082836 0 0 0 0 -137.7724716054181 -54.490440319982014 0 -54.490440319982014 -1.3437265899995054 0 0 0 0 -181.44119012130977 -77.775201369083703 0 -77.775201369083703 21.789164273040285 0 0 0 0 -70.274626578946481 -38.887853118466644 0 -38.887853118466644 -54.782309036887085 0 0 0 0 -186.30672908696579 79.551837922699974 0 79.551837922699974 92.670986954978389 0 0 0 0 -202.84757009358145 33.150574090576811 0 33.150574090576811 -20.669674981810431 0 0 0 0 -220.98555323085566 80.286065167135973 0 80.286065167135973 -12.356054579571605 0 0 0 0 -200.28992068277694 -30.555043049518758 0 -30.555043049518758 -5.0764424429191877 0 0 0 0 -193.08768593549394 -59.187588059136459 0 -59.187588059136459 108.05084601554802 0 0 0 0 -184.92728281552263 16.889502934213851 0 16.889502934213851 -47.496006159198259 0 0 0 0 -178.51380862663063 -5.6117911699793694 0 -5.6117911699793694 22.144516022488546 0 0 0 0 -186.57822759239207 105.92885968211046 0 105.92885968211046 -106.71095701394904 0 0 0 0 -203.00098773795617 72.387039901145386 0 72.387039901145386 -33.90247189169807 0 0 0 0 -123.74657452045358 78.622631436088511 0 78.622631436088511 -143.67616253342803 0 0 0 0 -103.99983416970645 85.519276202961294 0 85.519276202961294 -147.22956594790764 0 0 0 0 -164.74030245697213 79.142613366370171 0 79.142613366370171 -73.860594754538397 0 0 0 0 -116.4043424279007 65.588557792662669 0 65.588557792662669 -134.76340781879398 0 0 0 0 -117.66240304457278 7.2216003082541533 0 7.2216003082541533 -82.432066024633173 0 0 0 0 -142.54720385044493 43.67891429515889 0 43.67891429515889 -95.891903309132658 0 0 0 0 -137.81754888792784 30.756475822749735 0 30.756475822749735 -62.993863092501982 0 0 0 0 -139.61020842569997 -22.847842332534356 0 -22.847842332534356 -19.362927259559001 0 0 0 0 -107.51106295049613 -54.837324678250297 0 -54.837324678250297 -13.597305942053481 0 0 0 0 -148.7752818764493 -31.612070094050125 0 -31.612070094050125 -26.32535896864232 0 0 0 0 -79.793099012029415 -34.803030723699067 0 -34.803030723699067 -65.443296912288361 0 0 0 0 -104.14973091133106 13.804033585004191 0 13.804033585004191 -70.796130047631095 0 0 0 0 -128.07266841149249 16.913767803764756 0 16.913767803764756 -82.765911977363345 0 0 0 0 -113.57810640421849 40.653443895991145 0 40.653443895991145 -145.14292863582986 0 0 0 0 -116.5011572829244 39.043873724513816 0 39.043873724513816 -112.36874754281816 0 0 0 0 -104.79194239190838 58.231379992550046 0 58.231379992550046 -155.39017495373687 0 0 0 0 -104.82572036368947 58.287338909947408 0 58.287338909947408 -154.32435233114262 0 0 0 0 -124.23539466397415 51.948063697963761 0 51.948063697963761 -146.5496850218903 0 0 0 0 -127.00516087665164 45.472429750168999 0 45.472429750168999 -154.9188736453313 0 0 0 0 -99.500981194691121 10.343975673062268 0 10.343975673062268 -124.42158029210468 0 0 0 0 -114.21852130438219 56.073352263493071 0 56.073352263493071 -172.09592651584364 0 0 0 0 -126.04806913674111 84.279049777412695 0 84.279049777412695 -216.01204618824187 0 0 0 0 -119.69462526776988 52.048495506550438 0 52.048495506550438 -175.05205743136108 0 0 0 0 -142.33697487318204 98.340437958277789 0 98.340437958277789 -215.66585876274246 0 0 0 0 -126.63691014239976 48.308386816121747 0 48.308386816121747 -171.53698058441398 0 0 0 0 -88.478054447827162 42.4079185804502 0 42.4079185804502 -190.0014556826477 0 0 0 0 -87.965727558897925 -10.112891636659128 0 -10.112891636659128 -110.98168952805895 0 0 0 0 -42.243384597419208 -21.588516236903331 0 -21.588516236903331 9.396914884671105 0 0 0 0 -37.36238262988627 -22.430966799667409 0 -22.430966799667409 3.7772226475645425 0 0 0 0 -44.682408720800595 -24.226476261140618 0 -24.226476261140618 6.9913055124577284 0 0 0 0 -43.547990574505093 -34.169128492688237 0 -34.169128492688237 14.71914095399886 0 0 0 0 -8.5464941058671684 -33.583834490604318 0 -33.583834490604318 11.729723142691142 0 0 0 0 -42.367855122324727 -32.050326603676936 0 -32.050326603676936 29.708775603879303 0 0 0 0 -23.909550809262655 -11.285596838756703 0 -11.285596838756703 -1.6102421454863483 0 0 0 0 -0.344147902425334 -0.0019439291866270025 0 -0.0019439291866270025 0.75383362273042676 0 0 0 0 -45.766747324922108 20.49547246706139 0 20.49547246706139 122.48031902796511 0 0 0 0 -43.238162917393311 -35.948445372800791 0 -35.948445372800791 13.037540727869668 0 0 0 0 9.263237238599686 16.602855713672398 0 16.602855713672398 68.715938265528621 0 0 0 0 14.003431507138885 39.181349324924099 0 39.181349324924099 58.133300518919299 0 0 0 0 -52.918774942736491 -29.121409248821692 0 -29.121409248821692 12.954221134087334 0 0 0 0 -4.3032946692327272 -6.0776805784414414 0 -6.0776805784414414 7.1398402560401637 0 0 0 0 -48.787312134642889 -10.226462134583755 0 -10.226462134583755 2.4989914429888813 0 0 0 0 -80.507352777662163 -5.852932614315705 0 -5.852932614315705 40.322392432019114 0 0 0 0 -64.197291128195502 -28.666009776161445 0 -28.666009776161445 -16.836725112292243 0 0 0 0 -99.677971741526562 -27.002831714656622 0 -27.002831714656622 20.220289652572319 0 0 0 0 -102.62498661720383 -37.990288716496536 0 -37.990288716496536 -25.158637052891208 0 0 0 0 -110.62557271246988 -60.275637921963835 0 -60.275637921963835 -10.376393686635538 0 0 0 0 1.3940704733548017 -1.8236903968287486 0 -1.8236903968287486 3.9323515673281806 0 0 0 0 -0.23557671074536302 -0.21304299855457032 0 -0.21304299855457032 1.1319917913322235 0 0 0 0 58.605557348333605 42.054318471171413 0 42.054318471171413 -18.645495999892859 0 0 0 0 -60.567537019800511 6.040730534196225 0 6.040730534196225 28.097620053088558 0 0 0 0 -25.393698121411035 36.409531541045546 0 36.409531541045546 9.8926506617893857 0 0 0 0 -48.449206735069311 -16.566374819065828 0 -16.566374819065828 120.8996083401571 0 0 0 0 -74.437320318374987 38.637742958464344 0 38.637742958464344 -43.74621572570652 0 0 0 0 109.7444686301169 84.104813555241435 0 84.104813555241435 -106.50090727432004 0 0 0 0 0.14173637117499283 -0.63521709682373739 0 -0.63521709682373739 1.0782866895179866 0 0 0 0 -126.23537665823915 -77.61645460735815 0 -77.61645460735815 -63.43599741976027 0 0 0 0 0.059932016570400037 -0.20816742153385093 0 -0.20816742153385093 0.4051264546370652 0 0 0 0 19.392374754981574 20.525867606725011 0 20.525867606725011 -12.729195603628597 0 0 0 0 -105.49373542590183 -50.75349857674842 0 -50.75349857674842 166.52512280236016 0 0 0 0 29.336928478247501 -9.311624663295941 0 -9.311624663295941 -42.92825255399589 0 0 0 0 -26.765912904807919 -69.383058043699265 0 -69.383058043699265 -55.076221295401382 0 0 0 0 -0.74442775764327962 -45.866901794852879 0 -45.866901794852879 -41.93936033971206 0 0 0 0 -78.821532806719915 -60.540501481527286 0 -60.540501481527286 -47.757522278444263 0 0 0 0 -8.6753344967983139 -22.158310271461989 0 -22.158310271461989 -112.79881735436554 0 0 0 0 -39.578787642429234 -24.956900060792684 0 -24.956900060792684 1.2559583873694606 0 0 0 0 -112.96965509143865 -33.742956650681293 0 -33.742956650681293 2.5856598034522733 0 0 0 0 -20.639867385052639 -38.939653865696386 0 -38.939653865696386 -78.545629535064066 0 0 0 0 -1.1959518513812952 -0.60558457121216946 0 -0.60558457121216946 -0.31527627519280055 0 0 0 0 -50.325043345546874 22.467477101362199 0 22.467477101362199 4.7773221828864152 0 0 0 0 1.4029253532298753 18.490996128704111 0 18.490996128704111 -31.614031582205882 0 0 0 0 -18.997890426458525 6.908305199881978 0 6.908305199881978 -36.989224399277973 0 0 0 0 -28.945889466310589 -5.6582190987570256 0 -5.6582190987570256 -1.0083189187694757 0 0 0 0 -701.09057142741221 57.644572994091902 0 57.644572994091902 228.02844028203043 0 0 0 0 -544.8302034627086 449.65889512082731 0 449.65889512082731 -79.157131128082028 0 0 0 0 -25.591425993014127 15.473280414238143 0 15.473280414238143 -6.8029263420785782 0 0 0 0 -83.95374325857847 -4.2795813420082283 0 -4.2795813420082283 -9.0166639766655123 0 0 0 0 -21.945907279896346 -29.468398482692855 0 -29.468398482692855 -39.630878607166125 0 0 0 0 -5.5254521338392806 8.6891464946714194 0 8.6891464946714194 -35.499282577103422 0 0 0 0 -20.537324430569925 -56.243346181989494 0 -56.243346181989494 -87.009823217024078 0 0 0 0 -74.653187178329972 -77.040409507153385 0 -77.040409507153385 -186.07904005041559 0 0 0 0 22.03552865616075 -21.041123231804406 0 -21.041123231804406 -153.86558337667606 0 0 0 0 -97.752331016970857 -144.71110044252393 0 -144.71110044252393 -88.085045977581487 0 0 0 0 -30.792623581342923 -26.855338136418169 0 -26.855338136418169 29.18479353770082 0 0 0 0 8.9661954141338356 -11.791530721445923 0 -11.791530721445923 -78.669101267683573 0 0 0 0 -197.66820526575793 206.46350408695818 0 206.46350408695818 -178.75469761847552 0 0 0 0 -9.3231893051348749 -0.23615419099673485 0 -0.23615419099673485 -0.057558541411180275 0 0 0 0 -23.156371942390749 -3.3560050491972966 0 -3.3560050491972966 -0.34574135636406428 0 0 0 0 242.77213994145404 59.554999705425644 0 59.554999705425644 -334.90019468307628 0 0 0 0 -136.03310213945224 -141.48136326909457 0 -141.48136326909457 -138.52332372096134 0 0 0 0 -51.955670207022195 0.49087531749744784 0 0.49087531749744784 -3.7889193617820922 0 0 0 0 167.73267415998907 -61.905908807726064 0 -61.905908807726064 -47.713755912185661 0 0 0 0 0.15002062505581448 1.4452302869569955 0 1.4452302869569955 0.54567412884132693 0 0 0 0 -66.440032065146482 -4.958680140647985 0 -4.958680140647985 9.3211784671705278 0 0 0 0 6.806578826128316 22.697539949934253 0 22.697539949934253 48.246259231869772 0 0 0 0 41.881671580273178 -157.30457118722552 0 -157.30457118722552 14.24907553785124 0 0 0 0 -133.80831767061659 -24.307910021789667 0 -24.307910021789667 76.536770577400603 0 0 0 0 -128.97817736903016 -7.3423767950521324 0 -7.3423767950521324 78.030548138011 0 0 0 0 -132.85689724822441 -11.471002187250633 0 -11.471002187250633 79.220329008473072 0 0 0 0 -106.80577064498539 -0.1944954645400685 0 -0.1944954645400685 49.594085661232384 0 0 0 0 -57.249155042607526 -43.367724054714017 0 -43.367724054714017 73.132103561487384 0 0 0 0 -41.29045486324685 -20.27468657676809 0 -20.27468657676809 27.883513478765963 0 0 0 0 -97.419378230942129 21.97657242630271 0 21.97657242630271 -9.0466551466852252 0 0 0 0 -74.128050951123441 -31.9985788119875 0 -31.9985788119875 53.006462098603379 0 0 0 0 -35.958799607715264 -66.948161282160072 0 -66.948161282160072 36.188692256337958 0 0 0 0 -111.39077218396869 -43.970480420550302 0 -43.970480420550302 19.262035682280839 0 0 0 0 -17.018447267128302 -5.1836558949913361 0 -5.1836558949913361 20.556165296250647 0 0 0 0 -112.57932662605617 -107.02375091888689 0 -107.02375091888689 70.835948603138604 0 0 0 0 -78.46201243695964 -9.7755281444003685 0 -9.7755281444003685 26.085222206745129 0 0 0 0 12.191738148925651 -82.315511499267359 0 -82.315511499267359 -13.421702245663084 0 0 0 0 -173.75898153352955 18.859753676060336 0 18.859753676060336 68.04844109867463 0 0 0 0 -284.25270190298261 -27.236011435418732 0 -27.236011435418732 130.06504016172266 0 0 0 0 -6.276067589988088 123.18194715430081 0 123.18194715430081 25.201865291128343 0 0 0 0 -132.92405348492957 -204.32224723738568 0 -204.32224723738568 -132.46614043565364 0 0 0 0 -41.930627021842156 -121.89984632370442 0 -121.89984632370442 40.184006466497877 0 0 0 0 2.1185294022288872 -73.491272371315972 0 -73.491272371315972 -69.317380414698164 0 0 0 0 -1.4479793829162677 -0.80628343023502547 0 -0.80628343023502547 -0.25810979515695087 0 0 0 0 -100.44023187297535 -64.28121557172858 0 -64.28121557172858 33.893634447350678 0 0 0 0 33.205731360381833 -115.46518074919038 0 -115.46518074919038 -36.261419073757793 0 0 0 0 -115.45792895473232 -30.087223132518147 0 -30.087223132518147 112.34996991324897 0 0 0 0 -50.378613859225226 -10.647137323942102 0 -10.647137323942102 2.387060520692752 0 0 0 0 -53.922181754112444 -10.422233407539807 0 -10.422233407539807 -62.89413532164258 0 0 0 0 119.45037344146749 197.92686964591911 0 197.92686964591911 -281.91005692336398 0 0 0 0 -19.161302775982513 1.7334328732397957 0 1.7334328732397957 0.82970776727999151 0 0 0 0 -21.392082369238743 2.89594845076609 0 2.89594845076609 -2.697525117428579 0 0 0 0 -130.09917444272241 -36.78819119569755 0 -36.78819119569755 -9.975307417246313 0 0 0 0 -506.99082395353071 74.532225402928589 0 74.532225402928589 238.61408746160441 0 0 0 0 -126.09159064975029 -35.643745812612792 0 -35.643745812612792 -46.20697205351189 0 0 0 0 -152.10765773689491 127.1560130166219 0 127.1560130166219 -220.11435530599522 0 0 0 0 -107.29986690547844 -53.09207985835728 0 -53.09207985835728 0.65242587105558414 0 0 0 0 -100.31415294023948 -11.256418586137897 0 -11.256418586137897 -1.356550847559318 0 0 0 0 -194.21595054412319 65.688000728475004 0 65.688000728475004 -121.26713692335579 0 0 0 0 -162.74484295817092 70.170322918599709 0 70.170322918599709 -151.1823560585035 0 0 0 0 -178.84556951292325 50.640692494900122 0 50.640692494900122 -108.90880152271257 0 0 0 0 -178.84556951295235 50.640692494891027 0 50.640692494891027 -108.90880152270165 0 0 0 0 -178.84556951299965 50.640692494890885 0 50.640692494890885 -108.9088015227162 0 0 0 0 -122.7977502364738 51.287955695978667 0 51.287955695978667 -158.0783576292888 0 0 0 0 -147.32030123779987 80.260879088435132 0 80.260879088435132 -182.03183379390316 0 0 0 0 -197.47147475158363 88.419130462052181 0 88.419130462052181 -133.18361243377194 0 0 0 0 -72.376930346887093 54.223263797909851 0 54.223263797909851 -177.05983640105433 0 0 0 0 -95.083011032049399 39.628524649313846 0 39.628524649313846 -158.15860459787905 0 0 0 0 -98.489060412684921 45.476749833218037 0 45.476749833218037 -157.25489528019511 0 0 0 0 -122.77409403050842 51.546210012493418 0 51.546210012493418 -155.38421437288963 0 0 0 0 -157.28904471025453 43.565634635504466 0 43.565634635504466 -106.78635751591446 0 0 0 0 -117.31299026646593 48.593441427020707 0 48.593441427020707 -154.97623483015172 0 0 0 0 -135.33334479061887 39.454037338538456 0 39.454037338538456 -127.98202379554323 0 0 0 0 -140.03816312810523 56.755338930176777 0 56.755338930176777 -143.25689474226169 0 0 0 0 -98.88262345502153 31.586967599242826 0 31.586967599242826 -140.89535719703417 0 0 0 0 -124.76273667217174 27.842721500451944 0 27.842721500451944 -116.79537671950789 0 0 0 0 -68.171351888893696 0.16093688596504307 0 0.16093688596504307 -127.70118529720901 0 0 0 0 -99.201556349522434 34.100828270534748 0 34.100828270534748 -160.38905678097376 0 0 0 0 -122.16546503774589 22.86420289525995 0 22.86420289525995 -106.67669932001975 0 0 0 0 -615.82688033657269 402.06179688647057 0 402.06179688647057 14.9892032206576 0 0 0 0 -1.5881173112031277 -1.7041821557424139 0 -1.7041821557424139 -2.1883385478270139 0 0 0 0 58.806432834337102 187.0538587557985 0 187.0538587557985 -345.53715293022469 0 0 0 0 -134.36182248662817 -411.59880947728192 0 -411.59880947728192 50.066291314577029 0 0 0 0 238.61853829577194 -244.8099219579999 0 -244.8099219579999 124.41673337252246 0 0 0 0 -67.072020223647087 -43.406183228654527 0 -43.406183228654527 152.21702455611739 0 0 0 0 50.183331390082458 -246.89814454578345 0 -246.89814454578345 183.90310434877301 0 0 0 0 248.80222211086766 -139.74926241779667 0 -139.74926241779667 61.285086329818114 0 0 0 0 43.088250042122127 -166.62883552765436 0 -166.62883552765436 136.9621427795314 0 0 0 0 -96.928616744255947 -21.935954625155809 0 -21.935954625155809 5.2071844442604673 0 0 0 0 -24.720663600644912 -83.387669857349465 0 -83.387669857349465 -141.94964203230097 0 0 0 0 -27.185154511491419 80.363395425574708 0 80.363395425574708 -298.46167005193445 0 0 0 0 -56.640854273631703 57.640847980609237 0 57.640847980609237 -184.57809016594081 0 0 0 0 -18.471391188693815 20.004168681889951 0 20.004168681889951 -211.64459266951417 0 0 0 0 -26.797938661991793 45.456497771828339 0 45.456497771828339 -244.9444032170436 0 0 0 0 -65.976686575551867 101.32733380921303 0 101.32733380921303 -193.24992458010468 0 0 0 0 -67.535390070494032 87.41305055209375 0 87.41305055209375 -229.59220292606693 0 0 0 0 -135.18528283779597 127.48476422783466 0 127.48476422783466 -195.92353477354004 0 0 0 0 -92.484686591225909 67.679905660662598 0 67.679905660662598 -167.73005955408553 0 0 0 0 -100.38498458672257 81.468538128976377 0 81.468538128976377 -179.05197597820779 0 0 0 0 -79.734205028187716 68.430352311910497 0 68.430352311910497 -189.53386378912154 0 0 0 0 -223.47322055580571 136.66442486713871 0 136.66442486713871 -119.72113102282952 0 0 0 0 -155.39781466197746 107.29961880186696 0 107.29961880186696 -111.78771573029206 0 0 0 0 -234.37846084764169 175.83181949591284 0 175.83181949591284 -164.31825429324198 0 0 0 0 -108.28231726281228 170.51582207803312 0 170.51582207803312 -283.56929055328067 0 0 0 0 31.481119865333312 126.56623365494818 0 126.56623365494818 -272.49172597491196 0 0 0 0 161.44509168784134 -126.02065556699222 0 -126.02065556699222 -328.4346486411323 0 0 0 0 -108.28412231480615 343.85094048212306 0 343.85094048212306 -556.8329695368252 0 0 0 0 326.08062157075256 8.2475746952207771 0 8.2475746952207771 -587.25464001806779 0 0 0 0 214.16721365500598 360.91775447633069 0 360.91775447633069 -1026.4810656516431 0 0 0 0 -750.71812256713747 479.48029020778398 0 479.48029020778398 -260.52458842929678 0 0 0 0 -341.99899462881876 68.604257150656593 0 68.604257150656593 6.0739119116766318 0 0 0 0 -367.11645149085598 235.5660583339494 0 235.5660583339494 -136.11473375656692 0 0 0 0 -266.54278509876895 141.23196967622437 0 141.23196967622437 -97.912107204710978 0 0 0 0 -255.34015678083233 -56.31569445666058 0 -56.31569445666058 -53.892087301719656 0 0 0 0 -53.324735301532201 -52.981515349589351 0 -52.981515349589351 -136.58836813140061 0 0 0 0 -455.75545523234905 -96.84631682246949 0 -96.84631682246949 -117.88289271534479 0 0 0 0 -85.2159492543054 -10.95956608892655 0 -10.95956608892655 5.5901434525430833 0 0 0 0 -601.10561612978199 169.76402257222767 0 169.76402257222767 22.251056676388487 0 0 0 0 -15.746752418121105 -11.99024857037648 0 -11.99024857037648 20.748948813466313 0 0 0 0 -69.306116057816325 -67.425562729926696 0 -67.425562729926696 59.780320031758492 0 0 0 0 40.700904610998577 -55.097545127806825 0 -55.097545127806825 46.725663702688507 0 0 0 0 -54.004619269020623 -40.225453051229124 0 -40.225453051229124 65.891804352942017 0 0 0 0 3.3342553161728574 -72.337396183118017 0 -72.337396183118017 53.234003820296948 0 0 0 0 37.339718797080423 -43.549790232721762 0 -43.549790232721762 51.575867748629207 0 0 0 0 -402.3672898064242 79.756552644043609 0 79.756552644043609 54.272246267394621 0 0 0 0 -5.6726100999927471 -6.4077360456780461 0 -6.4077360456780461 -5.8021578754957615 0 0 0 0 33.75920866530987 -94.84168379465234 0 -94.84168379465234 100.33647023604362 0 0 0 0 148.22754388223802 -124.81299140108126 0 -124.81299140108126 52.141093805775654 0 0 0 0 96.158297140647846 -53.028199706767282 0 -53.028199706767282 86.245841957907032 0 0 0 0 -260.71156730852454 14.410372939459506 0 14.410372939459506 145.85460358275895 0 0 0 0 -254.71091187222009 29.533273042049132 0 29.533273042049132 -73.107814082745961 0 0 0 0 -236.95540685989181 -11.727091218072701 0 -11.727091218072701 30.039585986372657 0 0 0 0 -69.409398289188175 79.557503291521471 0 79.557503291521471 236.57489097324014 0 0 0 0 -194.05350242158602 -65.055464624737397 0 -65.055464624737397 114.63623883598166 0 0 0 0 -22.211091654531629 14.823443515603458 0 14.823443515603458 46.095095527593458 0 0 0 0 197.72306039750765 189.00780703725013 0 189.00780703725013 79.730351354930917 0 0 0 0 105.05475893676703 -108.00340497605453 0 -108.00340497605453 16.00863014057154 0 0 0 0 -301.02688116077115 45.355796928236146 0 45.355796928236146 -8.6427422690363187 0 0 0 0 -204.08241296566484 50.407561824432833 0 50.407561824432833 -9.777114911352669 0 0 0 0 -284.29830484970989 117.27645994939655 0 117.27645994939655 -24.738227413998629 0 0 0 0 -43.43046815814705 97.347732460169027 0 97.347732460169027 -35.908662193426608 0 0 0 0 -234.675906945733 -7.403591565914553 0 -7.403591565914553 35.349239706221852 0 0 0 0 -253.80902618051778 -22.321319095975525 0 -22.321319095975525 32.140261854118762 0 0 0 0 -265.65103839309847 -83.79250593638136 0 -83.79250593638136 -42.001097545977927 0 0 0 0 -272.60658782076462 0.069167825730119148 0 0.069167825730119148 6.2875419669244366 0 0 0 0 -328.19754567573 -47.378633721254801 0 -47.378633721254801 -24.735095321506947 0 0 0 0 -182.72334155687304 -28.132879403254549 0 -28.132879403254549 18.437217446250088 0 0 0 0 -185.13060476504143 -18.205054795319484 0 -18.205054795319484 6.3519704987647856 0 0 0 0 -174.05203447787608 -29.968224278321486 0 -29.968224278321486 6.4874577076971036 0 0 0 0 39.596516011567473 -43.915479817855612 0 -43.915479817855612 10.115379465332808 0 0 0 0 -171.55418367773837 -38.540388357878413 0 -38.540388357878413 13.882283093595561 0 0 0 0 60.90989645207992 -98.601203348520812 0 -98.601203348520812 39.526800619372239 0 0 0 0 -8.1870793214588602 -10.223466973561692 0 -10.223466973561692 -11.566733786546475 0 0 0 0 -9.1369819551223372 -31.833263770961196 0 -31.833263770961196 -7.6381887440788887 0 0 0 0 -4.1049134321729071 -34.77226901383483 0 -34.77226901383483 -60.346577544131151 0 0 0 0 -10.9569677573216 -15.963310580350907 0 -15.963310580350907 -13.543855943676723 0 0 0 0 -7.9396483112594964 -4.2609387768814333 0 -4.2609387768814333 3.4573700049504836 0 0 0 0 -9.7311341904851361 -10.203226214760832 0 -10.203226214760832 -8.7759433715636987 0 0 0 0 -27.10734270595276 -17.843715732670034 0 -17.843715732670034 -4.4333207948559448 0 0 0 0 -12.350717877343413 -4.9502424608247111 0 -4.9502424608247111 -6.9297521311868877 0 0 0 0 -14.083129914050005 -11.034532946812988 0 -11.034532946812988 -4.7759620161676821 0 0 0 0 -19.419199762163771 -14.288902620435181 0 -14.288902620435181 -3.2595676724297391 0 0 0 0 -26.304626471392112 -14.071681980206108 0 -14.071681980206108 -1.47319710833915 0 0 0 0 -19.360309060019063 -2.2249732598107812 0 -2.2249732598107812 6.1170746582421316 0 0 0 0 -5.1014774337991824 0.3022214024380343 0 0.3022214024380343 3.7977353188755405 0 0 0 0 -10.894423974943493 -8.9291984608745452 0 -8.9291984608745452 -2.875911483562362 0 0 0 0 -410.09072967684187 -115.48136719682219 0 -115.48136719682219 -12.98430852430738 0 0 0 0 0.45179516736061487 -2.391141281517946 0 -2.391141281517946 -11.830347024688763 0 0 0 0 0.19796293186242053 -0.60106576337961926 0 -0.60106576337961926 -0.83347835613873622 0 0 0 0 -7.7391516231909918 -6.1282358629237024 0 -6.1282358629237024 -1.4482307253655335 0 0 0 0 -0.6043844759115018 -5.6355239099201526 0 -5.6355239099201526 -18.401203723871504 0 0 0 0 -354.92408754781991 -45.953802852493538 0 -45.953802852493538 1.8111611394408555 0 0 0 0 -429.44140799092929 -117.78670888697309 0 -117.78670888697309 -44.894254940992141 0 0 0 0 -0.35734206709760308 -1.784257959152761 0 -1.784257959152761 -2.737939668971114 0 0 0 0 -480.38992026030064 -144.58866461058579 0 -144.58866461058579 -5.9413141019384454 0 0 0 0 -454.93719294278526 -123.84307769892553 0 -123.84307769892553 -22.483764934208892 0 0 0 0 -547.10845054632591 -86.84792375868409 0 -86.84792375868409 42.732562823924468 0 0 0 0 -384.72972078890234 7.8069872436374084 0 7.8069872436374084 72.331125207282298 0 0 0 0 -321.57523107153065 85.7729656102631 0 85.7729656102631 -0.81977800042483295 0 0 0 0 -295.4844867181655 14.026286966071666 0 14.026286966071666 6.1547476580310558 0 0 0 0 -304.08022935913277 31.905599300134043 0 31.905599300134043 22.219630819113718 0 0 0 0 -29.84884263778622 -11.795528021924838 0 -11.795528021924838 29.942891460004205 0 0 0 0 -125.98196373117389 -15.682246965516924 0 -15.682246965516924 39.497550266418784 0 0 0 0 -87.266830014032166 11.358148055206016 0 11.358148055206016 29.944205248750279 0 0 0 0 -74.753586120652471 -11.344127168525915 0 -11.344127168525915 23.423059063854225 0 0 0 0 -36.998498002034921 9.7020928274635025 0 9.7020928274635025 24.952650163816315 0 0 0 0 -4.3003813099771833 -18.308197668576952 0 -18.308197668576952 10.815912471371348 0 0 0 0 36.343936310340951 -43.347170455286218 0 -43.347170455286218 28.459510551890617 0 0 0 0 -7.1522715426149261 -10.683310984456057 0 -10.683310984456057 44.654105898935541 0 0 0 0 29.582829281659997 10.310288890028517 0 10.310288890028517 25.738638389808784 0 0 0 0 -31.805847232212273 25.01966240594993 0 25.01966240594993 56.164176370567475 0 0 0 0 -110.39457488734843 -6.767771735620272 0 -6.767771735620272 66.385557009960849 0 0 0 0 -90.160600676807007 12.037944711165665 0 12.037944711165665 62.132884258599915 0 0 0 0 -98.264621237769688 -9.769630632246276 0 -9.769630632246276 28.337716275274033 0 0 0 0 -125.62787817555909 -13.994789391462973 0 -13.994789391462973 69.280742844621955 0 0 0 0 0.63930183082248648 -5.2246608325601782 0 -5.2246608325601782 20.388850937298344 0 0 0 0 -150.9044631405668 -47.210627550065965 0 -47.210627550065965 41.996454900474419 0 0 0 0 -87.634481736928365 -51.223331706572708 0 -51.223331706572708 6.0259136251788732 0 0 0 0 1.1375895985612137 -3.6336804248249077 0 -3.6336804248249077 2.8555078336002531 0 0 0 0 -129.71550124843725 -30.590511522398515 0 -30.590511522398515 3.7957041161014331 0 0 0 0 -129.66785233305382 4.5741172508401178 0 4.5741172508401178 35.950338006039829 0 0 0 0 -77.107849631980571 -16.929354054172109 0 -16.929354054172109 31.196943185506825 0 0 0 0 -28.417470858326851 -40.388002312463868 0 -40.388002312463868 9.9633762617345383 0 0 0 0 -26.393750908318907 -32.800409145916547 0 -32.800409145916547 33.540722864815507 0 0 0 0 -2.6064542891454039 -60.419631745579863 0 -60.419631745579863 20.526877897708118 0 0 0 0 -11.901773304094604 -35.17010182236254 0 -35.17010182236254 0.55967160344607692 0 0 0 0 -58.283503807784655 -43.670921534683657 0 -43.670921534683657 25.722141498876226 0 0 0 0 -1.9969690629679917 -17.601562262986409 0 -17.601562262986409 15.128904381946915 0 0 0 0 0.71508416685394605 -3.3012565390244752 0 -3.3012565390244752 4.847981059193212 0 0 0 0 30.256807718675645 -16.932830656023583 0 -16.932830656023583 -25.763961784208163 0 0 0 0 -151.70216231789345 -10.557290639307553 0 -10.557290639307553 41.681146863579443 0 0 0 0 0.58279000071175435 -5.6969183137269663 0 -5.6969183137269663 20.918301192703208 0 0 0 0 -112.93423178064404 -25.401479513835966 0 -25.401479513835966 -14.343956653181749 0 0 0 0 -99.732670129006237 31.014478127008829 0 31.014478127008829 -17.870668485458509 0 0 0 0 -42.084180428969375 -43.74491605133133 0 -43.74491605133133 102.0233219676893 0 0 0 0 73.834265384076389 8.3635508565945429 0 8.3635508565945429 15.746858680529101 0 0 0 0 47.47632563753541 -16.222992896121013 0 -16.222992896121013 51.30417463289632 0 0 0 0 -16.899495281001794 -18.168798173788399 0 -18.168798173788399 0.87174842268893515 0 0 0 0 -28.392615566693621 -14.965922508060217 0 -14.965922508060217 -0.26543804634911794 0 0 0 0 74.834205158490022 -36.552504176675427 0 -36.552504176675427 -29.131914437145838 0 0 0 0 2.3784742716633023 -3.0717808737823544 0 -3.0717808737823544 -2.1605346956357212 0 0 0 0 -26.312592342434073 -11.679059570868901 0 -11.679059570868901 -0.38991685859232916 0 0 0 0 27.727154287918893 10.105510317999688 0 10.105510317999688 238.96603481902412 0 0 0 0 153.20472228688368 -98.01988694987341 0 -98.01988694987341 -134.08514985959005 0 0 0 0 -144.33150476627736 28.312422805727287 0 28.312422805727287 44.655769549300203 0 0 0 0 -0.12734053590386774 0.25453446858189999 0 0.25453446858189999 1.396035612590782 0 0 0 0 -127.94529176206561 -43.349299362191005 0 -43.349299362191005 107.13454587707747 0 0 0 0 -124.44769959118639 0.97798825538575329 0 0.97798825538575329 80.632167512930437 0 0 0 0 -117.81317979924552 -36.251645455765356 0 -36.251645455765356 30.147742512469932 0 0 0 0 -69.868755476089063 -14.416997115510185 0 -14.416997115510185 36.765099587542693 0 0 0 0 -112.38957522714759 16.863270898280064 0 16.863270898280064 27.393866324902547 0 0 0 0 -86.676849104234861 2.6113124577675535 0 2.6113124577675535 27.636212675484238 0 0 0 0 -61.730219684734948 16.429168502713935 0 16.429168502713935 1.3762584363489623 0 0 0 0 -24.633851615938966 -10.726488273317727 0 -10.726488273317727 10.706789275008418 0 0 0 0 -10.134989512096126 -0.84893717559987181 0 -0.84893717559987181 9.3233612194864008 0 0 0 0 -47.224619265417914 -11.784987040457736 0 -11.784987040457736 20.850416540035894 0 0 0 0 -33.130826951011841 1.5634756413562627 0 1.5634756413562627 21.846917388929 0 0 0 0 -63.919831176829121 -5.4141022810494803 0 -5.4141022810494803 15.717813172154592 0 0 0 0 -4.6206928154479101 -6.7013595214393149 0 -6.7013595214393149 -2.5210885537838976 0 0 0 0 -3.1926312088262421 -7.3563774461993034 0 -7.3563774461993034 12.751107681178212 0 0 0 0 -8.2670920485134047 6.1334718768130188 0 6.1334718768130188 29.809064026777946 0 0 0 0 -4.647256167937984 0.35243648025774832 0 0.35243648025774832 0.59578348657220825 0 0 0 0 -3.0472092433942635 -3.7279932864882426 0 -3.7279932864882426 75.590426394456642 0 0 0 0 -9.1129863156414217 -15.113540261316349 0 -15.113540261316349 26.633601944619159 0 0 0 0 -120.26406500566463 -125.5232882615565 0 -125.5232882615565 -137.21249489656026 0 0 0 0 -36.359922479424768 -42.304946171588369 0 -42.304946171588369 40.741464663910392 0 0 0 0 -58.712156198498946 101.04891448379541 0 101.04891448379541 91.113907357332437 0 0 0 0 -1.8304846717320764 0.084463018425915026 0 0.084463018425915026 0.25142125143143268 0 0 0 0 -78.772697209330545 57.37210095108685 0 57.37210095108685 40.869206105035573 0 0 0 0 -112.81832135827946 -58.387338243392207 0 -58.387338243392207 112.50320676982847 0 0 0 0 -97.056994432324245 49.610506109012917 0 49.610506109012917 28.624884420678995 0 0 0 0 -48.731941336173982 -11.567315574775666 0 -11.567315574775666 -0.83428142117260196 0 0 0 0 -26.655753660263144 20.895642616882355 0 20.895642616882355 -136.85823743083392 0 0 0 0 13.00240558945643 -15.114439258313382 0 -15.114439258313382 45.570249410732458 0 0 0 0 10.775809843223215 -28.504095838979538 0 -28.504095838979538 20.186707430937247 0 0 0 0 12.297368643201935 -38.102639408339996 0 -38.102639408339996 28.829339018911924 0 0 0 0 -1.3729884085875073 -0.47224164698857063 0 -0.47224164698857063 -0.10472166201510147 0 0 0 0 -46.850863659645675 -9.7224927517846691 0 -9.7224927517846691 0.079312799446961346 0 0 0 0 -51.04973122823867 92.54469883299771 0 92.54469883299771 1.3746466174121679 0 0 0 0 -2.8923407660833824 -1.2108558757489627 0 -1.2108558757489627 -0.27570451818511765 0 0 0 0 -48.905874780911518 -95.988575152224143 0 -95.988575152224143 60.457279062454973 0 0 0 0 3.4123881554310174 -50.196572566640839 0 -50.196572566640839 78.830578721780057 0 0 0 0 -2.2860899873086282 98.025454061586444 0 98.025454061586444 -42.932071087324744 0 0 0 0 4.4508533417920262 70.29614179386158 0 70.29614179386158 -246.89875962468625 0 0 0 0 -46.503486279460155 -9.1411809194372751 0 -9.1411809194372751 0.086627039204122624 0 0 0 0 -50.089834593671185 -65.607866385095804 0 -65.607866385095804 -57.909035918448353 0 0 0 0 -72.868990878463137 -0.41559910930476462 0 -0.41559910930476462 95.942463279259528 0 0 0 0 -29.685727103236268 -6.4878133323264233 0 -6.4878133323264233 -1.3105244305815837 0 0 0 0 -7.2396353018830268 71.94175491396652 0 71.94175491396652 -237.61233047330359 0 0 0 0 -80.776660775495657 18.90656370290958 0 18.90656370290958 -74.428103742233588 0 0 0 0 -15.144200874770831 8.201554314182772 0 8.201554314182772 -39.000846731591764 0 0 0 0 -27.442791675120134 -35.155385410003021 0 -35.155385410003021 -89.433565869381027 0 0 0 0 -28.51244537534339 -6.4358528145914455 0 -6.4358528145914455 -1.1781997486229878 0 0 0 0 -48.737146363019747 -54.386514538576137 0 -54.386514538576137 49.098453978327598 0 0 0 0 -50.17298124943045 -117.46839298400418 0 -117.46839298400418 110.16337072117256 0 0 0 0 6.6900335994214402 -49.914501594617491 0 -49.914501594617491 -75.988182968119432 0 0 0 0 8.7939776539051309 -9.167066298652685 0 -9.167066298652685 -15.722935857513562 0 0 0 0 8.199405135044799 -30.772071075637228 0 -30.772071075637228 -51.431527032911191 0 0 0 0 -12.333199901993794 -5.9979531505283035 0 -5.9979531505283035 16.622233570631153 0 0 0 0 -16.816013542316796 -39.202403803049862 0 -39.202403803049862 1.6512559543945002 0 0 0 0 -42.070846768219781 3.5025665071058825 0 3.5025665071058825 19.510905675219306 0 0 0 0 -3.0403785754187993 -35.928562399161478 0 -35.928562399161478 -242.99341209376917 0 0 0 0 -1.2228369654858966 1.0200222672200461 0 1.0200222672200461 0.32718962257174367 0 0 0 0 -7.076118713033793 -3.0263902324522292 0 -3.0263902324522292 0.19423682223941796 0 0 0 0 40.879376724697067 -12.050080930354056 0 -12.050080930354056 -23.435347528396051 0 0 0 0 -2.8448036642742185 1.6588303459173162 0 1.6588303459173162 0.56990942417450308 0 0 0 0 -34.839886499095883 -19.183315105084603 0 -19.183315105084603 26.834215294432624 0 0 0 0 -61.06299210099678 46.859515783878578 0 46.859515783878578 -0.57654017924119216 0 0 0 0 -7.5455807069138245 -3.5956107320258184 0 -3.5956107320258184 -0.45132163756966293 0 0 0 0 13.381173760935781 -18.811724840256744 0 -18.811724840256744 -54.380542123672413 0 0 0 0 -5.0518882650711419 -1.9576084016421245 0 -1.9576084016421245 -0.58150167109310091 0 0 0 0 -29.707556357108842 -10.810047123224294 0 -10.810047123224294 8.4339806714744654 0 0 0 0 -3.3307890370495556 -1.4840392347597291 0 -1.4840392347597291 -0.65307146072981448 0 0 0 0 6.7973151777691783 -18.461007789248686 0 -18.461007789248686 -38.435655008092198 0 0 0 0 0.70554842340970936 -16.750697404044956 0 -16.750697404044956 -38.826321353541658 0 0 0 0 -109.3990785017013 179.14011811794273 0 179.14011811794273 -306.1821802723955 0 0 0 0 -986.43517516814063 249.7895918578767 0 249.7895918578767 8.5539769724953203 0 0 0 0 -496.26795259445134 597.97297077846429 0 597.97297077846429 -685.54552877219612 0 0 0 0 -7.0336761793183058 3.1834382953145184 0 3.1834382953145184 -1.4509095259710201 0 0 0 0 -647.34340319668627 -306.38714824355549 0 -306.38714824355549 -173.60101674581301 0 0 0 0 -350.57805003459725 662.39934005342707 0 662.39934005342707 -56.959101260364321 0 0 0 0 -445.17081542872302 199.8225029429538 0 199.8225029429538 32.605595400846482 0 0 0 0 -418.28623163908196 42.194342775903806 0 42.194342775903806 36.796586617670528 0 0 0 0 -552.46827693336672 50.505602494575442 0 50.505602494575442 41.587726915981875 0 0 0 0 -666.89806941417919 363.47093370083689 0 363.47093370083689 -102.69376497519988 0 0 0 0 -320.17338566300168 192.59105351109508 0 192.59105351109508 -19.66197989338059 0 0 0 0 -254.92570446713944 148.56433586779963 0 148.56433586779963 -10.560730015408922 0 0 0 0 -319.99796225884347 193.03249406821436 0 193.03249406821436 -37.38705035117539 0 0 0 0 -259.07496898998397 132.03940485160678 0 132.03940485160678 -18.749847205700235 0 0 0 0 -155.53346046801016 108.70598134441057 0 108.70598134441057 -90.402548863464744 0 0 0 0 -181.73149414632917 194.07421925104026 0 194.07421925104026 -184.23716066221846 0 0 0 0 -114.63475752759405 40.378770393541345 0 40.378770393541345 -3.801304149172438 0 0 0 0 -61.930775777398594 38.695209955542722 0 38.695209955542722 -30.554937361342581 0 0 0 0 -114.79858958543628 38.340007993871268 0 38.340007993871268 -26.473542716489693 0 0 0 0 -144.46448726481322 88.019718258556225 0 88.019718258556225 -66.236029419616841 0 0 0 0 -147.19201076364334 56.980399987748982 0 56.980399987748982 -31.760938281677909 0 0 0 0 -74.297177319993352 -11.441418392389949 0 -11.441418392389949 -108.1776477983224 0 0 0 0 -69.125360959282261 -36.152089538544431 0 -36.152089538544431 -4.0561812261571788 0 0 0 0 -58.232512625123491 29.630971001195007 0 29.630971001195007 -51.144195234194967 0 0 0 0 121.54891666014737 -38.748973145196757 0 -38.748973145196757 -101.83190259471223 0 0 0 0 60.341913915090117 83.718691019687739 0 83.718691019687739 -120.00754686167527 0 0 0 0 -41.802531126122631 16.618490665635136 0 16.618490665635136 -162.38689086164214 0 0 0 0 -50.280269402966951 68.320792492008934 0 68.320792492008934 -142.32031018377654 0 0 0 0 -63.080208211176796 -77.22475117498945 0 -77.22475117498945 -34.438297402901185 0 0 0 0 10.383407915585849 37.827466487053357 0 37.827466487053357 -154.09285395945301 0 0 0 0 -137.15075829827401 91.875989424035936 0 91.875989424035936 -88.746831217813508 0 0 0 0 -94.405700639508723 101.22173985388554 0 101.22173985388554 -171.32876850961804 0 0 0 0 -103.46467934888642 77.419488282352802 0 77.419488282352802 -115.21374088780908 0 0 0 0 -53.840276633196481 124.3720823824497 0 124.3720823824497 -78.930883963425913 0 0 0 0 -24.201793729449676 -4.777651725793449 0 -4.777651725793449 -0.7149565035757951 0 0 0 0 -54.316921135006851 -292.30786356885881 0 -292.30786356885881 206.7326557665539 0 0 0 0 67.930005960253766 -129.43969834167058 0 -129.43969834167058 -29.644564919102002 0 0 0 0 -2.0242218485732337 -30.970276955279971 0 -30.970276955279971 -64.524743817225271 0 0 0 0 -22.744621460133203 -16.132894753553501 0 -16.132894753553501 -6.8818331216857587 0 0 0 0 7.4144748837934458 19.867862205368965 0 19.867862205368965 -65.567932174739212 0 0 0 0 1.1468694848499581 -16.128983647670566 0 -16.128983647670566 -75.018858383544341 0 0 0 0 19.839340529219044 -12.410773532996586 0 -12.410773532996586 -160.02544649526442 0 0 0 0 -38.53824499311304 -90.227944075030621 0 -90.227944075030621 -254.2417679850555 0 0 0 0 120.37784195719723 -49.029699021016 0 -49.029699021016 -564.59610225053711 0 0 0 0 -909.97381450291687 521.54868825531446 0 521.54868825531446 -8.0189744064770139 0 0 0 0 -605.44474498942873 504.58397575770431 0 504.58397575770431 -38.76283850487178 0 0 0 0 -223.45878550318957 -163.03951859624203 0 -163.03951859624203 -271.3195357457455 0 0 0 0 -10.721025001673141 -1.0278997312556402 0 -1.0278997312556402 -0.31928340060921245 0 0 0 0 -288.78184683209474 113.73513843099329 0 113.73513843099329 -50.147817396911137 0 0 0 0 -216.21736501211126 -59.574758162991088 0 -59.574758162991088 -1.2714411967548926 0 0 0 0 -169.29016936587141 -37.898739934609068 0 -37.898739934609068 -22.93067532984935 0 0 0 0 -491.14223621033307 -187.78674833341813 0 -187.78674833341813 -92.203210172771719 0 0 0 0 -37.283321753326163 -62.889244628304994 0 -62.889244628304994 -70.787345156604488 0 0 0 0 -108.30036352750903 -148.64161580102416 0 -148.64161580102416 -169.34641886211966 0 0 0 0 -34.921477900859827 -47.582164554431643 0 -47.582164554431643 -64.090360744266874 0 0 0 0 -115.42348034067072 -38.189121602707033 0 -38.189121602707033 39.746968172917605 0 0 0 0 -14.704262659410233 20.0901375534023 0 20.0901375534023 21.15580328670201 0 0 0 0 -88.615605977130599 20.510437829892979 0 20.510437829892979 41.942280315239827 0 0 0 0 -7.7693531750638876 -1.3383043030238362 0 -1.3383043030238362 -0.20531770301861774 0 0 0 0 -26.888751142643741 -23.644763961810327 0 -23.644763961810327 -75.556877039571248 0 0 0 0 -4.3282995932131598 -42.538944735123664 0 -42.538944735123664 -125.28744748772965 0 0 0 0 -32.525476192018232 -41.316221754928762 0 -41.316221754928762 -51.557621531620271 0 0 0 0 -68.18329586105483 -74.756171355605375 0 -74.756171355605375 126.56899256285328 0 0 0 0 -50.74367566337316 -12.449671037206357 0 -12.449671037206357 -1.5035503833271813 0 0 0 0 -42.548260773325183 -107.63346733551828 0 -107.63346733551828 -61.811146809427783 0 0 0 0 2.4310774605814913 -48.754960934144947 0 -48.754960934144947 -38.476600858674828 0 0 0 0 -46.582751539962146 -27.653427247120021 0 -27.653427247120021 -33.416389134263454 0 0 0 0 -45.668504404832674 -22.389842915888153 0 -22.389842915888153 -15.26322143569746 0 0 0 0 -109.43174285696387 37.219341101855093 0 37.219341101855093 -17.14053297838268 0 0 0 0 -194.3250568576384 -49.977699998385759 0 -49.977699998385759 -6.0216294881065551 0 0 0 0 -319.25968901030501 -33.966012072238883 0 -33.966012072238883 36.245862057264333 0 0 0 0 -345.01415602393536 42.906769814622947 0 42.906769814622947 -42.830805180126021 0 0 0 0 6.1118293770720484 -6.4973729777339972 0 -6.4973729777339972 -5.6991008699240107 0 0 0 0 -24.591296458723264 -74.078571297209578 0 -74.078571297209578 34.382988713541863 0 0 0 0 -58.918102923737024 -24.60264005262853 0 -24.60264005262853 28.11532729108297 0 0 0 0 -48.334582096000666 -16.078152540096319 0 -16.078152540096319 -1.3022852521685453 0 0 0 0 -28.223260844109063 -39.22876480502498 0 -39.22876480502498 -7.5370378999441527 0 0 0 0 -33.846981425129798 -35.562137509736033 0 -35.562137509736033 1.1455522169981123 0 0 0 0 -24.850361234433421 -24.755746190678906 0 -24.755746190678906 -30.529637366033853 0 0 0 0 5.1441812237546571 -24.743816146334588 0 -24.743816146334588 -3.8788630741931405 0 0 0 0 -104.93901188526979 -102.66139029438224 0 -102.66139029438224 -73.81685261772202 0 0 0 0 -220.91344597154875 -52.347841044053041 0 -52.347841044053041 16.886591863333024 0 0 0 0 -82.797708439602502 -15.483074026610439 0 -15.483074026610439 16.491809811443215 0 0 0 0 -65.455988542734602 -0.34339702942921657 0 -0.34339702942921657 3.9867520916686221 0 0 0 0 -113.64760746074535 -29.730860331000031 0 -29.730860331000031 30.186567258071136 0 0 0 0 6.2893160908042072 -24.135637575012503 0 -24.135637575012503 -5.5104086609274159 0 0 0 0 -36.511485894007592 -27.364845435532231 0 -27.364845435532231 -17.47022381801753 0 0 0 0 -36.159147350413832 -22.956536873583545 0 -22.956536873583545 -18.303395526373151 0 0 0 0 -47.344287118050715 -15.38517644617184 0 -15.38517644617184 -11.937094063422137 0 0 0 0 -36.946558588136895 -26.326287727100961 0 -26.326287727100961 -12.575410334935896 0 0 0 0 -48.286950918960656 -15.578897998582143 0 -15.578897998582143 -8.9925799635882839 0 0 0 0 -49.391680501071733 -16.698659004490132 0 -16.698659004490132 -3.282737213933359 0 0 0 0 -12.224533651637334 1.4224601308483633 0 1.4224601308483633 5.1655018991093762 0 0 0 0 -63.634519373142211 -4.7838823070745775 0 -4.7838823070745775 3.2694901399559058 0 0 0 0 -44.121315915660489 -20.624420983714003 0 -20.624420983714003 -4.7426084217397033 0 0 0 0 -67.837956140820097 -2.5510898354646088 0 -2.5510898354646088 11.141876114581805 0 0 0 0 -76.712699817360772 -19.314335902206381 0 -19.314335902206381 -3.7045032659048047 0 0 0 0 -65.087591508366131 0.58613316726530229 0 0.58613316726530229 -9.8069333313223979 0 0 0 0 -85.831762670328317 -32.591058723799748 0 -32.591058723799748 -34.197665928268634 0 0 0 0 -95.452046936858096 -17.093078018793364 0 -17.093078018793364 -13.307061523179527 0 0 0 0 -67.655973861573329 -13.30436446189043 0 -13.30436446189043 -17.446170759157923 0 0 0 0 -64.163141116282532 -0.75340644288326075 0 -0.75340644288326075 -34.703960926558302 0 0 0 0 -46.6073788354106 -20.465637734969391 0 -20.465637734969391 -21.880085126560971 0 0 0 0 -45.378674435690755 -18.195569012628766 0 -18.195569012628766 -17.987129094002398 0 0 0 0 -54.457359647394696 -8.1280389959105719 0 -8.1280389959105719 -21.06891385804586 0 0 0 0 -70.189616208738698 -11.889339472556983 0 -11.889339472556983 -1.0492400579808105 0 0 0 0 -47.657650064954169 -16.117661056222005 0 -16.117661056222005 -13.434831876172666 0 0 0 0 -54.354470316058723 -10.614338455366635 0 -10.614338455366635 -10.713742098716271 0 0 0 0 -56.157642292486685 -16.420719170326311 0 -16.420719170326311 -8.594729341664447 0 0 0 0 -68.402145141185429 -13.373120140133665 0 -13.373120140133665 -8.8518487516224127 0 0 0 0 -85.318266194457465 -21.898869653297332 0 -21.898869653297332 -5.1793144627294794 0 0 0 0 -65.198792490351025 -20.983662498841436 0 -20.983662498841436 -6.1652169818711968 0 0 0 0 -68.52511264169334 -17.277514672159441 0 -17.277514672159441 5.5419125675395549 0 0 0 0 -66.851133515924857 -16.22912575890836 0 -16.22912575890836 0.47105384762073754 0 0 0 0 -47.944519306455504 -9.7651395632158255 0 -9.7651395632158255 4.4564524241654908 0 0 0 0 -58.171114394872234 -9.9796035575462838 0 -9.9796035575462838 7.2351485617116396 0 0 0 0 -53.35390272306995 -15.694842581175834 0 -15.694842581175834 -0.78782722728527688 0 0 0 0 -57.137001156376527 -11.276473349575213 0 -11.276473349575213 12.611465125028985 0 0 0 0 -60.432023788951483 -19.661213610262166 0 -19.661213610262166 9.7465679009884525 0 0 0 0 -49.375789505530065 -15.769636724069898 0 -15.769636724069898 4.3996730910808424 0 0 0 0 -84.062440298646152 -2.3053768412025875 0 -2.3053768412025875 12.77368088310368 0 0 0 0 -70.027056743163939 -8.4613634195399072 0 -8.4613634195399072 13.501755987208298 0 0 0 0 -48.54470522394422 3.2198282281347019 0 3.2198282281347019 6.2368135750498368 0 0 0 0 -56.747166265970009 -10.265595171035898 0 -10.265595171035898 5.8116062116114335 0 0 0 0 -1.0973362375557589 3.4087900746126967 0 3.4087900746126967 11.793873686855338 0 0 0 0 -14.779034178662187 -10.220231241831698 0 -10.220231241831698 -8.2254629603621652 0 0 0 0 -34.63971614893444 16.9364302655963 0 16.9364302655963 17.821206896042895 0 0 0 0 -81.746771514787724 31.146405043981417 0 31.146405043981417 40.786467240809998 0 0 0 0 -37.802633176673226 45.461700488040606 0 45.461700488040606 39.558216436804287 0 0 0 0 -48.415643926104167 3.8667410438611114 0 3.8667410438611114 5.5837997206299406 0 0 0 0 -20.17264601320456 -3.074164441502047 0 -3.074164441502047 -0.08113095552996441 0 0 0 0 -601.8321855403774 -103.34576763369114 0 -103.34576763369114 127.95903154202585 0 0 0 0 -390.77276936162525 105.17387502854353 0 105.17387502854353 85.602500991228169 0 0 0 0 -1.3768704255057926 -0.89839581712608396 0 -0.89839581712608396 -0.97521960214005787 0 0 0 0 -27.891459388354633 0.037267102177338529 0 0.037267102177338529 19.106283783382423 0 0 0 0 -19.509669368184404 0.002294789764619054 0 0.002294789764619054 18.158139078854219 0 0 0 0 -31.299343566117386 0.80552779407753405 0 0.80552779407753405 22.349834274470595 0 0 0 0 -30.464923273765635 6.5248356576419155 0 6.5248356576419155 17.816320892271506 0 0 0 0 -32.712066394808062 4.7720098739578134 0 4.7720098739578134 17.648779936373799 0 0 0 0 -29.519250647132139 -1.5432836761165163 0 -1.5432836761165163 17.793519967922606 0 0 0 0 -26.366729780706919 4.3818831776195566 0 4.3818831776195566 11.310107401337518 0 0 0 0 -22.87742733740259 4.6948954393867837 0 4.6948954393867837 4.1038011292472376 0 0 0 0 -28.700997177441877 -3.2003910706607712 0 -3.2003910706607712 5.8495542792306878 0 0 0 0 -44.457965601956857 -1.3616189058639065 0 -1.3616189058639065 -2.7518178898253609 0 0 0 0 -49.994767714105592 -13.084235743467275 0 -13.084235743467275 35.643154854360546 0 0 0 0 -2.9102615219739221 4.2016946698114737 0 4.2016946698114737 2.2252671904392516 0 0 0 0 10.843892248038173 15.15226524799391 0 15.15226524799391 9.4033337684122671 0 0 0 0 -42.107834540784097 6.5532214820987065 0 6.5532214820987065 20.882692313301504 0 0 0 0 -1.0842237849808498 -43.946349705032844 0 -43.946349705032844 76.090173719641825 0 0 0 0 -48.679107096777443 -7.4684167450323002 0 -7.4684167450323002 13.404105782988836 0 0 0 0 -9.7205186655760958 -0.81803099147246083 0 -0.81803099147246083 16.49193808148652 0 0 0 0 -46.540692028827834 -7.0653783567710207 0 -7.0653783567710207 10.740355581827316 0 0 0 0 -49.569942995911333 -7.3237030794871316 0 -7.3237030794871316 12.721891318951066 0 0 0 0 -44.62046699293478 -3.9369107545218185 0 -3.9369107545218185 15.375951668805101 0 0 0 0 -40.536963680473491 -10.675717102878252 0 -10.675717102878252 13.963078444480743 0 0 0 0 -51.4950305912256 -13.500215549314419 0 -13.500215549314419 17.313324705494324 0 0 0 0 -43.827961800416688 -18.259825940267433 0 -18.259825940267433 5.8224561829215418 0 0 0 0 -46.495331076896036 -15.766550546069993 0 -15.766550546069993 18.292152905008834 0 0 0 0 -42.61168279229787 -11.938613781024003 0 -11.938613781024003 9.5238866784246738 0 0 0 0 -24.961112581603174 5.3658074810045946 0 5.3658074810045946 26.32754389492402 0 0 0 0 -46.887998641966988 -13.9940396842062 0 -13.9940396842062 1.9894573800143007 0 0 0 0 -24.336373211850514 7.2914294379631883 0 7.2914294379631883 13.760858260637178 0 0 0 0 -6.2255853080865098 -2.3276014885830492 0 -2.3276014885830492 1.5241788807338779 0 0 0 0 -27.806996625063572 0.96379847578146549 0 0.96379847578146549 13.78285164154614 0 0 0 0 -53.746129164999729 -19.480310775663384 0 -19.480310775663384 19.043196083975545 0 0 0 0 -7.8320961055727061 -4.9701216271341169 0 -4.9701216271341169 -3.0627759241160706 0 0 0 0 -27.596283695747843 8.481682762417222 0 8.481682762417222 13.838647999424211 0 0 0 0 -10.985194062319351 5.786646188458235 0 5.786646188458235 13.010239549252219 0 0 0 0 -22.322621411518639 -0.69876008184991267 0 -0.69876008184991267 10.537920952478148 0 0 0 0 -8.4250117411646421 -2.2106356270309018 0 -2.2106356270309018 1.2474244450982752 0 0 0 0 -36.836715867517341 -7.4103324816028362 0 -7.4103324816028362 -5.8190285018686154 0 0 0 0 -33.454115636679489 -19.767849033565199 0 -19.767849033565199 -1.1521248659491903 0 0 0 0 -39.084575960557231 -18.310391865915676 0 -18.310391865915676 -0.36198711085853574 0 0 0 0 -23.752388441384028 -1.596749207729772 0 -1.596749207729772 4.8265578456057483 0 0 0 0 -32.300103642251088 -1.264253785369192 0 -1.264253785369192 7.7227523211513471 0 0 0 0 -27.712429837915806 -12.545195546286777 0 -12.545195546286777 7.7552708587954839 0 0 0 0 -43.472104166130521 -18.129897695386944 0 -18.129897695386944 30.468521163209516 0 0 0 0 -45.795347472027061 -11.096612752860892 0 -11.096612752860892 9.3493403327183842 0 0 0 0 0.56518630684296056 0.23669490592618558 0 0.23669490592618558 0.85430144594757529 0 0 0 0 25.769014414749108 31.101586607875788 0 31.101586607875788 1.046233228262281 0 0 0 0 -42.16207103211309 -21.164265496027383 0 -21.164265496027383 12.331081596624244 0 0 0 0 -14.850428543396447 26.580893153113493 0 26.580893153113493 25.682516987569215 0 0 0 0 -8.8950429107280797 22.835170014819596 0 22.835170014819596 -6.8548352351908761 0 0 0 0 -22.241866178555938 19.479594570409063 0 19.479594570409063 13.756787097315737 0 0 0 0 -46.60920753749815 19.908056018039133 0 19.908056018039133 15.787414122507016 0 0 0 0 -41.359645829657893 13.340880219878272 0 13.340880219878272 10.67857206737699 0 0 0 0 -99.72138322961473 27.116645962254552 0 27.116645962254552 7.617551943446415 0 0 0 0 -46.311704492893114 -8.6373457608651734 0 -8.6373457608651734 7.5618720815832603 0 0 0 0 -67.448093216891721 -16.220400766158946 0 -16.220400766158946 5.068893335971552 0 0 0 0 -64.70638672260975 6.826403599571222 0 6.826403599571222 20.874021481868112 0 0 0 0 -23.719503339663788 -0.9136796602697359 0 -0.9136796602697359 21.100724547205573 0 0 0 0 -44.332315372146695 -0.90466700044089521 0 -0.90466700044089521 21.522897091955201 0 0 0 0 -36.759577514734701 3.5067167193096793 0 3.5067167193096793 20.660462014159748 0 0 0 0 -41.34565680551168 13.054123042286392 0 13.054123042286392 20.127209079408203 0 0 0 0 -27.437990674134198 9.3795470581517293 0 9.3795470581517293 18.790165590930656 0 0 0 0 -25.882899708385231 -25.647014020672859 0 -25.647014020672859 -13.218330873334383 0 0 0 0 -50.495964910740895 -20.179446587591315 0 -20.179446587591315 -8.7229330267023215 0 0 0 0 -23.087765918024161 -16.787210868758336 0 -16.787210868758336 -4.8688407517479391 0 0 0 0 -40.062582053011283 -23.567115946540525 0 -23.567115946540525 -8.8476793787046404 0 0 0 0 10.260860841510294 -79.991323619774448 0 -79.991323619774448 5.8940947260628604 0 0 0 0 90.970643360649774 -19.296793045570666 0 -19.296793045570666 -7.1007550032652489 0 0 0 0 25.549670846692607 -54.41412926133853 0 -54.41412926133853 17.367249535516066 0 0 0 0 -6.8175672386644237 -6.272347518811646 0 -6.272347518811646 -0.71045387635074952 0 0 0 0 27.701017347200832 -54.229440678425817 0 -54.229440678425817 -29.803339801111974 0 0 0 0 2.4216315466273954 -64.53797401546467 0 -64.53797401546467 28.518245130937885 0 0 0 0 -35.023384268697555 9.9864151429806043 0 9.9864151429806043 10.640916127786568 0 0 0 0 -98.447536794734333 -11.939501143954203 0 -11.939501143954203 16.148290331459293 0 0 0 0 44.799897684733878 -73.131784440951151 0 -73.131784440951151 -42.282457070849432 0 0 0 0 -16.431055893758682 -9.1986788189656643 0 -9.1986788189656643 1.4809283128733348 0 0 0 0 -24.406107062652154 -21.757150412059445 0 -21.757150412059445 -14.624993767371052 0 0 0 0 -4.1562645727332708 -0.48060998006721611 0 -0.48060998006721611 6.2248871294221644 0 0 0 0 -1.6925553122144095 1.7505740529192373 0 1.7505740529192373 2.7746985950654279 0 0 0 0 -13.522422116864618 -12.823621122659461 0 -12.823621122659461 -28.450664088477652 0 0 0 0 -25.233738491962868 -28.5025930029542 0 -28.5025930029542 -7.7262356691012428 0 0 0 0 -46.98573045628018 -26.619915916005084 0 -26.619915916005084 -8.2872431212053925 0 0 0 0 -26.825519640927023 -4.5612956715517745 0 -4.5612956715517745 8.4432789366250987 0 0 0 0 -43.719026785823189 -26.025202776612332 0 -26.025202776612332 -8.1806440886857104 0 0 0 0 -42.975761068377096 -23.155184501678605 0 -23.155184501678605 -2.6875567484484009 0 0 0 0 -43.785895314048503 -11.792921611971963 0 -11.792921611971963 12.110495754736348 0 0 0 0 -47.318333529263782 -24.491916205130451 0 -24.491916205130451 5.4742211439152015 0 0 0 0 -54.360528750257799 -29.5527560704503 0 -29.5527560704503 6.8400529590882257 0 0 0 0 -51.622106377796172 -35.269287320745264 0 -35.269287320745264 3.2088290170171376 0 0 0 0 -53.300085207602024 -36.568377595642403 0 -36.568377595642403 5.3186160505756561 0 0 0 0 -51.36729601346633 -36.904427219537979 0 -36.904427219537979 -1.1214248718702038 0 0 0 0 -41.60372437924616 -32.672411538447477 0 -32.672411538447477 -2.0582489825571599 0 0 0 0 -48.275203995883203 -27.459538775976682 0 -27.459538775976682 -2.4423684881478493 0 0 0 0 -45.719981125131653 -25.583711147033682 0 -25.583711147033682 -2.1639972752561789 0 0 0 0 -7.3626953224109002 -109.56322600962498 0 -109.56322600962498 65.619517410837034 0 0 0 0 -46.323838862582306 -39.582261480626357 0 -39.582261480626357 -12.102466215172171 0 0 0 0 -21.792220847423991 -25.272928740207874 0 -25.272928740207874 -13.173611665153315 0 0 0 0 -20.656764374391059 -3.729909101501562 0 -3.729909101501562 -9.8307388498620867 0 0 0 0 -29.483777384631594 -33.967808982425879 0 -33.967808982425879 -10.265049232312322 0 0 0 0 -42.739757805833506 -25.052515468796457 0 -25.052515468796457 8.712439151510921 0 0 0 0 -26.935453894094941 -24.382972721817961 0 -24.382972721817961 -4.9459561434651498 0 0 0 0 -40.167535060055798 -30.878416604467219 0 -30.878416604467219 3.1309084726241281 0 0 0 0 -12.881460210001348 -10.289117670823344 0 -10.289117670823344 1.5826418907809852 0 0 0 0 -41.916899793407083 -37.0656377253366 0 -37.0656377253366 1.0086564909400408 0 0 0 0 -28.347742135691988 -24.421488843150826 0 -24.421488843150826 3.9867454333789283 0 0 0 0 -49.938305731911896 -31.24591700452018 0 -31.24591700452018 5.7337369624641052 0 0 0 0 -50.678632913363685 -33.889212647553947 0 -33.889212647553947 1.973049776787775 0 0 0 0 -56.518578434478513 -37.394269109392781 0 -37.394269109392781 0.2045495214034645 0 0 0 0 -49.39881188866957 -30.679600002921376 0 -30.679600002921376 -5.7421211522094495 0 0 0 0 -47.331474197445914 -38.376139905684795 0 -38.376139905684795 -10.337056153218725 0 0 0 0 -31.644037543319428 -26.292469522638214 0 -26.292469522638214 -1.0799507235877854 0 0 0 0 -54.326258542732376 -24.887740987294563 0 -24.887740987294563 4.9332387908989404 0 0 0 0 -65.502291803341905 -24.809436664715832 0 -24.809436664715832 5.9508754055911481 0 0 0 0 -59.97868399123854 -30.021104572893904 0 -30.021104572893904 4.241275909933492 0 0 0 0 -57.978532865340867 -31.925131169247905 0 -31.925131169247905 5.2934614119277512 0 0 0 0 -60.239823260377761 -32.242732914305535 0 -32.242732914305535 -2.3353570461318327 0 0 0 0 -67.369340657608518 -35.901730080924068 0 -35.901730080924068 -3.9166591146612149 0 0 0 0 -73.623965541897633 -29.848953556227528 0 -29.848953556227528 2.843023308811766 0 0 0 0 -64.106096034103757 -30.909845848060002 0 -30.909845848060002 -10.898574592548869 0 0 0 0 -64.832033339256057 -44.654854848617276 0 -44.654854848617276 -18.386149336543326 0 0 0 0 -53.566461589303913 -47.426477731167374 0 -47.426477731167374 -46.744033805446293 0 0 0 0 -51.597041639059398 -54.832533105988901 0 -54.832533105988901 -64.722611390837187 0 0 0 0 -83.813634972443197 -18.377700200517154 0 -18.377700200517154 -17.415850164097151 0 0 0 0 -93.191531523025787 -52.916366656966659 0 -52.916366656966659 -27.457691385761677 0 0 0 0 -24.189612276281423 -20.821854567150979 0 -20.821854567150979 -28.582467213913077 0 0 0 0 -32.962594244116644 -34.044952932104479 0 -34.044952932104479 -45.760724081865305 0 0 0 0 -31.967170487713588 -30.442312459604551 0 -30.442312459604551 -35.735926391434816 0 0 0 0 -5.4953331968759453 1.7090583203506466 0 1.7090583203506466 -0.070806646427989062 0 0 0 0 -25.637266596354038 -18.47362943149146 0 -18.47362943149146 -6.8116564969493538 0 0 0 0 -16.724312113683936 -28.596208849474536 0 -28.596208849474536 -7.6817024799671572 0 0 0 0 -11.496743338186693 -2.1422682464007714 0 -2.1422682464007714 1.2631275792389522 0 0 0 0 -3.3668996521764711 -31.397381284753294 0 -31.397381284753294 -10.311149133714792 0 0 0 0 -125.5872092677746 -15.596514237358576 0 -15.596514237358576 135.10594944268712 0 0 0 0 -57.476573651812942 -32.212935628241212 0 -32.212935628241212 11.701004278468645 0 0 0 0 -24.284426646087766 -22.171710217232476 0 -22.171710217232476 6.7320195290223346 0 0 0 0 -12.76794438191358 -11.324075179701962 0 -11.324075179701962 9.6835744831785071 0 0 0 0 -49.341015978089672 -37.257135252602609 0 -37.257135252602609 -12.016269617435341 0 0 0 0 -44.242383977061763 8.5950814828670445 0 8.5950814828670445 5.9620273939881372 0 0 0 0 -47.021943625759434 -36.529130009477704 0 -36.529130009477704 5.368780622709437 0 0 0 0 -117.95323996673886 -33.979788513780917 0 -33.979788513780917 58.849569355998938 0 0 0 0 -46.797429367843506 -82.440812572123718 0 -82.440812572123718 -177.79361515506935 0 0 0 0 -18.854067613359803 -16.72805529247367 0 -16.72805529247367 -10.722680326217755 0 0 0 0 -21.706873129434214 -13.453633295489555 0 -13.453633295489555 -0.77236348943089705 0 0 0 0 -39.110567669127704 -121.26869985903329 0 -121.26869985903329 15.696278945583117 0 0 0 0 -15.777850996220392 -8.6528152899126169 0 -8.6528152899126169 8.6459990805316593 0 0 0 0 -27.395992492081859 -20.275800300744578 0 -20.275800300744578 -11.824011452565983 0 0 0 0 -26.503167050417687 -13.157520629102635 0 -13.157520629102635 -5.5674440071138633 0 0 0 0 -24.167468203024328 -16.979384369877835 0 -16.979384369877835 -7.1570986591590611 0 0 0 0 -33.26639855954727 -8.2685534190618881 0 -8.2685534190618881 -14.825943597886294 0 0 0 0 -55.573230519119534 40.507292538951219 0 40.507292538951219 14.867756301712689 0 0 0 0 -37.788513266188602 10.587687411356171 0 10.587687411356171 64.538950651579626 0 0 0 0 -16.100720890022174 4.7143894907755772 0 4.7143894907755772 -3.5515270162052168 0 0 0 0 -148.99550387654745 55.477769929588874 0 55.477769929588874 46.541932254396272 0 0 0 0 -32.061348407885816 78.15671159862147 0 78.15671159862147 15.488164940708209 0 0 0 0 -1.2161590680175038 1.0857499749217681 0 1.0857499749217681 -0.70486181209483056 0 0 0 0 -129.68741683983535 -76.205193624850864 0 -76.205193624850864 30.193332209377473 0 0 0 0 -171.99531711433156 -50.295528031130956 0 -50.295528031130956 50.584850167460004 0 0 0 0 31.754681234839154 35.429440973522546 0 35.429440973522546 13.261041314120639 0 0 0 0 -35.393059172973153 -52.54971219177105 0 -52.54971219177105 24.966121766172023 0 0 0 0 -98.411283846362494 -75.061709199972483 0 -75.061709199972483 30.209087083982581 0 0 0 0 -122.51930722856014 -38.394322133826755 0 -38.394322133826755 52.895530441102721 0 0 0 0 -110.68451872038349 -37.191232796118044 0 -37.191232796118044 49.703714698680756 0 0 0 0 -30.48218419978366 -0.96235597297388153 0 -0.96235597297388153 17.47810078962496 0 0 0 0 -111.34601594492051 -20.677762536902264 0 -20.677762536902264 24.072410714376019 0 0 0 0 -14.863417488559207 -39.679809424604741 0 -39.679809424604741 11.200565081462337 0 0 0 0 -14.596570641608196 -39.102873378026111 0 -39.102873378026111 1.6022273658104211 0 0 0 0 -24.887616096264178 -22.29325074899155 0 -22.29325074899155 -1.7659019940641985 0 0 0 0 -30.499996052896336 -32.122313506484453 0 -32.122313506484453 7.3424360569730425 0 0 0 0 -10.563051751881176 -20.439421727517072 0 -20.439421727517072 -9.9346872835755136 0 0 0 0 -27.886283581516899 -18.548071563568417 0 -18.548071563568417 2.4728842651155341 0 0 0 0 -139.84760450808062 39.02617415964356 0 39.02617415964356 24.443946186778476 0 0 0 0 -37.500241166609158 -90.472756829690027 0 -90.472756829690027 -70.310803305329102 0 0 0 0 -5.7803939548845804 3.3324651577558821 0 3.3324651577558821 -2.2568228821996259 0 0 0 0 -982.91906669351556 238.16621658394479 0 238.16621658394479 -146.42235530401419 0 0 0 0 -741.02037952673709 385.25441995690881 0 385.25441995690881 -218.56686619554239 0 0 0 0 -718.84385457694134 90.352355222787281 0 90.352355222787281 37.556937024706542 0 0 0 0 -557.21473848447204 -86.321456040018859 0 -86.321456040018859 38.392378677710212 0 0 0 0 -1240.1398714549641 -149.66811952787563 0 -149.66811952787563 55.198680384574573 0 0 0 0 -2.7962671798041825 0.78079153348068786 0 0.78079153348068786 -0.64672646007382895 0 0 0 0 -234.26089589111507 51.442406717410904 0 51.442406717410904 -13.947964908027643 0 0 0 0 11.288238384982833 26.228625159339742 0 26.228625159339742 2.4074459266146278 0 0 0 0 -771.63155143478434 -294.38542878841793 0 -294.38542878841793 -82.482941372442127 0 0 0 0 -0.50020290531021772 -0.021655734369538493 0 -0.021655734369538493 -0.80945325865302065 0 0 0 0 44.479413631381249 26.902444023195216 0 26.902444023195216 -20.499492954409732 0 0 0 0 -71.373380125645781 24.902821347869406 0 24.902821347869406 30.358661610839022 0 0 0 0 -522.42548628466102 -602.16014432983343 0 -602.16014432983343 -199.53635211482015 0 0 0 0 -35.941141763834821 -61.136892557475562 0 -61.136892557475562 -34.678989363852679 0 0 0 0 -83.601746406724487 -41.684858802853796 0 -41.684858802853796 4.6398501479183096 0 0 0 0 -21.057032339616853 -12.189375094121601 0 -12.189375094121601 6.866421430318951 0 0 0 0 -23.99926016270183 -10.093049699098515 0 -10.093049699098515 15.830031770669905 0 0 0 0 -20.438565294833097 -10.79536065300158 0 -10.79536065300158 8.3670569437419999 0 0 0 0 -25.731476066448522 -12.932798789893241 0 -12.932798789893241 11.267574729473836 0 0 0 0 -24.102830747684493 -21.231500964635771 0 -21.231500964635771 -18.229242479691834 0 0 0 0 -25.988629737366864 -14.614178354485489 0 -14.614178354485489 -3.080966730341828 0 0 0 0 -19.797285159202147 -10.810769384389005 0 -10.810769384389005 -2.66533667314593 0 0 0 0 -14.018449530389262 -9.0625058879542735 0 -9.0625058879542735 -36.392910901618961 0 0 0 0 2.7188805633049924 -27.129353125178113 0 -27.129353125178113 -17.30660212910459 0 0 0 0 14.568381859939109 -19.294491301008804 0 -19.294491301008804 -35.884487532347684 0 0 0 0 29.468906708709426 -4.659991786196251 0 -4.659991786196251 17.60995244237418 0 0 0 0 -6.5264537994282676 4.8658103932306958 0 4.8658103932306958 -3.03731830214757 0 0 0 0 -3.5684621374531673 2.2464661430951711 0 2.2464661430951711 -1.0013366587954686 0 0 0 0 17.559548508557782 107.01089828247879 0 107.01089828247879 60.140811314242704 0 0 0 0 -39.558927579004376 49.953461672190087 0 49.953461672190087 157.64543186000753 0 0 0 0 17.579536617628907 -57.456096679103112 0 -57.456096679103112 52.661341140754985 0 0 0 0 51.245612684077059 -66.821353628557802 0 -66.821353628557802 -36.423983637606995 0 0 0 0 -37.211667213787223 -153.50919769693994 0 -153.50919769693994 -105.09634204356428 0 0 0 0 -344.20930768844846 144.09620207602126 0 144.09620207602126 -33.89368298302611 0 0 0 0 -1.136179703545551 1.2953337704214292 0 1.2953337704214292 -0.88783398683831916 0 0 0 0 -2.9310432712851195 1.2089168679479538 0 1.2089168679479538 -0.73055837756103603 0 0 0 0 -487.40244859107406 -74.401981381103553 0 -74.401981381103553 -107.89273443972071 0 0 0 0 -785.8584886435674 152.36243039665129 0 152.36243039665129 -3.709513659121626 0 0 0 0 -809.98874040502051 72.221741791586396 0 72.221741791586396 33.48172890383421 0 0 0 0 -422.07904061126101 39.086871184386069 0 39.086871184386069 -24.565433861044767 0 0 0 0 -433.49047583788706 4.1969190658026605 0 4.1969190658026605 -126.89087728915496 0 0 0 0 -1090.0751424566561 13.582982113024556 0 13.582982113024556 80.580192627199835 0 0 0 0 -341.39849174172014 -109.28825064006068 0 -109.28825064006068 -49.387550713818428 0 0 0 0 -471.24658723598441 101.99895665636825 0 101.99895665636825 40.294454555257289 0 0 0 0 -293.1208418440001 -20.364642817894946 0 -20.364642817894946 -18.974131479586291 0 0 0 0 -349.26385234804548 -92.977596721728304 0 -92.977596721728304 -22.378478045340216 0 0 0 0 -684.53891433493845 47.225554426412543 0 47.225554426412543 -37.521681554204065 0 0 0 0 -428.30027869779951 29.206972588880035 0 29.206972588880035 -18.099099768768021 0 0 0 0 -531.07492893369636 -110.06903723861564 0 -110.06903723861564 -171.7523724627672 0 0 0 0 -755.28466135940926 225.59919605900171 0 225.59919605900171 51.029616458611372 0 0 0 0 -697.64914556686199 175.63561320425498 0 175.63561320425498 56.444086271725467 0 0 0 0 -211.26576907797789 303.72970217921636 0 303.72970217921636 -50.803740747978964 0 0 0 0 -1.8686522886462242 1.5505459347342292 0 1.5505459347342292 -0.82292031375664654 0 0 0 0 -355.89872759884065 215.97019800426307 0 215.97019800426307 -35.228243443616748 0 0 0 0 -346.74694515630472 175.75282176016083 0 175.75282176016083 46.864999040860368 0 0 0 0 -171.50061993553754 139.59794876741603 0 139.59794876741603 -50.769271317420362 0 0 0 0 -206.10672893917945 79.166375737197768 0 79.166375737197768 -50.099263625300296 0 0 0 0 58.569515167625468 -13.581931542297099 0 -13.581931542297099 -28.858739715824413 0 0 0 0 6.5317996239718923 184.99115962722669 0 184.99115962722669 -84.343277591801325 0 0 0 0 -127.76034204883763 -1.6919655261907565 0 -1.6919655261907565 44.399826927550976 0 0 0 0 -49.171394376364333 -61.529213373593763 0 -61.529213373593763 77.978938616677453 0 0 0 0 -33.609239330755372 60.291209058921822 0 60.291209058921822 -82.559645195227176 0 0 0 0 -209.6667131150225 94.460111224692099 0 94.460111224692099 -65.795461991109732 0 0 0 0 -165.54176606408646 -27.436964361135978 0 -27.436964361135978 -50.359254297818552 0 0 0 0 -319.15314435343316 198.80487476905932 0 198.80487476905932 -136.39092531681445 0 0 0 0 -359.6852432518026 43.216335548218922 0 43.216335548218922 65.745297157626737 0 0 0 0 -0.18755310001682446 0.89520888129001008 0 0.89520888129001008 -0.33671185074184162 0 0 0 0 -699.85830005574871 171.10747580980657 0 171.10747580980657 12.794094521600982 0 0 0 0 -270.34065877802277 119.75278383195916 0 119.75278383195916 -53.544711731163488 0 0 0 0 -207.84499281484023 78.961713008740617 0 78.961713008740617 -99.851920573840687 0 0 0 0 -327.91256904745387 71.427206541787484 0 71.427206541787484 -49.300207427653959 0 0 0 0 -209.58980721418448 205.97355080893135 0 205.97355080893135 -74.811534296452379 0 0 0 0 93.034230238816235 248.35442272882051 0 248.35442272882051 52.916265035322041 0 0 0 0 -1.4205137608717422 1.027585927071339 0 1.027585927071339 -0.62926869074748915 0 0 0 0 -501.71829861427886 -194.49764675805858 0 -194.49764675805858 -7.8153527930171549 0 0 0 0 -262.69382762767782 179.50529715817072 0 179.50529715817072 48.836459529602507 0 0 0 0 -366.16929190442897 67.604963439062885 0 67.604963439062885 45.7422966899519 0 0 0 0 -47.773269711928151 -52.749159441129223 0 -52.749159441129223 -34.651479452568196 0 0 0 0 -32.243730922527902 -37.636870994745891 0 -37.636870994745891 -44.541191601989794 0 0 0 0 -2.1589520246634564 -9.3987811566768915 0 -9.3987811566768915 0.71153600465085276 0 0 0 0 -20.931267179556016 -41.581337305959892 0 -41.581337305959892 -15.706006203340507 0 0 0 0 29.800869078084361 -39.479658503043538 0 -39.479658503043538 -59.705302611124353 0 0 0 0 -43.748025268614583 -42.351315234235017 0 -42.351315234235017 -13.639233083393037 0 0 0 0 -27.541461785640422 -29.034437649182621 0 -29.034437649182621 -30.791294130521919 0 0 0 0 -2.470896203576558 -51.172478247165401 0 -51.172478247165401 -18.198121477954714 0 0 0 0 -11.395743844028402 -31.498694552946972 0 -31.498694552946972 -10.532156036246192 0 0 0 0 -49.677013875450939 -28.744016309166682 0 -28.744016309166682 14.470961482533511 0 0 0 0 -74.205209370438752 -46.95309079411777 0 -46.95309079411777 1.7052702229689203 0 0 0 0 -85.46759502356872 -50.244096833632682 0 -50.244096833632682 1.7436611966146529 0 0 0 0 -49.501584596310749 -25.48039096617125 0 -25.48039096617125 16.845351833380732 0 0 0 0 -107.04205861861192 -50.586903494562819 0 -50.586903494562819 39.969606691314141 0 0 0 0 -99.324108711690315 -41.367231046207451 0 -41.367231046207451 39.427205343147932 0 0 0 0 -120.19194832533321 -66.955472512691927 0 -66.955472512691927 26.896008859180142 0 0 0 0 -73.560492815574435 -46.365265840263731 0 -46.365265840263731 -26.316529448912547 0 0 0 0 -173.02834679836815 -20.146921540367089 0 -20.146921540367089 -28.200245110992867 0 0 0 0 -83.046993668120194 -69.305654943601837 0 -69.305654943601837 -38.84990806055032 0 0 0 0 -73.001096789783332 -51.495816393959444 0 -51.495816393959444 -39.618076006403385 0 0 0 0 -94.242770733342695 -83.769867425796974 0 -83.769867425796974 -87.042307489498853 0 0 0 0 -208.73934648244904 -126.55039405139041 0 -126.55039405139041 -99.19039663954959 0 0 0 0 -191.62134435743428 -25.865697366217091 0 -25.865697366217091 -47.250810733272942 0 0 0 0 -12.179905808154217 81.881644067122693 0 81.881644067122693 136.11422700322805 0 0 0 0 0.1506078339062995 -0.65769247625557981 0 -0.65769247625557981 0.57927796480838456 0 0 0 0 -87.364139571491251 -61.944305145808926 0 -61.944305145808926 84.173827925219854 0 0 0 0 -96.94607852635454 -26.595357432819128 0 -26.595357432819128 -24.967193213152314 0 0 0 0 2.4258517964070307 -1.2486888449267504 0 -1.2486888449267504 1.5005315822706784 0 0 0 0 -132.70190782788268 45.850779585975033 0 45.850779585975033 112.17535979888385 0 0 0 0 -61.24139849725907 -69.580658551724241 0 -69.580658551724241 -66.531030523716367 0 0 0 0 -0.07096024063165185 -0.39510873108784494 0 -0.39510873108784494 0.11332546400830701 0 0 0 0 181.77954319688433 -89.996303713615021 0 -89.996303713615021 -49.377435518002358 0 0 0 0 -49.216080450110894 -116.5743776464758 0 -116.5743776464758 4.5901484822441034 0 0 0 0 -223.38980842428828 -13.164409863360106 0 -13.164409863360106 95.775752255480029 0 0 0 0 -66.974381155856804 -64.379465416183479 0 -64.379465416183479 5.2605284182961896 0 0 0 0 -0.18249918387080344 -1.1369535408054645 0 -1.1369535408054645 0.10481437832922147 0 0 0 0 -77.200615542351443 -13.349807918760689 0 -13.349807918760689 7.2297802571611953 0 0 0 0 -77.177666800867883 -12.321568833471019 0 -12.321568833471019 -62.773936721296309 0 0 0 0 -87.651945379297103 -67.285221056298951 0 -67.285221056298951 -32.18892470616629 0 0 0 0 -88.741748451109743 -63.388253120582249 0 -63.388253120582249 16.942309396685431 0 0 0 0 -189.73378888031948 -58.133435297597089 0 -58.133435297597089 45.140905786677195 0 0 0 0 -208.8536587863091 23.411639669858005 0 23.411639669858005 1.8104792269825793 0 0 0 0 -394.38296021347378 89.121215252872389 0 89.121215252872389 -3.8155418114772601 0 0 0 0 -146.01571169340014 83.484557463477017 0 83.484557463477017 -66.865672696555976 0 0 0 0 -414.9465318732473 31.274748502318062 0 31.274748502318062 -3.1419605320718347 0 0 0 0 -209.41364031843841 14.08343943978366 0 14.08343943978366 -28.101114372884922 0 0 0 0 -371.18794585247815 94.85295011347489 0 94.85295011347489 -7.0783523735258314 0 0 0 0 -243.28945407857492 -26.185185311043487 0 -26.185185311043487 -4.7704823916064925 0 0 0 0 -246.60538085094595 41.101788001788464 0 41.101788001788464 -116.17817613140392 0 0 0 0 -442.06399745845579 119.53746018923545 0 119.53746018923545 -248.42639415975964 0 0 0 0 -317.3730910157683 83.015797218158127 0 83.015797218158127 -133.02933479426542 0 0 0 0 -431.63772012237109 29.471227655339703 0 29.471227655339703 -31.223840725841001 0 0 0 0 -291.96724713090589 -7.5636606667721935 0 -7.5636606667721935 -19.726494531927642 0 0 0 0 -109.22990826557361 31.175440932403262 0 31.175440932403262 -100.76423823735377 0 0 0 0 -108.03474657273 8.8111085066234409 0 8.8111085066234409 32.292061302516288 0 0 0 0 -0.036657507673922396 0.071695638932844474 0 0.071695638932844474 -0.28043381810557122 0 0 0 0 102.07471311058862 -12.762638242607949 0 -12.762638242607949 -92.438343523855565 0 0 0 0 -0.13223545771645551 -0.77780542330130942 0 -0.77780542330130942 -0.27768371409977899 0 0 0 0 70.96520732199167 -61.419805393907346 0 -61.419805393907346 -49.253769496332097 0 0 0 0 -138.1589670412468 3.4780947219094287 0 3.4780947219094287 24.341621099684176 0 0 0 0 -218.88356014072997 -32.915760431894228 0 -32.915760431894228 13.39698789990689 0 0 0 0 145.86975718628855 -46.703963146741557 0 -46.703963146741557 -64.734953682926516 0 0 0 0 -108.24520859299355 95.987250474990674 0 95.987250474990674 19.097899303542818 0 0 0 0 -188.04228563526158 -48.389048786430862 0 -48.389048786430862 3.2282285181763655 0 0 0 0 1.1771138910486965 3.0403542445028755 0 3.0403542445028755 -1.09498783403156 0 0 0 0 99.969732513713097 1.4286905828764702 0 1.4286905828764702 -37.751649651073876 0 0 0 0 -514.0407689386484 182.86458261911969 0 182.86458261911969 18.626259836018562 0 0 0 0 -356.86556099214067 129.51689722643141 0 129.51689722643141 -70.550855408240977 0 0 0 0 -501.37422979152325 176.65411928204367 0 176.65411928204367 -16.76749686233461 0 0 0 0 -605.25301895914527 21.391229459522719 0 21.391229459522719 -24.088049800919862 0 0 0 0 -561.7711128809342 169.12778891163111 0 169.12778891163111 58.583255517080488 0 0 0 0 -2.1123199074733705 4.955823706537128 0 4.955823706537128 -0.071513252130086968 0 0 0 0 -102.37675887126716 139.58216902862387 0 139.58216902862387 -193.0358169144738 0 0 0 0 -831.03159977642099 38.122483744764395 0 38.122483744764395 1.9048081285491207 0 0 0 0 -2.3044845241007472 1.150868169314947 0 1.150868169314947 -1.4840969620215212 0 0 0 0 54.253855797120195 14.556022625280434 0 14.556022625280434 -23.612248806738535 0 0 0 0 -8.6692819269474057 12.898782911804176 0 12.898782911804176 12.164283689979584 0 0 0 0 13.662448572056746 54.022510924347216 0 54.022510924347216 -12.928090825192612 0 0 0 0 -51.521190844414377 17.857610207960533 0 17.857610207960533 19.775929695124887 0 0 0 0 -79.246348152733844 50.531846853598836 0 50.531846853598836 -19.308517092917555 0 0 0 0 -60.437376907063481 -10.446577736342704 0 -10.446577736342704 -43.511481811608519 0 0 0 0 -49.481474259751849 16.984221672416197 0 16.984221672416197 -1.5072492066101404 0 0 0 0 -18.25870952882542 37.901202651082485 0 37.901202651082485 -8.7059228005592217 0 0 0 0 -127.6579391967025 5.5547786812569484 0 5.5547786812569484 0.35370661854404517 0 0 0 0 -100.91012277660411 31.045006126709268 0 31.045006126709268 -0.61114979093913746 0 0 0 0 -193.76833521367007 -82.045145280658289 0 -82.045145280658289 -87.783773795557863 0 0 0 0 -181.82076835362386 59.997999836096483 0 59.997999836096483 -47.0447200505414 0 0 0 0 -86.858363265999287 13.206385911323537 0 13.206385911323537 21.805060811995371 0 0 0 0 -109.64262284387587 -7.1379073693516375 0 -7.1379073693516375 22.185744090676735 0 0 0 0 -108.97008849190024 7.3310490810181363 0 7.3310490810181363 21.619801081699507 0 0 0 0 -142.29371170698141 21.726908532129357 0 21.726908532129357 22.884931393953138 0 0 0 0 -68.426129901758316 27.387788975428613 0 27.387788975428613 13.721331455873951 0 0 0 0 -68.554132996770932 15.428999392894184 0 15.428999392894184 -1.6261658192356663 0 0 0 0 -64.450630470154465 -6.0822428376020525 0 -6.0822428376020525 8.6948028920010074 0 0 0 0 -52.808279655446313 17.241382567813105 0 17.241382567813105 14.039548337348606 0 0 0 0 -13.142050447990187 15.921060437576671 0 15.921060437576671 0.29298540181139288 0 0 0 0 -1.1690779983237007 35.934809573958262 0 35.934809573958262 2.0739176544902875 0 0 0 0 -11.619679479748303 13.067653776137412 0 13.067653776137412 -0.94054868709619832 0 0 0 0 -576.08545290530219 29.797200893505504 0 29.797200893505504 9.596750273363341 0 0 0 0 -531.3308234131182 22.964301277009099 0 22.964301277009099 -19.889564253971798 0 0 0 0 -5.459199105653914 -4.9546589150687552 0 -4.9546589150687552 -2.0904438104018741 0 0 0 0 -48.266906349146666 6.2486569486055146 0 6.2486569486055146 -2.2480733772379153 0 0 0 0 -41.547300684891525 -2.1286037682481265 0 -2.1286037682481265 -8.9102883198534641 0 0 0 0 -1.8187268280331068 -4.2440461848026558 0 -4.2440461848026558 -4.8640099681470907 0 0 0 0 -672.46442596323232 171.24895190890484 0 171.24895190890484 138.1726496807218 0 0 0 0 -52.97762872095791 7.7820144299883793 0 7.7820144299883793 -2.0914791013365175 0 0 0 0 -44.458989483486221 -1.012946703405305 0 -1.012946703405305 -8.5914820799889924 0 0 0 0 -42.055391821391822 8.2132461942559303 0 8.2132461942559303 -10.420444420410377 0 0 0 0 -29.996383576297376 3.5021081976317987 0 3.5021081976317987 -7.4237224622455074 0 0 0 0 -39.823372155556171 1.4503516834268311 0 1.4503516834268311 -4.3887447488698399 0 0 0 0 -34.329818017231446 8.6612967413650495 0 8.6612967413650495 -5.4120106333130025 0 0 0 0 -11.75855419581093 13.283815855845447 0 13.283815855845447 -1.155175109991621 0 0 0 0 -21.60884957046801 24.389684126426005 0 24.389684126426005 3.4240457398606168 0 0 0 0 -70.881661206283752 -8.6920407877173602 0 -8.6920407877173602 4.271844789530121 0 0 0 0 -31.479121805845352 2.5313292738495932 0 2.5313292738495932 0.29108117425721503 0 0 0 0 -25.4660933861378 18.509325732962452 0 18.509325732962452 -5.8963947814425808 0 0 0 0 -11.862354051601336 13.28547427794512 0 13.28547427794512 -1.0671245567935648 0 0 0 0 -28.031871328693342 8.3982580972685241 0 8.3982580972685241 -2.5156102281127914 0 0 0 0 -39.083409433889756 -6.8188246472591914 0 -6.8188246472591914 -15.896444391274144 0 0 0 0 -35.132209047827928 2.4130087368971544 0 2.4130087368971544 -19.466700254107991 0 0 0 0 0.11253102971568296 0.024431990033431106 0 0.024431990033431106 -0.82089143147126942 0 0 0 0 -33.031423642294612 -11.130813459551064 0 -11.130813459551064 -40.575781954450576 0 0 0 0 -78.001714692509267 -37.399848440155324 0 -37.399848440155324 -13.475169645046776 0 0 0 0 -131.72854595719582 1.0284722921469438 0 1.0284722921469438 22.644180681185617 0 0 0 0 -111.9120613365003 -27.49776613792551 0 -27.49776613792551 -72.078123876785412 0 0 0 0 -33.95169667972732 -2.519268433031101 0 -2.519268433031101 -53.400882294012945 0 0 0 0 -94.013752276225205 22.650696938573219 0 22.650696938573219 -36.46051088975014 0 0 0 0 -254.28264854025838 77.675049343309297 0 77.675049343309297 -57.096263954315901 0 0 0 0 -442.59107622014926 64.230262007835506 0 64.230262007835506 -17.218328783337483 0 0 0 0 -541.65030992805987 49.570668693052085 0 49.570668693052085 2.0863425134052704 0 0 0 0 -521.56531561672818 -4.8947867313690949 0 -4.8947867313690949 -13.659730339958742 0 0 0 0 -339.912101103022 34.137608695525927 0 34.137608695525927 -21.213558477886465 0 0 0 0 -385.35001510670736 -4.2169343993296877 0 -4.2169343993296877 -1.0073221943273438 0 0 0 0 -294.62219485121386 -17.563004088671846 0 -17.563004088671846 -15.827899083430964 0 0 0 0 -415.15780889823145 -215.54437025715467 0 -215.54437025715467 15.762001813693985 0 0 0 0 -541.71572161533913 109.36075741147664 0 109.36075741147664 -53.093003298253464 0 0 0 0 -488.91684554604581 -1.3010867345308377 0 -1.3010867345308377 97.048170351748752 0 0 0 0 -691.89344413845538 9.0447694367561553 0 9.0447694367561553 100.15830309902937 0 0 0 0 -672.92329654133391 106.61510053484017 0 106.61510053484017 373.71218099976511 0 0 0 0 -1369.5405063932631 2.7708651231184831 0 2.7708651231184831 488.93290320207325 0 0 0 0 -592.33092892013156 -396.0656324375762 0 -396.0656324375762 -48.224740170390191 0 0 0 0 -68.018108817621396 -145.58031889026552 0 -145.58031889026552 12.956179199758509 0 0 0 0 -64.690333284612279 29.896571722699662 0 29.896571722699662 180.28836763159973 0 0 0 0 21.69975916383919 66.230575879601702 0 66.230575879601702 -10.864161512177105 0 0 0 0 -129.73171279699818 7.7948205263792261 0 7.7948205263792261 -44.683111561529984 0 0 0 0 -88.368185406014163 -37.790406777988579 0 -37.790406777988579 4.3199588779760916 0 0 0 0 -62.65988975575965 68.32153655486357 0 68.32153655486357 -35.665360209144254 0 0 0 0 -40.882935440120491 30.69118195885676 0 30.69118195885676 26.941119771673158 0 0 0 0 -5.2874675435195968 24.922218053027734 0 24.922218053027734 27.845761204004987 0 0 0 0 -47.162701398168792 33.57854467527909 0 33.57854467527909 47.777216437600487 0 0 0 0 -21.771085079453769 72.179534578192545 0 72.179534578192545 -24.516374620833574 0 0 0 0 0.8093467116008668 -0.65603754837600725 0 -0.65603754837600725 -0.80870603742380032 0 0 0 0 -0.98353170687369129 13.986857509128725 0 13.986857509128725 20.958622573869093 0 0 0 0 -15.274424249284493 31.763587654278581 0 31.763587654278581 -3.4120684028239339 0 0 0 0 -1.4626070008089158 1.1048755936943042 0 1.1048755936943042 2.3443648167088957 0 0 0 0 -4.5691884272218886 24.649991005117997 0 24.649991005117997 -2.3780682794592281 0 0 0 0 -19.551501616156202 54.724381746017585 0 54.724381746017585 -28.398943804604073 0 0 0 0 -11.857685025746832 18.645017430400117 0 18.645017430400117 73.019414492736075 0 0 0 0 -37.745948704607599 13.190953263684889 0 13.190953263684889 -9.4251107811638803 0 0 0 0 43.756826748265667 5.7809073874114887 0 5.7809073874114887 -15.509085698481044 0 0 0 0 11.31795241283271 35.847654618402373 0 35.847654618402373 -39.310760051867874 0 0 0 0 -46.529622550831846 -55.195746043492818 0 -55.195746043492818 -10.177008610211146 0 0 0 0 3.7680767825386283 -28.406109097817989 0 -28.406109097817989 8.6495132296263364 0 0 0 0 3.9835065292281797 -8.7494473775111601 0 -8.7494473775111601 -7.3683489310128607 0 0 0 0 0.60674544591790269 1.1416805263685461 0 1.1416805263685461 0.98092413734593942 0 0 0 0 12.869226902595983 -7.0836704261580508 0 -7.0836704261580508 -8.4338795672141202 0 0 0 0 -18.324766852382254 -22.672441651865867 0 -22.672441651865867 -9.0682877913189941 0 0 0 0 -27.109930803402676 -10.95190406162601 0 -10.95190406162601 1.7194034151065125 0 0 0 0 -10.677682177632427 0.074976068106792582 0 0.074976068106792582 11.68488207363332 0 0 0 0 -9.654023055529251 -13.259487213501302 0 -13.259487213501302 -5.7958276936506365 0 0 0 0 -13.751986950374658 -2.3465330108806945 0 -2.3465330108806945 5.8748348853502534 0 0 0 0 -2.5175717399276714 0.0060583061353582934 0 0.0060583061353582934 0.34419375695706311 0 0 0 0 -9.9227701969052475 -0.16431174197359866 0 -0.16431174197359866 14.147611183342402 0 0 0 0 -9.6859052202325984 8.659047935009994 0 8.659047935009994 25.882128734428534 0 0 0 0 -9.0727645832594135 4.2812258579608624 0 4.2812258579608624 17.17747345252883 0 0 0 0 -18.455679886965299 -1.0988314968021768 0 -1.0988314968021768 19.452873860512682 0 0 0 0 -23.209331615362316 -0.046084854653145157 0 -0.046084854653145157 21.825849701105199 0 0 0 0 -23.993733243623865 -3.2750161741230386 0 -3.2750161741230386 20.925515661124791 0 0 0 0 -23.460998989481595 -1.8026222660505482 0 -1.8026222660505482 22.999655761479062 0 0 0 0 -19.645139085426308 -2.9414436978079266 0 -2.9414436978079266 12.563810105523771 0 0 0 0 -23.674863113250467 -3.4769168837206053 0 -3.4769168837206053 20.940654109099086 0 0 0 0 -17.631671598606772 1.0433491327489719 0 1.0433491327489719 20.041263723141356 0 0 0 0 -21.088846676659159 -3.4640281633851373 0 -3.4640281633851373 21.793814829060011 0 0 0 0 -20.339160666406087 -6.2921390476192869 0 -6.2921390476192869 26.190822962224047 0 0 0 0 -24.062914200447267 -5.143173680268319 0 -5.143173680268319 25.952898956144395 0 0 0 0 -21.531420548462847 -3.7479087965857616 0 -3.7479087965857616 14.960572675570347 0 0 0 0 -23.147541972637555 -5.1037477040454178 0 -5.1037477040454178 21.505155732936373 0 0 0 0 -19.472766213611976 -4.4328879819220219 0 -4.4328879819220219 15.341109452208912 0 0 0 0 -22.388817393471982 -4.1269629287839962 0 -4.1269629287839962 15.343505682290015 0 0 0 0 -21.185550609545317 -3.6008460295877285 0 -3.6008460295877285 9.0435192841569005 0 0 0 0 -23.648549626072963 -5.6593005463237205 0 -5.6593005463237205 14.503249566468185 0 0 0 0 -21.195486262582563 -3.2864568597631205 0 -3.2864568597631205 7.6656075574842362 0 0 0 0 -25.017025985873261 -9.4014536219074216 0 -9.4014536219074216 3.7655888548204075 0 0 0 0 -21.690559793507418 -6.6236995306444442 0 -6.6236995306444442 8.4109680915620402 0 0 0 0 -23.369620958865198 -3.6747005042318506 0 -3.6747005042318506 4.7125303830184748 0 0 0 0 -11.929750496529749 1.1846903041796288 0 1.1846903041796288 10.968795766820488 0 0 0 0 -22.907456084300065 -6.0233045374434369 0 -6.0233045374434369 11.643860256326775 0 0 0 0 -40.913666364340315 -13.745077536727649 0 -13.745077536727649 15.956567290825319 0 0 0 0 -31.394140841968692 -26.604956637335249 0 -26.604956637335249 9.2899263977581086 0 0 0 0 -30.843947023224246 -18.836418113462514 0 -18.836418113462514 15.973512797353123 0 0 0 0 -41.353148250666891 19.234088815102723 0 19.234088815102723 18.14770738614834 0 0 0 0 -31.285131246231686 -0.78221679645338327 0 -0.78221679645338327 22.727218118401197 0 0 0 0 -77.984706491482939 -2.8096328353076387 0 -2.8096328353076387 24.940096044455231 0 0 0 0 -52.08654141730949 -8.6639959699821247 0 -8.6639959699821247 -15.444768746984664 0 0 0 0 -36.675351670539385 32.384875486583155 0 32.384875486583155 -11.146786992046145 0 0 0 0 -79.243377509854326 8.6042018310249659 0 8.6042018310249659 0.52700786744480865 0 0 0 0 -75.948438068509859 22.489949835856351 0 22.489949835856351 12.330301572055305 0 0 0 0 -55.48678934668078 -13.610182790464876 0 -13.610182790464876 32.780848854891701 0 0 0 0 -73.561478807438107 4.7883627814280771 0 4.7883627814280771 34.862752441503289 0 0 0 0 -41.700302951096091 -3.4671517147680788 0 -3.4671517147680788 9.4156915647267851 0 0 0 0 -24.730595289569465 -8.8199047194734703 0 -8.8199047194734703 -0.55824648613588579 0 0 0 0 -12.663050137698761 2.343424953225 0 2.343424953225 9.6091493915325881 0 0 0 0 0.54418197209452046 -1.369037118258575 0 -1.369037118258575 11.473993689654435 0 0 0 0 5.2555522746151837 8.1813783516072363 0 8.1813783516072363 2.8778336688424133 0 0 0 0 2.9903510772508071 10.908697982946194 0 10.908697982946194 10.113824635213859 0 0 0 0 -0.66114795914518254 -0.46651915436510083 0 -0.46651915436510083 0.37606459685459193 0 0 0 0 -35.996129923794797 -17.791105061489361 0 -17.791105061489361 3.1782378827283537 0 0 0 0 -1.4924549934101918 -0.76386059115506955 0 -0.76386059115506955 1.3586249220666198 0 0 0 0 -15.010529666307157 2.8838856674330788 0 2.8838856674330788 8.7044661581368921 0 0 0 0 -0.90246703605953371 11.453735654692991 0 11.453735654692991 17.523316712262385 0 0 0 0 -8.1840189329297317 -1.3686115174466917 0 -1.3686115174466917 5.7087324926710989 0 0 0 0 -9.6622715005942155 1.5473686857303619 0 1.5473686857303619 13.064790038132742 0 0 0 0 -6.7519068077821203 6.8159638667403009 0 6.8159638667403009 8.7541321657026163 0 0 0 0 -8.9896593549501418 -9.8657551284530243 0 -9.8657551284530243 7.024394601268737 0 0 0 0 68.671363022876903 90.434780603372474 0 90.434780603372474 -142.74170263458836 0 0 0 0 -159.70045670888794 150.05047520240532 0 150.05047520240532 -24.990988372472202 0 0 0 0 37.871448847650754 -9.1482106932480747 0 -9.1482106932480747 93.278748601713232 0 0 0 0 12.621067511281581 126.82358149676475 0 126.82358149676475 301.75077385511486 0 0 0 0 8.0159566936654301 4.030379863260805 0 4.030379863260805 230.64840120865301 0 0 0 0 69.293631288477627 165.53629912273573 0 165.53629912273573 355.54043164301402 0 0 0 0 10.422228977266059 65.350958957697912 0 65.350958957697912 250.31570479960828 0 0 0 0 -0.6254673808119442 -1.052218276593722 0 -1.052218276593722 -1.0771019893613918 0 0 0 0 -29.281363931382657 106.77865532967189 0 106.77865532967189 211.99826773905806 0 0 0 0 -130.91057202073716 -63.051706473363083 0 -63.051706473363083 163.85883748127981 0 0 0 0 36.019937915894843 -137.87272639446337 0 -137.87272639446337 84.194334159228674 0 0 0 0 71.47897248346635 -104.54831123924419 0 -104.54831123924419 106.10482928188321 0 0 0 0 142.00658080348148 46.472535612806496 0 46.472535612806496 204.56247772256393 0 0 0 0 -176.02637613091548 -190.62254559706136 0 -190.62254559706136 83.253542438545992 0 0 0 0 -3.675257611859216 -1.6748973986080919 0 -1.6748973986080919 -0.40478177687956762 0 0 0 0 -70.587174964792212 -148.90021520686878 0 -148.90021520686878 149.88341826089891 0 0 0 0 -12.023004118756944 -7.5701748341284656 0 -7.5701748341284656 -0.35576979093036698 0 0 0 0 -52.728240597869444 -138.38964004693753 0 -138.38964004693753 -62.602693555428004 0 0 0 0 -64.21413899282561 -92.954187612811893 0 -92.954187612811893 181.45913434737395 0 0 0 0 -20.621219798671518 64.2065235672776 0 64.2065235672776 97.249763638238619 0 0 0 0 -2.2161373933117829 -1.1358104597725784 0 -1.1358104597725784 -0.51803035411008569 0 0 0 0 -78.522813277453679 49.204320961774101 0 49.204320961774101 -50.195206003055773 0 0 0 0 6.133033010570216 -13.136450662997959 0 -13.136450662997959 -95.227387627412782 0 0 0 0 -20.394861691940605 2.3295019009583484 0 2.3295019009583484 4.7470809224951154 0 0 0 0 -26.357056069786267 17.485145052124153 0 17.485145052124153 -32.309511237950574 0 0 0 0 -145.86601825522484 -4.1011005429113538 0 -4.1011005429113538 4.4562025397844991 0 0 0 0 -73.847554554322414 17.587522067938608 0 17.587522067938608 10.206737520780734 0 0 0 0 -44.531509061580437 11.812120050165959 0 11.812120050165959 13.302698394944855 0 0 0 0 -44.583837271115044 -15.607810677031921 0 -15.607810677031921 12.869202835920078 0 0 0 0 -71.422710587075926 22.763898484080073 0 22.763898484080073 19.544057653440177 0 0 0 0 -68.745321846496154 20.20742595940203 0 20.20742595940203 10.024580791359767 0 0 0 0 -94.607674275139289 31.384814510678552 0 31.384814510678552 17.040565366414739 0 0 0 0 -96.067369042746577 78.162577472071462 0 78.162577472071462 -35.812486802491108 0 0 0 0 -8.6438637381361332 -2.0329024118432244 0 -2.0329024118432244 -5.245347766665418 0 0 0 0 -55.269931552160415 36.946934688548026 0 36.946934688548026 -34.361056768918388 0 0 0 0 87.792315370020788 -97.610362514603366 0 -97.610362514603366 81.187986216510581 0 0 0 0 183.41488984991884 -51.387515777559202 0 -51.387515777559202 89.226487001238638 0 0 0 0 -0.55563792346229945 -1.3120654373519365 0 -1.3120654373519365 -1.2532240340289817 0 0 0 0 -7.589827323382508 -3.030154255509002 0 -3.030154255509002 -1.1279949222578782 0 0 0 0 6.6388236026759841 10.938992148889838 0 10.938992148889838 -19.220995498576485 0 0 0 0 59.991858475463232 -53.466479207334487 0 -53.466479207334487 7.8366119756703938 0 0 0 0 -14.60295824989457 -2.8416961330325705 0 -2.8416961330325705 1.7141330323610635 0 0 0 0 -42.82679995107901 14.754329334828071 0 14.754329334828071 2.5383274712278308 0 0 0 0 -343.98041439366352 -1.6991487318809959 0 -1.6991487318809959 132.00361577983858 0 0 0 0 -66.455124525513384 13.524068799965789 0 13.524068799965789 64.506589594403522 0 0 0 0 -152.34829025248109 47.871654417829177 0 47.871654417829177 19.237527473720206 0 0 0 0 -127.98307702570128 -43.64695310351226 0 -43.64695310351226 21.656890274232865 0 0 0 0 -17.90915907976887 -55.348628853914306 0 -55.348628853914306 -0.5285536562987545 0 0 0 0 27.240219500465173 -31.733442775261665 0 -31.733442775261665 -28.082787838193326 0 0 0 0 43.371037071710816 23.069413932373266 0 23.069413932373266 1.1715711980323249 0 0 0 0 -13.688907542177844 5.3578758846439527 0 5.3578758846439527 8.8604466768056014 0 0 0 0 -8.1093602750133869 17.249798321162416 0 17.249798321162416 21.275082574458793 0 0 0 0 12.985715111179161 -13.895057912146058 0 -13.895057912146058 4.2817249352737861 0 0 0 0 -2.2504427458299645 0.13987566708101085 0 0.13987566708101085 0.89290433506227807 0 0 0 0 174.78787252818074 -64.367312584940009 0 -64.367312584940009 -11.022740061484456 0 0 0 0 -2.2863903890606885 -2.3491175314341142 0 -2.3491175314341142 2.9645410745117946 0 0 0 0 45.507842759157938 -17.944775952751115 0 -17.944775952751115 -16.481149548983922 0 0 0 0 -79.126641924889555 30.581416454436066 0 30.581416454436066 6.4063890543920934 0 0 0 0 -95.689330603330745 70.907219088762304 0 70.907219088762304 45.175969182643826 0 0 0 0 -34.862964925990127 -6.130850897588175 0 -6.130850897588175 24.274058442738806 0 0 0 0 -70.185815192960945 -27.271587056606052 0 -27.271587056606052 113.7906195668711 0 0 0 0 -13.286682176784915 -10.736427289623151 0 -10.736427289623151 -0.052277623716295629 0 0 0 0 -63.996660126224015 43.613019595434935 0 43.613019595434935 -24.171086419393305 0 0 0 0 49.89267445577434 -130.16878021419703 0 -130.16878021419703 79.947166969650425 0 0 0 0 93.730923269533378 -10.569264166210132 0 -10.569264166210132 -40.774504058925856 0 0 0 0 -13.855349262189748 -54.244706692347634 0 -54.244706692347634 33.441356145411191 0 0 0 0 8.392905318258272 -64.613120403413404 0 -64.613120403413404 19.099336404151018 0 0 0 0 7.0094040402545943 -79.658465942636894 0 -79.658465942636894 22.364469668516563 0 0 0 0 -24.481401814962737 5.2842712401190965 0 5.2842712401190965 -16.389816037611581 0 0 0 0 -24.982416949293111 -32.278261146102295 0 -32.278261146102295 67.376450954493151 0 0 0 0 3.3244421658746433 -18.390602544475541 0 -18.390602544475541 7.9683004029193398 0 0 0 0 0.087272312434936161 0.017482158705504958 0 0.017482158705504958 1.8813045708904008 0 0 0 0 12.316170270947623 -31.779320328869971 0 -31.779320328869971 3.7247639496877127 0 0 0 0 82.546519190194886 -133.54562607134721 0 -133.54562607134721 31.348226403209082 0 0 0 0 86.522968228990976 -121.74360809792461 0 -121.74360809792461 61.758901566994609 0 0 0 0 194.90284352909657 -313.22819172188247 0 -313.22819172188247 -59.721345119178295 0 0 0 0 -19.751832627887779 -39.537967955389377 0 -39.537967955389377 30.013760974217803 0 0 0 0 -54.035528495052858 -38.85060737152935 0 -38.85060737152935 -7.323218476807142 0 0 0 0 -123.72341815469213 -1.5216236910898431 0 -1.5216236910898431 25.669333875327993 0 0 0 0 -43.978892207000172 -12.287745959871472 0 -12.287745959871472 18.5805070571638 0 0 0 0 -160.74614528485563 3.2913605426907182 0 3.2913605426907182 19.61427074701578 0 0 0 0 -30.576349059614586 2.288181665646789 0 2.288181665646789 -26.351526165186897 0 0 0 0 0.13078720504769326 0.68700609576512761 0 0.68700609576512761 2.6258606101991804 0 0 0 0 77.598722783015091 -21.641646810004772 0 -21.641646810004772 -43.774770935347078 0 0 0 0 -30.314824444536498 6.0243567298578 0 6.0243567298578 21.524565258438855 0 0 0 0 -14.786220045381015 44.157856914236731 0 44.157856914236731 32.734277836470028 0 0 0 0 39.014809214757406 -30.776033078296052 0 -30.776033078296052 6.330654856531055 0 0 0 0 9.9756479285570094 -19.147577744797672 0 -19.147577744797672 19.767894469880957 0 0 0 0 -30.901224134700385 -20.425770272791318 0 -20.425770272791318 31.378200201841992 0 0 0 0 -5.2551813039399349 -20.112161711281146 0 -20.112161711281146 76.710082987945498 0 0 0 0 -3.1427057338114537 -21.414144274090859 0 -21.414144274090859 21.437575504159213 0 0 0 0 -43.534894277526973 -14.532708957557247 0 -14.532708957557247 55.082063666819522 0 0 0 0 -5.9586228478947305 -9.5357186339126656 0 -9.5357186339126656 88.408443974202328 0 0 0 0 -6.1190595446878433 4.9528806156388328 0 4.9528806156388328 31.007510368240219 0 0 0 0 508.72907444718294 259.9682811071325 0 259.9682811071325 -41.686901027183609 0 0 0 0 62.780044950959564 -69.320747564141811 0 -69.320747564141811 67.269813129435533 0 0 0 0 -1497.8123790200489 59.479788397301256 0 59.479788397301256 213.04672634356825 0 0 0 0 -770.38843455740516 -75.054502353937067 0 -75.054502353937067 156.26017446933417 0 0 0 0 -732.68909404427814 -223.83426346555373 0 -223.83426346555373 -33.079342843652967 0 0 0 0 -461.78259891132802 -59.940034766301409 0 -59.940034766301409 -52.505619877645131 0 0 0 0 -201.83961614412874 -147.79575902754505 0 -147.79575902754505 -158.22321020052286 0 0 0 0 -264.39471554689226 -122.41723131637097 0 -122.41723131637097 -63.38408177767738 0 0 0 0 -358.62924007573929 -214.63835675078266 0 -214.63835675078266 -99.051860956376686 0 0 0 0 -71.605468315723556 -75.678895309136351 0 -75.678895309136351 -92.53905610919881 0 0 0 0 -160.16336948014941 -135.66035962329704 0 -135.66035962329704 -125.26958593457164 0 0 0 0 -167.71806999359796 -79.522717069033931 0 -79.522717069033931 -92.784447190578589 0 0 0 0 -147.48528966047979 -97.025520061323761 0 -97.025520061323761 -68.399239364504368 0 0 0 0 -102.82066239648339 -92.65322175616113 0 -92.65322175616113 -78.442629186918978 0 0 0 0 -143.07544542985306 -103.15656761656743 0 -103.15656761656743 -26.395104059014059 0 0 0 0 -199.61291805429028 -123.25126449703883 0 -123.25126449703883 -32.425368155074892 0 0 0 0 -205.06517528940913 -140.24498435851399 0 -140.24498435851399 -79.686858727447913 0 0 0 0 -344.34915894166079 -142.61960847589029 0 -142.61960847589029 16.564294052869272 0 0 0 0 -336.41799935648305 -133.73959147520452 0 -133.73959147520452 -60.237233439002068 0 0 0 0 -227.36713198588586 -73.800905981259476 0 -73.800905981259476 56.161514468795488 0 0 0 0 -212.06180074288977 -125.85510032797239 0 -125.85510032797239 8.0886442431707337 0 0 0 0 -271.92435830799695 -70.514575150226875 0 -70.514575150226875 75.469940770128375 0 0 0 0 -142.49895206233168 135.37163612684031 0 135.37163612684031 203.15299537291637 0 0 0 0 -522.07132284149247 -57.91331343604849 0 -57.91331343604849 105.47141038700246 0 0 0 0 -314.59503540807941 436.65219839646619 0 436.65219839646619 93.486827867960884 0 0 0 0 -1502.1249577126969 -24.881098345512989 0 -24.881098345512989 0.82007029153337307 0 0 0 0 -0.96430944002868224 2.8152384111350717 0 2.8152384111350717 0.075844025696389192 0 0 0 0 5.5453374166013418 42.447044226276233 0 42.447044226276233 84.855802751533091 0 0 0 0 485.93124277698826 274.62734342828128 0 274.62734342828128 -25.501527916955634 0 0 0 0 -1.7405369975523994 8.0002597068285013 0 8.0002597068285013 1.0020552956383351 0 0 0 0 -1499.9520800527005 -26.031716947549324 0 -26.031716947549324 0.86203337959156368 0 0 0 0 -25.041530282563144 90.620075117774149 0 90.620075117774149 90.940541086655344 0 0 0 0 -11.478769898920291 25.367541350651152 0 25.367541350651152 16.294392573791981 0 0 0 0 -1499.2413935012037 -20.712779399107209 0 -20.712779399107209 1.8564616426024745 0 0 0 0 124.86665575687039 64.393270476174251 0 64.393270476174251 17.281548117827583 0 0 0 0 27.521516070229154 22.583639494344993 0 22.583639494344993 0.94617235397936383 0 0 0 0 -1500.0321673088831 -20.325765613309375 0 -20.325765613309375 1.9072210507452223 0 0 0 0 -1499.8481166912884 -19.1020100201875 0 -19.1020100201875 6.724835063064357 0 0 0 0 -1.6738260205866431 12.476549292872878 0 12.476549292872878 2.8147706706914022 0 0 0 0 -10.16263659755441 44.933909057570332 0 44.933909057570332 5.5240734016479109 0 0 0 0 -22.354487379955117 32.247237503834228 0 32.247237503834228 3.9309161244227653 0 0 0 0 -89.259240546429055 -2.9696055440155362 0 -2.9696055440155362 -14.862999651044561 0 0 0 0 -37.714732646585617 20.429702238592768 0 20.429702238592768 9.1113401110490315 0 0 0 0 -65.325480175566554 41.479550171341799 0 41.479550171341799 8.5985571386870561 0 0 0 0 -101.62806053042732 2.0695528952014968 0 2.0695528952014968 -10.435197226918888 0 0 0 0 -103.78121731562169 0.89036532593223683 0 0.89036532593223683 14.600595705374094 0 0 0 0 -49.843090281161494 49.691314797807763 0 49.691314797807763 47.515174292397319 0 0 0 0 -159.99236127658423 7.1068288784677236 0 7.1068288784677236 120.51262725876451 0 0 0 0 -66.211144736563483 11.231637640126429 0 11.231637640126429 42.970635679746067 0 0 0 0 -191.58442227724208 -67.868044629560131 0 -67.868044629560131 34.799608932536387 0 0 0 0 -184.68955408074089 -43.324919794932782 0 -43.324919794932782 7.3081116973883269 0 0 0 0 -249.54307395435626 34.725325412456783 0 34.725325412456783 -56.833854773087808 0 0 0 0 -199.15111484126737 -82.136448453461895 0 -82.136448453461895 -56.210216364257235 0 0 0 0 -184.31307800371997 -51.70538643338611 0 -51.70538643338611 49.088215846353251 0 0 0 0 -155.02335111435423 -0.46737572261696414 0 -0.46737572261696414 9.9170336674039277 0 0 0 0 -153.93958359391036 -4.0159804862313422 0 -4.0159804862313422 -63.209345167063134 0 0 0 0 -376.71591255630392 13.135422449142197 0 13.135422449142197 6.2421746663144404 0 0 0 0 -258.95339712858276 -39.078487180007528 0 -39.078487180007528 9.745772002103422 0 0 0 0 -249.62427947470678 -9.2208027718697281 0 -9.2208027718697281 20.221972031553605 0 0 0 0 -15.165011154370859 2.9350141468277684 0 2.9350141468277684 4.7139897172000929 0 0 0 0 -0.91236175347050974 0.12990496189152267 0 0.12990496189152267 0.066704032932756618 0 0 0 0 -291.08506335905258 -38.692679982585787 0 -38.692679982585787 -43.525813193095019 0 0 0 0 -297.68509135296995 -89.192676574898286 0 -89.192676574898286 81.784172855198904 0 0 0 0 -1.868649020952823 1.501230391134369 0 1.501230391134369 -0.62312617880277976 0 0 0 0 -0.17438505913264635 21.16225033827066 0 21.16225033827066 -24.021391852209604 0 0 0 0 -396.39528859877737 -110.3987096717118 0 -110.3987096717118 15.961047670196166 0 0 0 0 -2.850433875166372 -0.13087431929885973 0 -0.13087431929885973 4.6551816032172191 0 0 0 0 -1.6377326337519378 -15.057539264114617 0 -15.057539264114617 -1.7523047391048863 0 0 0 0 -55.227674660776074 23.852898822002345 0 23.852898822002345 12.861412902618838 0 0 0 0 -275.13432928615566 26.484986807150186 0 26.484986807150186 15.597858654750155 0 0 0 0 -40.726144745079182 66.549652490861064 0 66.549652490861064 -48.830696955990248 0 0 0 0 -91.293401385634752 15.129897895511959 0 15.129897895511959 11.897382807840003 0 0 0 0 -83.077563434375406 5.1713226298316357 0 5.1713226298316357 7.5546751424834042 0 0 0 0 -43.224171974323326 6.2699591658025895 0 6.2699591658025895 2.5859523286596584 0 0 0 0 -67.092545959159906 19.899690218692143 0 19.899690218692143 17.102491482067649 0 0 0 0 -42.822486811453018 3.5440665633324784 0 3.5440665633324784 27.953650119730526 0 0 0 0 -87.254052779626363 -28.441262696929897 0 -28.441262696929897 16.741328395927383 0 0 0 0 -93.65564949736563 -25.826054256910965 0 -25.826054256910965 21.954639003750401 0 0 0 0 -65.636894971110451 -8.3383056127836142 0 -8.3383056127836142 17.94596991702446 0 0 0 0 -163.56086319225324 -68.871870752494928 0 -68.871870752494928 15.812183883808686 0 0 0 0 -195.07952139028475 -31.954554021901167 0 -31.954554021901167 29.043258631171312 0 0 0 0 -178.76813019923793 -76.526993351617008 0 -76.526993351617008 39.480611980347874 0 0 0 0 -173.05585035855256 -89.82472655756608 0 -89.82472655756608 37.175924454812318 0 0 0 0 -132.80716557340565 -87.653883020502718 0 -87.653883020502718 -6.2996990151563637 0 0 0 0 -134.38969052283755 -42.802147912638176 0 -42.802147912638176 22.732303239106031 0 0 0 0 -78.233949949833914 -48.24946041621299 0 -48.24946041621299 -9.8903927894965875 0 0 0 0 -38.563196153087119 -12.607027509709148 0 -12.607027509709148 -3.2543987318834411 0 0 0 0 -145.13316625199695 -87.893274180546456 0 -87.893274180546456 -1.3275723736692555 0 0 0 0 -73.295481959177778 -56.999568979682358 0 -56.999568979682358 -37.830152319824492 0 0 0 0 -44.566283726366237 -3.3469308709347843 0 -3.3469308709347843 -26.998065620336376 0 0 0 0 -107.65024551944225 -73.110353194729939 0 -73.110353194729939 -39.255765686132399 0 0 0 0 -75.131281872005275 -75.875314884760243 0 -75.875314884760243 -76.902434646275282 0 0 0 0 -37.950531134161793 -47.165926835867651 0 -47.165926835867651 -76.73951884800185 0 0 0 0 -29.429349520237551 4.5509264149451072 0 4.5509264149451072 5.1832444010285661 0 0 0 0 -78.148342821398728 -54.913904061642413 0 -54.913904061642413 -25.551133129401627 0 0 0 0 -65.545891639108959 -21.853891731715223 0 -21.853891731715223 -9.1510122549513113 0 0 0 0 -28.021527223160255 4.3520706552702437 0 4.3520706552702437 3.9724697742993298 0 0 0 0 -53.094184172940004 9.9795646786642465 0 9.9795646786642465 40.327002947294204 0 0 0 0 -29.67310896413619 -4.0511744782593837 0 -4.0511744782593837 -20.914227289366409 0 0 0 0 -26.878501202119992 3.3385320613406098 0 3.3385320613406098 4.8450451064770208 0 0 0 0 -25.557935309139566 33.017532855905586 0 33.017532855905586 35.531010043215787 0 0 0 0 -44.80979894618963 -18.733636732754839 0 -18.733636732754839 18.383706077185877 0 0 0 0 -57.440501941066032 5.3546839357279765 0 5.3546839357279765 28.608497134887017 0 0 0 0 -24.769973417589426 -11.472279179655516 0 -11.472279179655516 -22.75899779814381 0 0 0 0 -4.7080996453406172 -0.38115334428076864 0 -0.38115334428076864 -1.3044929402498857 0 0 0 0 -32.362317458082543 -26.218760713013125 0 -26.218760713013125 -15.764946967622905 0 0 0 0 -33.266261395317997 -24.630599974262964 0 -24.630599974262964 -18.239953511685599 0 0 0 0 -34.520202319479722 13.352408406173708 0 13.352408406173708 8.2058232703484748 0 0 0 0 -67.171970723047707 -32.787714702709081 0 -32.787714702709081 7.7070542251972682 0 0 0 0 -0.61694449863831835 0.82335030282206034 0 0.82335030282206034 0.094209893340926776 0 0 0 0 -35.933957098936389 -26.433198300811597 0 -26.433198300811597 -6.1349121701980494 0 0 0 0 -35.610361831202681 -27.377096097040067 0 -27.377096097040067 -6.2356060071915635 0 0 0 0 -35.056760482137179 -25.497789185491285 0 -25.497789185491285 -13.935121380593955 0 0 0 0 -23.189396835154184 -22.267538608452696 0 -22.267538608452696 -7.7884233498884896 0 0 0 0 -37.342224806216564 -16.213680345961336 0 -16.213680345961336 -10.068107641065126 0 0 0 0 -32.705178635707853 -31.172609320299671 0 -31.172609320299671 -15.8976807599106 0 0 0 0 -30.158678057159705 -8.8229779842290554 0 -8.8229779842290554 9.7616046349628505 0 0 0 0 1.0454708231845871 -15.582620571577081 0 -15.582620571577081 -24.324749958373104 0 0 0 0 -29.477254647570589 7.0035417784839638 0 7.0035417784839638 -56.569838160537984 0 0 0 0 -24.411139959476714 -4.8588472215227512 0 -4.8588472215227512 -28.842072579071555 0 0 0 0 -25.80577151313264 -16.519195492530343 0 -16.519195492530343 -42.643903581907352 0 0 0 0 -58.645068069203262 -23.518828832807912 0 -23.518828832807912 -12.396831208173808 0 0 0 0 -39.976962330378228 -34.259657715512049 0 -34.259657715512049 -30.946045265080556 0 0 0 0 -30.330259817284968 2.8579282565128779 0 2.8579282565128779 -10.922415817213732 0 0 0 0 -69.9199802201274 5.9643467354355835 0 5.9643467354355835 4.5987978910379752 0 0 0 0 -7.4385229033245892 1.3327546341747123 0 1.3327546341747123 0.85458659091896738 0 0 0 0 -19.438136785873212 -6.9780452911777502 0 -6.9780452911777502 -15.577910737472394 0 0 0 0 -52.040915534627857 -30.234973071936565 0 -30.234973071936565 -31.631725179914838 0 0 0 0 -31.413975018143901 23.342124204945549 0 23.342124204945549 2.1708757734973005 0 0 0 0 -21.649945306499831 12.320890927938422 0 12.320890927938422 -2.5443948868705775 0 0 0 0 -26.024602837641879 6.7669613777168411 0 6.7669613777168411 0.53200905968659296 0 0 0 0 -41.60683674174652 18.062771922521279 0 18.062771922521279 8.4972196232806709 0 0 0 0 -45.786451149931963 23.270129206956199 0 23.270129206956199 2.4078054931107431 0 0 0 0 -7.0987252839481636 1.6498324798850756 0 1.6498324798850756 6.49400916130549 0 0 0 0 -28.251767324729371 -21.286210055718811 0 -21.286210055718811 19.192216940809885 0 0 0 0 -12.482424564774192 18.134471381434736 0 18.134471381434736 6.5282555579251209 0 0 0 0 -23.132526673022269 4.0509688089579035 0 4.0509688089579035 5.4799487644896514 0 0 0 0 -8.1088761826567861 19.653805766563408 0 19.653805766563408 7.0191569733760275 0 0 0 0 -29.190238998597273 -0.51440340416262487 0 -0.51440340416262487 3.6677737549173779 0 0 0 0 -11.418172457787477 35.452361773534477 0 35.452361773534477 28.633113330347101 0 0 0 0 -47.555065293327061 -21.81938181043779 0 -21.81938181043779 0.14187107974612445 0 0 0 0 -6.7327865773586382 15.706987265920986 0 15.706987265920986 8.994766658074866 0 0 0 0 -47.865645233023315 18.291415632119538 0 18.291415632119538 11.186817847879155 0 0 0 0 -11.696767237801396 18.893482519712137 0 18.893482519712137 -8.7831976656454458 0 0 0 0 -44.035820921152208 28.161088544696483 0 28.161088544696483 -9.3864724539871531 0 0 0 0 -75.507679531654503 12.209297417530252 0 12.209297417530252 51.480312780932763 0 0 0 0 -94.761881605762028 66.186952393762567 0 66.186952393762567 23.361355670356943 0 0 0 0 -75.706249464863049 90.916364232892761 0 90.916364232892761 -32.329901817744485 0 0 0 0 -7.6187505650163985 -0.77648662857006912 0 -0.77648662857006912 75.399409686964191 0 0 0 0 -1.545326558326197 -0.32524168431519307 0 -0.32524168431519307 4.5612228134494384 0 0 0 0 -3.4802953822163545 4.0506286822516984 0 4.0506286822516984 -24.42028693748658 0 0 0 0 -2.877833573060343 7.7040265156401802 0 7.7040265156401802 6.650737926585407 0 0 0 0 10.061281615484859 -35.512513520909181 0 -35.512513520909181 -26.087525810729403 0 0 0 0 3.1068951644219851 12.963955111957148 0 12.963955111957148 -0.66064886439858128 0 0 0 0 8.1489179005334336 5.0524676527958832 0 5.0524676527958832 4.0876944192370956 0 0 0 0 -3.9228600472097241 4.9371024246966613 0 4.9371024246966613 -0.52380810563022351 0 0 0 0 2.3113397074107525 10.614209642987419 0 10.614209642987419 -7.5834888994438643 0 0 0 0 30.505621670129585 21.345533530893249 0 21.345533530893249 -3.9299264513190337 0 0 0 0 -86.191051066110276 3.9968485752731908 0 3.9968485752731908 -15.080574855259783 0 0 0 0 -72.607002293344863 16.131993130292397 0 16.131993130292397 5.2769944899600887 0 0 0 0 -73.226332019403344 -8.8953759198207081 0 -8.8953759198207081 -2.4267205999243942 0 0 0 0 -86.194164329619525 -5.1776358386777019 0 -5.1776358386777019 -30.129631390626457 0 0 0 0 -84.692262602739675 24.420638851077975 0 24.420638851077975 -44.613428470207964 0 0 0 0 -88.675016868114653 -11.041050613061316 0 -11.041050613061316 -18.040238814777751 0 0 0 0 -89.904146307906444 -15.567907524205197 0 -15.567907524205197 -6.7493726151606097 0 0 0 0 -0.080430206263083073 -0.93691665500438326 0 -0.93691665500438326 -3.90274578105873 0 0 0 0 -162.25077241214785 -27.040841189977982 0 -27.040841189977982 9.4359846481065688 0 0 0 0 -82.171965462193839 -4.0480291124604264 0 -4.0480291124604264 -11.929064721017312 0 0 0 0 -50.226232020617317 -2.8482763393310506 0 -2.8482763393310506 -20.535127036991071 0 0 0 0 -77.466138678651077 -11.452445673148645 0 -11.452445673148645 -1.5902555229563404 0 0 0 0 -64.892118359446613 7.3404486101521798 0 7.3404486101521798 -1.0668715278150671 0 0 0 0 -59.323644109354063 -0.49659147308545926 0 -0.49659147308545926 8.2752551752273575 0 0 0 0 -46.164844111141747 17.894877178096451 0 17.894877178096451 -0.17352275621760782 0 0 0 0 -33.955334759393736 11.124639589272192 0 11.124639589272192 -3.8847880688528704 0 0 0 0 -35.045732920730188 10.402932941037989 0 10.402932941037989 -10.829214284776072 0 0 0 0 -23.468538477958646 31.316978152209629 0 31.316978152209629 -3.2899894761258111 0 0 0 0 -52.063172124529956 16.72417609039303 0 16.72417609039303 -7.8798263377293551 0 0 0 0 -0.13183918554957469 -0.51602094538652032 0 -0.51602094538652032 -1.2189263602098137 0 0 0 0 -65.897256904931169 -75.896462369419496 0 -75.896462369419496 -48.297687652645891 0 0 0 0 66.17547827483213 -42.64210287647802 0 -42.64210287647802 -86.817070065932967 0 0 0 0 121.75496510899393 -3.9483879536987843 0 -3.9483879536987843 -71.579460834258043 0 0 0 0 -144.94577339350508 -163.30203159246412 0 -163.30203159246412 -89.163850607992572 0 0 0 0 0.10604353662775168 -0.24125463147921877 0 -0.24125463147921877 -0.22047449656729601 0 0 0 0 -33.090634675189904 15.765640324394099 0 15.765640324394099 10.152387535825255 0 0 0 0 44.974681479778155 69.347459143099513 0 69.347459143099513 41.148351148463917 0 0 0 0 -6.191326436939864 2.7413644619049364 0 2.7413644619049364 0.52801368978088092 0 0 0 0 -44.458838542804983 5.1688141668415 0 5.1688141668415 -2.5233712796671171 0 0 0 0 -45.883193732634027 29.806763425487588 0 29.806763425487588 -46.239562752049551 0 0 0 0 -24.87360744781472 12.692304589558944 0 12.692304589558944 74.469114768969121 0 0 0 0 -24.566732366205542 7.8827068876639714 0 7.8827068876639714 33.766669790249125 0 0 0 0 -14.625419452664573 39.579232043160573 0 39.579232043160573 9.9290770313045869 0 0 0 0 -11.777983684049104 20.679344591894505 0 20.679344591894505 11.118488489299693 0 0 0 0 -18.620986395205023 7.7942338950496861 0 7.7942338950496861 -4.9380723873519878 0 0 0 0 -27.38612587910302 15.888444057386891 0 15.888444057386891 11.082885449284731 0 0 0 0 -31.234532076518008 15.666126263237487 0 15.666126263237487 7.2891812116480992 0 0 0 0 -18.139687271536488 9.7373927906029678 0 9.7373927906029678 -3.3786006929513532 0 0 0 0 -3.3499753854513994 2.9391633955282117 0 2.9391633955282117 3.169146721949736 0 0 0 0 5.0752675409112271 20.444415531095387 0 20.444415531095387 0.27838484316589529 0 0 0 0 -10.881367039573888 18.066521013299109 0 18.066521013299109 1.5138858273310234 0 0 0 0 -22.628814084666374 28.540773145943376 0 28.540773145943376 5.4334003650376417 0 0 0 0 -3.4706991053085403 30.191253578762144 0 30.191253578762144 13.615338292932847 0 0 0 0 -28.206845720053934 29.759055241695364 0 29.759055241695364 17.186157297221598 0 0 0 0 -8.5072075306125043 7.4943047370996965 0 7.4943047370996965 -0.86773439577507361 0 0 0 0 -8.4291152172318107 -3.8259146589427928 0 -3.8259146589427928 50.262293083500822 0 0 0 0 -7.0091604443678079 22.055634554762719 0 22.055634554762719 -2.2638051833583859 0 0 0 0 -5.1428765584541907 -59.709217231049251 0 -59.709217231049251 -88.670661755237916 0 0 0 0 -229.72882884473438 173.56268529654494 0 173.56268529654494 -20.133208698053522 0 0 0 0 -50.14661333755339 92.889108366673952 0 92.889108366673952 -52.222683091120416 0 0 0 0 -61.616641350428836 117.74058173944974 0 117.74058173944974 -55.905226661438064 0 0 0 0 0.42644265088760491 -0.24987619811739314 0 -0.24987619811739314 1.1252273605130054 0 0 0 0 123.3525766855746 -31.254899212793248 0 -31.254899212793248 -64.061906407221159 0 0 0 0 130.82460223239377 67.596410738797999 0 67.596410738797999 -141.12455482561381 0 0 0 0 -14.866993628547789 19.373397374323076 0 19.373397374323076 -40.61404018443136 0 0 0 0 -36.428649168590709 18.693512604413343 0 18.693512604413343 -55.54906124781337 0 0 0 0 -43.78811812762433 41.806773253726988 0 41.806773253726988 -57.841242167570414 0 0 0 0 -91.052633248185884 21.923873486488105 0 21.923873486488105 -26.940674348114953 0 0 0 0 -43.477518180516199 43.249796111860178 0 43.249796111860178 -69.836997831528151 0 0 0 0 -43.617888702483469 6.5757107429099051 0 6.5757107429099051 -22.194546946234937 0 0 0 0 -43.924355729897798 34.580650251027691 0 34.580650251027691 -36.194221503259314 0 0 0 0 -34.828020036136877 10.290100852868704 0 10.290100852868704 -6.5869420570525108 0 0 0 0 -36.674168311613585 21.610962235999509 0 21.610962235999509 7.5167177012763204 0 0 0 0 24.219922509613752 -18.268104772781385 0 -18.268104772781385 -1.6334799672613372 0 0 0 0 -85.493944329571605 162.48862930772907 0 162.48862930772907 -158.13915390572879 0 0 0 0 -90.372558307315558 88.599020234156455 0 88.599020234156455 -169.87349361804741 0 0 0 0 -245.2676752693169 19.947966763841237 0 19.947966763841237 -5.020621890375196 0 0 0 0 0.020321387729040907 0.12701760600205425 0 0.12701760600205425 -1.6596359296358332 0 0 0 0 273.31509427152923 55.575988542079131 0 55.575988542079131 -185.83462752509274 0 0 0 0 -351.95813876711691 55.770956469915404 0 55.770956469915404 48.710494585894594 0 0 0 0 -115.63309391521761 221.23357914981784 0 221.23357914981784 -262.79997089404213 0 0 0 0 95.683293645784943 -33.412718413017274 0 -33.412718413017274 -152.83791331619881 0 0 0 0 -70.189817010144907 76.078442940302409 0 76.078442940302409 -98.627130007297978 0 0 0 0 -14.034806265479595 9.113730515734316 0 9.113730515734316 -3.9794568988140044 0 0 0 0 -55.214773737425276 42.296225022485942 0 42.296225022485942 80.067538690198035 0 0 0 0 -70.726498107280349 71.266567183816619 0 71.266567183816619 23.864416098420634 0 0 0 0 -5.3873777422655245 3.3805369315366178 0 3.3805369315366178 1.1450123801618164 0 0 0 0 80.724441128120816 3.5698871040665665 0 3.5698871040665665 -53.436230640055442 0 0 0 0 -24.324836180928287 4.3831590367599347 0 4.3831590367599347 -1.5751451888839938 0 0 0 0 -77.166041009557375 5.7470527700496064 0 5.7470527700496064 39.410179579190299 0 0 0 0 -77.195526766889088 8.0437912701124219 0 8.0437912701124219 -112.72758134470928 0 0 0 0 -256.43605509597546 -75.50160198855616 0 -75.50160198855616 -91.979188115038141 0 0 0 0 -214.81733084684311 -77.678288113497388 0 -77.678288113497388 -17.030077516232097 0 0 0 0 -238.41120813717134 2.1467762124833598 0 2.1467762124833598 -139.37696195221309 0 0 0 0 -45.146823726076036 5.7614448744690208 0 5.7614448744690208 -62.879980893421134 0 0 0 0 -36.814257209418429 -61.116775915456515 0 -61.116775915456515 -80.30410433348959 0 0 0 0 -182.77705560650793 -28.769096740620512 0 -28.769096740620512 -53.026871847983784 0 0 0 0 -161.58811128719481 -89.243789467162117 0 -89.243789467162117 17.287150345818645 0 0 0 0 -295.85667922890389 -29.440929440360634 0 -29.440929440360634 -11.922518970398869 0 0 0 0 -57.963576022977577 -13.266605654166767 0 -13.266605654166767 -32.509066308334695 0 0 0 0 -85.889653488895419 -48.927769014728483 0 -48.927769014728483 -67.824447824161325 0 0 0 0 -59.690334802944562 -16.494609661594154 0 -16.494609661594154 -28.334453513194148 0 0 0 0 38.397209679016669 -108.67945983881242 0 -108.67945983881242 -53.779849801428441 0 0 0 0 -20.012403140743118 11.938719216421248 0 11.938719216421248 -13.238585375834532 0 0 0 0 -0.049581811064147274 -0.0095117338006467378 0 -0.0095117338006467378 0.75927291896008398 0 0 0 0 -9.9464496061473255 15.373957600951599 0 15.373957600951599 -14.899546263909883 0 0 0 0 -9.95270920072835 14.412667562328124 0 14.412667562328124 -10.669036221656313 0 0 0 0 -8.0917188869674987 -2.4990471553593743 0 -2.4990471553593743 -4.2683780142193708 0 0 0 0 -25.139614389386225 -18.323525596973525 0 -18.323525596973525 -14.535016148660361 0 0 0 0 -74.906416959918715 8.5923165749259169 0 8.5923165749259169 -15.292876823537028 0 0 0 0 -28.051283951548612 28.430403892742788 0 28.430403892742788 -18.735631604337186 0 0 0 0 -1.1560481373909255 -1.7410608713710971 0 -1.7410608713710971 -1.4356153437873687 0 0 0 0 -97.948114741961035 -17.638837148522043 0 -17.638837148522043 -33.377647011497174 0 0 0 0 106.57556384109921 67.17384401541085 0 67.17384401541085 -128.61875173319277 0 0 0 0 -14.31162884954756 4.189482211341101 0 4.189482211341101 -32.260993405775935 0 0 0 0 -22.413763673945141 15.753966395950329 0 15.753966395950329 -35.570935921246701 0 0 0 0 0.60584978308257575 -0.85680513751402643 0 -0.85680513751402643 1.0111397771649751 0 0 0 0 3.0112042538548849 9.5511981191523319 0 9.5511981191523319 -34.844495292656831 0 0 0 0 5.4553785994689861 -43.793871509286035 0 -43.793871509286035 -51.876095356382393 0 0 0 0 -51.189427678644051 -63.658827847805952 0 -63.658827847805952 -15.305308628646344 0 0 0 0 -2.2049854231981953 -213.64823597557182 0 -213.64823597557182 -210.49444453816341 0 0 0 0 -46.249633188948792 -42.958054712351668 0 -42.958054712351668 0.79021580635929922 0 0 0 0 -125.44142391910464 59.252171072570377 0 59.252171072570377 -143.88885838403439 0 0 0 0 -252.7360180718897 -84.334292470184437 0 -84.334292470184437 -3.9486409457387026 0 0 0 0 -88.576970495301794 -13.718052687273484 0 -13.718052687273484 -0.72911707108937662 0 0 0 0 -23.467151513534191 38.445314634024953 0 38.445314634024953 -14.910638772448806 0 0 0 0 104.25024256876895 35.64494494647829 0 35.64494494647829 -22.457133411195173 0 0 0 0 -68.668789600171294 43.218769662376644 0 43.218769662376644 -3.5790219596793804 0 0 0 0 -109.84228185890424 -3.3785531942384637 0 -3.3785531942384637 -54.897190616888111 0 0 0 0 -31.525830431472968 -14.370880159961928 0 -14.370880159961928 -109.85823162523093 0 0 0 0 -121.63018310537518 -3.4930443713744808 0 -3.4930443713744808 -52.648935260500821 0 0 0 0 -112.31022565824242 -56.374592211607933 0 -56.374592211607933 -64.28123371979791 0 0 0 0 -72.531613717197615 -49.199061608506099 0 -49.199061608506099 -75.539788910286916 0 0 0 0 -73.142087953703594 -42.045841446549503 0 -42.045841446549503 -71.287873623351288 0 0 0 0 -103.30640909321619 -86.112275314284389 0 -86.112275314284389 -129.44261661790551 0 0 0 0 -1.5857689943186415 43.67357612277965 0 43.67357612277965 70.387155692118426 0 0 0 0 -223.66367359121796 -34.091215250023424 0 -34.091215250023424 33.529070241402017 0 0 0 0 -268.04623350171823 -48.471939926491132 0 -48.471939926491132 33.006294355390338 0 0 0 0 49.783421177817218 121.58684347315409 0 121.58684347315409 106.62116916529931 0 0 0 0 -24.640791326883118 8.1790717297241144 0 8.1790717297241144 111.5125706553813 0 0 0 0 -3.7978576215985385 2.8083757213992513 0 2.8083757213992513 -1.0713073029994202 0 0 0 0 4.6928513446800935 14.184851251812006 0 14.184851251812006 48.933781712925111 0 0 0 0 -21.986516571410903 27.913363948942788 0 27.913363948942788 59.168574057567184 0 0 0 0 -98.719561083724329 -29.142122105178942 0 -29.142122105178942 56.941202335382968 0 0 0 0 -49.334676819707965 -5.4632359316234442 0 -5.4632359316234442 57.197045222396355 0 0 0 0 -27.789726910310492 -10.984569122845414 0 -10.984569122845414 -3.4578871072684478 0 0 0 0 -2.4010798673207319 7.3872896322632187 0 7.3872896322632187 13.277211426358463 0 0 0 0 -40.423504308403608 -11.256657055248695 0 -11.256657055248695 26.883075609747266 0 0 0 0 -0.023719742786852294 22.115625828780367 0 22.115625828780367 34.35172672492854 0 0 0 0 -3.8193346734392364 5.1139513424735075 0 5.1139513424735075 -0.22283032636886996 0 0 0 0 -17.009367059366923 16.863779423201322 0 16.863779423201322 49.955121751324441 0 0 0 0 -3.3999860158328374 5.0238302520298532 0 5.0238302520298532 8.469658992578843 0 0 0 0 -35.306616247051352 -8.2690804157158482 0 -8.2690804157158482 -2.9368504115589076 0 0 0 0 -2.0847593165644867 7.8227852423609221 0 7.8227852423609221 11.320989020137631 0 0 0 0 -7.170435211176958 2.079522706561427 0 2.079522706561427 5.3684817058990051 0 0 0 0 -32.19536578678526 -28.567706424514881 0 -28.567706424514881 -33.412436663522385 0 0 0 0 -77.114277248427243 -75.887707189154298 0 -75.887707189154298 -64.825254323250419 0 0 0 0 -2.0171976835064527 1.1106343038070423 0 1.1106343038070423 0.59614135281381797 0 0 0 0 -36.793904927815674 43.563980979989992 0 43.563980979989992 -36.96773395331661 0 0 0 0 -5.5273299525255624 3.6448502160713723 0 3.6448502160713723 -0.39878568977884488 0 0 0 0 -135.75444402068024 -100.3856681274624 0 -100.3856681274624 -74.85932608670015 0 0 0 0 -240.53054710144352 -56.985955918220725 0 -56.985955918220725 0.072553802171114512 0 0 0 0 -159.30903185736315 -20.694970259061847 0 -20.694970259061847 16.15664418614665 0 0 0 0 -109.86598621953453 -14.804227973570733 0 -14.804227973570733 19.862734969771509 0 0 0 0 -136.69741886916006 -26.000254314445833 0 -26.000254314445833 17.300235763374531 0 0 0 0 -110.32681497403473 -40.493425885418347 0 -40.493425885418347 -2.9143646600809916 0 0 0 0 -60.980075077366564 -22.945406202565323 0 -22.945406202565323 0.25501565897661749 0 0 0 0 -96.709903508361094 -5.8859900629838648 0 -5.8859900629838648 3.0367511027884575 0 0 0 0 -106.25319765597669 -9.5807415253937052 0 -9.5807415253937052 17.868231814176738 0 0 0 0 -103.93845856273856 23.581488903001741 0 23.581488903001741 -13.058146168276608 0 0 0 0 -57.070018988242737 4.8843714997941561 0 4.8843714997941561 -12.888446576768274 0 0 0 0 -72.593483760658273 -5.8016876733865956 0 -5.8016876733865956 2.7028738916384043 0 0 0 0 -34.92196350344966 -15.430848825648241 0 -15.430848825648241 -8.4672274086648542 0 0 0 0 -75.757823081537936 21.469225164432828 0 21.469225164432828 17.501522232626257 0 0 0 0 -111.11778614922878 -22.816080853602671 0 -22.816080853602671 -25.286646917917778 0 0 0 0 -25.357767528832483 -11.656212765291002 0 -11.656212765291002 -7.812736863606915 0 0 0 0 -34.816590435772014 -17.43404890204431 0 -17.43404890204431 -12.457463451930607 0 0 0 0 -26.377640708766194 -17.610783820027905 0 -17.610783820027905 -14.165771836799081 0 0 0 0 -34.059920881032667 -15.682819521686696 0 -15.682819521686696 -8.866493190631445 0 0 0 0 -34.29256076612819 -19.717015679587234 0 -19.717015679587234 -12.794011201644935 0 0 0 0 -37.386276890032605 -13.235198127723606 0 -13.235198127723606 -13.830527042498545 0 0 0 0 -60.292618765537554 -20.217001916336471 0 -20.217001916336471 -9.8598751373754112 0 0 0 0 -28.3883275489261 -26.129530354391051 0 -26.129530354391051 -24.26852855426705 0 0 0 0 -6.7469509767434204 2.4102747077148514 0 2.4102747077148514 4.4753355493074674 0 0 0 0 -23.327818242492413 -9.0500289763383819 0 -9.0500289763383819 -15.705190510407874 0 0 0 0 -0.8217626231325994 5.8474018491781408 0 5.8474018491781408 8.5210830163645142 0 0 0 0 -1.1605760220554657 3.4365152997812061 0 3.4365152997812061 6.9936571919735115 0 0 0 0 -0.16059714460851637 3.4269574394257574 0 3.4269574394257574 6.2502693912109066 0 0 0 0 -0.084753704330466917 0.39768063297046785 0 0.39768063297046785 -1.7190803121778799 0 0 0 0 3.7580165775998466 11.543424656980676 0 11.543424656980676 4.4721872641661307 0 0 0 0 -7.2141873628794855 2.7012335861789545 0 2.7012335861789545 4.4130431475338643 0 0 0 0 -26.651855205687752 -20.495798386058311 0 -20.495798386058311 -17.624968313550653 0 0 0 0 -0.045635621390829328 0.8370260221815311 0 0.8370260221815311 3.9277327385070464 0 0 0 0 -31.971634958144932 -25.801083470121682 0 -25.801083470121682 -14.814843792871443 0 0 0 0 -7.6619078857653733 2.9257017338247699 0 2.9257017338247699 4.3354490664228313 0 0 0 0 -26.433042068023497 -11.917691861438243 0 -11.917691861438243 -10.435428149634163 0 0 0 0 -10.919052901701434 -0.64169338613430682 0 -0.64169338613430682 5.9722405067819153 0 0 0 0 6.0121317578323215 16.103139928598289 0 16.103139928598289 4.21475846373077 0 0 0 0 -22.028427776658646 6.4902738649325471 0 6.4902738649325471 3.3509157843093647 0 0 0 0 -29.871316648866923 -8.2815749916633479 0 -8.2815749916633479 0.2406655106865685 0 0 0 0 -11.892070615205739 3.8144995309399405 0 3.8144995309399405 -5.0823942405556863 0 0 0 0 -13.386962491627855 5.6544685537509736 0 5.6544685537509736 4.4770337913212188 0 0 0 0 -9.3282093936759338 7.4466770961449242 0 7.4466770961449242 -6.0841151096093427 0 0 0 0 -10.498737782250828 -2.0197569867688685 0 -2.0197569867688685 6.4732578039876216 0 0 0 0 -39.846272085478631 1.0192532352162971 0 1.0192532352162971 3.7608232227671579 0 0 0 0 -39.349285130946555 -0.78758712771725214 0 -0.78758712771725214 5.1035008799545949 0 0 0 0 -14.220879660500941 -9.5138591817678559 0 -9.5138591817678559 4.6552457343657352 0 0 0 0 -40.467921337096413 41.601317218250998 0 41.601317218250998 11.136174977999076 0 0 0 0 -0.72575258622129013 -0.12505649897661542 0 -0.12505649897661542 0.048877746860981786 0 0 0 0 -67.85431444331698 -79.339320075356625 0 -79.339320075356625 -77.981626341982178 0 0 0 0 -21.565362963450752 -21.77523140058355 0 -21.77523140058355 -19.078133569709053 0 0 0 0 -19.436040147696986 -25.617633063334665 0 -25.617633063334665 -12.163837190328422 0 0 0 0 -6.9574237227789126 -19.967539437449204 0 -19.967539437449204 -17.41153292852664 0 0 0 0 -13.258388830690819 1.4742553267429912 0 1.4742553267429912 34.466878872555867 0 0 0 0 -2.0524464670733877 -1.0996594646224653 0 -1.0996594646224653 1.9976389709230797 0 0 0 0 -3.9874789881996549 -2.901128086499142 0 -2.901128086499142 5.8503059460050508 0 0 0 0 -5.5089184300331908 -0.42363967768898192 0 -0.42363967768898192 16.835362887191764 0 0 0 0 -5.6337494593335578 1.7408587296375799 0 1.7408587296375799 8.1090654463357907 0 0 0 0 -3.5893099415079632 4.3380703365462523 0 4.3380703365462523 10.72449532947735 0 0 0 0 -5.9751936382191317 3.775191096415516 0 3.775191096415516 -0.6823805316430982 0 0 0 0 -21.353305705404637 -3.6931101709265022 0 -3.6931101709265022 52.883775882197824 0 0 0 0 -11.337741699670005 10.060825442476016 0 10.060825442476016 5.9069727755108943 0 0 0 0 2.5813193619500865 -4.2389604002240659 0 -4.2389604002240659 5.3324912516402447 0 0 0 0 -10.041563567203411 -7.1363795911680654 0 -7.1363795911680654 -1.0852808734073278 0 0 0 0 -17.735752562726702 -18.834907821900288 0 -18.834907821900288 19.448933722403211 0 0 0 0 -7.5645338401276945 3.8761563627065305 0 3.8761563627065305 -0.24709448626774944 0 0 0 0 -22.299279827124337 -21.008336928962422 0 -21.008336928962422 4.9328010029554434 0 0 0 0 -32.539394468545652 -42.324716484352052 0 -42.324716484352052 -8.5978898580819987 0 0 0 0 -6.7814701723309554 4.1260466037001606 0 4.1260466037001606 6.049023200929696 0 0 0 0 1.9785780628708451 -2.4879706806351241 0 -2.4879706806351241 3.0714581115200321 0 0 0 0 -7.9163273515846413 -19.122035142654454 0 -19.122035142654454 -2.9931957830458487 0 0 0 0 -30.638179726975068 -17.055696176638321 0 -17.055696176638321 2.5144653117843063 0 0 0 0 -34.593315072424957 -25.276524638217438 0 -25.276524638217438 0.65139000941348968 0 0 0 0 -28.956019733752328 -27.228070116242861 0 -27.228070116242861 -6.3315321307809143 0 0 0 0 -36.203737886005911 -30.690875689706957 0 -30.690875689706957 0.3052211693911886 0 0 0 0 -44.310941736757741 -21.894772359282456 0 -21.894772359282456 -7.334651462364036 0 0 0 0 -24.68155514092723 -35.657318610719472 0 -35.657318610719472 -22.936629054206492 0 0 0 0 -58.680002081885505 -38.316999108214304 0 -38.316999108214304 -2.2822719246573797 0 0 0 0 -28.566150749837107 -24.071430740853202 0 -24.071430740853202 -2.548743535773383 0 0 0 0 -19.77639850756259 -23.697838188585365 0 -23.697838188585365 -7.241152311899441 0 0 0 0 -57.470308668340294 -5.507950834781127 0 -5.507950834781127 -14.501210473754895 0 0 0 0 -69.888971397096611 -7.241024687874571 0 -7.241024687874571 12.774736158490441 0 0 0 0 -0.69505842373635573 0.25782004778524836 0 0.25782004778524836 0.3171106824513874 0 0 0 0 -125.45706954594971 -43.613123987463666 0 -43.613123987463666 12.788887303885986 0 0 0 0 -29.29785280456781 -3.4835212846562627 0 -3.4835212846562627 5.4476040050640222 0 0 0 0 -27.216875383714068 -2.0214808877756241 0 -2.0214808877756241 -0.90876571424048791 0 0 0 0 -14.018537887162893 30.582275679346481 0 30.582275679346481 2.7586107765262113 0 0 0 0 -20.897243854921726 32.377930481154181 0 32.377930481154181 35.275168263563955 0 0 0 0 -10.677873460328556 6.5219131492576707 0 6.5219131492576707 26.225446828916461 0 0 0 0 34.290185700622715 -21.358062078236294 0 -21.358062078236294 -69.819325098029168 0 0 0 0 -9.6813494728927623 0.36141388197463797 0 0.36141388197463797 2.1266081314675649 0 0 0 0 2.6141105580099975 7.8710659753958225 0 7.8710659753958225 16.976929963033172 0 0 0 0 -5.5105184735672736 -4.7019486215596977 0 -4.7019486215596977 10.488157620810362 0 0 0 0 10.846933841644386 26.41318374232057 0 26.41318374232057 13.077835074176164 0 0 0 0 -12.003636331026428 20.51464035982184 0 20.51464035982184 12.194054099704999 0 0 0 0 -11.533870738836413 6.0335845665475745 0 6.0335845665475745 2.0678734931516374 0 0 0 0 -13.102819723412267 19.803861413773802 0 19.803861413773802 27.797736519770524 0 0 0 0 -61.838899879281598 4.4627345987545368 0 4.4627345987545368 18.27705197809621 0 0 0 0 -27.749056690383441 12.700689115441833 0 12.700689115441833 25.117244577815313 0 0 0 0 -22.922526700260278 -5.3564509068183384 0 -5.3564509068183384 -7.4822159501904935 0 0 0 0 -55.472297541182343 -9.0044694672395735 0 -9.0044694672395735 8.3130413299594252 0 0 0 0 -26.572210628015455 -11.176500120855621 0 -11.176500120855621 29.524476879801 0 0 0 0 -9.7611823931488289 35.286015863091194 0 35.286015863091194 26.812255919512495 0 0 0 0 -47.326629608155599 9.4384868194718123 0 9.4384868194718123 35.106317159104606 0 0 0 0 -35.740011772917569 -23.219575119613268 0 -23.219575119613268 5.1925737499997808 0 0 0 0 -56.101407938373086 -30.241411229269261 0 -30.241411229269261 7.1752341907158552 0 0 0 0 -62.677168488185998 -42.93225663678129 0 -42.93225663678129 -5.9004487850477787 0 0 0 0 -71.449175171635943 -30.535507116747681 0 -30.535507116747681 -7.5041897724581759 0 0 0 0 -61.745275383007538 -21.893660715749775 0 -21.893660715749775 -3.7893518292735564 0 0 0 0 -55.70412904061169 -17.775543956749104 0 -17.775543956749104 -23.971038049364779 0 0 0 0 -96.692205501127319 -7.5867227387647063 0 -7.5867227387647063 4.7571642311626192 0 0 0 0 -94.971287127740652 -22.819841793045384 0 -22.819841793045384 3.2127907918156779 0 0 0 0 -146.80155619551442 -8.308182332019328 0 -8.308182332019328 -0.12936076666903773 0 0 0 0 -75.307966474510977 -16.758742185711213 0 -16.758742185711213 -55.705279528652454 0 0 0 0 -93.141658890657709 -53.533844697856694 0 -53.533844697856694 -14.574354899725904 0 0 0 0 -116.492594389847 -9.2555517875570104 0 -9.2555517875570104 19.581689821403074 0 0 0 0 -75.796577181194152 -35.53720097940942 0 -35.53720097940942 4.0648522690329969 0 0 0 0 -72.021597949991701 -44.12240155510527 0 -44.12240155510527 0.79957544206206421 0 0 0 0 -60.512476309510021 -35.249389888261611 0 -35.249389888261611 -10.596691694927301 0 0 0 0 -61.308338329461549 -12.935400290684669 0 -12.935400290684669 4.4248660369365211 0 0 0 0 -58.852941945564453 -30.4164662585912 0 -30.4164662585912 -3.2437924393696989 0 0 0 0 -30.666151943332807 -6.2626452044455192 0 -6.2626452044455192 -4.6255075909116954 0 0 0 0 -45.173913738506599 -11.73694472207232 0 -11.73694472207232 -1.0214796736411245 0 0 0 0 -42.90337643068051 -16.841895702614266 0 -16.841895702614266 -13.382422414387609 0 0 0 0 -50.388080721182632 -23.368166615569496 0 -23.368166615569496 -19.036459685634711 0 0 0 0 -37.348840078302601 2.592218462066171 0 2.592218462066171 -23.954502568551547 0 0 0 0 -53.56256548937381 -7.0271121925191551 0 -7.0271121925191551 -17.296057236917534 0 0 0 0 -24.564345214312198 -6.1411329196659779 0 -6.1411329196659779 -12.321621435627321 0 0 0 0 -37.904595575215353 -3.9775262912135503 0 -3.9775262912135503 -2.9510601192644685 0 0 0 0 -0.95090112887980638 -0.0018875118076167041 0 -0.0018875118076167041 0.29524721832699946 0 0 0 0 -88.418894288479351 -72.013337750851946 0 -72.013337750851946 -61.915530016945269 0 0 0 0 -112.44591619012499 -11.960286238473373 0 -11.960286238473373 -15.989551643089754 0 0 0 0 -61.871675797470743 8.7808341084548189 0 8.7808341084548189 -47.338848596439163 0 0 0 0 -50.178837952700064 -26.991401602249507 0 -26.991401602249507 -56.614954901772208 0 0 0 0 -66.651595255458233 -41.255949603475017 0 -41.255949603475017 -24.352669423118016 0 0 0 0 -73.439315309515223 -30.73136356433254 0 -30.73136356433254 -58.448965483929925 0 0 0 0 -73.848040205644793 -21.286807581145958 0 -21.286807581145958 -28.407540632460098 0 0 0 0 -46.311950022267411 -43.135247802024793 0 -43.135247802024793 -28.662196160770122 0 0 0 0 -59.940632437068416 -46.865265045627439 0 -46.865265045627439 -9.4678584254161251 0 0 0 0 -60.406994175688851 -34.193631337280365 0 -34.193631337280365 -18.567934997588111 0 0 0 0 -59.335477142362379 -30.122231099539157 0 -30.122231099539157 17.02930318009237 0 0 0 0 -62.798831470689947 -48.356888900675187 0 -48.356888900675187 8.1579350408834443 0 0 0 0 61.632616438864716 47.239298853120374 0 47.239298853120374 33.172598119300602 0 0 0 0 -105.93669414372562 12.65028622991386 0 12.65028622991386 58.437365555191974 0 0 0 0 -203.67486591159764 72.611175036204742 0 72.611175036204742 39.279901424010575 0 0 0 0 -102.85288174921152 -14.987054110364255 0 -14.987054110364255 -26.245838641479722 0 0 0 0 -230.47009010214128 -71.490092240877317 0 -71.490092240877317 3.4010113625955682 0 0 0 0 -253.34531177242025 -120.39754132039846 0 -120.39754132039846 -53.016663168752359 0 0 0 0 -185.4691143985583 -54.163337767692056 0 -54.163337767692056 -55.107264814074767 0 0 0 0 -126.70000650857764 49.349486159472775 0 49.349486159472775 15.102531223630464 0 0 0 0 8.0089985666672874 28.83470854004247 0 28.83470854004247 -38.98368572107664 0 0 0 0 -88.098022270691217 -117.89903286714991 0 -117.89903286714991 -59.746928855198959 0 0 0 0 -889.57836299558585 -436.96295380070029 0 -436.96295380070029 119.45428700126112 0 0 0 0 -526.30533176240897 -299.39556183667094 0 -299.39556183667094 -57.417641127873608 0 0 0 0 -721.42931274848343 -142.67531807630519 0 -142.67531807630519 95.482086854212312 0 0 0 0 -812.03469184295136 -184.05682848996159 0 -184.05682848996159 110.7517837539462 0 0 0 0 -1499.9793876309457 -252.23104799857845 0 -252.23104799857845 331.1129225988476 0 0 0 0 -972.29039381463372 18.744192901626732 0 18.744192901626732 362.83316650728841 0 0 0 0 -1500.4678934719632 129.43958898372989 0 129.43958898372989 377.76709054961691 0 0 0 0 -544.77753539291734 46.124296763037336 0 46.124296763037336 50.656854557350528 0 0 0 0 -640.48969287736145 53.889562402802866 0 53.889562402802866 226.13070100238826 0 0 0 0 -715.3190738227986 297.66354553319621 0 297.66354553319621 182.37613679472699 0 0 0 0 -1495.9553211812267 641.59545375816083 0 641.59545375816083 41.217613571825069 0 0 0 0 -9.2835706833203844 2.4431770211719979 0 2.4431770211719979 -1.6633631658398149 0 0 0 0 -1496.734432135534 -893.86667955534517 0 -893.86667955534517 -527.14089602639137 0 0 0 0 -174.96852820929507 -61.960315122337306 0 -61.960315122337306 76.549513924194571 0 0 0 0 -85.987800824454098 413.23969478049798 0 413.23969478049798 -456.2931580462772 0 0 0 0 -264.02065652414058 135.37211013968056 0 135.37211013968056 -149.2581480005409 0 0 0 0 0.049005184032616 -0.59399699112691096 0 -0.59399699112691096 1.7557123547066094 0 0 0 0 -69.420466308554751 -64.020233894827754 0 -64.020233894827754 -77.059383564612517 0 0 0 0 1.3255984271946382 -1.9875925049401957 0 -1.9875925049401957 5.7497816072496413 0 0 0 0 49.25125744426623 20.289937768613072 0 20.289937768613072 15.097478633330184 0 0 0 0 -106.70295153810002 -59.290459941862309 0 -59.290459941862309 30.940627342393213 0 0 0 0 -447.57666806762245 -245.16420347024624 0 -245.16420347024624 -219.88121592298472 0 0 0 0 -22.395507706287916 7.5125105627950202 0 7.5125105627950202 -2.1155389862088239 0 0 0 0 -73.949900019424604 83.565057873522164 0 83.565057873522164 158.45466352778516 0 0 0 0 -89.946212551181816 2.9974636528970677 0 2.9974636528970677 70.642011137630675 0 0 0 0 6.2192469838028046 -26.170441642255383 0 -26.170441642255383 -25.156974934823893 0 0 0 0 -129.58078540667884 -2.1253153224067916 0 -2.1253153224067916 -77.863388097984839 0 0 0 0 -28.803898280237426 11.077473731643952 0 11.077473731643952 -1.4027785199762839 0 0 0 0 -89.076351404164598 -82.892649618845866 0 -82.892649618845866 -90.892407662040952 0 0 0 0 -152.73249812836548 -95.415096141682312 0 -95.415096141682312 -76.489483825155048 0 0 0 0 -20.577971289940706 -178.0115779276241 0 -178.0115779276241 -228.20709529278702 0 0 0 0 -392.4559525764962 -156.69119761365079 0 -156.69119761365079 -119.82983386668681 0 0 0 0 -379.60788579871496 -204.19872346220643 0 -204.19872346220643 -212.13234882053638 0 0 0 0 -1485.2783690553979 -393.98524447454463 0 -393.98524447454463 77.158973909581164 0 0 0 0 -619.42947706459609 -436.67236056949639 0 -436.67236056949639 -293.64827965840067 0 0 0 0 -557.75828464164988 -177.10507292013111 0 -177.10507292013111 -139.54997752843906 0 0 0 0 39.073381772983339 44.702047331146602 0 44.702047331146602 -142.38290130322625 0 0 0 0 -182.96212011003445 -245.10755572251941 0 -245.10755572251941 -252.66337411931917 0 0 0 0 -1497.1290958659738 -490.90787717088546 0 -490.90787717088546 -16.784038948484334 0 0 0 0 -588.24841958756588 -258.21537784346879 0 -258.21537784346879 42.36936218164341 0 0 0 0 -444.57580915341168 -568.34924303664502 0 -568.34924303664502 -594.09330604209504 0 0 0 0 -436.59094163250847 671.3783860605339 0 671.3783860605339 -639.81088670609654 0 0 0 0 -9.1710088479608629 0.20797816218138121 0 0.20797816218138121 -1.059529520763876 0 0 0 0 8.5091544387978502 5.1910301644309147 0 5.1910301644309147 -98.759984338170767 0 0 0 0 -140.89627110477159 -14.740763533490963 0 -14.740763533490963 131.1059565152612 0 0 0 0 -234.05132687668811 7.7366512566280505 0 7.7366512566280505 225.56555375450495 0 0 0 0 34.572671173162234 1.280326874254321 0 1.280326874254321 -28.261311495514519 0 0 0 0 -21.558372126820373 0.18411971685339257 0 0.18411971685339257 0.14965357288215889 0 0 0 0 -38.848969533313721 102.12460451818896 0 102.12460451818896 60.649930660594123 0 0 0 0 -25.88955225252721 -62.137654309002201 0 -62.137654309002201 96.428851858845519 0 0 0 0 -25.865868510170159 -0.33780873291086588 0 -0.33780873291086588 0.074994751622997666 0 0 0 0 60.000660512254399 45.136623781131817 0 45.136623781131817 -5.3725709661886185 0 0 0 0 -85.318058285533425 35.575054174391703 0 35.575054174391703 5.9174314604242042 0 0 0 0 23.664419645094313 26.939520761228039 0 26.939520761228039 13.353903824978374 0 0 0 0 -0.63902542476905921 0.4845680423944998 0 0.4845680423944998 -0.050976539025197165 0 0 0 0 -104.73600253040058 -52.110712817068283 0 -52.110712817068283 -45.950453404889096 0 0 0 0 48.637620707037058 -62.86886201405332 0 -62.86886201405332 -62.21633441323587 0 0 0 0 -98.237482136213657 -58.364225887712941 0 -58.364225887712941 -40.560674102991769 0 0 0 0 -284.33996925833526 -185.01268677740603 0 -185.01268677740603 -65.232458531854093 0 0 0 0 -103.82412679597473 -80.976528506584302 0 -80.976528506584302 18.088137709428082 0 0 0 0 -156.96688267534773 -25.445581275851126 0 -25.445581275851126 -8.6014508495276232 0 0 0 0 -428.1394151267632 -289.28738859655471 0 -289.28738859655471 -11.706341188261035 0 0 0 0 -504.41145870805485 -2.2644955839041359 0 -2.2644955839041359 4.8815540295052244 0 0 0 0 -209.55340676049673 -257.01241775004183 0 -257.01241775004183 -15.598424990391514 0 0 0 0 -130.38054237723009 -176.34826753226199 0 -176.34826753226199 -80.452634128505281 0 0 0 0 -534.20433845454318 -138.24879261072965 0 -138.24879261072965 -80.404991127025795 0 0 0 0 -1497.2706480060526 -76.95491919642906 0 -76.95491919642906 216.57146508040552 0 0 0 0 -1497.5680839414072 -346.7866563859431 0 -346.7866563859431 340.39483423899952 0 0 0 0 -445.27978503683335 251.20056031276172 0 251.20056031276172 244.39674027318847 0 0 0 0 -3.7533310604125063 0.62706062857305156 0 0.62706062857305156 0.38909155993617972 0 0 0 0 -477.08218767718427 15.932098850001573 0 15.932098850001573 208.33483612349889 0 0 0 0 -3.2048321274272951 0.95002715986220565 0 0.95002715986220565 -0.030036571114254174 0 0 0 0 -262.07019529385616 327.02709261170651 0 327.02709261170651 192.73192510159078 0 0 0 0 -263.09687885298445 355.61860077654006 0 355.61860077654006 14.779330723348011 0 0 0 0 -193.62547841622472 240.31138424803154 0 240.31138424803154 0.5094092790155571 0 0 0 0 -216.75739740557401 212.49254170711399 0 212.49254170711399 -2.0180778474900478 0 0 0 0 -1498.6504383479712 559.56157245230702 0 559.56157245230702 -68.703901065192724 0 0 0 0 -1162.328868586199 137.2176139756499 0 137.2176139756499 201.01005191617588 0 0 0 0 -725.73064487580632 623.78207289120667 0 623.78207289120667 -244.8537035779068 0 0 0 0 -622.31299566242524 -865.66756248773629 0 -865.66756248773629 -960.41747752644153 0 0 0 0 -978.35619343287544 717.64165356783599 0 717.64165356783599 -547.34440588264636 0 0 0 0 -8.1742281990523793 -1.8235518343906731 0 -1.8235518343906731 -1.3487524111598874 0 0 0 0 -4.3733114660523142 -2.1353228383102163 0 -2.1353228383102163 -0.020059795419153592 0 0 0 0 81.977781832261826 271.01770427592726 0 271.01770427592726 -510.71660440645496 0 0 0 0 -3.0308431132845399 -2.8391376098362429 0 -2.8391376098362429 1.0280937861969661 0 0 0 0 -23.542651501020302 -2.5488155322192148 0 -2.5488155322192148 -0.16658698596070209 0 0 0 0 -152.304800343446 -38.052859711219831 0 -38.052859711219831 161.16422328206045 0 0 0 0 -194.40576004386625 -38.324338212818731 0 -38.324338212818731 -72.347889376618525 0 0 0 0 -202.51155554432597 -461.6095358430195 0 -461.6095358430195 -653.66089775335627 0 0 0 0 -1199.6870498204516 -554.59782236770388 0 -554.59782236770388 76.241383118233529 0 0 0 0 -1497.3378675127713 -859.20579278222124 0 -859.20579278222124 -119.30023428641667 0 0 0 0 -1.0773644242186435 0.217800850083961 0 0.217800850083961 0.46943511807561117 0 0 0 0 -37.409598889176777 -42.760623482485272 0 -42.760623482485272 -21.811534484583206 0 0 0 0 -48.497353720671526 -214.93945821499568 0 -214.93945821499568 -227.42075120941689 0 0 0 0 -27.897548722497959 -31.292604005355997 0 -31.292604005355997 9.8547867708352328 0 0 0 0 -42.262236720995134 -36.576359713302224 0 -36.576359713302224 46.110336475412026 0 0 0 0 -28.729372047028733 -4.5539115250866899 0 -4.5539115250866899 -0.28830635061039522 0 0 0 0 -13.718218755815542 -4.5608573058423829 0 -4.5608573058423829 -5.6883779355617889 0 0 0 0 -126.89317157969708 -50.677081955528465 0 -50.677081955528465 253.9113767028216 0 0 0 0 -184.22618746015723 223.65085045028187 0 223.65085045028187 25.375280902757424 0 0 0 0 -130.88450642444241 -147.78281498895026 0 -147.78281498895026 -7.0488261753480401 0 0 0 0 -57.627488146102422 -39.563222148053889 0 -39.563222148053889 -54.786526499575103 0 0 0 0 -56.184865756124054 63.374084470898296 0 63.374084470898296 -209.58840007551927 0 0 0 0 24.958712477200606 -10.32721929102938 0 -10.32721929102938 5.890966550014312 0 0 0 0 -0.4681250211718293 0.12542126440764179 0 0.12542126440764179 0.30831778033327006 0 0 0 0 8.1297698235794087 2.6943057826816386 0 2.6943057826816386 8.1807207959838024 0 0 0 0 -8.9578103698731866 26.932993494121206 0 26.932993494121206 28.698066497189984 0 0 0 0 0.23153793671005474 -0.54878128274589244 0 -0.54878128274589244 1.1636236408869056 0 0 0 0 -49.511036913143471 -18.860706887983611 0 -18.860706887983611 63.127833681171069 0 0 0 0 -30.785138961397436 -5.8238474892310039 0 -5.8238474892310039 -0.9323310082969315 0 0 0 0 49.006250181824726 -19.996604887398874 0 -19.996604887398874 -117.72041415953652 0 0 0 0 -16.816998278023675 -8.9427519292736406 0 -8.9427519292736406 30.16985192828929 0 0 0 0 -29.801660936904227 -108.54947553191136 0 -108.54947553191136 91.381569827474053 0 0 0 0 24.586055852614663 -43.272361513224105 0 -43.272361513224105 -69.739946685311878 0 0 0 0 -25.824141331402643 5.2995887998302464 0 5.2995887998302464 35.807503706337002 0 0 0 0 -40.705928214720188 -19.082567156699767 0 -19.082567156699767 11.816396215150576 0 0 0 0 -37.443598307603679 -5.7062901566632718 0 -5.7062901566632718 34.59420801654062 0 0 0 0 -49.678640390473447 10.437217150605974 0 10.437217150605974 25.698602003738074 0 0 0 0 -37.962609579870332 3.1474344472617872 0 3.1474344472617872 4.4509132658113515 0 0 0 0 -60.371259575084878 5.1015961447514115 0 5.1015961447514115 4.2827812848934741 0 0 0 0 -47.382478360893401 -10.708783419122703 0 -10.708783419122703 -19.529211169219622 0 0 0 0 -26.033374551974703 -26.511160276212969 0 -26.511160276212969 -39.943581432053151 0 0 0 0 -74.486612712837086 -9.9653848905111602 0 -9.9653848905111602 9.6327816171468399 0 0 0 0 -27.111850655888702 8.7020887909770863 0 8.7020887909770863 -6.2361349005578504 0 0 0 0 -25.867869801837514 13.479730812703778 0 13.479730812703778 7.5746244002456251 0 0 0 0 -43.039096972133848 8.5245076773211679 0 8.5245076773211679 5.4322620486856295 0 0 0 0 -33.137667636568949 11.72378564879665 0 11.72378564879665 4.7659602594620765 0 0 0 0 -39.857126592807617 7.1567473924856415 0 7.1567473924856415 -19.055538811551827 0 0 0 0 -44.576621074291324 12.673026476854375 0 12.673026476854375 19.162516868766602 0 0 0 0 -40.111669042111771 11.366879644306323 0 11.366879644306323 27.972288182643297 0 0 0 0 -38.040898339146224 8.3267649925604701 0 8.3267649925604701 23.295707698876186 0 0 0 0 -36.610415990573529 8.0892908222110691 0 8.0892908222110691 19.721000656648627 0 0 0 0 -34.538914702425245 6.9231820811144189 0 6.9231820811144189 19.271435810139565 0 0 0 0 -31.144905343461232 6.0636365248640516 0 6.0636365248640516 11.923307565085338 0 0 0 0 -35.815529281229828 9.8485862491627643 0 9.8485862491627643 16.038974148679813 0 0 0 0 -31.04104216093765 6.8529246052881945 0 6.8529246052881945 15.011477353072223 0 0 0 0 -30.5926740990908 4.1495763221904554 0 4.1495763221904554 15.607493914020324 0 0 0 0 -36.96855080514797 5.0492341928494398 0 5.0492341928494398 21.971216001158155 0 0 0 0 -37.615410398808308 0.50336806156951752 0 0.50336806156951752 18.881344131225433 0 0 0 0 -36.76337503290415 2.3282400182089305 0 2.3282400182089305 21.927563029252269 0 0 0 0 -35.854948081425391 1.6360166917777406 0 1.6360166917777406 21.84369738636542 0 0 0 0 -35.338303006335082 -4.5046131211982186 0 -4.5046131211982186 2.2684064801687782 0 0 0 0 -36.757844878462492 -12.496073613970111 0 -12.496073613970111 -0.84196488613542897 0 0 0 0 -9.9793303320839186 -7.2624466489851329 0 -7.2624466489851329 -24.187847340803103 0 0 0 0 -34.101037660668226 -16.699109864343541 0 -16.699109864343541 -14.239875627032234 0 0 0 0 -36.485124868875573 -8.3939754573245864 0 -8.3939754573245864 23.550671125732151 0 0 0 0 -23.207003337184176 -2.9899127733776272 0 -2.9899127733776272 4.8725292476871767 0 0 0 0 -6.2518837556126527 1.2189831125564297 0 1.2189831125564297 15.326823167175121 0 0 0 0 -28.614589176229842 -6.68705639941588 0 -6.68705639941588 4.7425357270129407 0 0 0 0 -10.85989916740408 1.4255724522175122 0 1.4255724522175122 3.5371232888553905 0 0 0 0 -1.0560786101562059 2.0562038417004569 0 2.0562038417004569 1.6279642682959428 0 0 0 0 8.5586185157990258 4.9073656180042917 0 4.9073656180042917 3.9260409397347757 0 0 0 0 -17.453218120739621 -28.753832845394982 0 -28.753832845394982 1.8643255843858242 0 0 0 0 5.8598334903654177 -9.9513629672912245 0 -9.9513629672912245 62.695087776815214 0 0 0 0 -1.3336716246379723 -4.7281297434449989 0 -4.7281297434449989 0.72429236554076493 0 0 0 0 -38.839512409744202 -1.0956799505433992 0 -1.0956799505433992 32.958900813944865 0 0 0 0 -31.540115626183159 -4.5163413303246314 0 -4.5163413303246314 0.2324492850995942 0 0 0 0 -54.919264570664382 -71.673577324688154 0 -71.673577324688154 56.052404308805194 0 0 0 0 -37.882968536097906 2.3679576232754016 0 2.3679576232754016 30.572595023951465 0 0 0 0 -34.708881496120739 4.9646490136582315 0 4.9646490136582315 32.668750369252621 0 0 0 0 -38.581155835816389 4.7708387276237829 0 4.7708387276237829 26.0351753030277 0 0 0 0 -36.956938480725512 4.6255086531200504 0 4.6255086531200504 23.800984790489167 0 0 0 0 -37.607737929341965 -0.17461049839357656 0 -0.17461049839357656 30.507633580189122 0 0 0 0 -37.72403517132625 -6.4229055894275007 0 -6.4229055894275007 27.597751414157756 0 0 0 0 -64.543405904791143 -159.28758705657998 0 -159.28758705657998 -32.509206682793405 0 0 0 0 -0.76226078036448541 -0.31986933885680457 0 -0.31986933885680457 -0.25188777173870658 0 0 0 0 -14.793023845515563 -18.304218992679125 0 -18.304218992679125 2.7400054433227297 0 0 0 0 -21.618991932686185 -22.873437859825344 0 -22.873437859825344 3.9738777787250683 0 0 0 0 -2.932007201150391 -1.3871907200393281 0 -1.3871907200393281 0.48163675274022344 0 0 0 0 3.9163477327383589 -11.566504543731639 0 -11.566504543731639 0.34023491541574913 0 0 0 0 -2.8076315200669342 -12.719751571882853 0 -12.719751571882853 5.0979656901727139 0 0 0 0 -21.028075560891011 -4.7268942435629242 0 -4.7268942435629242 21.000994523791064 0 0 0 0 -23.635249679275148 -21.791165582027872 0 -21.791165582027872 9.6504610543997273 0 0 0 0 -17.859451273189734 19.381034308467306 0 19.381034308467306 2.948386981007161 0 0 0 0 -57.080251066636265 -46.709398472259153 0 -46.709398472259153 -12.224161117120957 0 0 0 0 -1.6617669145416585 -23.832197815089671 0 -23.832197815089671 -28.819589054145354 0 0 0 0 -13.512152050694567 -17.740770365060143 0 -17.740770365060143 -21.102591391005717 0 0 0 0 -4.6822132713859901 -30.340251456155897 0 -30.340251456155897 -8.4988237326260787 0 0 0 0 -0.5973722382732376 -28.016778374411956 0 -28.016778374411956 -20.648501186917429 0 0 0 0 -0.28007143026897552 0.1855660149267635 0 0.1855660149267635 0.43050860891641168 0 0 0 0 49.586190814072324 31.999059456058603 0 31.999059456058603 12.199039406176212 0 0 0 0 4.0292213518459903 8.5988818773101841 0 8.5988818773101841 35.124369771673059 0 0 0 0 -2.5617972910191469 1.5927497430476834 0 1.5927497430476834 0.32439148957029273 0 0 0 0 -11.368784320125997 -23.949262664169709 0 -23.949262664169709 -22.913240087722045 0 0 0 0 -35.065218968578847 -24.714258778340294 0 -24.714258778340294 -3.0005631888026301 0 0 0 0 15.651427633230924 -11.812567829637999 0 -11.812567829637999 34.93586057377064 0 0 0 0 -1.9501160781304563 0.76901048684270279 0 0.76901048684270279 0.5703451435267789 0 0 0 0 42.194025332855745 47.775194909958188 0 47.775194909958188 7.5206661010890343 0 0 0 0 24.843106031417847 -29.836522013396916 0 -29.836522013396916 -39.65954871430705 0 0 0 0 -72.8536992004083 -72.928754015641204 0 -72.928754015641204 -22.090921707462371 0 0 0 0 -87.210684896235762 7.1170884857009895 0 7.1170884857009895 36.079215519646596 0 0 0 0 -10.910712344662898 5.0279423137283743 0 5.0279423137283743 25.005996996126896 0 0 0 0 -48.490184213100292 -10.900671668396825 0 -10.900671668396825 23.682213919031618 0 0 0 0 -0.84927678237727378 -23.087141631431038 0 -23.087141631431038 -2.7479535023483237 0 0 0 0 -33.831675694076694 13.830305236007007 0 13.830305236007007 39.712838758506578 0 0 0 0 -3.4341875657883065 70.380943493440938 0 70.380943493440938 -48.138115981846553 0 0 0 0 -8.6917482113240112 -63.921882532332532 0 -63.921882532332532 -50.673640283983559 0 0 0 0 -0.82388511828688138 0.5894820424949998 0 0.5894820424949998 0.10601206589340539 0 0 0 0 8.0100545698187489 58.74083174030909 0 58.74083174030909 24.786790081291031 0 0 0 0 -22.971132579325058 -20.447419293745952 0 -20.447419293745952 16.609725149920585 0 0 0 0 -31.708507507056311 9.0155696724978398 0 9.0155696724978398 -35.954434951432859 0 0 0 0 21.427769189722312 85.763679872321831 0 85.763679872321831 15.125698100170212 0 0 0 0 -0.76731624583095481 0.25667667970846253 0 0.25667667970846253 0.30077229252106075 0 0 0 0 -104.98448577903036 -89.00953030330686 0 -89.00953030330686 -35.484847722070761 0 0 0 0 -12.2795153387342 43.568841557684095 0 43.568841557684095 65.679482565750845 0 0 0 0 -96.204550243549875 18.924382579908155 0 18.924382579908155 27.01661988332819 0 0 0 0 60.974088506300177 13.138590255293337 0 13.138590255293337 -24.164375885041522 0 0 0 0 -9.9679089507517347 18.720302421360486 0 18.720302421360486 -40.115083005982626 0 0 0 0 -3.7543310053515597 -2.7831476962530246 0 -2.7831476962530246 -0.93718746561415855 0 0 0 0 -8.6317164489523037 -1.5649243307867735 0 -1.5649243307867735 5.9571406146531958 0 0 0 0 -27.775420460520508 1.6845934623759686 0 1.6845934623759686 1.368269611322771 0 0 0 0 -16.257509949569794 -24.57012450749296 0 -24.57012450749296 20.235414393635949 0 0 0 0 -64.18506907390838 -7.7546178295687582 0 -7.7546178295687582 20.933325002713104 0 0 0 0 -13.512417536636349 -2.919238234903105 0 -2.919238234903105 5.9559105993747066 0 0 0 0 -30.295196966115327 -7.4293414099821575 0 -7.4293414099821575 8.4091492122637419 0 0 0 0 -21.247410875810687 -5.3371858331958562 0 -5.3371858331958562 0.29335236459004033 0 0 0 0 -50.114720969664631 -34.214736285267918 0 -34.214736285267918 9.8372943183242327 0 0 0 0 -38.525755097616639 -15.556913258072314 0 -15.556913258072314 31.962864729969283 0 0 0 0 -29.436240566699311 -12.388574456164797 0 -12.388574456164797 -4.5186118278705374 0 0 0 0 0.22048891093595557 -7.7319453067983002 0 -7.7319453067983002 -2.3589364466646319 0 0 0 0 -30.920080493306159 -15.51045895914217 0 -15.51045895914217 32.338996993173019 0 0 0 0 -5.2839539578853874 -8.537941846830563 0 -8.537941846830563 -17.92779750194552 0 0 0 0 -12.115691137929389 -14.844033918960662 0 -14.844033918960662 4.083848103672608 0 0 0 0 -25.285366652278753 -23.129752244078247 0 -23.129752244078247 -1.040063746739861 0 0 0 0 -32.595698254903255 -28.82364370391349 0 -28.82364370391349 5.5840315295313303 0 0 0 0 -25.968626104239092 -9.664219780676456 0 -9.664219780676456 0.78450701171300352 0 0 0 0 -56.177650453573733 -30.917763157599438 0 -30.917763157599438 -11.337001099978309 0 0 0 0 -32.672094714085688 -9.8662359399260708 0 -9.8662359399260708 -15.676751525314216 0 0 0 0 9.1098346376529662 -9.8500614310291894 0 -9.8500614310291894 35.201688715108844 0 0 0 0 -7.4988318519590393 -5.9919375051065913 0 -5.9919375051065913 -2.3436996124294183 0 0 0 0 -1.7801002699415136 -0.39284226596935667 0 -0.39284226596935667 0.15016247711102293 0 0 0 0 -8.1581134553343873 53.787005474417754 0 53.787005474417754 -1.5255005000959727 0 0 0 0 76.008154232033121 15.888918126786848 0 15.888918126786848 12.869666346191821 0 0 0 0 -20.715795737848929 -1.4736424715028704 0 -1.4736424715028704 1.1771813011828693 0 0 0 0 -15.981375580031454 17.258609872750576 0 17.258609872750576 1.3455875348298605 0 0 0 0 -1.8972870622738611 1.2925889204778009 0 1.2925889204778009 1.1332059452352272 0 0 0 0 -13.449720058346429 -18.149201546993055 0 -18.149201546993055 1.8905913732718318 0 0 0 0 -13.860015622092291 -2.3455041076144596 0 -2.3455041076144596 -0.35407048761770143 0 0 0 0 -44.201274449520497 0.10992285539754221 0 0.10992285539754221 24.287978908748528 0 0 0 0 -4.4862538170200423 -19.399234139338205 0 -19.399234139338205 15.434906412801638 0 0 0 0 -26.896642593133038 1.2149498508052616 0 1.2149498508052616 24.106206266373988 0 0 0 0 -51.328723919667027 -39.529508847409488 0 -39.529508847409488 19.986989971431058 0 0 0 0 -143.9863238780672 -82.414145185077132 0 -82.414145185077132 8.4066609165834052 0 0 0 0 -4.5134698885449325 -7.9582876169403107 0 -7.9582876169403107 2.0414840382691182 0 0 0 0 -0.62628684845325466 0.45092000962612389 0 0.45092000962612389 -0.33345464109499945 0 0 0 0 -81.348046483959479 -70.463941853847302 0 -70.463941853847302 -63.364712954102778 0 0 0 0 -66.014243564204662 -26.932677634446321 0 -26.932677634446321 -61.329020138240658 0 0 0 0 -88.709041744339629 -47.863523237775553 0 -47.863523237775553 -18.780494701442024 0 0 0 0 -49.453886134411732 -27.534098883319103 0 -27.534098883319103 -19.524954831352375 0 0 0 0 -53.166832586342935 -19.774992552888421 0 -19.774992552888421 -35.619886185295826 0 0 0 0 -59.584413209171544 -24.270196431148321 0 -24.270196431148321 -2.9036218331334567 0 0 0 0 -107.82901588219102 -43.101135023816369 0 -43.101135023816369 5.0701781035049294 0 0 0 0 -8.3802187429100741 -3.0384651488564032 0 -3.0384651488564032 -1.8191659990865219 0 0 0 0 -176.87440085277194 -34.537515501005146 0 -34.537515501005146 71.749964621502386 0 0 0 0 -150.64981313415046 23.790865284727261 0 23.790865284727261 93.897099082189015 0 0 0 0 -45.995189159981237 13.973879938491223 0 13.973879938491223 31.631935804540717 0 0 0 0 -89.921426371394773 -85.195917630302347 0 -85.195917630302347 -55.016405514460985 0 0 0 0 -6.2874587015394354 3.550370215297221 0 3.550370215297221 -0.39559880834832484 0 0 0 0 -9.7889780350815272 4.3077482861177714 0 4.3077482861177714 8.3041853736696076 0 0 0 0 -28.426989195271744 -6.9430064708998884 0 -6.9430064708998884 10.244758611817247 0 0 0 0 -10.70892507345161 -1.5619630773361735 0 -1.5619630773361735 8.3512473083407031 0 0 0 0 -9.2418305909413903 0.56185954250145187 0 0.56185954250145187 8.5687288731169247 0 0 0 0 -3.4325196765494184 -12.025723236724474 0 -12.025723236724474 -7.9992093626108272 0 0 0 0 -13.107131216071139 -4.72485115781015 0 -4.72485115781015 4.4815552085260606 0 0 0 0 12.900618914420193 7.758369237183274 0 7.758369237183274 9.6936677770137294 0 0 0 0 -1.4326849182325532 -12.847788836146933 0 -12.847788836146933 5.6372207594851034 0 0 0 0 -17.410157962363883 15.007183948748661 0 15.007183948748661 32.555835799299985 0 0 0 0 -14.552347671869938 -32.605008726397898 0 -32.605008726397898 -36.634750009670597 0 0 0 0 -0.5559227461635885 -0.10972925564637936 0 -0.10972925564637936 0.028739330565596466 0 0 0 0 -7.3546594922893531 -14.070525565347312 0 -14.070525565347312 -16.254505383380376 0 0 0 0 -7.3556613973210716 -6.216957213331594 0 -6.216957213331594 -10.303769360445017 0 0 0 0 -5.4085232019569958 -10.128678347809085 0 -10.128678347809085 -31.178040533328669 0 0 0 0 -6.3808671629885794 -18.227345274049355 0 -18.227345274049355 -16.542899327696659 0 0 0 0 -2.4627564571832607 1.6867628308630884 0 1.6867628308630884 -2.6463593337025544 0 0 0 0 -53.432119435403365 0.61002202567328112 0 0.61002202567328112 -7.5269181179810403 0 0 0 0 -14.366907316099969 -12.241822981005413 0 -12.241822981005413 -16.708724334328565 0 0 0 0 -53.161891917436151 -35.996328905011751 0 -35.996328905011751 -5.4746805017618954 0 0 0 0 -54.960241944798327 -40.012105365639229 0 -40.012105365639229 -16.536358249827792 0 0 0 0 -63.217025454843679 -33.479324528699024 0 -33.479324528699024 -4.3321880327484052 0 0 0 0 -1.4482399586246828 1.443446546570442 0 1.443446546570442 -1.1092623499339023 0 0 0 0 -78.414405738261848 -41.701153089242744 0 -41.701153089242744 -13.421060910444211 0 0 0 0 -48.698974775514216 20.360503864830491 0 20.360503864830491 -28.380225664629563 0 0 0 0 -46.046351003380551 -10.718232014671486 0 -10.718232014671486 -0.97027037149029738 0 0 0 0 -56.319729928720335 -19.817364885272216 0 -19.817364885272216 -9.7112702029533295 0 0 0 0 -45.345349436218385 -9.9596137605918216 0 -9.9596137605918216 -19.054877690848365 0 0 0 0 -77.823522202822005 -20.672955732351596 0 -20.672955732351596 -24.314234642658789 0 0 0 0 -57.616712715243921 -14.542929249982166 0 -14.542929249982166 -26.842525669394504 0 0 0 0 -72.405979452290921 -27.149524355394078 0 -27.149524355394078 -20.29030685295902 0 0 0 0 -50.066456176296924 -27.794904853222675 0 -27.794904853222675 -12.306033255589654 0 0 0 0 -73.394588716575527 -28.859159425685082 0 -28.859159425685082 -9.1835988165934737 0 0 0 0 -44.20707149127702 -8.1832481844359677 0 -8.1832481844359677 -13.01118215572496 0 0 0 0 -29.906399636449351 -5.4427263402862991 0 -5.4427263402862991 -9.1478788566441267 0 0 0 0 -59.167667413676099 -26.575803073231288 0 -26.575803073231288 -7.7163018053760197 0 0 0 0 -53.716442876051588 -34.82037849717841 0 -34.82037849717841 4.9623151963852479 0 0 0 0 -28.049936649447773 -33.864978943253902 0 -33.864978943253902 -8.8577522558585429 0 0 0 0 10.751240384826815 61.375512100223204 0 61.375512100223204 13.880948363863325 0 0 0 0 -24.090866344024107 -5.8927595549924945 0 -5.8927595549924945 29.805094617751593 0 0 0 0 -14.906461837854295 1.627301811776988 0 1.627301811776988 -5.7037686927665163 0 0 0 0 -22.234708484145813 -19.474439285334938 0 -19.474439285334938 -3.796903230927569 0 0 0 0 -95.995195463505752 -49.0689947532342 0 -49.0689947532342 -8.7216453433316019 0 0 0 0 -35.152423855302914 -38.34622472533124 0 -38.34622472533124 -58.860785677834656 0 0 0 0 -76.050663904827161 -56.645845583967059 0 -56.645845583967059 -22.018365098189861 0 0 0 0 -94.814290852758859 29.917465984343266 0 29.917465984343266 -13.93041893424521 0 0 0 0 -19.722295532353854 0.38351789622420895 0 0.38351789622420895 1.0904917986005862 0 0 0 0 -69.635285449905496 16.798237248424698 0 16.798237248424698 65.753071859428701 0 0 0 0 7.6850003726758587 -17.965392228490941 0 -17.965392228490941 3.5712322478125316 0 0 0 0 -6.9576182658782386 0.50417778330027829 0 0.50417778330027829 -0.46193962246039533 0 0 0 0 -51.465082672566496 0.28696092357768066 0 0.28696092357768066 8.5396950079316412 0 0 0 0 -30.634601231653505 -7.8876925940870706 0 -7.8876925940870706 5.5961508134909934 0 0 0 0 -47.162501166869333 6.5390316102007091 0 6.5390316102007091 -5.1219079918510033 0 0 0 0 -12.307655103585716 1.3469478744812733 0 1.3469478744812733 3.1823287983424535 0 0 0 0 -15.796199695729939 0.41751374019594856 0 0.41751374019594856 1.179977456315664 0 0 0 0 -6.5695842707864358 -1.0171130930010293 0 -1.0171130930010293 13.273331937743983 0 0 0 0 -13.19871508572578 12.979033761750713 0 12.979033761750713 6.677237149541952 0 0 0 0 -5.1607880779704232 -2.1353901660929715 0 -2.1353901660929715 0.29243807971585967 0 0 0 0 -40.381545953119712 -7.0788154197146582 0 -7.0788154197146582 20.909895034786473 0 0 0 0 -38.440238090637649 -24.047272849723697 0 -24.047272849723697 -3.1567532924324269 0 0 0 0 -7.3987732735501908 3.4787695490424007 0 3.4787695490424007 4.3034407021258891 0 0 0 0 -25.434565717576334 1.9382419596932863 0 1.9382419596932863 9.8225966707961447 0 0 0 0 -12.670911379056633 15.118931437983093 0 15.118931437983093 13.679737777856062 0 0 0 0 -2.7641473089825013 21.220110956857411 0 21.220110956857411 7.4682889407504831 0 0 0 0 -28.339523599674067 -15.964318738375084 0 -15.964318738375084 7.7762388140984058 0 0 0 0 -30.039354487009405 -7.7568337531879479 0 -7.7568337531879479 6.9018728058063061 0 0 0 0 -20.577414035542461 4.761258856910672 0 4.761258856910672 20.066479087605558 0 0 0 0 -22.320024996184657 -4.6561432442912292 0 -4.6561432442912292 -2.6459480827817856 0 0 0 0 -37.055298249410271 -8.5579038284120301 0 -8.5579038284120301 11.989324756948236 0 0 0 0 -26.085362252739287 -10.92879292546354 0 -10.92879292546354 13.501804535346992 0 0 0 0 -10.285693152821295 7.4075497418394605 0 7.4075497418394605 19.982237410831885 0 0 0 0 -15.521547846452449 -12.477607608792823 0 -12.477607608792823 9.332336007841775 0 0 0 0 -18.109230942427956 -0.9284817871434754 0 -0.9284817871434754 1.8939545169102545 0 0 0 0 -34.023742109537125 8.1637252902838782 0 8.1637252902838782 48.285229857381978 0 0 0 0 -42.746526620583609 -3.3392835883239513 0 -3.3392835883239513 30.846526586034202 0 0 0 0 1.1249485775333596 12.704375697457635 0 12.704375697457635 36.704726349818429 0 0 0 0 0.96214070801943308 -10.79824816879227 0 -10.79824816879227 -7.978832028092711 0 0 0 0 3.8273107961578461 -6.3071591162601983 0 -6.3071591162601983 -1.2008442552356473 0 0 0 0 -32.131838578388852 -10.699794644473286 0 -10.699794644473286 23.650337619915604 0 0 0 0 -1.534543341108602 -2.5170535745662459 0 -2.5170535745662459 -1.5468612681791691 0 0 0 0 123.47847577779294 54.829378819587518 0 54.829378819587518 -112.5573631868715 0 0 0 0 -21.733086102161906 -4.4596787743925859 0 -4.4596787743925859 -8.9991541863845157 0 0 0 0 -24.209317632718012 34.008451699299712 0 34.008451699299712 -17.884438003444757 0 0 0 0 8.0336019214664702 -65.605982355396918 0 -65.605982355396918 -42.291611186710043 0 0 0 0 -55.42071003519959 -27.882276590432639 0 -27.882276590432639 16.00922272277694 0 0 0 0 -24.88791389497419 -34.349442926641615 0 -34.349442926641615 -37.710915459310058 0 0 0 0 -33.372309615311678 -50.112977405772995 0 -50.112977405772995 -64.775025800636513 0 0 0 0 -103.26789339198149 9.0792682658550916 0 9.0792682658550916 -5.0499822391108182 0 0 0 0 -0.47486512166830153 0.0028687007660064268 0 0.0028687007660064268 -2.2147757144425539 0 0 0 0 -6.3349101847283293 -3.1569013753273882 0 -3.1569013753273882 -2.201394370166029 0 0 0 0 -2.669418354606087 1.3884644835539532 0 1.3884644835539532 -5.6186546165079569 0 0 0 0 121.09511721369563 -10.598975412070104 0 -10.598975412070104 -13.351659509765341 0 0 0 0 139.1639875039109 -86.873398160413444 0 -86.873398160413444 52.484845577890951 0 0 0 0 219.85884882605023 -66.23297583132603 0 -66.23297583132603 -64.855887122579134 0 0 0 0 182.6809516163994 110.27578032996666 0 110.27578032996666 -334.87316151394236 0 0 0 0 -410.79248805304996 89.48738936822491 0 89.48738936822491 40.543381772367411 0 0 0 0 -184.43862586965406 275.85911164533275 0 275.85911164533275 -136.98672279627908 0 0 0 0 204.78343773246888 348.08598676010547 0 348.08598676010547 -203.93448675961235 0 0 0 0 -29.623279801704484 -103.56520527103726 0 -103.56520527103726 -255.43893841637009 0 0 0 0 -5.6176176989714293 -2.1732759304553753 0 -2.1732759304553753 -1.301393507069613 0 0 0 0 -265.74281829919346 -169.47220812502394 0 -169.47220812502394 -36.522849413810491 0 0 0 0 -86.28727200459798 -72.707832204636077 0 -72.707832204636077 129.42033616211603 0 0 0 0 -30.966562908157357 -114.29733696940917 0 -114.29733696940917 -25.552265097264893 0 0 0 0 -16.874075989760712 2.0050586069512848 0 2.0050586069512848 -0.79658756840150036 0 0 0 0 -107.06048440278028 174.42240035123791 0 174.42240035123791 157.33486272448781 0 0 0 0 54.442658982075955 62.202286351755049 0 62.202286351755049 48.944598263972694 0 0 0 0 6.9749896206194535 132.13942904955462 0 132.13942904955462 36.356550381985627 0 0 0 0 -57.187381010327954 -6.5783381694647574 0 -6.5783381694647574 41.46746068075538 0 0 0 0 -1.8057719450846008 -3.637056787923246 0 -3.637056787923246 -0.47724746327934287 0 0 0 0 -50.536689024767838 -10.165076232074398 0 -10.165076232074398 28.209885018818568 0 0 0 0 -39.522072101979575 -22.869141528402452 0 -22.869141528402452 26.434277617747284 0 0 0 0 -20.38273162193218 -19.757022447444569 0 -19.757022447444569 19.002538334919336 0 0 0 0 -11.868650734253364 1.6177994595409517 0 1.6177994595409517 0.23571404080860969 0 0 0 0 -4.5997833103651828 25.474280126773039 0 25.474280126773039 68.061404739572026 0 0 0 0 -29.991085665741593 -6.6095274046978432 0 -6.6095274046978432 58.326481938324036 0 0 0 0 -29.018797792515443 -0.24146766959430366 0 -0.24146766959430366 14.26830583045512 0 0 0 0 -28.229610200491152 -9.9373841579113105 0 -9.9373841579113105 18.026379390240095 0 0 0 0 -27.396296949212228 -20.955520208684838 0 -20.955520208684838 12.341174593719415 0 0 0 0 -32.656936033548845 -12.697608913568388 0 -12.697608913568388 28.276616471277066 0 0 0 0 -4.8373090377026529 -15.229368998979112 0 -15.229368998979112 18.32417823375954 0 0 0 0 -213.79320931319307 -8.6983993723757749 0 -8.6983993723757749 121.47707038058252 0 0 0 0 -201.27578256679772 136.61578339717016 0 136.61578339717016 182.06258368583372 0 0 0 0 -20.427317286144898 -22.928177723099566 0 -22.928177723099566 32.643422614678968 0 0 0 0 4.2103973169123492 21.380355290985676 0 21.380355290985676 16.616820325833871 0 0 0 0 -97.845112342618449 102.42355294003426 0 102.42355294003426 22.071070681731612 0 0 0 0 -116.14376242868457 -203.25335276694318 0 -203.25335276694318 -158.98101367256169 0 0 0 0 -4.5866050846840452 -0.11845627184320584 0 -0.11845627184320584 0.24720482743639094 0 0 0 0 -110.11632164174262 -70.469484332962224 0 -70.469484332962224 -19.510614770160828 0 0 0 0 -39.803631268896424 -74.485043006225681 0 -74.485043006225681 -53.113543461983795 0 0 0 0 -53.340369004661625 -64.552131344060399 0 -64.552131344060399 -46.854122368402386 0 0 0 0 -35.585388911864356 -65.190244932547671 0 -65.190244932547671 -47.734835512088353 0 0 0 0 -10.362231955961761 -35.026529637724934 0 -35.026529637724934 -27.186002092018271 0 0 0 0 -9.6939398744179925 4.4024925069414138 0 4.4024925069414138 2.7328443363233532 0 0 0 0 -9.800014639320807 4.3558865293325937 0 4.3558865293325937 7.2548360295625303 0 0 0 0 -35.54874858378389 -17.837909188527419 0 -17.837909188527419 -8.4409780042785769 0 0 0 0 -45.928768378508266 -31.271607575362793 0 -31.271607575362793 2.9859130842828563 0 0 0 0 -10.537917195681942 0.4060658628257805 0 0.4060658628257805 2.190660944482846 0 0 0 0 -4.9171591266094765 -19.507586475075129 0 -19.507586475075129 53.76250024026956 0 0 0 0 -12.914301227181568 0.35974095903659986 0 0.35974095903659986 8.6488176710580618 0 0 0 0 -29.474873983730504 -17.404303256095432 0 -17.404303256095432 105.31081951405929 0 0 0 0 522.4162728155934 26.131783537223441 0 26.131783537223441 -46.74361238266124 0 0 0 0 -4.7387325506855404 -0.54019136631495712 0 -0.54019136631495712 1.2409839584808005 0 0 0 0 -2.5453960927334265 13.314123564504825 0 13.314123564504825 -16.221137927891164 0 0 0 0 96.01324766507696 69.074717648895458 0 69.074717648895458 -39.315663012958339 0 0 0 0 90.49313935401733 -56.757343633912342 0 -56.757343633912342 32.932524782833411 0 0 0 0 2.4494102734533953 23.713128075946827 0 23.713128075946827 -2.3365487507962825 0 0 0 0 11.194853787885222 -20.53768287169224 0 -20.53768287169224 12.883862914302654 0 0 0 0 -262.24552876569942 -11.627404947903756 0 -11.627404947903756 21.14962304397136 0 0 0 0 -83.524619361865916 140.84288970984824 0 140.84288970984824 -51.440996945928731 0 0 0 0 -353.56462654699516 -117.55301956069093 0 -117.55301956069093 4.9809456946937871 0 0 0 0 -95.229406131471478 70.178650436032058 0 70.178650436032058 75.565835683528121 0 0 0 0 -17.529664151835235 -6.2217036019788594 0 -6.2217036019788594 -0.20420216651358336 0 0 0 0 -40.524924902241764 -27.427296438393569 0 -27.427296438393569 -24.614284378111279 0 0 0 0 -449.51555392153386 -136.10283126041713 0 -136.10283126041713 93.521602001710789 0 0 0 0 -359.06437811297656 268.72199935068102 0 268.72199935068102 104.55352489372922 0 0 0 0 -3.920861762312299 -0.38576628179020744 0 -0.38576628179020744 0.038329821842293943 0 0 0 0 -87.119165851290745 -46.66300543800287 0 -46.66300543800287 -121.63938861520518 0 0 0 0 -7.7023001784907166 -2.5564499418996443 0 -2.5564499418996443 -0.41914438482915184 0 0 0 0 50.852387373688543 -16.328232747800428 0 -16.328232747800428 -36.80405208319354 0 0 0 0 8.2532279895312968 14.429326516201399 0 14.429326516201399 -56.283566602506824 0 0 0 0 -624.01296739202371 -288.83388525570865 0 -288.83388525570865 326.55310520327157 0 0 0 0 -7.7183952096456778 -16.576156399484063 0 -16.576156399484063 10.994185360432027 0 0 0 0 -1.389193311990681 -0.18738496149369777 0 -0.18738496149369777 0.094488436109598867 0 0 0 0 -159.34805566711293 0.57309788079601276 0 0.57309788079601276 76.390121729739747 0 0 0 0 17.436777639861248 43.958368516686107 0 43.958368516686107 -52.165234188278305 0 0 0 0 -83.126618406924536 -49.656424239077865 0 -49.656424239077865 -21.780724725542058 0 0 0 0 -0.83491019373576592 -0.085565437738429395 0 -0.085565437738429395 0.06184842884017494 0 0 0 0 -80.585261867747022 -31.827928980925012 0 -31.827928980925012 -0.10699445843977173 0 0 0 0 -46.316042817787093 -28.516832655932149 0 -28.516832655932149 -0.086035336159653752 0 0 0 0 12.009146746499027 -31.886013354654779 0 -31.886013354654779 -25.417025476469007 0 0 0 0 -5.6199334455632197 12.743925723895359 0 12.743925723895359 33.435033117309615 0 0 0 0 -9.7857169350372715 -12.329090117946379 0 -12.329090117946379 -8.0571996755626287 0 0 0 0 -12.789372163708322 -9.0185381703682879 0 -9.0185381703682879 4.3925397087839428 0 0 0 0 -37.207213689205673 -16.175312520416071 0 -16.175312520416071 -5.4752477218008551 0 0 0 0 -38.941490885419626 -0.48572325910760128 0 -0.48572325910760128 -3.2248969826752614 0 0 0 0 -70.288917348574614 -1.6213107915542651 0 -1.6213107915542651 5.4896440103652822 0 0 0 0 -73.326047039605328 -2.2433865205279062 0 -2.2433865205279062 6.0111002895400816 0 0 0 0 -89.869310484013113 9.3410037032354012 0 9.3410037032354012 7.3131348704081347 0 0 0 0 -71.70635085531967 6.5108219099413489 0 6.5108219099413489 6.0252531573380566 0 0 0 0 -78.01456750314901 9.1956090962506778 0 9.1956090962506778 5.5282673947598369 0 0 0 0 -78.487040530759259 5.1673831632614906 0 5.1673831632614906 -13.082619909864434 0 0 0 0 -65.762804703303118 18.018189959893107 0 18.018189959893107 -0.38588307337079186 0 0 0 0 -86.34143950597354 28.610781540432384 0 28.610781540432384 -5.2087040683692294 0 0 0 0 -48.920533373056969 28.532487913598118 0 28.532487913598118 -10.180722173149718 0 0 0 0 -26.644593070923293 10.486360459379625 0 10.486360459379625 2.5642980550528591 0 0 0 0 -68.411289165149356 65.462737670624932 0 65.462737670624932 -26.067563913235745 0 0 0 0 -98.171772494337347 -4.2216504941621338 0 -4.2216504941621338 21.331960912688178 0 0 0 0 -131.03886890353897 23.388215229455028 0 23.388215229455028 15.49620195694672 0 0 0 0 -78.031468385714106 -2.6693842109502839 0 -2.6693842109502839 10.040940084312297 0 0 0 0 -84.438060532273994 -3.921652297984263 0 -3.921652297984263 10.540650112857179 0 0 0 0 -81.929444824729217 17.958540895525459 0 17.958540895525459 16.070278374954341 0 0 0 0 -96.410228179454862 5.3800023358730868 0 5.3800023358730868 0.096728575961378738 0 0 0 0 -66.268501084328818 36.845912162252546 0 36.845912162252546 -25.733846470239769 0 0 0 0 -33.616967480033054 -2.3962397286755959 0 -2.3962397286755959 -22.810296532430534 0 0 0 0 -154.14600673662608 -53.297162307430582 0 -53.297162307430582 7.5161056849514125 0 0 0 0 -226.42825035695569 38.473158666662982 0 38.473158666662982 1.7621465116378943 0 0 0 0 -137.64322302875371 -16.161928099852275 0 -16.161928099852275 8.237051091944636 0 0 0 0 -103.41332354890619 6.9924199375262788 0 6.9924199375262788 9.3171221812920066 0 0 0 0 -97.22138672789697 -14.705159575208668 0 -14.705159575208668 2.8895422968367939 0 0 0 0 -66.741644424255355 -8.8631869490429267 0 -8.8631869490429267 0.80226927729904673 0 0 0 0 -65.045318031497118 9.4707663257590156 0 9.4707663257590156 -5.4490649830474922 0 0 0 0 -66.358887609472731 6.0750591147387922 0 6.0750591147387922 -1.2406988935102277 0 0 0 0 -85.575563685239104 11.153593903937647 0 11.153593903937647 2.3727148035851542 0 0 0 0 -18.284703739373072 -15.390893496435012 0 -15.390893496435012 -9.1116085216558531 0 0 0 0 -10.72212175475579 -10.900114432280759 0 -10.900114432280759 -13.631106269131408 0 0 0 0 -21.503000955203746 -9.3919838828270947 0 -9.3919838828270947 -3.5598319825951221 0 0 0 0 -3.6502739606803516 -28.098677780001182 0 -28.098677780001182 4.3585935376413545 0 0 0 0 3.3181973445061885 -16.449252790230389 0 -16.449252790230389 -14.923922525075596 0 0 0 0 -27.699683819257189 -3.4034376065654612 0 -3.4034376065654612 -6.6223963024864361 0 0 0 0 -22.716825879975659 2.1344226929336401 0 2.1344226929336401 -16.18223366919716 0 0 0 0 -8.5623796878899157 -3.6140013826826873 0 -3.6140013826826873 -13.760867842451432 0 0 0 0 2.6507331049006098 -33.19786831600976 0 -33.19786831600976 -17.182764155466373 0 0 0 0 6.6554833671543747 -54.2323804819369 0 -54.2323804819369 31.372361902541343 0 0 0 0 -19.207147924087181 -6.7584456314990184 0 -6.7584456314990184 -2.3183206895052919 0 0 0 0 -28.562814888471621 4.2869076989822759 0 4.2869076989822759 10.940880877087693 0 0 0 0 -11.818731084047613 -4.0730906373317879 0 -4.0730906373317879 -32.657116254674989 0 0 0 0 -9.5198076723671932 -2.6204934855456292 0 -2.6204934855456292 -0.39532138209455803 0 0 0 0 -36.291065194411203 -71.905927690523868 0 -71.905927690523868 3.3315195834728542 0 0 0 0 -30.560167332347191 9.3937272621536607 0 9.3937272621536607 -16.332148681185323 0 0 0 0 -28.014833268167948 -7.062156161295043 0 -7.062156161295043 0.68713352363094771 0 0 0 0 21.961857613327993 -2.1084764398346891 0 -2.1084764398346891 -57.492293381791683 0 0 0 0 0.71385426036376032 -4.747059820925486 0 -4.747059820925486 -0.38582903575280758 0 0 0 0 -128.11169724023057 -41.587880565978281 0 -41.587880565978281 222.12305558468373 0 0 0 0 -73.977462745318917 103.60303959035302 0 103.60303959035302 -139.4312632361723 0 0 0 0 -161.40483329190465 -275.23993315141513 0 -275.23993315141513 -163.34556832185731 0 0 0 0 -68.678008595712072 218.50571273727178 0 218.50571273727178 -56.296436077178896 0 0 0 0 14.027707121851563 48.306051965742427 0 48.306051965742427 82.461898336684271 0 0 0 0 -20.610455684985027 2.1343019963673093 0 2.1343019963673093 39.427290904723577 0 0 0 0 -18.174562345875529 -4.897707122781771 0 -4.897707122781771 -9.0786923605125907 0 0 0 0 -8.6279772249145026 31.542862724657201 0 31.542862724657201 0.075726296915813576 0 0 0 0 -38.531307876657593 11.433391952074604 0 11.433391952074604 13.721753387809194 0 0 0 0 -24.401523386454059 1.4390098318748743 0 1.4390098318748743 -0.08811413375469053 0 0 0 0 -23.807816524917143 11.486710183799282 0 11.486710183799282 26.121030663032023 0 0 0 0 -37.98285426817165 -4.2827601123580763 0 -4.2827601123580763 35.582471391241981 0 0 0 0 -23.331668310571331 9.2653640317405177 0 9.2653640317405177 24.215767761069351 0 0 0 0 -21.818503015088027 6.3083076497924253 0 6.3083076497924253 6.371743784267581 0 0 0 0 -20.845441824927548 9.3049840721579198 0 9.3049840721579198 15.364601476322907 0 0 0 0 -24.13463246031769 1.0830876779059322 0 1.0830876779059322 0.067508790664608062 0 0 0 0 -25.882481046402972 7.4963707480214907 0 7.4963707480214907 25.116883139742974 0 0 0 0 -15.015278320024663 1.2060259403505107 0 1.2060259403505107 -7.8963614816840675 0 0 0 0 -13.75780632291935 4.1480764565733637 0 4.1480764565733637 -8.5562111809298926 0 0 0 0 -21.513011022339924 3.8797264699445058 0 3.8797264699445058 2.2465408006135545 0 0 0 0 -20.436102330979338 1.4960273606776184 0 1.4960273606776184 0.052019361678348766 0 0 0 0 -14.500818596530735 8.630688822702723 0 8.630688822702723 -14.128930040909335 0 0 0 0 -6.2561113968586142 16.415136305980774 0 16.415136305980774 -15.486972316034848 0 0 0 0 -48.957440354908613 18.372772935062642 0 18.372772935062642 73.714675074567793 0 0 0 0 -23.588386044786162 1.0168981540900059 0 1.0168981540900059 0.065509695337070253 0 0 0 0 -21.064765470957354 16.856816959750098 0 16.856816959750098 37.261729262382062 0 0 0 0 -22.72066813943978 0.72521057480317985 0 0.72521057480317985 0.14128356418222826 0 0 0 0 -21.147901156286025 0.3107594071791473 0 0.3107594071791473 0.19579592776227395 0 0 0 0 -55.585887890407321 -21.446014519649111 0 -21.446014519649111 71.875864376087947 0 0 0 0 -10.018721372063737 8.3953520294578539 0 8.3953520294578539 2.4788794123133897 0 0 0 0 -110.62001293268258 16.570232736254695 0 16.570232736254695 3.6663267562040858 0 0 0 0 -61.562297738157213 -63.23104753809217 0 -63.23104753809217 -42.305897643049491 0 0 0 0 -66.033377525749529 42.719135381553144 0 42.719135381553144 -72.793202311998812 0 0 0 0 -106.94907697344752 -24.190243414794566 0 -24.190243414794566 -3.5895194577478833 0 0 0 0 -1.6991873706210754 -0.47148851825336635 0 -0.47148851825336635 -0.077231154995917511 0 0 0 0 -19.409427817830874 33.105170764425907 0 33.105170764425907 -93.90330683439737 0 0 0 0 -27.608255658695271 -51.550493292643324 0 -51.550493292643324 -116.23424852541751 0 0 0 0 -3.4624396582694317 3.1830565287754951 0 3.1830565287754951 -45.949448030826602 0 0 0 0 16.857330408216512 -12.189335986749256 0 -12.189335986749256 -79.721156269989578 0 0 0 0 -4.9432004190314416 0.44391381913734573 0 0.44391381913734573 -0.067257697190043 0 0 0 0 8.8648814639855118 -40.626438832695385 0 -40.626438832695385 -30.711692834395876 0 0 0 0 -15.190066674738773 -55.982504635919099 0 -55.982504635919099 39.586684512590011 0 0 0 0 -17.809869653052374 -7.4066999107462266 0 -7.4066999107462266 -13.155224572008024 0 0 0 0 -24.591698775068167 -10.596935411785747 0 -10.596935411785747 -4.0548275341586217 0 0 0 0 -19.346921169555571 -70.480165748873787 0 -70.480165748873787 40.955251333677211 0 0 0 0 -13.692428557624226 -15.802176344464954 0 -15.802176344464954 -6.9267771041178889 0 0 0 0 -10.261500467178848 -14.309833939670057 0 -14.309833939670057 -6.6077639024009329 0 0 0 0 -27.960881916715152 -12.308746705960345 0 -12.308746705960345 2.0682084623229571 0 0 0 0 -11.869131054101217 -9.4097843624491802 0 -9.4097843624491802 -9.2753851702620977 0 0 0 0 -26.880592946596053 -11.820314184353947 0 -11.820314184353947 -4.7292036751692041 0 0 0 0 -39.577381798444549 -36.521507039185792 0 -36.521507039185792 52.712572434488607 0 0 0 0 -20.640009514813755 2.7596154027627193 0 2.7596154027627193 12.601234495371159 0 0 0 0 -45.76624212525121 5.578458767471858 0 5.578458767471858 13.416609993719931 0 0 0 0 -35.335855191437986 0.28521821408577352 0 0.28521821408577352 4.7545801066883087 0 0 0 0 -29.434042707238405 6.8817917346700597 0 6.8817917346700597 -16.200037080725338 0 0 0 0 -39.423111810443515 5.091237839719156 0 5.091237839719156 0.86664547682778448 0 0 0 0 -36.655901610673027 -0.55100378391608729 0 -0.55100378391608729 -6.5120796546333395 0 0 0 0 -36.561640335239645 -3.2659566923625789 0 -3.2659566923625789 8.771725216653067 0 0 0 0 -37.046745979561592 -4.5945582840307893 0 -4.5945582840307893 8.257770093980298 0 0 0 0 -23.817030756348686 -7.3602019954163325 0 -7.3602019954163325 4.3092093319178844 0 0 0 0 -29.559239115209493 -1.2880506860999574 0 -1.2880506860999574 2.107460354321347 0 0 0 0 -7.2616512994809455 -15.308689419648193 0 -15.308689419648193 -19.418396247983139 0 0 0 0 -5.9567089232657082 2.4073843981354699 0 2.4073843981354699 4.0456142432508466 0 0 0 0 -12.760752928270449 -1.5864723262285452 0 -1.5864723262285452 -9.6740766883249307 0 0 0 0 -26.768183534786658 -1.1078519459396148 0 -1.1078519459396148 -6.7877527323853428 0 0 0 0 -16.575720661163359 -5.9121744872052489 0 -5.9121744872052489 -23.778610846948823 0 0 0 0 -20.232809639306652 -10.152206723223003 0 -10.152206723223003 -8.3993544272115059 0 0 0 0 -18.405231975342758 -21.777311748090369 0 -21.777311748090369 -31.45159068269885 0 0 0 0 -25.534806698186003 12.554984044331178 0 12.554984044331178 -59.494354957740825 0 0 0 0 -17.844259364230311 -6.9705386105148932 0 -6.9705386105148932 -21.244248414728759 0 0 0 0 -46.629838402106543 7.5323193783522129 0 7.5323193783522129 -9.4971357790066691 0 0 0 0 -14.684997366661264 -28.446564321654932 0 -28.446564321654932 -49.18264769148427 0 0 0 0 -17.171760344670474 -15.568177402122856 0 -15.568177402122856 -114.32985614786878 0 0 0 0 -13.658522975390952 -19.63881507305992 0 -19.63881507305992 -33.391374506134206 0 0 0 0 -18.469365648531493 -33.869562103961826 0 -33.869562103961826 -19.78774917500138 0 0 0 0 -20.216765443568875 -7.0291656889937855 0 -7.0291656889937855 2.9456205068131283 0 0 0 0 -20.748683924910438 -0.53574918496105117 0 -0.53574918496105117 3.6644489282978103 0 0 0 0 -18.847457244057267 -0.050454641259658928 0 -0.050454641259658928 0.19041292203818402 0 0 0 0 -21.821998693368187 2.2846256977987158 0 2.2846256977987158 3.2100408955254327 0 0 0 0 -21.430524678205984 -17.907628226166992 0 -17.907628226166992 13.560262462553137 0 0 0 0 -16.75574351747855 1.9283833986391159 0 1.9283833986391159 -2.0676653358542474 0 0 0 0 -16.213642811889429 -0.27556946162046092 0 -0.27556946162046092 0.16508343665975334 0 0 0 0 -18.52239073644887 -17.73078111101546 0 -17.73078111101546 -28.201647276217216 0 0 0 0 -17.203198867064202 -21.981249354726799 0 -21.981249354726799 -24.626768729109983 0 0 0 0 -17.216013284993096 -17.374469426287565 0 -17.374469426287565 -28.518656584701809 0 0 0 0 -12.735309374008466 -25.478167915556881 0 -25.478167915556881 -29.087176311024166 0 0 0 0 -42.098363267821696 -0.43030327432342474 0 -0.43030327432342474 -0.19398688685098209 0 0 0 0 -29.955183943653537 -26.102665497945168 0 -26.102665497945168 -23.985685589201495 0 0 0 0 -26.796013874398341 -12.944851722476727 0 -12.944851722476727 -7.7395183250661717 0 0 0 0 -32.29451012671052 -35.608876249117031 0 -35.608876249117031 -33.272227092661822 0 0 0 0 -67.664451450469642 -14.683663252952352 0 -14.683663252952352 -42.054878458727174 0 0 0 0 -17.503693783360632 -19.615425554014951 0 -19.615425554014951 -34.271292590310686 0 0 0 0 -21.755804902437376 -14.53092746750707 0 -14.53092746750707 -31.198324264222833 0 0 0 0 -30.369943192690698 -32.789562112106182 0 -32.789562112106182 -69.625941574483733 0 0 0 0 -13.463246209053807 -0.36764311333691779 0 -0.36764311333691779 0.097839241337979804 0 0 0 0 -117.34082520256925 2.9867176024182314 0 2.9867176024182314 6.5382419490981469 0 0 0 0 -1487.8535941082484 424.41294582999461 0 424.41294582999461 -4.2694370045641161 0 0 0 0 -59.058535745818517 23.505657909581984 0 23.505657909581984 -65.607295283162443 0 0 0 0 -1496.1557046408327 -241.63920894515573 0 -241.63920894515573 100.58205103404859 0 0 0 0 -6.0946462508690331 -0.44793552152685301 0 -0.44793552152685301 -0.17498546855215596 0 0 0 0 -1207.3840548089502 -576.52094175848924 0 -576.52094175848924 -274.73417787219114 0 0 0 0 -1918.4983915081102 -450.2983734272002 0 -450.2983734272002 0.894804653586867 0 0 0 0 -22.317877090717957 4.8021954336366264 0 4.8021954336366264 -61.649014564089278 0 0 0 0 -4.2263945599629267 0.97851832717893217 0 0.97851832717893217 0.9128418040009183 0 0 0 0 -1501.2383151351933 -505.69435236428279 0 -505.69435236428279 -112.76191733479723 0 0 0 0 -808.09412344934753 -243.47009608645064 0 -243.47009608645064 -14.657985288124422 0 0 0 0 -790.46553178673048 -111.57475807159645 0 -111.57475807159645 102.73573738153664 0 0 0 0 -424.9118938932952 -183.4605346867973 0 -183.4605346867973 -101.11967218337321 0 0 0 0 -1499.277470073032 -23.011532267209173 0 -23.011532267209173 291.80309010992102 0 0 0 0 -248.76617423033531 82.892885718934167 0 82.892885718934167 4.5879198825499259 0 0 0 0 -7.8182344578463301 3.303092960890659 0 3.303092960890659 1.8082547510287621 0 0 0 0 -17.837212008708548 -15.362359809142259 0 -15.362359809142259 -15.128046120578347 0 0 0 0 -7.9752034522641821 3.6390116291208798 0 3.6390116291208798 2.4214377960744056 0 0 0 0 -15.081472337835294 -9.8927528997414811 0 -9.8927528997414811 -16.781198471866787 0 0 0 0 -17.922818068755987 -14.489808609342536 0 -14.489808609342536 -108.29850679936817 0 0 0 0 -14.913735509529943 3.393196663131512 0 3.393196663131512 -14.360380051540119 0 0 0 0 -246.69184643033077 -27.066430581762319 0 -27.066430581762319 -23.249026303706685 0 0 0 0 -656.26192799820274 297.18946600647757 0 297.18946600647757 120.40145581828804 0 0 0 0 -392.89995505953993 327.82425159254888 0 327.82425159254888 -179.59621404732559 0 0 0 0 -1497.3968765914396 627.56376678638298 0 627.56376678638298 21.846256230204624 0 0 0 0 -1500.0278082260666 -22.591499046345092 0 -22.591499046345092 291.84880817449618 0 0 0 0 -825.32023880462293 297.40414053410319 0 297.40414053410319 125.15438117669859 0 0 0 0 16.921326345480338 26.330056684968049 0 26.330056684968049 -32.590268107674078 0 0 0 0 4.4358454911016452 8.204698809935282 0 8.204698809935282 -8.7763118234771529 0 0 0 0 0.046671862404764397 -1.3187792033088575 0 -1.3187792033088575 -6.8271699423777363 0 0 0 0 12.382265970176377 5.0411200603457029 0 5.0411200603457029 -8.1491870209964432 0 0 0 0 13.285734202363528 4.9523684874344678 0 4.9523684874344678 -42.432613365047089 0 0 0 0 -56.73395587233972 9.7250826489970876 0 9.7250826489970876 -47.871063712774387 0 0 0 0 -139.66495210901849 31.687337651641258 0 31.687337651641258 -57.321236831964796 0 0 0 0 -47.802315642595204 35.25830432384538 0 35.25830432384538 -96.551135542973398 0 0 0 0 -70.809235565298877 35.82957320024461 0 35.82957320024461 -83.220851952239514 0 0 0 0 -61.371797373975824 8.3717350412993117 0 8.3717350412993117 -30.064363428616126 0 0 0 0 -157.09962943216669 43.278282964789618 0 43.278282964789618 -31.395447260467506 0 0 0 0 -4.9744355472612369 4.6096463111482677 0 4.6096463111482677 -23.262174160133039 0 0 0 0 -7.779408014677756 18.306022741648441 0 18.306022741648441 -73.320725541384675 0 0 0 0 -17.071873114941809 61.494787648588449 0 61.494787648588449 25.377842576753729 0 0 0 0 -23.066092921929339 28.711066592394634 0 28.711066592394634 -25.356622059987302 0 0 0 0 -78.090824967295703 23.503301848224357 0 23.503301848224357 -34.015325304532546 0 0 0 0 -70.941254544210096 54.110452414108494 0 54.110452414108494 -28.536975965328402 0 0 0 0 -66.961589161750453 -14.064666153954256 0 -14.064666153954256 19.185897567739516 0 0 0 0 -136.07855140572792 -20.011229709856764 0 -20.011229709856764 26.343626808611987 0 0 0 0 -26.077062381249561 50.72823908871203 0 50.72823908871203 -12.431629865017484 0 0 0 0 -37.774427674714389 45.003396526175976 0 45.003396526175976 16.330980541385799 0 0 0 0 8.1431066054065013 30.088016069445374 0 30.088016069445374 -89.46502061997316 0 0 0 0 -0.10266388140654215 -0.35638207732586036 0 -0.35638207732586036 0.1294435930122132 0 0 0 0 10.057872543951817 9.8181801885348925 0 9.8181801885348925 26.075205444025499 0 0 0 0 -23.902196019556868 36.76511847866162 0 36.76511847866162 81.507683772800078 0 0 0 0 -0.32306793164389092 19.095158311085054 0 19.095158311085054 16.577647974715184 0 0 0 0 0.34548677403375905 2.519244419558281 0 2.519244419558281 -1.2017091568051455 0 0 0 0 14.696178465939738 20.815450801782319 0 20.815450801782319 -3.8540613459377586 0 0 0 0 -10.76864977738478 13.146558718917618 0 13.146558718917618 0.46286743676972719 0 0 0 0 11.817064753075101 21.748337198513553 0 21.748337198513553 -23.35311737889694 0 0 0 0 -11.465826062741172 10.082510770971005 0 10.082510770971005 -5.0473910787128968 0 0 0 0 -14.221675962617155 17.599755008528746 0 17.599755008528746 2.9208746773367693 0 0 0 0 -16.086737292986072 10.232361307050496 0 10.232361307050496 0.32039786918974045 0 0 0 0 -9.5971440331122722 19.166012783263341 0 19.166012783263341 -2.0247772448501564 0 0 0 0 -8.0852836652775295 15.316634777857871 0 15.316634777857871 1.8583116349445845 0 0 0 0 -7.1513743739778874 17.385517120803343 0 17.385517120803343 1.709396497958835 0 0 0 0 7.8112175587884849 31.764231086272275 0 31.764231086272275 5.5671776866852269 0 0 0 0 -6.6867703753086971 19.099004488005448 0 19.099004488005448 4.7884646667987454 0 0 0 0 -4.0488221682515473 -1.7476784705298982 0 -1.7476784705298982 -0.57839890057569221 0 0 0 0 -8.2191489805645688 16.543562635126648 0 16.543562635126648 3.6790131729421773 0 0 0 0 9.2088663972099312 22.182191863888875 0 22.182191863888875 2.7616355939458757 0 0 0 0 -1.271614551456878 19.241362398668798 0 19.241362398668798 2.7520086079193788 0 0 0 0 -2.6743047622221638 20.516090213644475 0 20.516090213644475 3.6157773947979877 0 0 0 0 14.235772654457833 26.280326418524965 0 26.280326418524965 -1.5224164778228442 0 0 0 0 4.6722410762013169 27.07298282738293 0 27.07298282738293 7.124146219434806 0 0 0 0 -2.1414207728521433 21.608779122084343 0 21.608779122084343 3.7692680332615964 0 0 0 0 -3.215659578127088 21.796950935257655 0 21.796950935257655 4.6761195316958037 0 0 0 0 -8.1782365575054428 16.49138676083885 0 16.49138676083885 2.9096353309769256 0 0 0 0 -6.1327034797395754 14.856656355514474 0 14.856656355514474 -6.840494679925996 0 0 0 0 -15.654703296611842 16.035746577652958 0 16.035746577652958 24.076796930393357 0 0 0 0 -8.8320070767804282 6.4882355593431953 0 6.4882355593431953 0.90119741068107118 0 0 0 0 -9.2310751690092729 14.497907243262489 0 14.497907243262489 3.615032121470108 0 0 0 0 -7.0450018198993618 4.9682372325689528 0 4.9682372325689528 -0.13645653034240479 0 0 0 0 -4.822234577681229 10.976430229269489 0 10.976430229269489 2.1854137208861109 0 0 0 0 -9.9942584586631114 7.8921572986514734 0 7.8921572986514734 -1.7768779661698559 0 0 0 0 -7.3129275896717445 8.8952770410659241 0 8.8952770410659241 4.6887480446725434 0 0 0 0 -355.03028514266771 117.97087087941395 0 117.97087087941395 160.16690640059682 0 0 0 0 -28.476396426391148 7.1418463787789506 0 7.1418463787789506 163.11192053268368 0 0 0 0 -19.435401518517253 5.0422629160049723 0 5.0422629160049723 4.3499419321345725 0 0 0 0 -53.181777014702675 8.5350284829418115 0 8.5350284829418115 8.4225991987298983 0 0 0 0 -18.552878728354699 -9.2941210344510523 0 -9.2941210344510523 29.928962787585387 0 0 0 0 -4.639067734402488 -21.740871571264961 0 -21.740871571264961 7.4814706122929806 0 0 0 0 -16.500458930677269 -17.858477974449528 0 -17.858477974449528 45.88110456762081 0 0 0 0 -12.72633093278273 -21.882235641718047 0 -21.882235641718047 47.131774179135732 0 0 0 0 -1.6484289197592261 28.766829678687813 0 28.766829678687813 14.858945202809082 0 0 0 0 -31.004879928812443 26.501271694734442 0 26.501271694734442 17.181245712033387 0 0 0 0 -10.810502070797099 4.8239427803548427 0 4.8239427803548427 1.5238540110846956 0 0 0 0 -11.226466034031908 5.6413080362760866 0 5.6413080362760866 7.8207871524339101 0 0 0 0 -138.5779568402213 -28.019489128063924 0 -28.019489128063924 142.90721172911253 0 0 0 0 -5.5625491229513671 0.97358703535052582 0 0.97358703535052582 1.9719233554505529 0 0 0 0 -5.2547353867412312 31.858162689273968 0 31.858162689273968 -36.52737013639296 0 0 0 0 -17.615096872482795 4.7737352747249702 0 4.7737352747249702 2.0023990801814668 0 0 0 0 -10.400797435548156 3.2879304677427399 0 3.2879304677427399 -10.309642184497307 0 0 0 0 -12.494658900053764 -2.1721077720473261 0 -2.1721077720473261 7.1207175723117189 0 0 0 0 -129.475466977834 150.81686529606918 0 150.81686529606918 92.986244205065759 0 0 0 0 -41.56187032746675 -2.0642365225122603 0 -2.0642365225122603 14.639757825667516 0 0 0 0 -13.478114887227349 -1.3917132688387852 0 -1.3917132688387852 6.3013914205241806 0 0 0 0 -34.109261092460656 -2.8866204592221152 0 -2.8866204592221152 46.96527443779928 0 0 0 0 -15.695347718890844 8.0975376741089065 0 8.0975376741089065 -2.511099193315431 0 0 0 0 -4.3077639522666118 1.1621571084194571 0 1.1621571084194571 2.2618826142959332 0 0 0 0 13.624046525190352 -15.349848292758338 0 -15.349848292758338 10.464128337800815 0 0 0 0 -10.91005505454163 0.25623486772597204 0 0.25623486772597204 5.24260708147151 0 0 0 0 -8.9208627316916136 -4.4501542370808025 0 -4.4501542370808025 7.6002084034182644 0 0 0 0 -16.77615662572498 8.2063335934763018 0 8.2063335934763018 -2.3455468447933754 0 0 0 0 -9.8647998330720839 -12.155841850889395 0 -12.155841850889395 7.3283113341415174 0 0 0 0 -42.090883532939188 11.754969495444101 0 11.754969495444101 12.82501820445259 0 0 0 0 0.0082105052642873488 11.26940066918907 0 11.26940066918907 2.1952782591475368 0 0 0 0 4.9813249471108065 10.968622800100455 0 10.968622800100455 -1.0924339062465211 0 0 0 0 -12.567521662815125 5.9248758265985089 0 5.9248758265985089 1.2092669035686185 0 0 0 0 -0.1266769537487562 10.590165555779992 0 10.590165555779992 -1.000519851534821 0 0 0 0 -5.7982568473701548 5.6031535532095518 0 5.6031535532095518 -2.6778503783285328 0 0 0 0 -0.84566836255618227 1.6835479105266877 0 1.6835479105266877 1.2554930021195367 0 0 0 0 5.6482100906941923 10.946609430904656 0 10.946609430904656 -1.364586373269308 0 0 0 0 -1.0693043148930883 14.140419958512441 0 14.140419958512441 -4.6785165455939568 0 0 0 0 -3.5295958314322817 0.93859967590367432 0 0.93859967590367432 0.1393375003776588 0 0 0 0 -15.363298887514247 3.6520462404210194 0 3.6520462404210194 -2.6497637949631851 0 0 0 0 -8.0307678432818577 6.0612582173044771 0 6.0612582173044771 -1.8845889398891944 0 0 0 0 -1.3070558334366069 8.6152263240783675 0 8.6152263240783675 -4.3564489984115493 0 0 0 0 -7.9602206748168101 9.5067984973398918 0 9.5067984973398918 -1.7289793227971746 0 0 0 0 0.29614927672082558 13.31274179619545 0 13.31274179619545 -0.59015112014147331 0 0 0 0 -3.574571282711986 7.6770174962021018 0 7.6770174962021018 -2.2774661590232732 0 0 0 0 -4.8174218890799239 -117.25797403854091 0 -117.25797403854091 106.14792942145525 0 0 0 0 -8.2338199287405587 9.2838277070246242 0 9.2838277070246242 -11.21261694761921 0 0 0 0 0.20110907659568511 0.14663355336869444 0 0.14663355336869444 0.39525696725720755 0 0 0 0 -3.4966572936446028 4.666671498528129 0 4.666671498528129 -9.7424366297912535 0 0 0 0 -9.8605680442706216 -8.2090281416208768 0 -8.2090281416208768 95.027311258470377 0 0 0 0 16.855254576970765 -25.768921446023583 0 -25.768921446023583 44.373259336158959 0 0 0 0 -39.459381080121602 29.287642559751959 0 29.287642559751959 99.174017813777198 0 0 0 0 -53.491120006226993 -18.544353016423486 0 -18.544353016423486 95.803593874970943 0 0 0 0 -32.850576504679339 76.893940569160094 0 76.893940569160094 -110.31613019953693 0 0 0 0 -1.7558397889884532 -0.33514393381810592 0 -0.33514393381810592 -0.54752115587181083 0 0 0 0 -139.99406734724471 -15.925237503016753 0 -15.925237503016753 64.234037120733419 0 0 0 0 -16.141772180155385 -76.870678837475836 0 -76.870678837475836 -37.690734325920886 0 0 0 0 14.185265469503065 -19.166875727351787 0 -19.166875727351787 63.469950549032355 0 0 0 0 -68.614088868751423 9.5377336153625265 0 9.5377336153625265 46.374618320182663 0 0 0 0 -46.351314204113805 12.898464901665207 0 12.898464901665207 -10.916243789246355 0 0 0 0 -41.449651860930317 38.215384328054469 0 38.215384328054469 94.371983164053518 0 0 0 0 7.8578472559520378 35.522135928637056 0 35.522135928637056 94.950975988619632 0 0 0 0 -1.1697599182961866 -0.39064857988116586 0 -0.39064857988116586 1.1731923273547658 0 0 0 0 -18.586012213374488 -29.179672268327295 0 -29.179672268327295 81.749952643603592 0 0 0 0 2.0344582993566291 -28.374862684360167 0 -28.374862684360167 14.150199868661772 0 0 0 0 -5.3048998513440893 71.249116770518029 0 71.249116770518029 3.3012635486636555 0 0 0 0 -2.922899765191687 52.619737897974062 0 52.619737897974062 -46.304901979379807 0 0 0 0 -6.0787069633817907 -1.3064575762046609 0 -1.3064575762046609 4.1687947188103731 0 0 0 0 -10.967217343844823 -8.2692978592670556 0 -8.2692978592670556 16.965030079998897 0 0 0 0 -19.474974969554296 -5.606718213773771 0 -5.606718213773771 32.275276993623095 0 0 0 0 -21.241533526965213 -9.5827410370944293 0 -9.5827410370944293 44.898661982758249 0 0 0 0 -8.6030582302458445 -1.9138073446242814 0 -1.9138073446242814 17.834094813173586 0 0 0 0 -24.584872787625258 4.6338775203083298 0 4.6338775203083298 2.6933537938017427 0 0 0 0 -21.055603666143725 -22.223172742361726 0 -22.223172742361726 53.598251289325759 0 0 0 0 -10.413388936351112 -19.723475529739645 0 -19.723475529739645 28.590870373428018 0 0 0 0 -13.744162217547455 -11.387852692633315 0 -11.387852692633315 25.803290990660479 0 0 0 0 6.4546645933078253 -27.631467790867468 0 -27.631467790867468 25.542431621280386 0 0 0 0 -25.488723087408289 0.04478435666715086 0 0.04478435666715086 26.633295012764108 0 0 0 0 -24.792991693962904 -3.2047767300941814 0 -3.2047767300941814 33.043779796470062 0 0 0 0 -23.109988977201283 8.9140553542592897 0 8.9140553542592897 27.558538932952388 0 0 0 0 -17.64468171126282 -4.5478339213132131 0 -4.5478339213132131 26.186527118361212 0 0 0 0 -6.0081310740085581 1.3884811036462708 0 1.3884811036462708 -0.082131962616152521 0 0 0 0 29.278303721719567 8.0066103087332223 0 8.0066103087332223 -34.106456178214557 0 0 0 0 -1.4172167876411947 2.4844946467129709 0 2.4844946467129709 -1.4552367517399167 0 0 0 0 -73.410000281905013 50.69111483723357 0 50.69111483723357 18.66292725457663 0 0 0 0 48.913777217952884 2.93765150607069 0 2.93765150607069 1.1394338636240491 0 0 0 0 -187.90565296456771 -35.398421876053938 0 -35.398421876053938 135.9848533573481 0 0 0 0 -23.618209409329211 -0.1189002503683696 0 -0.1189002503683696 19.770058610557044 0 0 0 0 -24.124320894546699 4.4730702256804582 0 4.4730702256804582 1.9479629626413808 0 0 0 0 -25.354462705093738 0.28911581559248134 0 0.28911581559248134 21.797071605303245 0 0 0 0 -24.811578532659041 -0.68843920025346961 0 -0.68843920025346961 21.59725218368294 0 0 0 0 -23.488381296212538 7.6353106744450372 0 7.6353106744450372 18.291358476632013 0 0 0 0 -10.766605233300524 1.2008789643444686 0 1.2008789643444686 1.6293784820012287 0 0 0 0 -12.389174862764776 2.9980375545812876 0 2.9980375545812876 13.196368396557773 0 0 0 0 -13.335130902103771 4.9635535144120304 0 4.9635535144120304 1.8015752480849496 0 0 0 0 -25.631211347961653 1.9934194659849709 0 1.9934194659849709 17.582961225497911 0 0 0 0 -15.946808796242181 3.2886662870364436 0 3.2886662870364436 1.6935925041981983 0 0 0 0 -8.4208454824183718 5.1504148170759834 0 5.1504148170759834 34.64651948988228 0 0 0 0 -15.887754784798744 4.3909126173388699 0 4.3909126173388699 7.3007489370511394 0 0 0 0 -3.2120836321277633 0.51027646614429045 0 0.51027646614429045 0.25377078167807454 0 0 0 0 -6.112894026824506 3.1675333284406406 0 3.1675333284406406 5.6824996553974643 0 0 0 0 -20.42858576864819 2.2953462840514476 0 2.2953462840514476 6.1476783043804062 0 0 0 0 -9.3862691948910992 6.2935020525136807 0 6.2935020525136807 8.8342409652071456 0 0 0 0 -28.466490984625125 -23.576808093782759 0 -23.576808093782759 50.275538900615459 0 0 0 0 -18.150956820183637 -8.660474142629802 0 -8.660474142629802 59.638125951525822 0 0 0 0 27.909740164740469 13.89801568148269 0 13.89801568148269 30.656156079992542 0 0 0 0 -3.4237201776995789 11.310450816132814 0 11.310450816132814 54.515407976731098 0 0 0 0 9.2704446537063632 -31.882396952401244 0 -31.882396952401244 49.16509188994074 0 0 0 0 24.280408903665375 -20.50092544148551 0 -20.50092544148551 9.6116864118187593 0 0 0 0 -1.7612387092158315 -48.24287905347186 0 -48.24287905347186 36.160560273840062 0 0 0 0 -7.3453197315393481 -11.654840523344193 0 -11.654840523344193 20.477103896282312 0 0 0 0 11.807618484643172 -30.335279441623769 0 -30.335279441623769 -17.691579107814626 0 0 0 0 -11.636533800923644 0.75028646713562686 0 0.75028646713562686 -7.098024306472313 0 0 0 0 -80.304629656555335 -18.292219438734072 0 -18.292219438734072 -69.371946076286918 0 0 0 0 -66.044838042420452 6.2357787945684819 0 6.2357787945684819 -28.388127783044393 0 0 0 0 -3.361296112441778 -7.9651968448814241 0 -7.9651968448814241 -31.491626329856135 0 0 0 0 23.418423121023807 -58.502185634521055 0 -58.502185634521055 -12.992494301466323 0 0 0 0 0.48729183156683575 -15.486486812556082 0 -15.486486812556082 -68.265669675310519 0 0 0 0 -4.792520654065811 -35.56583721972423 0 -35.56583721972423 44.358565830803485 0 0 0 0 -6.7570447947327921 -95.054581698315687 0 -95.054581698315687 93.802831088379889 0 0 0 0 -3.8816806976774387 3.5150655555786368 0 3.5150655555786368 -43.119312864801358 0 0 0 0 58.92530749436628 -62.523718176438322 0 -62.523718176438322 -9.9891279486725821 0 0 0 0 -28.015177079472778 -96.13236699234406 0 -96.13236699234406 100.13318436687177 0 0 0 0 -77.559659650800313 4.088918634466741 0 4.088918634466741 114.91346390217332 0 0 0 0 -13.120536230955622 38.596566743530644 0 38.596566743530644 112.27998070883915 0 0 0 0 -28.317935625144059 -27.428292886140458 0 -27.428292886140458 145.27003539991134 0 0 0 0 -5.0179044699781912 -2.732151371590362 0 -2.732151371590362 1.5326712800696649 0 0 0 0 -34.252797627928715 2.8694575048776638 0 2.8694575048776638 62.088393704064288 0 0 0 0 -18.261298396683841 0.868458674733251 0 0.868458674733251 5.7810023253940042 0 0 0 0 -32.951359747909009 23.764125816519822 0 23.764125816519822 -1.5061393173946271 0 0 0 0 -30.403401403343366 -1.3615502335659522 0 -1.3615502335659522 1.1478088549020984 0 0 0 0 23.917277840926545 -75.96185804154743 0 -75.96185804154743 70.452224411537372 0 0 0 0 -106.64788266561482 6.0292865137915612 0 6.0292865137915612 199.38644932041632 0 0 0 0 -81.436101442317522 51.79357919701129 0 51.79357919701129 -73.139378362543141 0 0 0 0 -172.6215182046908 -58.388421120055298 0 -58.388421120055298 138.53916997708023 0 0 0 0 -23.292361207745245 -1.5133067914036398 0 -1.5133067914036398 0.064054640248628836 0 0 0 0 -9.664130625385809 -0.42178045764284333 0 -0.42178045764284333 -0.099846068303974245 0 0 0 0 -583.98099926601208 492.07837652800742 0 492.07837652800742 -150.69502137980169 0 0 0 0 -991.18670337425283 385.55463929025586 0 385.55463929025586 72.79831871039994 0 0 0 0 -900.12117473135731 -170.91439314102786 0 -170.91439314102786 -878.69989590123294 0 0 0 0 -606.36838340656323 221.79327869945521 0 221.79327869945521 139.98450000014316 0 0 0 0 -373.08259864571664 412.04774342252955 0 412.04774342252955 -126.88488848113982 0 0 0 0 -478.76833241910026 159.93696459543395 0 159.93696459543395 0.0064948893059408874 0 0 0 0 -532.71615346160161 79.174263427555331 0 79.174263427555331 -58.317092858949778 0 0 0 0 -797.56388157240144 176.20132793556357 0 176.20132793556357 136.31635148269717 0 0 0 0 -0.72767986327158241 -0.16401593990379837 0 -0.16401593990379837 -1.1389704905411773 0 0 0 0 -1.2110438444080458 3.0873767150966245 0 3.0873767150966245 2.3399389812898841 0 0 0 0 -758.14497512613889 178.003993373735 0 178.003993373735 7.4931325607145425 0 0 0 0 -544.90273612162855 199.15530962281036 0 199.15530962281036 -89.891573415581433 0 0 0 0 -445.76406688701354 63.322666241156021 0 63.322666241156021 -52.850695909390765 0 0 0 0 -450.1171356137711 118.17859927527445 0 118.17859927527445 -75.52242623464528 0 0 0 0 -412.3462771471859 93.846371415242828 0 93.846371415242828 -44.134254730872485 0 0 0 0 -281.92639079452056 111.515996886815 0 111.515996886815 -71.49891054517532 0 0 0 0 -119.33845834665408 71.297989809473023 0 71.297989809473023 -85.940149484467298 0 0 0 0 -203.34629317471627 8.6252266407993119 0 8.6252266407993119 -74.246467839568339 0 0 0 0 -235.83518106555857 29.091451670426338 0 29.091451670426338 1.1493958380018512 0 0 0 0 -49.612724722700477 25.443536613398351 0 25.443536613398351 -60.109057094759407 0 0 0 0 -185.44790664636093 80.609489862253028 0 80.609489862253028 -84.411247290830062 0 0 0 0 -6.5335771476207363 1.0972051621682226 0 1.0972051621682226 -1.1624880324118796 0 0 0 0 9.9053097326177522 -148.85864268926844 0 -148.85864268926844 -548.62539027403773 0 0 0 0 -357.74117442487477 -122.34975526858454 0 -122.34975526858454 174.86189393385723 0 0 0 0 -11.198954504897618 13.351314572851024 0 13.351314572851024 -0.63597316590445407 0 0 0 0 -35.705040270314385 10.111188460305129 0 10.111188460305129 3.4397626560732988 0 0 0 0 -41.73393882028904 5.6438646111560047 0 5.6438646111560047 6.2450360992818332 0 0 0 0 -23.688758324355149 10.603066944691875 0 10.603066944691875 4.8904431074537342 0 0 0 0 -35.024103739466227 2.7990404486401985 0 2.7990404486401985 2.6249816183468511 0 0 0 0 -34.537693806712923 0.080036494619719178 0 0.080036494619719178 0.60248433809579183 0 0 0 0 -22.166943133888708 25.16780216727642 0 25.16780216727642 5.624786663299119 0 0 0 0 -47.560353063927323 20.767097474958007 0 20.767097474958007 17.666108118559293 0 0 0 0 -49.50604384205144 -12.688665938486594 0 -12.688665938486594 -3.4538839204644773 0 0 0 0 -59.194289527316869 1.2621046909523557 0 1.2621046909523557 9.3792511412877992 0 0 0 0 -35.629958461751812 -4.6401918055608817 0 -4.6401918055608817 -6.5597914083177997 0 0 0 0 -38.912910697539772 -5.1392111955392616 0 -5.1392111955392616 -3.4026367974553295 0 0 0 0 -38.908942845009733 -4.187906750068862 0 -4.187906750068862 3.2255139908467072 0 0 0 0 -35.064301229220291 1.0385085024356613 0 1.0385085024356613 0.56622321820748311 0 0 0 0 -38.073383073176956 -1.6067623851322423 0 -1.6067623851322423 -1.1997441546423033 0 0 0 0 -34.448495846783771 2.1474827789198656 0 2.1474827789198656 -2.6754143301126305 0 0 0 0 -39.685011199704604 0.01666156929115914 0 0.01666156929115914 -2.4702157902859767 0 0 0 0 -40.951077372745203 3.2246288265636309 0 3.2246288265636309 -3.9845506153968699 0 0 0 0 -39.256765391950466 -0.14359098571162576 0 -0.14359098571162576 -1.3054403935855134 0 0 0 0 -50.327907602753839 2.6609953182031774 0 2.6609953182031774 -2.1953556366081557 0 0 0 0 -1.880496602657125 -2.8776397703590604 0 -2.8776397703590604 -5.2064336088885614 0 0 0 0 -40.196131216151116 -1.7607644904836093 0 -1.7607644904836093 -3.9804842507120601 0 0 0 0 -34.36181744649366 1.9862121030739424 0 1.9862121030739424 -5.829314537883115 0 0 0 0 -44.154394205485005 4.4261637456842777 0 4.4261637456842777 -5.5122363119302804 0 0 0 0 -37.856836233254398 2.983217180985823 0 2.983217180985823 -3.9442267383993155 0 0 0 0 -29.797072913188458 -0.4575385168070909 0 -0.4575385168070909 -2.5265108099144982 0 0 0 0 -27.62287223104795 7.0923981051559508 0 7.0923981051559508 -2.5036414863145922 0 0 0 0 -29.557201763720514 3.1845228378567185 0 3.1845228378567185 0.76723003596069361 0 0 0 0 -23.90361158925225 0.21972939982521211 0 0.21972939982521211 6.1973370105935714 0 0 0 0 -19.129728531552246 5.3573669343060999 0 5.3573669343060999 0.51229756238467417 0 0 0 0 0.13868412896772497 4.9794919915310061 0 4.9794919915310061 5.320411779077574 0 0 0 0 -18.907246450886817 -6.4649396041851794 0 -6.4649396041851794 -1.122184028360266 0 0 0 0 -11.452647628342675 -1.0375464754379777 0 -1.0375464754379777 -8.3851779211784958 0 0 0 0 -28.052720256679095 -13.009277286632599 0 -13.009277286632599 -15.274380161237502 0 0 0 0 -21.633765203543589 -2.0321636996709795 0 -2.0321636996709795 -9.4317491047103701 0 0 0 0 -35.791262354614446 -5.9039741968440085 0 -5.9039741968440085 -8.2809236736670364 0 0 0 0 -33.773636707711375 -11.284319491682748 0 -11.284319491682748 -6.2869317592291907 0 0 0 0 -43.632091098181263 -20.218462465430179 0 -20.218462465430179 -3.9081584894107522 0 0 0 0 -40.317199911027274 -14.449308484232418 0 -14.449308484232418 -7.8175310608275339 0 0 0 0 -106.29921421767358 3.734470990423489 0 3.734470990423489 13.670469139981336 0 0 0 0 -101.55803716334049 -43.223795559842273 0 -43.223795559842273 -3.3411532197399083 0 0 0 0 21.326191740910872 -29.942928345678069 0 -29.942928345678069 -11.898247389890173 0 0 0 0 -0.35630611714022109 -0.27379430162498153 0 -0.27379430162498153 -0.43568972928095429 0 0 0 0 -181.48376975545239 164.56354126579581 0 164.56354126579581 143.92939717547438 0 0 0 0 -30.813552023242664 -41.746591308683961 0 -41.746591308683961 -11.755904669510244 0 0 0 0 -9.6764003138014232 3.6242248121911729 0 3.6242248121911729 -4.1593492357005104 0 0 0 0 -127.51038993872498 -3.5972830375754512 0 -3.5972830375754512 24.411152634828454 0 0 0 0 -2.8817047038910779 4.3949120997034399 0 4.3949120997034399 0.96630969944743672 0 0 0 0 -166.70485385095526 -85.259534946016004 0 -85.259534946016004 -109.30268703819479 0 0 0 0 -43.287627929292285 35.707543372988084 0 35.707543372988084 46.254469028803669 0 0 0 0 -6.9696111620150454 9.2559788409939223 0 9.2559788409939223 0.83610531860244874 0 0 0 0 -25.749522283422266 9.6381864813406395 0 9.6381864813406395 2.7093782836501816 0 0 0 0 -8.9374383621288871 -9.2515940359841125 0 -9.2515940359841125 30.122287729999698 0 0 0 0 -8.7156691705528857 -0.59695302101949466 0 -0.59695302101949466 0.78237218622461324 0 0 0 0 -5.9178497279260682 -26.798602137889581 0 -26.798602137889581 40.761903757303685 0 0 0 0 -22.682315604492032 12.674832081524414 0 12.674832081524414 2.9538707016122885 0 0 0 0 -7.7727828862261958 -10.685605687277757 0 -10.685605687277757 48.329356413294704 0 0 0 0 -18.528556014352944 5.6761544058044393 0 5.6761544058044393 2.4579735579169437 0 0 0 0 -12.896637965131958 -0.41940157613494478 0 -0.41940157613494478 1.7593481985215078 0 0 0 0 -189.18281880161885 73.483429833087996 0 73.483429833087996 -70.786719687490745 0 0 0 0 -0.79113545096686977 -1.0391401292478406 0 -1.0391401292478406 -1.1775130368678797 0 0 0 0 1.6188313348259022 3.4609580587537678 0 3.4609580587537678 -1.0334080270223611 0 0 0 0 -178.83517717678023 37.638925337845095 0 37.638925337845095 -0.039020236656483576 0 0 0 0 -145.48339443680015 49.391055109643162 0 49.391055109643162 3.5839149196078068 0 0 0 0 -14.33256177984731 -1.2436109403229239 0 -1.2436109403229239 -0.39013959021144728 0 0 0 0 -8.4077838073972089 -0.34077430805447761 0 -0.34077430805447761 1.458139891839437 0 0 0 0 -15.338946980336914 0.89912262559869305 0 0.89912262559869305 1.6120314266760261 0 0 0 0 -2.0830290316844184 -10.017627245208445 0 -10.017627245208445 7.6142499709955018 0 0 0 0 -15.423400005041913 -2.6912006759968676 0 -2.6912006759968676 15.533691032366619 0 0 0 0 -14.458757228242121 1.8519605817775044 0 1.8519605817775044 4.7419558058344364 0 0 0 0 -19.046778298819845 -1.8551849365376256 0 -1.8551849365376256 8.5916863267789836 0 0 0 0 -20.789225750249898 2.8685508871023444 0 2.8685508871023444 2.9973598173120308 0 0 0 0 -24.54736616484297 2.3763482068346207 0 2.3763482068346207 4.9971332257141512 0 0 0 0 -25.278307665228567 6.7008466882881521 0 6.7008466882881521 3.6519040052372702 0 0 0 0 -20.941461009711929 1.5536190318321133 0 1.5536190318321133 3.9128509347266345 0 0 0 0 -15.420973834878168 1.4482556055140776 0 1.4482556055140776 -1.8935347596109295 0 0 0 0 -26.847448089301906 19.14521116335797 0 19.14521116335797 11.491719548178622 0 0 0 0 -16.786701572456877 22.988582157778566 0 22.988582157778566 12.144928166603592 0 0 0 0 -14.661946608971363 5.8358537459431297 0 5.8358537459431297 1.7789784690156072 0 0 0 0 -14.39781338575267 -0.87833495482504986 0 -0.87833495482504986 -2.4335542807888828 0 0 0 0 -3.0115014728617098 12.371337742823798 0 12.371337742823798 -8.4042737244043622 0 0 0 0 2.5253421005340897 7.3969645496908782 0 7.3969645496908782 2.6939703062535747 0 0 0 0 -0.34584391874068388 8.5774414439553865 0 8.5774414439553865 -0.63603195021028114 0 0 0 0 10.61794269017264 7.7306539831366763 0 7.7306539831366763 -5.1666662507697083 0 0 0 0 1.6501464018192564 2.838490285962223 0 2.838490285962223 -7.3406949178327068 0 0 0 0 -0.78178030694085976 1.3195420163876861 0 1.3195420163876861 -0.63383664796601158 0 0 0 0 -3.4487797450157274 -1.3883706073595476 0 -1.3883706073595476 -1.6017500041685273 0 0 0 0 -102.06225525376067 -21.968578570145695 0 -21.968578570145695 -3.9081697928172616 0 0 0 0 -33.614629658979538 -6.7398210796727653 0 -6.7398210796727653 -10.215856435702989 0 0 0 0 28.670970201546879 -29.579746367915021 0 -29.579746367915021 11.178652584002975 0 0 0 0 40.466841523029871 -62.194955448705912 0 -62.194955448705912 2.827943612596755 0 0 0 0 -1.7992944119949179 0.2751485097566686 0 0.2751485097566686 -0.0026262873109594853 0 0 0 0 -48.896544490682572 -10.136272231671356 0 -10.136272231671356 10.13868130892638 0 0 0 0 -26.378821370941296 -68.038757610983112 0 -68.038757610983112 24.206580035674847 0 0 0 0 -0.55253808950146777 -9.4586169188766576 0 -9.4586169188766576 -30.76909824738425 0 0 0 0 -40.813641132137491 -27.315154804436517 0 -27.315154804436517 -16.181236806928496 0 0 0 0 -87.450632203268469 -62.397573053716201 0 -62.397573053716201 -28.365003483948612 0 0 0 0 -0.59260806970635826 0.26048618843059757 0 0.26048618843059757 -0.1784438051939099 0 0 0 0 -41.676100023192703 -10.17513627613755 0 -10.17513627613755 -8.9458724489715848 0 0 0 0 -64.908066198946472 17.431303254584009 0 17.431303254584009 -35.111601930220331 0 0 0 0 -62.326786300222921 7.3380079962321076 0 7.3380079962321076 -20.226078922591569 0 0 0 0 -99.064907787833363 4.846119765619278 0 4.846119765619278 -12.391454150785165 0 0 0 0 -55.75481836363906 17.933584347074088 0 17.933584347074088 -6.1633660508872481 0 0 0 0 -27.714681618097529 -3.9702556340037063 0 -3.9702556340037063 7.8955210400680471 0 0 0 0 -3.6450392908554932 -5.6811124258225618 0 -5.6811124258225618 -0.36547671978996732 0 0 0 0 -279.11433276267417 69.992934604459762 0 69.992934604459762 -74.233678524450738 0 0 0 0 -419.41788334941157 -33.219142425425673 0 -33.219142425425673 -53.908192527072259 0 0 0 0 -529.95597348971933 98.343225490187734 0 98.343225490187734 -24.808543477355883 0 0 0 0 -421.68338335484441 24.34501887240792 0 24.34501887240792 -26.645007725870315 0 0 0 0 -153.56733932800125 22.795243866116603 0 22.795243866116603 -64.002443917386614 0 0 0 0 -261.2883244421464 31.690509840470995 0 31.690509840470995 -43.776281466961265 0 0 0 0 -142.66669025289957 19.847151902763756 0 19.847151902763756 -98.008785680903799 0 0 0 0 -232.8738658791226 79.546535850901961 0 79.546535850901961 -80.334041539629737 0 0 0 0 -308.85189699664988 12.902134825123113 0 12.902134825123113 -79.885523895180143 0 0 0 0 -435.05639201882877 91.841258126702911 0 91.841258126702911 -49.888623140065931 0 0 0 0 -410.02043404254073 39.991021902145405 0 39.991021902145405 -50.409284160426409 0 0 0 0 -595.72460176541063 103.74853064274782 0 103.74853064274782 -27.207517571893106 0 0 0 0 -604.80463853799574 77.292748978133773 0 77.292748978133773 -49.322247661624715 0 0 0 0 -621.12668805023714 148.84076883698353 0 148.84076883698353 -76.511547591066375 0 0 0 0 -454.30229679113654 61.276118518446495 0 61.276118518446495 -48.451343097589245 0 0 0 0 -576.21709003964497 87.230805002957368 0 87.230805002957368 -12.396223402618716 0 0 0 0 -32.475976557039758 8.0115428627771621 0 8.0115428627771621 4.4318292329079441 0 0 0 0 -20.387143888496212 4.1797170018867291 0 4.1797170018867291 2.8955774101596035 0 0 0 0 -9.2706392037808172 4.0178916349861424 0 4.0178916349861424 3.9476040145898876 0 0 0 0 -26.292522732255748 9.0416865637788533 0 9.0416865637788533 0.79597129052945093 0 0 0 0 -28.00452197390041 6.6748818003698602 0 6.6748818003698602 2.8289076234243566 0 0 0 0 -24.459497008254402 7.6650529219361943 0 7.6650529219361943 0.22093758781801398 0 0 0 0 -24.563705653345096 4.275099605219566 0 4.275099605219566 4.0241786221955635 0 0 0 0 -4.6880925900491661 -5.8963895810706646 0 -5.8963895810706646 1.5209614283132393 0 0 0 0 -17.145332661998992 6.5153284604191875 0 6.5153284604191875 2.1150337274929552 0 0 0 0 -21.021956893457741 3.9136940325937708 0 3.9136940325937708 3.0413218448559292 0 0 0 0 -22.745006808101607 5.3598158138665895 0 5.3598158138665895 2.9782087141425109 0 0 0 0 -27.131931485593668 -0.1942650593908013 0 -0.1942650593908013 12.591850498558529 0 0 0 0 -25.904450154779624 -2.5662098226679788 0 -2.5662098226679788 14.876170263709128 0 0 0 0 -725.0940820006108 151.64439340602206 0 151.64439340602206 -22.912210779647467 0 0 0 0 -548.27920792684017 65.131590263658865 0 65.131590263658865 -30.445220807218533 0 0 0 0 -600.91577249284273 66.803008210796918 0 66.803008210796918 -7.4691443844342302 0 0 0 0 -714.95532343167724 171.63009258373134 0 171.63009258373134 -3.5671767580498681 0 0 0 0 -756.75265962423873 136.10009081047494 0 136.10009081047494 -20.642375805711424 0 0 0 0 -817.06405133819499 116.88494124032998 0 116.88494124032998 17.402206982332359 0 0 0 0 -680.59575660759401 54.175402750809198 0 54.175402750809198 30.331549779056218 0 0 0 0 -716.30202602137069 158.05333187963933 0 158.05333187963933 -117.58153470629158 0 0 0 0 -1142.6440687001304 43.205483111973592 0 43.205483111973592 36.084433676054005 0 0 0 0 -21.14649573538918 9.3293588681755644 0 9.3293588681755644 14.241065712962666 0 0 0 0 -32.321110517063062 3.5261864543000456 0 3.5261864543000456 13.865963227887313 0 0 0 0 -30.338304750090174 -1.2788007219617157 0 -1.2788007219617157 21.622878418807261 0 0 0 0 -51.354357602038363 -0.34765227691295308 0 -0.34765227691295308 21.804999525207261 0 0 0 0 -44.714357801109145 16.508988509839547 0 16.508988509839547 14.659722803548689 0 0 0 0 -27.033193245210896 20.513285089124384 0 20.513285089124384 9.6230419104962124 0 0 0 0 -72.718261713274558 -74.770423507207283 0 -74.770423507207283 -42.953260721113097 0 0 0 0 -14.704185838985723 36.608521081451599 0 36.608521081451599 -32.87986249878486 0 0 0 0 -71.547011525493872 36.799295913885764 0 36.799295913885764 4.8990182028289162 0 0 0 0 -1158.3083985213043 197.90600571810572 0 197.90600571810572 26.03249407721637 0 0 0 0 -994.37483342965425 221.13793604933167 0 221.13793604933167 -53.108602520882698 0 0 0 0 -2.5066495987401396 -4.2625828821904292 0 -4.2625828821904292 0.94618206909244096 0 0 0 0 -931.64743692001866 101.27935130590345 0 101.27935130590345 -54.774655738786691 0 0 0 0 3.1503381875390915 -22.883036232645313 0 -22.883036232645313 -24.025991746450089 0 0 0 0 -2.1597922879563853 -1.5994374972594585 0 -1.5994374972594585 -1.0986918039820726 0 0 0 0 -391.63276210560434 106.68812525653072 0 106.68812525653072 120.84246686601784 0 0 0 0 -152.80972014020517 106.19892623509367 0 106.19892623509367 106.54807566149759 0 0 0 0 -73.625505059535499 -70.536645523794775 0 -70.536645523794775 12.800188944882393 0 0 0 0 -231.39387593660467 42.562847637826863 0 42.562847637826863 47.744672578930647 0 0 0 0 -199.1811829860635 6.5090489140382779 0 6.5090489140382779 -63.544113749415573 0 0 0 0 -667.23409001228356 -132.98036462931924 0 -132.98036462931924 48.129786271511122 0 0 0 0 -353.20215438393643 -141.17827798686858 0 -141.17827798686858 30.350722702572526 0 0 0 0 -127.22057904326357 20.468731176168347 0 20.468731176168347 16.36151434001907 0 0 0 0 -161.96731225152325 31.809351625620906 0 31.809351625620906 13.963355362732159 0 0 0 0 -188.69717577471602 67.136366221209158 0 67.136366221209158 -29.698500849932778 0 0 0 0 -215.27496555251855 9.082343407255479 0 9.082343407255479 70.578661735240757 0 0 0 0 -227.25448899370531 34.135543353639321 0 34.135543353639321 46.623667061867081 0 0 0 0 -357.07132286170236 -80.768867397037923 0 -80.768867397037923 121.53468708866893 0 0 0 0 -134.78052841615136 -30.187315932866795 0 -30.187315932866795 84.610750182315911 0 0 0 0 -135.93855185033317 174.2087192114347 0 174.2087192114347 -310.51156275106786 0 0 0 0 -170.50040738368989 -108.50176546330471 0 -108.50176546330471 92.407395899722474 0 0 0 0 -2.6126109025953355 0.22835205003871994 0 0.22835205003871994 0.021953774493385758 0 0 0 0 -355.21173821255798 186.82811826626482 0 186.82811826626482 -15.132252349303371 0 0 0 0 -462.09472716781238 160.8010674005665 0 160.8010674005665 138.24638029666613 0 0 0 0 -2.9327429472923257 -3.0352385633343317 0 -3.0352385633343317 -1.4931414871379511 0 0 0 0 -262.0404945891496 150.35070097315335 0 150.35070097315335 -12.36267324142109 0 0 0 0 -663.22973883439408 -109.58542655155243 0 -109.58542655155243 146.22522471614025 0 0 0 0 -412.65136738793444 180.31479698473896 0 180.31479698473896 76.345890183048098 0 0 0 0 -713.64669235100155 92.12176568103169 0 92.12176568103169 108.82618559100942 0 0 0 0 -738.47123501515307 257.54881336318493 0 257.54881336318493 -59.184647380435422 0 0 0 0 -528.82420332109905 45.70118771985662 0 45.70118771985662 -56.029829253607318 0 0 0 0 -3.7912649402152638 -3.7817489926446584 0 -3.7817489926446584 -2.2073628027158407 0 0 0 0 -313.43327341463009 -56.578805440011251 0 -56.578805440011251 -231.81827882438301 0 0 0 0 -561.61709752687602 179.64610553632588 0 179.64610553632588 -152.00914282516356 0 0 0 0 -108.17342507259491 8.8448592045189773 0 8.8448592045189773 28.928298298709883 0 0 0 0 -116.91367758965589 -35.236572861376899 0 -35.236572861376899 -8.3236156932682235 0 0 0 0 0.38400739227985525 1.4737041340954953 0 1.4737041340954953 0.60737897736898372 0 0 0 0 -95.828630087249621 31.250696595908078 0 31.250696595908078 38.976131502707716 0 0 0 0 -52.28193173452928 -35.150702457176827 0 -35.150702457176827 19.861358697136644 0 0 0 0 39.093694107054034 3.68508689430681 0 3.68508689430681 -8.149539650159241 0 0 0 0 -1.3257288529631168 -1.1790885215143021 0 -1.1790885215143021 0.49884288057008824 0 0 0 0 -1036.0231813388855 173.04362777953509 0 173.04362777953509 197.3534904014993 0 0 0 0 -617.6836613343512 398.29837938832009 0 398.29837938832009 -57.05946259076768 0 0 0 0 -0.46775712183917051 -0.24610590431621659 0 -0.24610590431621659 1.8320037503524209 0 0 0 0 123.56685524353998 -153.2514650599079 0 -153.2514650599079 -74.605735470672641 0 0 0 0 -147.35102047916735 89.465000494533911 0 89.465000494533911 87.909549840513449 0 0 0 0 199.89154393301214 -37.4265887470428 0 -37.4265887470428 -41.329954930705 0 0 0 0 -348.46393934934167 -388.44371087446802 0 -388.44371087446802 -611.50623244298993 0 0 0 0 117.80033109096257 82.079230228536318 0 82.079230228536318 243.00313425474644 0 0 0 0 -0.76653833862748399 -0.67550114041826248 0 -0.67550114041826248 0.36685449532736714 0 0 0 0 -2.8392322296931525 -187.62285095635832 0 -187.62285095635832 -43.752508677087661 0 0 0 0 -9.0000147724479689 -3.3949517595200298 0 -3.3949517595200298 -1.6187227567697824 0 0 0 0 -0.5837710163624763 -0.5384193208203385 0 -0.5384193208203385 -0.7897979271722686 0 0 0 0 44.196251979558838 -65.258940406778521 0 -65.258940406778521 138.16321161026735 0 0 0 0 252.52325786555048 -138.48652285025042 0 -138.48652285025042 -49.337675957300576 0 0 0 0 -171.77836028970341 -178.31697593435001 0 -178.31697593435001 8.4026253480208695 0 0 0 0 -210.45983901667933 14.613905362189431 0 14.613905362189431 131.13852596160137 0 0 0 0 -520.69919596327964 -386.17689042390055 0 -386.17689042390055 15.490350598470888 0 0 0 0 -900.42848911335568 -22.108280470530538 0 -22.108280470530538 222.67282296142582 0 0 0 0 -85.178854955171118 -64.858027030169524 0 -64.858027030169524 1.8186914639427414 0 0 0 0 -67.873880523717162 -18.350698369965585 0 -18.350698369965585 -44.547249722236984 0 0 0 0 -25.1651172061338 -42.855932454864416 0 -42.855932454864416 -30.847904204464101 0 0 0 0 13.129182388387562 17.116358088250479 0 17.116358088250479 -32.953936612701227 0 0 0 0 -55.667547886360808 37.718321362807586 0 37.718321362807586 41.384245296323343 0 0 0 0 -8.0595392818279379 3.8218054327970101 0 3.8218054327970101 -1.8729804905017047 0 0 0 0 -60.31100790342316 126.96541143425586 0 126.96541143425586 102.63288863186068 0 0 0 0 -55.888377935280005 -24.238846662695011 0 -24.238846662695011 93.17913219660818 0 0 0 0 9.9974890969360786 31.951335781044683 0 31.951335781044683 10.794618154157206 0 0 0 0 -10.723524486900459 6.4566465612285988 0 6.4566465612285988 -0.84011108510349208 0 0 0 0 1.0489292169186228 10.322143903272121 0 10.322143903272121 1.2165603434231684 0 0 0 0 -1.9221391784826665 1.9068705142156261 0 1.9068705142156261 5.0711365787207985 0 0 0 0 -26.074581803513865 0.70034745268719689 0 0.70034745268719689 112.69435817802491 0 0 0 0 7.9863407659540826 -42.242576130040788 0 -42.242576130040788 89.008589606843998 0 0 0 0 -60.068090910346655 -35.36693266523497 0 -35.36693266523497 88.871660872361673 0 0 0 0 -34.645289420188419 -12.958300766659875 0 -12.958300766659875 60.029724195667427 0 0 0 0 -7.6723686274137464 0.079679164103730216 0 0.079679164103730216 0.2304870791592708 0 0 0 0 32.914829540868595 -208.7786515838086 0 -208.7786515838086 -162.33188114197606 0 0 0 0 -411.84092819242505 -6.6701436960306637 0 -6.6701436960306637 70.932418878731823 0 0 0 0 -67.266913182074859 216.13289395947254 0 216.13289395947254 -279.71101037604831 0 0 0 0 39.165385124328168 51.137427457071084 0 51.137427457071084 -13.745018755360881 0 0 0 0 1.8880963350511593 76.786432509948952 0 76.786432509948952 -29.170444032607463 0 0 0 0 76.347106822562637 15.819049209880632 0 15.819049209880632 -197.44369271724531 0 0 0 0 30.324367688441271 -39.44693646333883 0 -39.44693646333883 71.252702386909164 0 0 0 0 79.098504762383527 -18.273835921710884 0 -18.273835921710884 0.90383258799283794 0 0 0 0 13.915330218609597 77.415214732834386 0 77.415214732834386 -66.150729036618202 0 0 0 0 46.736415620053776 84.538096183464418 0 84.538096183464418 -71.512869679678147 0 0 0 0 55.192652925594302 97.343346154553785 0 97.343346154553785 -123.31628724508346 0 0 0 0 -2.7096876086019392 1.7237649703141464 0 1.7237649703141464 -1.0002949003457728 0 0 0 0 -22.904361175798613 -5.215886244292772 0 -5.215886244292772 2.0862837298856216 0 0 0 0 -22.724697541774731 24.37221422723562 0 24.37221422723562 -26.217874660445446 0 0 0 0 -8.4394195373497496 -4.2225745480816386 0 -4.2225745480816386 -14.176810026228097 0 0 0 0 -23.127112750209847 2.1804611786297663 0 2.1804611786297663 3.7666044667425957 0 0 0 0 -23.675484152299759 -151.33257784137345 0 -151.33257784137345 179.03251523432004 0 0 0 0 -36.632805282997651 17.424080021562197 0 17.424080021562197 21.539487047188317 0 0 0 0 -24.522364352490456 0.26664337026219531 0 0.26664337026219531 0.94073628750774552 0 0 0 0 -24.662286261860572 9.9469975419053966 0 9.9469975419053966 49.436446340603766 0 0 0 0 -3.8893403128192716 4.6750988019117088 0 4.6750988019117088 0.34710201856119882 0 0 0 0 -14.402436594558822 -208.7024994400989 0 -208.7024994400989 -265.37780165728259 0 0 0 0 -387.55522438391927 105.21698422904507 0 105.21698422904507 303.90039225369514 0 0 0 0 35.575826122298167 243.37076282624744 0 243.37076282624744 -253.5056538662684 0 0 0 0 32.274025167200307 95.56377668632507 0 95.56377668632507 28.015772883698226 0 0 0 0 -37.73411691970955 6.0548039814581545 0 6.0548039814581545 1.0503615580640173 0 0 0 0 12.013421635463601 120.52262886951897 0 120.52262886951897 194.1525636485992 0 0 0 0 18.152970920100415 118.39024240367631 0 118.39024240367631 -0.16607421553616497 0 0 0 0 -7.4638915893265221 80.45852419015857 0 80.45852419015857 133.02296036325041 0 0 0 0 -28.902439778248663 12.205863434949421 0 12.205863434949421 167.20642804495347 0 0 0 0 -25.873915709468292 -0.50414684387997566 0 -0.50414684387997566 64.172555045553437 0 0 0 0 -7.3437738491373494 65.924447731825367 0 65.924447731825367 63.799354959554982 0 0 0 0 -425.53629471020031 -42.185676768600615 0 -42.185676768600615 0.045932948409365321 0 0 0 0 -622.13800754900512 -327.01706376456411 0 -327.01706376456411 272.80956681872476 0 0 0 0 -246.69473372095672 -157.38978861045416 0 -157.38978861045416 244.62074792279719 0 0 0 0 -10.667118668073272 3.0842916175919939 0 3.0842916175919939 -3.8605804689776346 0 0 0 0 -278.06866490510015 633.05085621285002 0 633.05085621285002 -22.040057139309738 0 0 0 0 -1709.7762454633776 1231.7457111468075 0 1231.7457111468075 -77.438305951105576 0 0 0 0 -285.27985747683124 355.25798728316249 0 355.25798728316249 96.219378124347713 0 0 0 0 -941.26552061558323 -50.813964027359361 0 -50.813964027359361 238.34959958203819 0 0 0 0 -2630.1219270354923 -216.2374568186442 0 -216.2374568186442 951.69867368332962 0 0 0 0 -42.992133018837194 -89.871483885995303 0 -89.871483885995303 140.22006304189446 0 0 0 0 -11.888497022289727 0.04510283582464325 0 0.04510283582464325 0.42167649590658685 0 0 0 0 -1909.906376315892 -213.82631571506272 0 -213.82631571506272 40.62707107406402 0 0 0 0 -476.36417980206534 619.79720610858749 0 619.79720610858749 -177.97661096968045 0 0 0 0 -26.992773390391562 -10.395102212414653 0 -10.395102212414653 -3.7331974771696816 0 0 0 0 1383.6933145120711 -23.850810145646392 0 -23.850810145646392 -445.49442810392202 0 0 0 0 -449.97195058474244 1217.5823977393754 0 1217.5823977393754 -750.64789910623517 0 0 0 0 -7.5778598647686408 1.3587327854329985 0 1.3587327854329985 -0.26937358706774783 0 0 0 0 -556.51673900557216 -29.864563322216782 0 -29.864563322216782 215.553739127266 0 0 0 0 -18.796126098693691 -1.5424748280415486 0 -1.5424748280415486 0.6757797986874684 0 0 0 0 -681.53763486731623 -524.88178340716604 0 -524.88178340716604 221.91012828313518 0 0 0 0 -683.08268904897113 -516.76799830320317 0 -516.76799830320317 230.3577318400977 0 0 0 0 33.995543391989486 160.44875939008102 0 160.44875939008102 -25.330892149394913 0 0 0 0 -22.994114725838926 5.7339610296340808 0 5.7339610296340808 -0.67973405285076827 0 0 0 0 -72.105139153740311 132.04109078431236 0 132.04109078431236 412.98076039565217 0 0 0 0 -104.52055260074121 242.95768371694601 0 242.95768371694601 291.26157219110581 0 0 0 0 -119.85076039575506 -205.12008510243413 0 -205.12008510243413 214.64129725278849 0 0 0 0 57.920519198738475 95.100124412235601 0 95.100124412235601 110.22564265998938 0 0 0 0 -226.47699884260146 87.590243020881985 0 87.590243020881985 147.18887055149577 0 0 0 0 -362.64523600527173 -112.26873577394728 0 -112.26873577394728 36.069806315124097 0 0 0 0 -240.49826675600343 101.71265422981779 0 101.71265422981779 163.02864403902799 0 0 0 0 52.771644921187544 147.11758562761918 0 147.11758562761918 149.65152694489569 0 0 0 0 -391.76176307701826 -26.772059476834421 0 -26.772059476834421 -104.36280954267386 0 0 0 0 -1128.88081300458 -151.42636496977033 0 -151.42636496977033 285.59936728874663 0 0 0 0 -799.75479175560031 281.71219643510665 0 281.71219643510665 -175.54859776581497 0 0 0 0 -1050.935275871092 -460.92842491814838 0 -460.92842491814838 191.96954884268644 0 0 0 0 -974.60331329530891 -247.78501280814652 0 -247.78501280814652 199.77987035213039 0 0 0 0 -778.96643360471353 -381.09698146728783 0 -381.09698146728783 155.3124009814469 0 0 0 0 -572.01272480824264 -243.85914317358629 0 -243.85914317358629 225.80293824898089 0 0 0 0 -632.69799636909738 -185.34284293578401 0 -185.34284293578401 175.33756686411607 0 0 0 0 42.092240251895419 32.138410118238141 0 32.138410118238141 -43.966943858087895 0 0 0 0 -2.4600842255188979 2.4512563260444935 0 2.4512563260444935 -1.0129434867131626 0 0 0 0 -6.1041057902111788 7.5240761895600921 0 7.5240761895600921 -4.7198075681224081 0 0 0 0 -54.753386736389075 4.7984229813574819 0 4.7984229813574819 5.4313749705671546 0 0 0 0 -2.0676768584387162 -0.21483612818147435 0 -0.21483612818147435 0.4212958611186447 0 0 0 0 -8.1904360688058659 1.8938689101826824 0 1.8938689101826824 2.3940155860988028 0 0 0 0 -9.3540791213017656 -8.3698835853128344 0 -8.3698835853128344 -4.7381128683137703 0 0 0 0 -1.8494329081731848 -2.3320033426515181 0 -2.3320033426515181 -1.8738996330558848 0 0 0 0 -15.236763788067037 -16.84612720334701 0 -16.84612720334701 -9.3062376029460836 0 0 0 0 -13.020058156987943 -6.3573359705610102 0 -6.3573359705610102 -3.4490677859880066 0 0 0 0 1.5387869971964392 1.0027775677367785 0 1.0027775677367785 -6.0653689969278801 0 0 0 0 -23.084747818440519 -25.936330134758371 0 -25.936330134758371 -35.319797649247889 0 0 0 0 -79.799626029154751 -30.166096927924798 0 -30.166096927924798 12.391506580934873 0 0 0 0 -69.307443377954769 18.612940216386733 0 18.612940216386733 39.684763273496131 0 0 0 0 -49.635024870949565 -61.261174841217176 0 -61.261174841217176 -56.550003996637201 0 0 0 0 -140.40688283747295 -19.146016625281131 0 -19.146016625281131 29.085328625738448 0 0 0 0 -0.61837975881724105 0.077772860914048891 0 0.077772860914048891 -0.041084475099688801 0 0 0 0 -1.3581940740041318 0.0096358161590315988 0 0.0096358161590315988 -0.17004582629873582 0 0 0 0 -1.0530854767261815 -0.36455485988226854 0 -0.36455485988226854 -0.30981847355701375 0 0 0 0 -1.4710792216865229 -0.16897032477486057 0 -0.16897032477486057 -0.00048075477294714971 0 0 0 0 -12.066493725404143 -7.3340331723172962 0 -7.3340331723172962 4.3357296413823718 0 0 0 0 -0.26130115692667744 -0.14684516288539129 0 -0.14684516288539129 0.030156872744379629 0 0 0 0 -19.48984599924006 0.88031284704571178 0 0.88031284704571178 7.3233159355233362 0 0 0 0 -10.213558434988954 3.8342722539061214 0 3.8342722539061214 -0.65482786208809785 0 0 0 0 -10.559428808088342 -2.2205945790191701 0 -2.2205945790191701 -3.460873375743482 0 0 0 0 -1.4497206294784135 0.43451878449424441 0 0.43451878449424441 -0.087215407893719232 0 0 0 0 -2.3456498424420715 -2.1716590192884837 0 -2.1716590192884837 3.1450041156526183 0 0 0 0 -4.9964505461830413 2.0781961163763185 0 2.0781961163763185 -0.18277750913694035 0 0 0 0 -3.6944216315413883 1.7200017977597355 0 1.7200017977597355 -1.3797778900760498 0 0 0 0 -8.0977045805133585 1.6971400763911646 0 1.6971400763911646 0.63440354660463139 0 0 0 0 -5.0535655435058402 0.92735832193353573 0 0.92735832193353573 0.91231622713067839 0 0 0 0 -3.2545297488747025 0.66530464677046552 0 0.66530464677046552 -0.37688671092652898 0 0 0 0 -49.25949598083389 -18.684931335699815 0 -18.684931335699815 0.13653865609987292 0 0 0 0 -8.8394950879664975 5.8034309469982617 0 5.8034309469982617 -9.9550575467331441 0 0 0 0 -2.0619844138236658 0.90769516194182387 0 0.90769516194182387 -0.85124680276649656 0 0 0 0 -2.5230289371604897 1.0353750243209348 0 1.0353750243209348 -0.75292494030719537 0 0 0 0 -1.4381635152309968 0.55754111228645087 0 0.55754111228645087 -0.82322277457937632 0 0 0 0 -0.30372005227400223 -0.24085935607550368 0 -0.24085935607550368 -16.232363116541421 0 0 0 0 -11.299023436324205 -8.6060765188543371 0 -8.6060765188543371 -18.344468163855197 0 0 0 0 -3.8623300895706052 6.2425770526272686 0 6.2425770526272686 -10.527602530256559 0 0 0 0 2.5376895027293358 0.30097644593715245 0 0.30097644593715245 -19.42007172811293 0 0 0 0 -9.9277417314369814 14.196455585253858 0 14.196455585253858 -8.0928527746618215 0 0 0 0 -3.4739410105612478 8.3007757312812487 0 8.3007757312812487 -9.6903244394600563 0 0 0 0 -21.24169330094881 16.161671167057676 0 16.161671167057676 -6.74700967979651 0 0 0 0 18.390728288541141 16.439829315366751 0 16.439829315366751 -17.707048719034646 0 0 0 0 -48.902845855897795 27.547871527898337 0 27.547871527898337 -1.7729222626226147 0 0 0 0 11.787529194494709 28.534667294174731 0 28.534667294174731 -2.5537852628440163 0 0 0 0 15.676749753594777 8.6785924971546606 0 8.6785924971546606 -27.092241136324915 0 0 0 0 10.103692761069397 6.3636268706606813 0 6.3636268706606813 -17.863127143846274 0 0 0 0 14.523707404030574 -6.8217325146425729 0 -6.8217325146425729 -28.173216385092729 0 0 0 0 -35.137739796962705 -7.9249595710209064 0 -7.9249595710209064 15.819491095077442 0 0 0 0 -28.648953367970535 26.213607447542728 0 26.213607447542728 24.223583769259164 0 0 0 0 -22.232751672161413 -5.2803786794461445 0 -5.2803786794461445 1.861619981326013 0 0 0 0 -33.224629526106582 -6.0869212175055054 0 -6.0869212175055054 17.300998816748034 0 0 0 0 -41.921370179625228 -11.291258469363584 0 -11.291258469363584 21.520749810772429 0 0 0 0 -40.090879470692016 -7.750575248612563 0 -7.750575248612563 21.106606935144669 0 0 0 0 -36.790241536626127 -10.912545210940465 0 -10.912545210940465 16.288460035657522 0 0 0 0 -46.805381086058333 -16.956573435682884 0 -16.956573435682884 16.364260250122129 0 0 0 0 -36.677786960499361 -23.720107914362018 0 -23.720107914362018 -3.9938250301740084 0 0 0 0 -16.589389182045124 -8.4010144431309755 0 -8.4010144431309755 7.5634618620499054 0 0 0 0 -10.274580128025264 -12.596094093175623 0 -12.596094093175623 -5.8645680212176217 0 0 0 0 -35.516184900036023 -10.132204401890817 0 -10.132204401890817 15.688358008221712 0 0 0 0 -20.561850262904045 -2.2434737325404512 0 -2.2434737325404512 0.8430262355080913 0 0 0 0 -8.7040609078922841 6.0424905935878002 0 6.0424905935878002 -2.4418992610005685 0 0 0 0 -10.7785548196116 -13.836923365179274 0 -13.836923365179274 7.7494231304225139 0 0 0 0 -14.56646107176087 0.21667860822652329 0 0.21667860822652329 1.571350039527722 0 0 0 0 -18.701497858390212 3.6729772950546362 0 3.6729772950546362 0.21679441750427486 0 0 0 0 -15.337676960926558 1.0661136509417659 0 1.0661136509417659 0.29306797376801508 0 0 0 0 -46.948873456291039 9.0919347812790647 0 9.0919347812790647 13.138469534244905 0 0 0 0 -11.806643285233704 -7.0518879171063631 0 -7.0518879171063631 4.622158231681361 0 0 0 0 -27.36100364086451 -1.7230454592692013 0 -1.7230454592692013 1.5148567011009249 0 0 0 0 -18.368654175806782 4.908296563448701 0 4.908296563448701 6.9909688325402595 0 0 0 0 -31.634733490329381 35.817053778036438 0 35.817053778036438 -69.457157848896941 0 0 0 0 -419.62095648708055 289.12262008828009 0 289.12262008828009 33.111556673426094 0 0 0 0 -354.85823052501837 -5.4383591748826774 0 -5.4383591748826774 118.42953634547302 0 0 0 0 -2.7829480101940263 2.0531925364016956 0 2.0531925364016956 5.3706054071143576 0 0 0 0 -156.87716547702439 11.15507966550814 0 11.15507966550814 -282.8228934631727 0 0 0 0 79.35769129777691 -4.4289314862514289 0 -4.4289314862514289 -126.90499884394228 0 0 0 0 -177.23317265688456 61.739790826568566 0 61.739790826568566 111.61419122500823 0 0 0 0 -226.19613286460753 -5.0002856726577321 0 -5.0002856726577321 4.5770368677382294 0 0 0 0 -36.656930589240801 38.505274531348164 0 38.505274531348164 -44.472537772267742 0 0 0 0 43.498213711383869 60.870815940425281 0 60.870815940425281 -13.335269564352544 0 0 0 0 0.38659036266862756 0.22293349243926031 0 0.22293349243926031 -1.5280713100747592 0 0 0 0 -95.832240631170862 -24.370451691260392 0 -24.370451691260392 -2.2675185902460626 0 0 0 0 -91.279249387058371 45.236735134229221 0 45.236735134229221 -0.0063477085612113626 0 0 0 0 -147.55768510740018 38.916739437286196 0 38.916739437286196 6.6285474914507745 0 0 0 0 -167.64644195944129 -33.164371375563235 0 -33.164371375563235 1.4272854032947748 0 0 0 0 -17.125117255527584 65.991961617814241 0 65.991961617814241 -9.9622763414409974 0 0 0 0 -2.5842841643766832 0.16174207731697976 0 0.16174207731697976 0.97987809792542802 0 0 0 0 -256.47795475614112 121.50678783474274 0 121.50678783474274 -27.815794692652162 0 0 0 0 -245.01279395094753 -31.426574844373135 0 -31.426574844373135 51.340426349884069 0 0 0 0 -70.285238732452854 72.82694416754407 0 72.82694416754407 -0.78518509175501094 0 0 0 0 -6.3222006060768763 8.7948634524150577 0 8.7948634524150577 -3.7300740277723321 0 0 0 0 -14.164540189871332 36.898028024719338 0 36.898028024719338 -1.4372525647254406 0 0 0 0 18.652166276653588 32.15835350289592 0 32.15835350289592 -16.245769787495647 0 0 0 0 -19.353409328168553 14.109419919970122 0 14.109419919970122 -4.5252189282230582 0 0 0 0 45.982782507871889 7.1385207862070317 0 7.1385207862070317 -52.152670222771803 0 0 0 0 53.610172108208644 58.10869311600112 0 58.10869311600112 5.2235445160213771 0 0 0 0 -18.27553764158074 33.255109501958714 0 33.255109501958714 23.375299728825382 0 0 0 0 -16.94590964432723 -7.3765597888301908 0 -7.3765597888301908 11.223044653525335 0 0 0 0 31.424391353953979 4.3924737939915843 0 4.3924737939915843 -4.2753869735735002 0 0 0 0 -28.17545108315062 4.4582455399183516 0 4.4582455399183516 -1.2363458287892399 0 0 0 0 -1.828060679407578 1.1249905548674022 0 1.1249905548674022 -2.1820961542921036 0 0 0 0 18.587636661501165 25.310820663804492 0 25.310820663804492 24.80050212981098 0 0 0 0 0.17707707528461469 28.337166193024586 0 28.337166193024586 -20.261324036161341 0 0 0 0 -23.440224997200858 21.737667412937185 0 21.737667412937185 67.586945042674643 0 0 0 0 0.13583467360538748 2.7012760484609881 0 2.7012760484609881 -0.44665204524429791 0 0 0 0 -10.467764844585069 8.2649565732935457 0 8.2649565732935457 -3.6367331428017842 0 0 0 0 -6.2629990668901883 13.500900049338441 0 13.500900049338441 -13.432108842986963 0 0 0 0 -3.749415912108816 28.769978091258892 0 28.769978091258892 0.60512487730060549 0 0 0 0 -11.168935892085898 1.3137906934079302 0 1.3137906934079302 0.074218177233570465 0 0 0 0 -25.281120870264203 22.687531604630692 0 22.687531604630692 45.487747259990385 0 0 0 0 -7.0159809921480729 -0.013491603692326493 0 -0.013491603692326493 0.23858417553289812 0 0 0 0 3.3106467360121314 12.951325147917714 0 12.951325147917714 10.593267234960699 0 0 0 0 55.71481621057319 -28.159116889560607 0 -28.159116889560607 22.580994984035328 0 0 0 0 10.075115654850379 93.896395923676664 0 93.896395923676664 -56.057212278666938 0 0 0 0 -40.639663255569758 25.045520298253308 0 25.045520298253308 118.7035345835896 0 0 0 0 128.46803012160308 14.936345159910644 0 14.936345159910644 -95.048425464797617 0 0 0 0 -85.212904349604287 34.273923390283841 0 34.273923390283841 18.38629836910971 0 0 0 0 0.20338267717761482 0.58483874303500016 0 0.58483874303500016 1.3798618588465588 0 0 0 0 1.79939276001096 -9.7471734687146636 0 -9.7471734687146636 -79.742345697880921 0 0 0 0 -273.12653637649055 150.04628330204463 0 150.04628330204463 186.88013765500233 0 0 0 0 -65.977126453435631 42.710630079592995 0 42.710630079592995 21.472769518819142 0 0 0 0 -33.252716480736126 -2.2764568899715769 0 -2.2764568899715769 0.8672653119878504 0 0 0 0 -71.153129986705608 -3.1809443452173696 0 -3.1809443452173696 42.09534244815552 0 0 0 0 -64.139621410082327 1.2496528170892205 0 1.2496528170892205 57.485304273426891 0 0 0 0 -52.839624638814712 2.1452837850671926 0 2.1452837850671926 52.81382346854339 0 0 0 0 -59.883968807713245 7.0513506780809934 0 7.0513506780809934 50.20976876366376 0 0 0 0 -66.734733497694833 17.20384153758647 0 17.20384153758647 55.488201485296884 0 0 0 0 -55.474116531520849 11.002088159939433 0 11.002088159939433 52.212521493296798 0 0 0 0 -57.759218585328199 20.48939499754033 0 20.48939499754033 56.409524953593461 0 0 0 0 -65.625993200141238 7.7275669167308934 0 7.7275669167308934 51.497919653958547 0 0 0 0 -64.938909330034221 29.360458399891868 0 29.360458399891868 58.00901228122575 0 0 0 0 -78.891745257627917 17.184051928445683 0 17.184051928445683 52.841673654011629 0 0 0 0 -61.940580220209085 17.991960279116185 0 17.991960279116185 49.281068190121118 0 0 0 0 -67.587455158543889 10.792985932914462 0 10.792985932914462 47.543631572118954 0 0 0 0 -74.68668485651142 -0.13560075488613421 0 -0.13560075488613421 34.018874281211083 0 0 0 0 -102.63278798233659 -2.3908490305997816 0 -2.3908490305997816 39.961741159474855 0 0 0 0 -76.63055458929739 11.224216358544084 0 11.224216358544084 35.030462775292676 0 0 0 0 -90.690314328181557 14.281832063510706 0 14.281832063510706 35.109530155447146 0 0 0 0 -80.120091241216869 -24.749587775070466 0 -24.749587775070466 2.9299258080081927 0 0 0 0 -62.056954228130053 -1.9037796057514242 0 -1.9037796057514242 30.411547219203044 0 0 0 0 -62.562617083484156 -25.893526763270046 0 -25.893526763270046 2.6820289543222771 0 0 0 0 -81.422235786143574 -25.840792055192935 0 -25.840792055192935 7.4088879798891867 0 0 0 0 -28.499005972989835 -59.717668062718928 0 -59.717668062718928 -46.180740261869836 0 0 0 0 17.567359803244472 -30.432713240945361 0 -30.432713240945361 -42.046823015876782 0 0 0 0 61.601315500374767 22.109892989618015 0 22.109892989618015 16.991720838549639 0 0 0 0 -38.368445866421098 4.5995492131104356 0 4.5995492131104356 30.844620448660521 0 0 0 0 -42.255505570326932 -0.516005938265792 0 -0.516005938265792 44.17410802067792 0 0 0 0 -32.882122171198716 -10.247912961067755 0 -10.247912961067755 47.914390230454273 0 0 0 0 -42.747523783982615 1.0442047158956882 0 1.0442047158956882 59.823622357574294 0 0 0 0 -48.7900539454713 -10.492274822995526 0 -10.492274822995526 39.625487711041444 0 0 0 0 -13.315946907321631 -32.306306906605549 0 -32.306306906605549 60.729607597461325 0 0 0 0 -48.921162398415618 -9.4117548948460978 0 -9.4117548948460978 69.44091440247621 0 0 0 0 -39.662630850732967 -9.5483253351275508 0 -9.5483253351275508 58.477616866968702 0 0 0 0 231.1100640934892 -96.412632062613739 0 -96.412632062613739 -1114.091981621872 0 0 0 0 -6.0725459684788916 -3.3528089235602536 0 -3.3528089235602536 -5.4214742399772398 0 0 0 0 -21.244251043681288 -0.3542453826839278 0 -0.3542453826839278 55.626677848503768 0 0 0 0 -40.716298208673834 -7.8001250677087235 0 -7.8001250677087235 82.317321095935412 0 0 0 0 -34.324005078931805 -19.693107751712247 0 -19.693107751712247 71.079133957634113 0 0 0 0 -37.465575016849471 -10.949588096435921 0 -10.949588096435921 65.496593828989461 0 0 0 0 -31.830823992357182 -9.8809082571279063 0 -9.8809082571279063 95.609503347996053 0 0 0 0 -14.031258897848602 16.263475031908889 0 16.263475031908889 90.622983996030683 0 0 0 0 -30.109633298765402 -27.217671685078898 0 -27.217671685078898 81.913631631956122 0 0 0 0 -20.902295356354443 -21.007426364795677 0 -21.007426364795677 56.486356665398233 0 0 0 0 -19.164741373591824 -20.518720598827798 0 -20.518720598827798 52.630485174096236 0 0 0 0 -30.710785500414204 -13.416659983791021 0 -13.416659983791021 51.042217378453081 0 0 0 0 -23.328686175140319 -11.186602860930741 0 -11.186602860930741 40.947991125503705 0 0 0 0 -39.156525696686003 -1.6728184325632611 0 -1.6728184325632611 51.467710103394495 0 0 0 0 -24.833455704821972 -9.3498959517963272 0 -9.3498959517963272 51.172724196824703 0 0 0 0 -39.183294083864894 -16.415926935095953 0 -16.415926935095953 67.802337059499749 0 0 0 0 -32.481250350785558 -8.0007192879872822 0 -8.0007192879872822 57.223922390450106 0 0 0 0 -45.518542813086242 6.8039540492571966 0 6.8039540492571966 55.363359160250468 0 0 0 0 -48.687167775147827 -2.7850513932791756 0 -2.7850513932791756 61.753802252280565 0 0 0 0 -48.782249996613245 7.5690013816592057 0 7.5690013816592057 57.534471272078036 0 0 0 0 -59.433984282310121 10.079900780476564 0 10.079900780476564 56.949944418174539 0 0 0 0 -44.353608775840257 -2.0219510152375904 0 -2.0219510152375904 57.805671053775399 0 0 0 0 -58.724128029163694 -2.9199948209785802 0 -2.9199948209785802 59.731405175743475 0 0 0 0 -37.917686265544035 26.222340228112344 0 26.222340228112344 54.42387608889328 0 0 0 0 -51.27253810329421 24.50216813262486 0 24.50216813262486 54.510128804310909 0 0 0 0 -42.47457045619376 31.770273035688604 0 31.770273035688604 55.207122233811901 0 0 0 0 -49.077069947081327 18.606974493314574 0 18.606974493314574 54.654194825183083 0 0 0 0 -52.976501960205496 12.341235966932686 0 12.341235966932686 54.922915592698047 0 0 0 0 -47.61285559902899 19.199081696220617 0 19.199081696220617 54.89217171203687 0 0 0 0 -45.190314526727889 7.4138402917932229 0 7.4138402917932229 53.483267536996394 0 0 0 0 -40.493630152777769 11.086986485310714 0 11.086986485310714 54.988068166769381 0 0 0 0 -42.558337160808151 16.714349617908539 0 16.714349617908539 51.048424739754182 0 0 0 0 -33.379190653999103 17.04051292503517 0 17.04051292503517 48.344022051387931 0 0 0 0 -43.657146570709301 18.365768244468867 0 18.365768244468867 52.455784783102644 0 0 0 0 -33.360055381501525 20.045629413721404 0 20.045629413721404 40.995669926973989 0 0 0 0 -18.726106858928688 20.218213880155041 0 20.218213880155041 37.141932459091507 0 0 0 0 -33.199219896981958 11.728291802032956 0 11.728291802032956 43.784359579889085 0 0 0 0 -27.560997988388408 12.614899144106325 0 12.614899144106325 40.527608729532432 0 0 0 0 -25.891218690099777 12.570294807859344 0 12.570294807859344 29.159810368742797 0 0 0 0 -34.024069872364635 2.7605383609247554 0 2.7605383609247554 53.187997407565796 0 0 0 0 -35.724058745297953 7.1876373065700463 0 7.1876373065700463 43.078380149400715 0 0 0 0 -27.929436624661321 0.22182014999995658 0 0.22182014999995658 44.489375131768078 0 0 0 0 -30.833285764005268 -2.3085521811519811 0 -2.3085521811519811 43.604720769904873 0 0 0 0 -28.856189545884263 3.8715590254601864 0 3.8715590254601864 35.252567424532828 0 0 0 0 -25.946574138506548 4.1401956875021071 0 4.1401956875021071 29.008249505480933 0 0 0 0 -10.085742980969371 10.774750350858916 0 10.774750350858916 15.969694850533692 0 0 0 0 -31.529673691868084 2.5307684519823397 0 2.5307684519823397 29.47906668936821 0 0 0 0 11.419917613558937 84.841506336259329 0 84.841506336259329 57.127083090501174 0 0 0 0 -18.358146923295351 9.1577940973386163 0 9.1577940973386163 1.8806629116515328 0 0 0 0 1.1910379814798944 22.082931907975549 0 22.082931907975549 17.197032033900044 0 0 0 0 -18.883432562027338 23.362702570581938 0 23.362702570581938 35.796130786225191 0 0 0 0 11.612792041385546 27.481906895683849 0 27.481906895683849 12.264182167642396 0 0 0 0 46.72777691524243 53.710246844044924 0 53.710246844044924 17.793173221545601 0 0 0 0 2.6523954685271747 39.877836520236926 0 39.877836520236926 34.615339701106421 0 0 0 0 32.662306149781216 32.169803785145476 0 32.169803785145476 13.30062290744727 0 0 0 0 16.821149206865812 19.216313565963446 0 19.216313565963446 -3.9984289655039902 0 0 0 0 15.04055359161066 11.359478634083189 0 11.359478634083189 -4.0775209836592694 0 0 0 0 -2.3950363289986853 16.53913044079502 0 16.53913044079502 2.8330364799439849 0 0 0 0 1.0502647564280778 19.461580635260361 0 19.461580635260361 2.4851504826228847 0 0 0 0 4.6819160475279205 16.534892028671493 0 16.534892028671493 1.9875216882551285 0 0 0 0 4.9957346957235131 19.604378903528414 0 19.604378903528414 0.97383666798668855 0 0 0 0 -2.6341722377474071 17.850158804844568 0 17.850158804844568 3.7643840885793907 0 0 0 0 -7.3159912268165499 18.070272467955874 0 18.070272467955874 3.8870726770539932 0 0 0 0 -9.6471687583398307 17.912127848170599 0 17.912127848170599 5.1217824991981615 0 0 0 0 -2.6498570625844877 16.191343764656267 0 16.191343764656267 3.0982016439120343 0 0 0 0 -7.7724973592412425 15.398667793192089 0 15.398667793192089 2.9794311668083537 0 0 0 0 -10.033307651581708 14.55948738843108 0 14.55948738843108 5.2512606562722794 0 0 0 0 0.77461560332449153 7.2886879521429364 0 7.2886879521429364 -5.0170797776108884 0 0 0 0 -1.4986767124210019 13.254461894217457 0 13.254461894217457 1.3037884474024395 0 0 0 0 -3.4601684392546304 13.629880351719294 0 13.629880351719294 1.4001086520293029 0 0 0 0 -6.0087047396227717 9.9196882195333274 0 9.9196882195333274 -0.60297222933149897 0 0 0 0 39.417375133372843 65.355255326571637 0 65.355255326571637 24.554827367619623 0 0 0 0 -8.6745032094768248 6.5226618063752539 0 6.5226618063752539 0.06277123743075208 0 0 0 0 26.970115770120174 72.543096704597644 0 72.543096704597644 33.499702854191696 0 0 0 0 21.091162677410466 73.413527904415147 0 73.413527904415147 41.299711204169398 0 0 0 0 -19.517520213586977 10.742896419752924 0 10.742896419752924 9.5698537246466913 0 0 0 0 -15.059246011485811 8.1189867685075114 0 8.1189867685075114 4.7378454717209024 0 0 0 0 -12.685368636302883 13.827775851742445 0 13.827775851742445 5.1456869667208593 0 0 0 0 5.8136430093509261 82.654368407927052 0 82.654368407927052 52.855774342083123 0 0 0 0 5.9534364254359389 72.103487481946743 0 72.103487481946743 47.802765514635666 0 0 0 0 7.7484527810011059 72.47974095226914 0 72.47974095226914 45.145710407034244 0 0 0 0 -5.9826754960231483 69.281322700731153 0 69.281322700731153 49.717778309469907 0 0 0 0 -1.8777920207357965 61.72653464571971 0 61.72653464571971 49.373028213835255 0 0 0 0 -10.929957248736173 57.240159657074514 0 57.240159657074514 47.190548549793675 0 0 0 0 7.3366875396095566 59.410246355899424 0 59.410246355899424 41.617469646032418 0 0 0 0 -20.523890939599369 42.976864681511586 0 42.976864681511586 44.906039247234304 0 0 0 0 -16.751638577901758 49.317473885231493 0 49.317473885231493 48.718164319142204 0 0 0 0 -9.0458824953020667 52.046337493443573 0 52.046337493443573 49.155865159574546 0 0 0 0 -33.396580967120826 40.935163361453249 0 40.935163361453249 54.546149324248802 0 0 0 0 -40.161398190073669 30.390383824543505 0 30.390383824543505 52.156081181117429 0 0 0 0 -26.953905120259151 33.412851587424569 0 33.412851587424569 51.329918652785693 0 0 0 0 -28.125945677020354 36.532049274389834 0 36.532049274389834 48.62885331939242 0 0 0 0 -19.760750160960015 40.095894389829795 0 40.095894389829795 49.07930159591217 0 0 0 0 -5.9649831056012772 35.507754861561978 0 35.507754861561978 38.933238418607061 0 0 0 0 -5.4366974388831295 37.868622653008856 0 37.868622653008856 40.70813036306518 0 0 0 0 -36.354908697656356 26.690375455280162 0 26.690375455280162 48.61800931140607 0 0 0 0 -23.673932096629869 27.924147931022631 0 27.924147931022631 47.401029646188029 0 0 0 0 -20.182603383625974 25.943736597194743 0 25.943736597194743 35.507878358195882 0 0 0 0 9.7691599431273062 50.981589325762457 0 50.981589325762457 39.612108775715797 0 0 0 0 -5.7344414957333356 34.271696594952175 0 34.271696594952175 33.460024903161028 0 0 0 0 -5.9373660752899013 35.930897319842188 0 35.930897319842188 37.019297239020261 0 0 0 0 9.6081087145139463 52.19851179815015 0 52.19851179815015 31.59326706204979 0 0 0 0 43.049282619875157 52.559489763202016 0 52.559489763202016 17.596981310436149 0 0 0 0 5.2169970119721256 59.538257905604723 0 59.538257905604723 42.342618670735192 0 0 0 0 19.000331090617692 59.885309418401228 0 59.885309418401228 37.256483597532792 0 0 0 0 -0.060928057762794197 49.423983855804522 0 49.423983855804522 41.254999255666164 0 0 0 0 -6.581873172421183 15.998623721482318 0 15.998623721482318 0.87858835400720636 0 0 0 0 -7.7791403134178836 15.017642405437982 0 15.017642405437982 0.14570611013456158 0 0 0 0 -9.0035813630092889 18.446358295789651 0 18.446358295789651 4.1128481656219265 0 0 0 0 -7.501111807738198 18.364552424577596 0 18.364552424577596 3.97050762176832 0 0 0 0 -7.497170672257198 19.138861111662663 0 19.138861111662663 4.2558753195103236 0 0 0 0 -7.6199714294343721 18.177193887191152 0 18.177193887191152 4.747453448538181 0 0 0 0 -7.3140951976238284 20.097759468289496 0 20.097759468289496 6.4243844019770222 0 0 0 0 -14.314272474770405 19.199308869232141 0 19.199308869232141 12.069106348168134 0 0 0 0 -19.146680308635041 15.320717088039117 0 15.320717088039117 12.97521341492029 0 0 0 0 -7.6530058394127991 35.257991482791113 0 35.257991482791113 21.19838254664964 0 0 0 0 -14.681848886786611 22.601636478695809 0 22.601636478695809 22.434095220995459 0 0 0 0 -5.8421779950149357 32.90959879728598 0 32.90959879728598 6.8039858764009296 0 0 0 0 -2.9690259663038887 28.832607186621772 0 28.832607186621772 10.014032490434602 0 0 0 0 -4.183922336276737 25.598724241526725 0 25.598724241526725 5.5137362075865894 0 0 0 0 -6.0540666137530934 21.146221490855851 0 21.146221490855851 6.6215134304366075 0 0 0 0 -5.9569568388898233 17.140821149916974 0 17.140821149916974 -2.0450851073960621 0 0 0 0 -1.4488610013777361 25.103870502927435 0 25.103870502927435 -5.8071158084949275 0 0 0 0 -0.29569014592561871 37.75559075679962 0 37.75559075679962 3.4064152406228914 0 0 0 0 -52.871583270039991 4.3635425457410975 0 4.3635425457410975 76.547689462438029 0 0 0 0 -10.145877698727418 75.176736713978926 0 75.176736713978926 94.6262343336291 0 0 0 0 -57.783310320184682 32.848865930996681 0 32.848865930996681 240.10704234764489 0 0 0 0 0.8454958897891629 47.123554136887776 0 47.123554136887776 27.650616484655984 0 0 0 0 -9.9778822283242334 63.216027326592794 0 63.216027326592794 82.202714470362707 0 0 0 0 79.150941111336579 7.8204442399177196 0 7.8204442399177196 71.787030538833335 0 0 0 0 35.036914392469043 55.343979704955217 0 55.343979704955217 35.286405571154887 0 0 0 0 -10.195449170099891 59.559991900496328 0 59.559991900496328 109.4544044498009 0 0 0 0 46.928025946806883 103.32198995730573 0 103.32198995730573 -49.269036261335486 0 0 0 0 -47.453787514183205 49.270599699876868 0 49.270599699876868 61.841229224946346 0 0 0 0 -55.649157350941096 33.309304890432827 0 33.309304890432827 52.036056198578848 0 0 0 0 -56.248235326187569 33.238896731729199 0 33.238896731729199 55.210453365348712 0 0 0 0 -45.626402363675879 41.102789801845063 0 41.102789801845063 58.824012395803408 0 0 0 0 -51.650507795624435 26.766381958988177 0 26.766381958988177 53.463225254540134 0 0 0 0 -35.513134484761395 38.677594006965805 0 38.677594006965805 53.112712841080906 0 0 0 0 -32.860835545179498 59.831669296243049 0 59.831669296243049 63.448137566082323 0 0 0 0 -32.710058945987839 46.35746210597523 0 46.35746210597523 52.722990195637635 0 0 0 0 -31.864813716296339 50.540498426742644 0 50.540498426742644 57.047883901798514 0 0 0 0 -19.093985331946897 60.88158236619747 0 60.88158236619747 53.667243505617307 0 0 0 0 -5.8563831300125457 83.977567817913382 0 83.977567817913382 77.430526596094523 0 0 0 0 -13.533137417689431 61.297525652910167 0 61.297525652910167 52.887056641264394 0 0 0 0 -17.61939464561874 70.151958485487171 0 70.151958485487171 61.99568261756815 0 0 0 0 -1.2247991972544696 72.449617985182726 0 72.449617985182726 51.727007678167638 0 0 0 0 -10.614118920726469 72.907897201961589 0 72.907897201961589 61.275412963840949 0 0 0 0 -3.2712608241999988 83.524353407715637 0 83.524353407715637 63.022405650224073 0 0 0 0 -9.7687936674556113 80.291908990996347 0 80.291908990996347 71.059734358340847 0 0 0 0 -14.710922399943229 75.760537634369371 0 75.760537634369371 66.971569737750656 0 0 0 0 -10.389251637854613 81.988502272295364 0 81.988502272295364 75.209578838858761 0 0 0 0 -16.868089584488189 76.820586754084957 0 76.820586754084957 89.933457783174617 0 0 0 0 -17.562991864950163 71.198980563218583 0 71.198980563218583 71.045133323139666 0 0 0 0 -20.473103947777417 72.642916272871389 0 72.642916272871389 74.253305882513359 0 0 0 0 -27.182165385747794 64.962691966494276 0 64.962691966494276 68.963816768328229 0 0 0 0 -24.227336942218244 61.013710422226723 0 61.013710422226723 58.165097624123518 0 0 0 0 -52.945187172561418 50.63624415807044 0 50.63624415807044 69.977096727344758 0 0 0 0 -36.013199210050516 60.67607603181952 0 60.67607603181952 66.50608726308019 0 0 0 0 -29.055407876876416 39.740845562513982 0 39.740845562513982 90.393451448175654 0 0 0 0 -20.660018476453843 67.179203821260217 0 67.179203821260217 89.76653481839935 0 0 0 0 -28.969985693111084 53.328536845377585 0 53.328536845377585 72.872503988090287 0 0 0 0 -27.940041550325986 38.219711784251395 0 38.219711784251395 51.85051653142375 0 0 0 0 -63.259231398958946 34.572789474753222 0 34.572789474753222 58.701136544007454 0 0 0 0 -105.56928160579992 16.557485072740576 0 16.557485072740576 47.481996521742388 0 0 0 0 -51.969912518165074 34.571157701797233 0 34.571157701797233 51.117753592036081 0 0 0 0 -83.171485625571222 24.452859339046839 0 24.452859339046839 55.514405130678824 0 0 0 0 -62.801556858510594 41.301758291478677 0 41.301758291478677 49.282135285044319 0 0 0 0 -68.190014885694836 14.547931432832513 0 14.547931432832513 10.366006363119254 0 0 0 0 -65.85496340431564 43.970608122553642 0 43.970608122553642 27.620781772193368 0 0 0 0 -7.6627440705633489 50.993242335260391 0 50.993242335260391 22.936213660070962 0 0 0 0 -72.492742366776838 57.249728838648643 0 57.249728838648643 29.880018335928412 0 0 0 0 -23.81318078401091 36.881840741239728 0 36.881840741239728 -22.186308392855892 0 0 0 0 -92.455337196937762 76.391409768451297 0 76.391409768451297 -30.572881750085912 0 0 0 0 -122.14868334203129 16.413133433060779 0 16.413133433060779 -31.501285570078494 0 0 0 0 -134.37694659976114 30.032094311694721 0 30.032094311694721 12.854233020579727 0 0 0 0 -140.94002526915574 -0.92450807555167103 0 -0.92450807555167103 -16.543816538568763 0 0 0 0 -17.999300640896735 12.146772664472621 0 12.146772664472621 -1.0812686042028439 0 0 0 0 92.896360621220083 119.84392113681929 0 119.84392113681929 19.301854354131251 0 0 0 0 42.451965145926806 50.69099013453183 0 50.69099013453183 0.68589457095976059 0 0 0 0 -19.564690440121922 66.199581064965969 0 66.199581064965969 37.489307121084948 0 0 0 0 -23.407965478079859 73.265806476470459 0 73.265806476470459 20.035592214047711 0 0 0 0 28.972430871959659 114.22386816519551 0 114.22386816519551 49.733352360899232 0 0 0 0 7.5181719553584117 7.4084922555326855 0 7.4084922555326855 -129.68543495456552 0 0 0 0 4.312655879984959 44.33595450907228 0 44.33595450907228 45.976048363968488 0 0 0 0 2.3050101278859074 15.929970341112863 0 15.929970341112863 -45.79790724378654 0 0 0 0 -136.91594577337673 74.457140015873932 0 74.457140015873932 -88.983184644909102 0 0 0 0 -232.68163559165623 -38.955742762844864 0 -38.955742762844864 -35.115450235822891 0 0 0 0 -123.39175453406642 -9.7818288251562535 0 -9.7818288251562535 -60.482840394093273 0 0 0 0 -10.758312621197547 36.589175980641642 0 36.589175980641642 -78.349945083539467 0 0 0 0 -196.9967301370707 -35.340653414389209 0 -35.340653414389209 -222.43352591970898 0 0 0 0 -310.67049761387534 -60.531969167353708 0 -60.531969167353708 -52.324318208892805 0 0 0 0 -179.75610040775064 -51.929694413963176 0 -51.929694413963176 -19.025489820208804 0 0 0 0 -143.54827431213926 -54.104235900871004 0 -54.104235900871004 -56.490200235643755 0 0 0 0 -208.53801819720684 -130.88074049144677 0 -130.88074049144677 -60.005815546513645 0 0 0 0 -150.17085742610652 -73.707070833180737 0 -73.707070833180737 -28.228348656309549 0 0 0 0 -72.533640091467532 -20.681344997261931 0 -20.681344997261931 -3.6229872089971877 0 0 0 0 -103.68902692499978 -4.128548660305114 0 -4.128548660305114 5.1804212757743073 0 0 0 0 -92.614350182186172 -9.8194610608846773 0 -9.8194610608846773 7.9304595580701971 0 0 0 0 -39.020313747103501 -79.374743835305793 0 -79.374743835305793 -80.775508864436233 0 0 0 0 -125.32067146355985 -139.75034000649464 0 -139.75034000649464 -87.718809771326278 0 0 0 0 -87.120170302790939 -91.226484090767372 0 -91.226484090767372 -47.266016442930038 0 0 0 0 -76.366468382337189 -172.68724511560126 0 -172.68724511560126 -97.315228628433374 0 0 0 0 -178.81722427944624 -221.43058709377186 0 -221.43058709377186 -88.393561005386346 0 0 0 0 -144.33935867851051 -196.68940161487515 0 -196.68940161487515 -105.47375520122648 0 0 0 0 -137.93548196286429 -153.18064405641178 0 -153.18064405641178 -71.948162445892422 0 0 0 0 -288.7285914541244 -185.01104074288548 0 -185.01104074288548 -67.476449710266365 0 0 0 0 -113.58784090812696 -200.48253048546928 0 -200.48253048546928 -112.67023837651789 0 0 0 0 7.1964465142882545 -109.1948410853895 0 -109.1948410853895 -86.177958629590094 0 0 0 0 -389.71250948553029 31.049609000156973 0 31.049609000156973 -9.2199799191364491 0 0 0 0 -1.2931661743859593 -1.1095798796117293 0 -1.1095798796117293 -1.1149368967831863 0 0 0 0 -379.86896494954271 -108.74855688989351 0 -108.74855688989351 -91.244108339011063 0 0 0 0 -264.9899996206077 -81.222860424732858 0 -81.222860424732858 -229.29818692867931 0 0 0 0 -319.48594969603437 -41.55344537479499 0 -41.55344537479499 -18.748580801806895 0 0 0 0 -281.17852297171703 -104.5598254513062 0 -104.5598254513062 -65.363989798458306 0 0 0 0 -318.89343974509393 21.670143923701971 0 21.670143923701971 25.687751099726029 0 0 0 0 -255.56622336707369 -59.043482433323476 0 -59.043482433323476 -14.414774096486354 0 0 0 0 -261.24346543713909 -52.700755198971734 0 -52.700755198971734 17.938462884697657 0 0 0 0 -176.55415884201648 7.1790095190583543 0 7.1790095190583543 14.722317839821898 0 0 0 0 13.364858254655701 -1.698346630143817 0 -1.698346630143817 -16.371082053686578 0 0 0 0 -0.10099361979632704 -0.11449961039545542 0 -0.11449961039545542 0.020040328976087651 0 0 0 0 -245.68715737550519 53.524645493095761 0 53.524645493095761 -5.811070236218427 0 0 0 0 0.353817918607092 -17.498132302265859 0 -17.498132302265859 -29.735822009953722 0 0 0 0 3.1788631168892607 13.802702477838551 0 13.802702477838551 -27.247968090008797 0 0 0 0 -8.4249213492148556 -10.482393347762645 0 -10.482393347762645 -25.441815433779055 0 0 0 0 -35.758278947658255 -50.60110554421972 0 -50.60110554421972 -79.062443723622835 0 0 0 0 -249.57853271471686 -76.336428205967934 0 -76.336428205967934 -56.114604833448311 0 0 0 0 -194.32937575061806 -130.35087563040804 0 -130.35087563040804 -31.51762870359866 0 0 0 0 -0.62000294075411944 0.45207380548263387 0 0.45207380548263387 -0.69288018003818008 0 0 0 0 -258.07921388331306 -35.446715070137316 0 -35.446715070137316 -123.82743190505744 0 0 0 0 -255.94345228041493 -70.465518062551524 0 -70.465518062551524 -21.205522713143694 0 0 0 0 -204.13508369299961 -94.012951825622991 0 -94.012951825622991 -14.13858801296783 0 0 0 0 -195.30351733024872 -75.084548709211447 0 -75.084548709211447 -28.264486257722865 0 0 0 0 -159.51114856758795 -40.076634036107691 0 -40.076634036107691 -2.8202138275677555 0 0 0 0 -95.507977627205037 -114.29555322720364 0 -114.29555322720364 -47.011400115900756 0 0 0 0 -1.4704740158411767 1.2850189095754843 0 1.2850189095754843 -1.4714912828723952 0 0 0 0 -65.4107606678308 12.598299937122235 0 12.598299937122235 -5.0386748953787333 0 0 0 0 -134.11012958895299 -65.096308196163676 0 -65.096308196163676 -30.821669007074632 0 0 0 0 -0.033742961246844061 0.47255745725815501 0 0.47255745725815501 -0.64512724893314188 0 0 0 0 -9.1918509519382496 -17.318328111408448 0 -17.318328111408448 -24.068082300256279 0 0 0 0 -33.773154691258242 -40.96520243618486 0 -40.96520243618486 -31.112470436028957 0 0 0 0 -155.33619224362337 -14.392378999717721 0 -14.392378999717721 11.031986069128806 0 0 0 0 -194.27451881845627 -50.494231052500318 0 -50.494231052500318 29.464734450592886 0 0 0 0 -206.81539943164898 -45.843878155656597 0 -45.843878155656597 28.126986048303252 0 0 0 0 -196.01090476719401 -52.479625115784884 0 -52.479625115784884 11.632937212371402 0 0 0 0 -185.96965184413421 -60.249867852510803 0 -60.249867852510803 -0.041232253164562332 0 0 0 0 -207.06425938824395 -64.127797057222637 0 -64.127797057222637 15.714917149541042 0 0 0 0 -253.11425428624352 28.283633617216054 0 28.283633617216054 24.468882318999334 0 0 0 0 -1.0047877828474157 -0.26614224247869517 0 -0.26614224247869517 0.00028681232483433522 0 0 0 0 -60.409675679002248 -2.733610008367414 0 -2.733610008367414 10.020814735660657 0 0 0 0 -0.5701802915217371 -0.11346345083511977 0 -0.11346345083511977 -0.0040914015722993014 0 0 0 0 -150.46702949845348 -19.253513769170922 0 -19.253513769170922 4.4728487526592176 0 0 0 0 -131.86686381621257 14.263355523301783 0 14.263355523301783 -7.1456816845643232 0 0 0 0 -188.77242074468813 -25.849641793856563 0 -25.849641793856563 21.147240689298798 0 0 0 0 -226.62468164979509 -12.086870492844824 0 -12.086870492844824 30.379467859270989 0 0 0 0 -210.60114669659379 -53.719691101628982 0 -53.719691101628982 15.868903744452432 0 0 0 0 -177.86941405779726 -51.386062847513344 0 -51.386062847513344 8.4654899063556659 0 0 0 0 -165.64083332601149 -16.799180076143994 0 -16.799180076143994 21.052350235863518 0 0 0 0 -114.62691559124505 -45.93832392860714 0 -45.93832392860714 0.09282497903062728 0 0 0 0 -0.40912920723501855 -0.26977900517324827 0 -0.26977900517324827 0.15054362732344434 0 0 0 0 -3.2594550284957222 -0.61539371878958882 0 -0.61539371878958882 0.86057964618460758 0 0 0 0 -21.738233252464852 28.805970970193343 0 28.805970970193343 -14.679844311085901 0 0 0 0 -1.0060815538454335 3.8387802815813643 0 3.8387802815813643 -6.388723694520877 0 0 0 0 -2.3465619437127003 -0.59624569585488274 0 -0.59624569585488274 0.82030958818313415 0 0 0 0 -1.4783634048711889 -0.71479931141855246 0 -0.71479931141855246 0.25372958113208499 0 0 0 0 -1.2336776754564198 -0.94135753570693481 0 -0.94135753570693481 0.88038910481603239 0 0 0 0 -4.9939886034739587 -3.1722619222686177 0 -3.1722619222686177 -1.2770331772537404 0 0 0 0 -91.837593784126511 16.157728864635374 0 16.157728864635374 3.9185269415129369 0 0 0 0 -47.07288579854503 29.53370924230714 0 29.53370924230714 -10.132708809295394 0 0 0 0 -17.547117943919147 -14.775510548090011 0 -14.775510548090011 7.6152635419536239 0 0 0 0 -93.300274719156732 41.406547616070725 0 41.406547616070725 -12.486351115950459 0 0 0 0 -1.7468384259700542 -1.4756292407298868 0 -1.4756292407298868 0.00090298284555946466 0 0 0 0 -0.31815427175527589 0.041995922104376859 0 0.041995922104376859 0.045179125398600646 0 0 0 0 -2.9753887303086231 5.3281571432932004 0 5.3281571432932004 1.9340677129712844 0 0 0 0 -1.8599270760041975 -0.75653121026886083 0 -0.75653121026886083 -0.15402084321204876 0 0 0 0 -336.59114429197507 97.676745658474104 0 97.676745658474104 -20.070360927499422 0 0 0 0 -7.822362106442597 -10.439557942276487 0 -10.439557942276487 0.018284296001940471 0 0 0 0 -0.96965661261918967 -0.073862191319655324 0 -0.073862191319655324 0.056190028081684509 0 0 0 0 -147.0968918630133 -68.750221788638925 0 -68.750221788638925 -0.36813163803488991 0 0 0 0 -114.30838200340077 8.6305306711220169 0 8.6305306711220169 20.579863658744387 0 0 0 0 -152.73714217228826 21.685516180357819 0 21.685516180357819 16.305294785385144 0 0 0 0 -112.67044643113331 21.991583563046873 0 21.991583563046873 -2.3038353777790874 0 0 0 0 -110.01014269715961 17.896452231725547 0 17.896452231725547 3.8106508115040469 0 0 0 0 -92.440590435719059 19.651680121869958 0 19.651680121869958 3.7828705316011941 0 0 0 0 -116.61328822847463 13.623123158330145 0 13.623123158330145 16.231797553139529 0 0 0 0 -106.88733764122298 12.298213442662757 0 12.298213442662757 16.318643503936528 0 0 0 0 -115.15644156025519 6.9660011369568338 0 6.9660011369568338 18.624000723455936 0 0 0 0 -110.11185533482058 5.7426040304754338 0 5.7426040304754338 18.920458991180311 0 0 0 0 -116.30028108404076 15.580203875961104 0 15.580203875961104 8.3118406091336396 0 0 0 0 -81.253755719881156 9.1779048237298184 0 9.1779048237298184 8.1384572394548513 0 0 0 0 -119.74616342730587 -0.7121217718824937 0 -0.7121217718824937 11.209119922425472 0 0 0 0 -110.77901830323754 7.8831791107516835 0 7.8831791107516835 12.067509404414182 0 0 0 0 -130.7008314561208 -10.314610454109925 0 -10.314610454109925 7.4694738357634378 0 0 0 0 -23.27063103700857 8.0067403168817322 0 8.0067403168817322 35.200899807126007 0 0 0 0 -34.929617584995867 -2.4339228536859991 0 -2.4339228536859991 35.511311059236547 0 0 0 0 -20.963793342416466 -15.081300251956065 0 -15.081300251956065 -28.822164571300732 0 0 0 0 -17.562325639009941 19.912499262011238 0 19.912499262011238 41.305167943650503 0 0 0 0 -7.1983657375385519 -3.7988292484884596 0 -3.7988292484884596 53.192989203531624 0 0 0 0 -0.90161090514084208 10.454285320295526 0 10.454285320295526 45.7359702944741 0 0 0 0 -3.3630778761547617 -3.0278549546611728 0 -3.0278549546611728 -2.2695718048473075 0 0 0 0 -27.492841914732708 -2.298086041051306 0 -2.298086041051306 54.414757547949193 0 0 0 0 -90.982498249824857 -10.148908528980542 0 -10.148908528980542 6.0003861240148382 0 0 0 0 -59.087465948388854 10.003419193055493 0 10.003419193055493 -6.2918077015199572 0 0 0 0 -58.960019920594277 10.808384028891417 0 10.808384028891417 -2.2191335070992864 0 0 0 0 -1.7890147804117973 0.83942887430256974 0 0.83942887430256974 2.0023209797983572 0 0 0 0 1.1207645000394564 -0.51723512342256583 0 -0.51723512342256583 0.33120916547327089 0 0 0 0 2.6160084731527604 -3.0951277240425128 0 -3.0951277240425128 0.35191771878086975 0 0 0 0 -0.44529486785177141 1.0975208835595822 0 1.0975208835595822 1.2266286236497947 0 0 0 0 1.4234560394434084 -0.40987558640930682 0 -0.40987558640930682 0.00039493461604812077 0 0 0 0 1.0760944425928756 -0.15377406415563302 0 -0.15377406415563302 0.083850013468977247 0 0 0 0 0.78066161198330519 -0.45729760190090085 0 -0.45729760190090085 -0.00048432443743898554 0 0 0 0 3.5043506238180271 -4.6851021615293149 0 -4.6851021615293149 3.1967222074999313 0 0 0 0 4.8484140781365568 -3.2823406490622702 0 -3.2823406490622702 -2.3199844023386902 0 0 0 0 9.1090281036522356 -3.4581757213480984 0 -3.4581757213480984 -10.817581328841925 0 0 0 0 -39.726492509449599 -11.741355915546876 0 -11.741355915546876 3.5486366714790449 0 0 0 0 0.45132249077673237 -0.1317657058191628 0 -0.1317657058191628 0.012254078054851819 0 0 0 0 12.28691835662903 14.185264537698105 0 14.185264537698105 0.88688406455650004 0 0 0 0 -49.876604590419447 -25.026996550749004 0 -25.026996550749004 -7.919509590794263 0 0 0 0 48.426379952452407 -23.368205155991784 0 -23.368205155991784 -17.789754767055257 0 0 0 0 -36.831676459529263 -42.278433176441638 0 -42.278433176441638 -6.3861244225111093 0 0 0 0 -33.571796430333052 -66.3540847903935 0 -66.3540847903935 0.14647393533804631 0 0 0 0 -99.896412575493741 -27.307689840395643 0 -27.307689840395643 4.1603784500854033 0 0 0 0 -42.545020114979707 -23.914501540797374 0 -23.914501540797374 6.0085339989441593 0 0 0 0 -132.36320345561853 -41.22498299067793 0 -41.22498299067793 7.4771927033386305 0 0 0 0 -100.68253788862603 -22.612301695768807 0 -22.612301695768807 10.108938897693747 0 0 0 0 -45.377074839700072 -6.1355036377772763 0 -6.1355036377772763 5.2357516739640459 0 0 0 0 -35.11043690778024 -4.0889490764150196 0 -4.0889490764150196 -6.8170330800938927 0 0 0 0 -77.771077205228266 -9.4840861694409817 0 -9.4840861694409817 6.643703171251957 0 0 0 0 -19.030213817190088 -15.40402335998084 0 -15.40402335998084 -0.87628346305223204 0 0 0 0 -32.861745512385824 0.60743650304775088 0 0.60743650304775088 -1.5616080096460792 0 0 0 0 -29.030262979635154 -19.590730296235506 0 -19.590730296235506 0.0076924951341936776 0 0 0 0 2.810542325496499 -5.4640533670340687 0 -5.4640533670340687 -6.6836857861320595 0 0 0 0 -2.6990397072258929 -1.6273880309419297 0 -1.6273880309419297 -0.2461345541312312 0 0 0 0 0.66854257812519791 -1.0035109668244502 0 -1.0035109668244502 5.1683924935164782 0 0 0 0 -3.9425156320794486 -10.711448567379875 0 -10.711448567379875 -8.5618162694630939 0 0 0 0 0.24844072845505139 0.10905669498954396 0 0.10905669498954396 0.12200058326125307 0 0 0 0 -6.9502033796306932 -4.8607525092337482 0 -4.8607525092337482 4.3818789204506174 0 0 0 0 1.8602998208807549 -12.681924912814821 0 -12.681924912814821 -2.5157673870224926 0 0 0 0 7.9338338219822617 -4.3357755716164093 0 -4.3357755716164093 8.7008007794059949 0 0 0 0 -1.1584902922877518 -6.339410796351757 0 -6.339410796351757 -2.2043902274739366 0 0 0 0 -14.035790362580009 -7.7322591751781857 0 -7.7322591751781857 9.6747720393504846 0 0 0 0 14.316263002219785 -18.567883682965771 0 -18.567883682965771 3.2006825233951872 0 0 0 0 -11.032747064600699 -57.049243232111621 0 -57.049243232111621 196.88486230807484 0 0 0 0 10.066370827335049 -12.731422535612268 0 -12.731422535612268 12.530560942860689 0 0 0 0 -3.0470667827952127 -4.1388302686093006 0 -4.1388302686093006 4.2660041675848621 0 0 0 0 -0.16672945134834549 -0.3345542021764345 0 -0.3345542021764345 0.36098198440418616 0 0 0 0 -4.7992229102019337 -3.544839469515523 0 -3.544839469515523 -0.97803713488690391 0 0 0 0 0.44914488364840111 -0.021121179818877067 0 -0.021121179818877067 1.4312433747495013 0 0 0 0 -9.6726892218430294 5.7786984900225775 0 5.7786984900225775 5.6052651336032113 0 0 0 0 -11.906458983998164 -1.5437308844587392 0 -1.5437308844587392 0.20752499297719851 0 0 0 0 -475.73639359768686 -292.10810920021311 0 -292.10810920021311 -143.6577559206155 0 0 0 0 -384.49921940542117 178.76782327996455 0 178.76782327996455 0.46786282672144353 0 0 0 0 -190.11148795128247 398.58066905233864 0 398.58066905233864 -99.380000086627206 0 0 0 0 212.83110198899521 -182.00177275556939 0 -182.00177275556939 -926.7553992010121 0 0 0 0 -429.73799312990741 325.99824578397516 0 325.99824578397516 239.17030426827409 0 0 0 0 -301.38147257098171 162.20538136605887 0 162.20538136605887 346.7187793667789 0 0 0 0 -12.318326185021853 -10.046903535434225 0 -10.046903535434225 6.1258898211140558 0 0 0 0 -3.6730498412362067 -20.659748504671484 0 -20.659748504671484 21.364234281801316 0 0 0 0 15.811234142856847 -32.954421806545952 0 -32.954421806545952 3.109009773938169 0 0 0 0 0.71058229199843481 -21.681247301305632 0 -21.681247301305632 -0.76889577305860257 0 0 0 0 -305.53725774415943 35.070862065502979 0 35.070862065502979 229.61909368700572 0 0 0 0 179.19329653522254 -370.1012949914516 0 -370.1012949914516 -271.31025433354046 0 0 0 0 -20.346300114240876 -11.772233962719895 0 -11.772233962719895 8.6218902613206865 0 0 0 0 -6.9994558501639403 -31.61071782389422 0 -31.61071782389422 13.635795229167158 0 0 0 0 -5.1801856110614608 -26.808282110502773 0 -26.808282110502773 -5.2298294204592821 0 0 0 0 4.8207161152513436 -13.41669211733003 0 -13.41669211733003 12.05260349506375 0 0 0 0 -11.920665165500395 -9.6743292770630092 0 -9.6743292770630092 2.1308512456946573 0 0 0 0 -18.78124186770583 -17.059806209184671 0 -17.059806209184671 -3.0970512801563927 0 0 0 0 -33.493616653511708 4.11226770049484 0 4.11226770049484 -13.144275439549347 0 0 0 0 -64.325144113281567 -6.6355172686824062 0 -6.6355172686824062 0.99404627134811108 0 0 0 0 -27.558459705855057 -22.58656592051841 0 -22.58656592051841 -7.5790523972450217 0 0 0 0 -39.353441966017272 4.6407342717479878 0 4.6407342717479878 -39.513456054160315 0 0 0 0 -31.415116668233168 -40.748948196172392 0 -40.748948196172392 -9.2557736222820495 0 0 0 0 -39.073565898808738 -46.34561865446841 0 -46.34561865446841 40.086982509587415 0 0 0 0 -38.691355990384181 -48.779101335981181 0 -48.779101335981181 49.819659974555179 0 0 0 0 -58.395747539703734 -31.971907216835689 0 -31.971907216835689 26.209691551134711 0 0 0 0 -60.367139181347738 -48.797972983510249 0 -48.797972983510249 89.808532182427825 0 0 0 0 -38.055934573276318 -49.164287136953135 0 -49.164287136953135 37.435391052138129 0 0 0 0 -19.392626946281688 3.2246724643771572 0 3.2246724643771572 8.9236562895308111 0 0 0 0 -58.664510090166004 -14.512075355557954 0 -14.512075355557954 19.039754104193662 0 0 0 0 -22.010025145420514 10.282412195660072 0 10.282412195660072 10.885983440088694 0 0 0 0 -36.593090312986988 -23.276046785586651 0 -23.276046785586651 8.6686565353402329 0 0 0 0 -30.109776190643316 -10.873386606845287 0 -10.873386606845287 7.3852255459141203 0 0 0 0 -17.729707014077576 6.1262832118582082 0 6.1262832118582082 14.828158711833794 0 0 0 0 -11.911662073725282 -7.1992921821780627 0 -7.1992921821780627 7.9544380890647677 0 0 0 0 -19.916027266990568 -18.423250930650966 0 -18.423250930650966 40.876161685029729 0 0 0 0 -0.75055060064187273 -46.472077228180524 0 -46.472077228180524 23.378279303585714 0 0 0 0 -8.6865168767935259 2.3200226243364455 0 2.3200226243364455 2.0230906149284298 0 0 0 0 0.53386618158401689 -20.081651159451667 0 -20.081651159451667 0.1581578851910308 0 0 0 0 91.013103143297485 83.482810340233186 0 83.482810340233186 -2.9162388395925518 0 0 0 0 -26.255510926079296 175.79933158174714 0 175.79933158174714 75.586995063325048 0 0 0 0 90.146899049996136 -10.001320453880339 0 -10.001320453880339 1.5080397727970194 0 0 0 0 -7.6239670550894516 18.465094034580602 0 18.465094034580602 7.7652572023980611 0 0 0 0 -38.847187688050326 20.914181578125863 0 20.914181578125863 9.8352750447822928 0 0 0 0 -40.245401884443709 20.058159470981082 0 20.058159470981082 18.558067286994628 0 0 0 0 -76.070744564771303 26.267845329607098 0 26.267845329607098 22.491797887514622 0 0 0 0 -18.437061476855888 43.511401448789968 0 43.511401448789968 16.412102375876202 0 0 0 0 -76.327640727300604 55.379562352442008 0 55.379562352442008 22.368859869080552 0 0 0 0 -144.30732518749574 3.3510259598957646 0 3.3510259598957646 37.578257912554818 0 0 0 0 -76.043294097487546 35.792012930505578 0 35.792012930505578 29.104511035623545 0 0 0 0 -88.621290882401809 44.067586982025659 0 44.067586982025659 28.808992256019565 0 0 0 0 -228.25862432658323 81.864370163499245 0 81.864370163499245 95.258923420951874 0 0 0 0 -215.49075642075695 -56.163542177930083 0 -56.163542177930083 20.032354872448195 0 0 0 0 -0.22170143142924559 0.41029448680068015 0 0.41029448680068015 -1.0937845370620893 0 0 0 0 194.31470606050789 25.921624231933833 0 25.921624231933833 -370.35556910117907 0 0 0 0 0.85734340174167301 -178.27860389351417 0 -178.27860389351417 -174.63512992170189 0 0 0 0 -130.2628424796203 -268.28441124989274 0 -268.28441124989274 -180.36325686429225 0 0 0 0 -315.71474088691321 -222.06011897838869 0 -222.06011897838869 -38.988274473328374 0 0 0 0 -133.66122809476838 -88.607382158379039 0 -88.607382158379039 58.626048445075412 0 0 0 0 -303.62797334744323 70.781115392048733 0 70.781115392048733 145.50792655158858 0 0 0 0 83.147889510742971 123.46258650674349 0 123.46258650674349 8.767971185895874 0 0 0 0 -0.77058817426252801 1.5917334169388226 0 1.5917334169388226 -0.46835121904922117 0 0 0 0 -165.71870697833219 -19.301879111034964 0 -19.301879111034964 -10.920955984664772 0 0 0 0 -117.47597328984921 2.7493624238097425 0 2.7493624238097425 -3.7186982705640048 0 0 0 0 -75.599166278261691 1.2580451865273972 0 1.2580451865273972 -8.2484900033475697 0 0 0 0 -70.514717311229106 15.322080919436949 0 15.322080919436949 -16.322187584709013 0 0 0 0 -49.506059866682335 -25.217558958142945 0 -25.217558958142945 -57.662368989959411 0 0 0 0 -121.50397045968566 53.205019644630852 0 53.205019644630852 -54.379758353418993 0 0 0 0 -282.69249547388608 15.001585813773659 0 15.001585813773659 -2.7485859994667408 0 0 0 0 -29.081570906702837 -115.93897862605695 0 -115.93897862605695 -89.564238397649433 0 0 0 0 -123.60871938058335 74.175012159090159 0 74.175012159090159 -157.97354877149132 0 0 0 0 -59.082144890511699 -29.468592435109372 0 -29.468592435109372 5.331899915316626 0 0 0 0 -40.16625163828212 -70.669193629037864 0 -70.669193629037864 32.464171444950807 0 0 0 0 -39.050952895948285 -3.4912833370325416 0 -3.4912833370325416 128.50666847236903 0 0 0 0 -91.001464528817451 -114.51043416499533 0 -114.51043416499533 174.45595266518876 0 0 0 0 -33.992746256119972 3.0987923563140995 0 3.0987923563140995 0.28961798866547284 0 0 0 0 -133.60630241478066 -18.876500404297758 0 -18.876500404297758 301.72440875378402 0 0 0 0 -186.65104130699547 226.27336931284401 0 226.27336931284401 221.04603799052256 0 0 0 0 -307.35108275575476 -155.43110374210607 0 -155.43110374210607 -104.6691232308558 0 0 0 0 23.70518967598764 2.1258619067795053 0 2.1258619067795053 -30.924548147336282 0 0 0 0 -562.84035877332644 41.990541124710262 0 41.990541124710262 131.29305926013694 0 0 0 0 76.376418988475507 -106.61653373335156 0 -106.61653373335156 -109.78459950470369 0 0 0 0 -1.9853090836268876 -3.0480156730332837 0 -3.0480156730332837 -3.6874607891930147 0 0 0 0 -560.85346899426077 67.691040818625765 0 67.691040818625765 463.43841331763588 0 0 0 0 -365.84686518160015 395.57913027617246 0 395.57913027617246 68.570279589479924 0 0 0 0 -780.14225799370615 648.1149286880941 0 648.1149286880941 717.39766737778564 0 0 0 0 -158.64049266341317 -559.75296407863198 0 -559.75296407863198 -354.47623229059491 0 0 0 0 -12.652985469876953 0.20582223432485414 0 0.20582223432485414 0.079853763924798482 0 0 0 0 -269.46736101536953 -177.68764915229053 0 -177.68764915229053 -83.550046304977059 0 0 0 0 -491.93434315094419 -301.13875712242981 0 -301.13875712242981 335.36442566398728 0 0 0 0 -328.52464566068738 -112.26445647664025 0 -112.26445647664025 -41.343972882706112 0 0 0 0 -5.3547859945271243 2.1647668610216471 0 2.1647668610216471 2.2425049504082581 0 0 0 0 81.757752969569992 -92.151880617260076 0 -92.151880617260076 99.273519618930436 0 0 0 0 -186.60782239952823 -151.4564573674665 0 -151.4564573674665 -121.61479876180829 0 0 0 0 -123.36134147899793 -104.67177678721282 0 -104.67177678721282 -110.85028886441944 0 0 0 0 -229.15265930708483 -128.22107477895781 0 -128.22107477895781 -73.423050308853362 0 0 0 0 -236.39466127121705 -118.93780346989593 0 -118.93780346989593 -49.673673296853849 0 0 0 0 -251.73966054074117 -111.81117522941966 0 -111.81117522941966 -97.511434414480846 0 0 0 0 -200.37865919463366 -123.61888923962204 0 -123.61888923962204 -94.859468249037036 0 0 0 0 -236.52523972572089 -155.53135954964273 0 -155.53135954964273 -105.41299730975163 0 0 0 0 -239.83453919924796 -137.77467759079718 0 -137.77467759079718 -58.509680066126066 0 0 0 0 -232.78658337597153 -146.56105861075019 0 -146.56105861075019 -91.826439622887847 0 0 0 0 -16.231589740511964 6.8518376600882434 0 6.8518376600882434 -0.28584657856149498 0 0 0 0 -21.232363770221127 1.2599388011140036 0 1.2599388011140036 -3.070307137936652 0 0 0 0 -239.7754980912141 -130.2414653656042 0 -130.2414653656042 -100.31155232667288 0 0 0 0 -4.6241010352564018 2.6677258764911898 0 2.6677258764911898 0.78708066725167658 0 0 0 0 -12.747066591473413 21.639983161595865 0 21.639983161595865 -15.46565427497535 0 0 0 0 -14.810496180172777 3.3950275864526702 0 3.3950275864526702 6.1109289905280093 0 0 0 0 -16.633294565060154 5.3197377796618852 0 5.3197377796618852 6.5632464937873793 0 0 0 0 -16.560000361783452 3.4709802891710559 0 3.4709802891710559 8.1964108296938036 0 0 0 0 639.93870918202447 -223.4064421988312 0 -223.4064421988312 -1051.2194951888564 0 0 0 0 -21.157756866019099 4.3698694391093156 0 4.3698694391093156 6.4347899708943457 0 0 0 0 -16.071809037923231 2.0906736834522235 0 2.0906736834522235 70.217404594090112 0 0 0 0 -7.4690183846032596 -14.0672608239081 0 -14.0672608239081 45.467193082294216 0 0 0 0 -2.5292291582714572 4.6836885287082026 0 4.6836885287082026 12.804789073354312 0 0 0 0 -144.06562266165565 206.18792276921613 0 206.18792276921613 81.670704386806392 0 0 0 0 3.5737820384820225 -43.257049042231756 0 -43.257049042231756 79.83071526818253 0 0 0 0 50.750110803091957 -1.7810275312701833 0 -1.7810275312701833 -30.151183608970314 0 0 0 0 13.232851816574112 -11.94947072237801 0 -11.94947072237801 -90.815087642854451 0 0 0 0 -165.20965162796347 82.258774375354008 0 82.258774375354008 -43.156411990257766 0 0 0 0 -167.26074294375576 0.83855127841707144 0 0.83855127841707144 -16.053591125988532 0 0 0 0 9.6227361470191681 19.373698296967632 0 19.373698296967632 5.6197908774634016 0 0 0 0 0.72866184412123403 -21.200326442837195 0 -21.200326442837195 -15.847020640678238 0 0 0 0 713.99260006016993 -317.7181473478106 0 -317.7181473478106 -280.77791405658263 0 0 0 0 -580.50892129205749 -192.76684838773599 0 -192.76684838773599 254.63175069004137 0 0 0 0 -134.02033155466779 55.083882936834982 0 55.083882936834982 254.33852903329307 0 0 0 0 -969.93222334155143 -160.99581978258448 0 -160.99581978258448 179.29293963766213 0 0 0 0 -786.94219658997463 -215.102870310664 0 -215.102870310664 160.64867151013004 0 0 0 0 -2.1037227427033329 -4.6888715870980278 0 -4.6888715870980278 -9.1647242624548291 0 0 0 0 -325.76012434746372 -8.8599080937819963 0 -8.8599080937819963 41.785338661639344 0 0 0 0 -335.06695296516409 -76.040557127542343 0 -76.040557127542343 52.871548629480458 0 0 0 0 -435.84014408091025 -73.11991600086003 0 -73.11991600086003 54.85764582565389 0 0 0 0 -420.13489566351927 6.288804985322713 0 6.288804985322713 39.376450655048302 0 0 0 0 -498.7753065187062 190.94511883645873 0 190.94511883645873 81.026606034331962 0 0 0 0 -818.94433408242912 118.50208512675954 0 118.50208512675954 174.84334900911017 0 0 0 0 -945.51807724048558 -278.93883518772418 0 -278.93883518772418 164.757854027348 0 0 0 0 -510.59922655695846 539.58402209487622 0 539.58402209487622 -192.12244294127936 0 0 0 0 -788.10690062218782 -454.19913781891501 0 -454.19913781891501 -184.16227323095154 0 0 0 0 -6.5434051918297769 1.7307340363930628 0 1.7307340363930628 -0.02137679104461121 0 0 0 0 -316.93821036601003 -229.25572517823093 0 -229.25572517823093 -218.76961735631585 0 0 0 0 -498.63199240418908 63.211377723987653 0 63.211377723987653 -12.701288857488635 0 0 0 0 119.93665421921469 95.755229424107938 0 95.755229424107938 -274.65397157257939 0 0 0 0 142.64363126878675 -123.21042285974926 0 -123.21042285974926 -133.66378559292798 0 0 0 0 -4.4334213913737557 -10.817743840444066 0 -10.817743840444066 -17.938443444549787 0 0 0 0 73.959012224513572 -404.09773071509397 0 -404.09773071509397 254.53974843559809 0 0 0 0 20.792648445643863 66.854300886275269 0 66.854300886275269 -38.354636748427765 0 0 0 0 -103.27661154957241 57.206185130706331 0 57.206185130706331 30.464901302505041 0 0 0 0 -136.27655937024974 -12.61609756552582 0 -12.61609756552582 -41.776604278719333 0 0 0 0 -206.70719842774997 28.459663169653936 0 28.459663169653936 7.6552449186934837 0 0 0 0 -272.05520815739146 -124.74669016484302 0 -124.74669016484302 -11.880845430685099 0 0 0 0 -147.23320688414151 -11.214002563665751 0 -11.214002563665751 -14.346934298553151 0 0 0 0 -161.67906012715321 -41.801797231570276 0 -41.801797231570276 71.296902956654094 0 0 0 0 -46.022834328759927 65.301319103923333 0 65.301319103923333 22.744185320401812 0 0 0 0 -35.524238507634436 21.142539764395337 0 21.142539764395337 -34.785308229396946 0 0 0 0 -52.221883944829102 1.9439754417241488 0 1.9439754417241488 -0.15735483660277527 0 0 0 0 -17.614389819293137 47.229782952115727 0 47.229782952115727 30.402398326664297 0 0 0 0 27.448526107731595 28.950379209719586 0 28.950379209719586 1.9987191709071794 0 0 0 0 -39.740563146388013 0.34303354197336944 0 0.34303354197336944 8.7872586171434364 0 0 0 0 -44.437595170589475 -3.7715304631790172 0 -3.7715304631790172 7.7119281349846212 0 0 0 0 -57.570434450342873 13.062341002672383 0 13.062341002672383 17.733530582157982 0 0 0 0 -53.738002338214756 32.101102317785205 0 32.101102317785205 75.540729600712211 0 0 0 0 -47.582859057536552 -17.699428158583373 0 -17.699428158583373 104.73374668346787 0 0 0 0 -82.592963086073723 86.330444845976899 0 86.330444845976899 0.030088586778674653 0 0 0 0 -87.996330766854953 56.067553208592244 0 56.067553208592244 177.5930705983144 0 0 0 0 -364.94640890232404 -8.1179941824902926 0 -8.1179941824902926 318.09019936993764 0 0 0 0 -16.050819099742526 -8.4070944216455032 0 -8.4070944216455032 -14.153421486176629 0 0 0 0 -65.161203303787943 -166.60492521891902 0 -166.60492521891902 242.88961456392326 0 0 0 0 -102.4428487344012 12.508705522677133 0 12.508705522677133 34.262864064984569 0 0 0 0 -95.106706120506715 4.6212557459673462 0 4.6212557459673462 31.37335329765483 0 0 0 0 -67.992264771266491 5.001936403970376 0 5.001936403970376 25.382895440641732 0 0 0 0 -69.152558568210225 11.716453065541828 0 11.716453065541828 25.070459195635067 0 0 0 0 -72.217389694244048 24.757861172969115 0 24.757861172969115 22.791574140776902 0 0 0 0 -25.489138582335727 5.5409732605048703 0 5.5409732605048703 14.611361590452361 0 0 0 0 -41.401723380688054 13.694038674632338 0 13.694038674632338 33.863879759359406 0 0 0 0 -41.401723380782641 13.694038674570038 0 13.694038674570038 33.863879759348492 0 0 0 0 -41.602500242042879 15.618049754927142 0 15.618049754927142 17.517028284516527 0 0 0 0 -41.401723380651674 13.694038674609601 0 13.694038674609601 33.863879759353949 0 0 0 0 -54.887895274841867 -36.917399056674867 0 -36.917399056674867 -3.2960950688247976 0 0 0 0 -17.724957678210359 26.211506159117384 0 26.211506159117384 22.353555586271128 0 0 0 0 -11.263503492875316 -0.40431584308407764 0 -0.40431584308407764 -5.0261299058761324 0 0 0 0 -9.2841151343018282 24.768946794487647 0 24.768946794487647 3.8978208834914767 0 0 0 0 -110.67247792718661 1.1948357877795601 0 1.1948357877795601 32.173958829639105 0 0 0 0 -110.91500435519265 -6.4238158966900301 0 -6.4238158966900301 32.017931920866886 0 0 0 0 -139.81551676552408 72.545663511139765 0 72.545663511139765 -56.184598312755952 0 0 0 0 -11.612106545751885 54.985813475933355 0 54.985813475933355 2.8301226202233636 0 0 0 0 -15.080701713663355 28.425715051584557 0 28.425715051584557 19.865062328852769 0 0 0 0 16.107650672860473 39.451363161081304 0 39.451363161081304 11.177542611277659 0 0 0 0 -63.672076305982046 -17.938347490837032 0 -17.938347490837032 -17.7723350186061 0 0 0 0 -185.29913377045887 28.721988713704377 0 28.721988713704377 43.674134280588532 0 0 0 0 -10.135107441856235 182.67376893488597 0 182.67376893488597 -350.6515542329131 0 0 0 0 -263.58856913552609 223.57976345200206 0 223.57976345200206 18.022868382563502 0 0 0 0 -29.475752659673162 147.59347092615957 0 147.59347092615957 -60.640266439078573 0 0 0 0 22.273068053345924 41.355268735080472 0 41.355268735080472 9.9913487679001918 0 0 0 0 37.078322997086616 22.637933702097399 0 22.637933702097399 24.530314441628548 0 0 0 0 83.047292740055127 84.70376257715202 0 84.70376257715202 -27.087236697213143 0 0 0 0 -552.82549833513258 157.4713167213722 0 157.4713167213722 -9.8024517731250853 0 0 0 0 -530.20030249535375 -95.981859999035862 0 -95.981859999035862 311.72435546322345 0 0 0 0 -2.2768949547283732 3.4716305334889057 0 3.4716305334889057 -2.3892105214356221 0 0 0 0 -544.05752484165714 -198.62064280336881 0 -198.62064280336881 45.212961555222137 0 0 0 0 -307.25900076670223 -199.26447097698974 0 -199.26447097698974 -357.78995400027543 0 0 0 0 18.236414514602075 36.663674573590924 0 36.663674573590924 17.940981497428766 0 0 0 0 13.063174738352245 36.004566464158074 0 36.004566464158074 22.587343661217346 0 0 0 0 -186.39958747130549 60.208915829148509 0 60.208915829148509 -23.603936281810093 0 0 0 0 -5.6118772004777249 7.9041563616156871 0 7.9041563616156871 -7.4158316557506296 0 0 0 0 -1.43270819549641 -1.6542426214523784 0 -1.6542426214523784 0.12674692326395398 0 0 0 0 -74.031976743885025 -300.97374576500351 0 -300.97374576500351 -260.35697385635103 0 0 0 0 -602.06580848052181 -351.13426399737864 0 -351.13426399737864 419.46315383908404 0 0 0 0 -501.49178303129156 -241.21915131452806 0 -241.21915131452806 22.029720468015057 0 0 0 0 -253.58698884931073 -141.02729932823559 0 -141.02729932823559 38.504468111547794 0 0 0 0 -496.74552306039914 -314.8096579962239 0 -314.8096579962239 131.85360297195092 0 0 0 0 -79.749051361948659 49.061134513713114 0 49.061134513713114 28.150612673758587 0 0 0 0 8.1872313217936608 29.850785287907684 0 29.850785287907684 16.996560176143021 0 0 0 0 -23.20643815751869 28.121273142079971 0 28.121273142079971 18.08551030155693 0 0 0 0 -6.7645567322594289 14.07062945263484 0 14.07062945263484 -4.7837593093328401 0 0 0 0 16.685673333644445 31.744883342709045 0 31.744883342709045 5.0478159733411303 0 0 0 0 -48.89340987144169 34.031755981835204 0 34.031755981835204 28.329933356915717 0 0 0 0 -9.3501779554219429 3.0729878819751555 0 3.0729878819751555 -3.228264584195788 0 0 0 0 -1.9044987127354034 56.051168671446703 0 56.051168671446703 -4.3974217818376928 0 0 0 0 10.346000525187264 -19.108573319516836 0 -19.108573319516836 15.29218957082594 0 0 0 0 -1.4002974440689719 0.75966808535784835 0 0.75966808535784835 5.4477387310388394 0 0 0 0 -62.808185714166029 20.123111912582772 0 20.123111912582772 20.914376216207984 0 0 0 0 -31.787202646821243 -42.219301798642846 0 -42.219301798642846 -29.672794968597373 0 0 0 0 -76.922692626403659 56.138739716484906 0 56.138739716484906 -221.68595616592211 0 0 0 0 -70.31959447313784 28.013732253389207 0 28.013732253389207 -111.655051533603 0 0 0 0 0.34714677747199474 0.16821558678607573 0 0.16821558678607573 -2.2846649837523145 0 0 0 0 -141.34063563582822 175.26644173486966 0 175.26644173486966 -210.80314442088002 0 0 0 0 68.498530209750243 -17.11630845865966 0 -17.11630845865966 -179.04201695783559 0 0 0 0 0.43813290685916684 -0.9583418078990853 0 -0.9583418078990853 4.9035660126031786 0 0 0 0 -0.1340691978130053 11.101438655775837 0 11.101438655775837 18.826236521752435 0 0 0 0 -206.72371063201354 -164.27735243577126 0 -164.27735243577126 -71.68967299724136 0 0 0 0 -203.97548682582419 -196.69720644842891 0 -196.69720644842891 0.59381729215874657 0 0 0 0 -412.79731813953731 -516.01751048152528 0 -516.01751048152528 -237.35665336738384 0 0 0 0 -469.07270278482247 259.1822030769772 0 259.1822030769772 -885.61685196352482 0 0 0 0 -789.71091433092079 -442.49537925361983 0 -442.49537925361983 135.67265255502741 0 0 0 0 5.9267131437263743 212.01807874053611 0 212.01807874053611 -473.8697448468738 0 0 0 0 -845.15134242166096 -374.39159597084563 0 -374.39159597084563 -289.57129083648852 0 0 0 0 -558.0509786888033 -257.25809654296518 0 -257.25809654296518 160.3516519110326 0 0 0 0 -1130.4227271136351 49.538818047132509 0 49.538818047132509 214.00746156314744 0 0 0 0 -690.27740966614147 114.24021051723412 0 114.24021051723412 -86.940881662399988 0 0 0 0 -735.22339022560845 15.212583300379265 0 15.212583300379265 349.38975606322674 0 0 0 0 -2.4180667294041278 -4.7382768276427356 0 -4.7382768276427356 -7.3264140658331414 0 0 0 0 -7.7185225226421608 -146.17544579170954 0 -146.17544579170954 -145.33427899929097 0 0 0 0 -14.071992097260591 3.5841019708323074 0 3.5841019708323074 34.10421136189143 0 0 0 0 -9.2132732265854145 -5.9310989146958022 0 -5.9310989146958022 28.250309150824659 0 0 0 0 -15.941074181333533 -4.1767761029468602 0 -4.1767761029468602 28.105609214680726 0 0 0 0 -19.934272069072904 -5.7504380442296679 0 -5.7504380442296679 27.559246967305171 0 0 0 0 -10.938237628782169 -1.6449466468619605 0 -1.6449466468619605 21.608988642084043 0 0 0 0 1.7337862795211549 24.563226489550743 0 24.563226489550743 12.057208062686186 0 0 0 0 -5.0414603157869209 -3.5834218841182235 0 -3.5834218841182235 12.087211577164052 0 0 0 0 -15.612768455107016 -10.700149283372298 0 -10.700149283372298 11.029638696788425 0 0 0 0 -16.699179806651557 -3.2370853291637687 0 -3.2370853291637687 3.15925315787422 0 0 0 0 -20.367423493891692 -4.6805083121703319 0 -4.6805083121703319 25.087185638704284 0 0 0 0 -18.15112508882703 -2.818967660916087 0 -2.818967660916087 28.669005741637193 0 0 0 0 -19.758911255042221 -4.5146903207938749 0 -4.5146903207938749 32.047965431193461 0 0 0 0 -17.828888813284721 -7.4018270305050464 0 -7.4018270305050464 30.565535406714389 0 0 0 0 -18.980198008013076 -12.615309841063066 0 -12.615309841063066 48.793097599548673 0 0 0 0 -20.585576000749825 -7.0762528566858691 0 -7.0762528566858691 34.47218300164468 0 0 0 0 -17.421263555899827 -1.0012074703216598 0 -1.0012074703216598 28.730133483990357 0 0 0 0 -21.401119632695782 -4.8872644583104545 0 -4.8872644583104545 18.613083661182827 0 0 0 0 -22.69315097303479 -1.5970546331759579 0 -1.5970546331759579 25.468175730473263 0 0 0 0 -17.536967882969691 -4.3117767129954778 0 -4.3117767129954778 0.9541271584113864 0 0 0 0 -14.086176653931034 -0.69902490953012375 0 -0.69902490953012375 15.60759742915252 0 0 0 0 -17.649820987215207 -6.2071931301670702 0 -6.2071931301670702 4.0510182313123551 0 0 0 0 -22.948542651578464 -8.2287584632613289 0 -8.2287584632613289 11.347593278108434 0 0 0 0 -20.089632764582348 -1.9086647914182322 0 -1.9086647914182322 14.496265276468648 0 0 0 0 -21.949243658344045 -7.5635851129231995 0 -7.5635851129231995 4.158483234867913 0 0 0 0 0.27598733972536138 18.012125162288612 0 18.012125162288612 11.799152604334267 0 0 0 0 -42.553174007356574 43.556330527821046 0 43.556330527821046 91.10268396203719 0 0 0 0 -2.2556038479535818 3.4681694566047128 0 3.4681694566047128 20.27361635251653 0 0 0 0 -52.873969470061184 -15.69103329750061 0 -15.69103329750061 316.28793710475475 0 0 0 0 93.728606965945801 312.60433815206125 0 312.60433815206125 -5.517970256800254 0 0 0 0 -21.403724337353225 -7.7753648651992293 0 -7.7753648651992293 -1.4519069155654041 0 0 0 0 -197.96020022136508 -91.876077535598597 0 -91.876077535598597 -66.300964384779945 0 0 0 0 -333.0924248478841 -647.9696013287903 0 -647.9696013287903 -306.18152690663737 0 0 0 0 -739.5647600173761 -406.76416331964765 0 -406.76416331964765 -58.191515205144242 0 0 0 0 1055.4612322829344 -698.92805345516354 0 -698.92805345516354 -2155.1826079442908 0 0 0 0 -737.03485089203605 -116.14876471428352 0 -116.14876471428352 179.88155457589801 0 0 0 0 -6.3967622552756893 -3.8545096911382579 0 -3.8545096911382579 -1.6937988584177637 0 0 0 0 232.65941162173294 -477.21315638288843 0 -477.21315638288843 -261.81418385472625 0 0 0 0 -242.16592341214709 37.691202679900016 0 37.691202679900016 -23.391017969069708 0 0 0 0 -338.03447238626359 -72.23636423000471 0 -72.23636423000471 32.704902196866897 0 0 0 0 85.853841837924847 27.361771785699602 0 27.361771785699602 -42.443813305072581 0 0 0 0 -24.428532693833404 -10.034603277034876 0 -10.034603277034876 10.99733888773153 0 0 0 0 -7.5371520184686318 -1.250077863755692 0 -1.250077863755692 6.4493123018994467 0 0 0 0 -0.22418920292184907 -8.1022382608759571 0 -8.1022382608759571 -1.1817058923396075 0 0 0 0 85.066869659274744 -66.985237724468789 0 -66.985237724468789 -1.0983162428533433 0 0 0 0 -50.421199700253894 -13.112395779070102 0 -13.112395779070102 -0.22183348374820966 0 0 0 0 -46.591006356342405 -45.33170110059018 0 -45.33170110059018 -0.18948293039193231 0 0 0 0 -31.145475064433413 -13.188869745676129 0 -13.188869745676129 -26.369035896663263 0 0 0 0 -30.91976266194979 -11.928399050844746 0 -11.928399050844746 -19.628134202648653 0 0 0 0 -55.248134008656052 -13.320327165017261 0 -13.320327165017261 -7.0201177992166777 0 0 0 0 -31.672237155598765 -14.792243836822045 0 -14.792243836822045 -3.7876253271601037 0 0 0 0 -12.577858213466129 -4.453069372879245 0 -4.453069372879245 5.4020482175845856 0 0 0 0 -13.895226308256483 -5.2914008748139096 0 -5.2914008748139096 1.4115456978600918 0 0 0 0 -49.130202811553318 -7.4881984483745327 0 -7.4881984483745327 22.822597862756083 0 0 0 0 -18.887641732435441 -4.9053572287639327 0 -4.9053572287639327 21.632175990976066 0 0 0 0 -51.328655680954398 -12.592949581876837 0 -12.592949581876837 21.299674049874284 0 0 0 0 -48.544936923739442 -3.8106566794849641 0 -3.8106566794849641 16.347922863292752 0 0 0 0 -54.29002146563289 -8.9843190461833728 0 -8.9843190461833728 24.545073297967065 0 0 0 0 -51.055360087178997 -18.098173851406727 0 -18.098173851406727 24.585609063916309 0 0 0 0 -48.202590770155695 -6.0014541951732205 0 -6.0014541951732205 6.1754062695210035 0 0 0 0 -53.751865461959916 -18.558556302688007 0 -18.558556302688007 -1.3482632823183955 0 0 0 0 -135.95566691181375 -25.840938036124498 0 -25.840938036124498 2.2103998989368847 0 0 0 0 -15.577373738158226 -2.0816456092954674 0 -2.0816456092954674 -0.19381866079616472 0 0 0 0 -134.65808782960448 12.462741240348805 0 12.462741240348805 -21.694066698004463 0 0 0 0 -867.16558989155965 -327.02195116696021 0 -327.02195116696021 509.51532553546326 0 0 0 0 -307.88560697012508 -74.991481181007657 0 -74.991481181007657 -5.9525890122131386 0 0 0 0 102.38155854591969 -219.8876224818755 0 -219.8876224818755 95.172540813136038 0 0 0 0 -62.901511370881053 174.9196813194817 0 174.9196813194817 530.47575100815084 0 0 0 0 -168.17762089134521 -113.02257876661133 0 -113.02257876661133 134.17510380517479 0 0 0 0 0.26460983441263863 3.3719066888783464 0 3.3719066888783464 -6.9690128707079637 0 0 0 0 -169.65699809085709 -564.98230669213353 0 -564.98230669213353 -339.13108947304863 0 0 0 0 -342.34680990287893 690.95808917042064 0 690.95808917042064 -427.06954173494069 0 0 0 0 -661.65419554758228 -619.32193503824647 0 -619.32193503824647 -8.9627747755894234 0 0 0 0 87.332933860823687 286.90783965104674 0 286.90783965104674 -186.69618947478011 0 0 0 0 -9.658650769287533 6.345646072160994 0 6.345646072160994 -4.4969560832439086 0 0 0 0 615.10507253907144 990.36640834502191 0 990.36640834502191 -612.50705957639002 0 0 0 0 1.7260179364496366 0.87849098952162308 0 0.87849098952162308 -3.5095879665045508 0 0 0 0 114.5380737626474 84.827324470104941 0 84.827324470104941 -258.87379737456831 0 0 0 0 -416.6174694287547 -342.70645063480879 0 -342.70645063480879 108.86271987673445 0 0 0 0 -923.26180831910278 -284.57342393748468 0 -284.57342393748468 764.86719094957334 0 0 0 0 -708.21914051599924 -698.14423993541504 0 -698.14423993541504 405.32737320481283 0 0 0 0 -5.6251002091058133 2.0344246139289641 0 2.0344246139289641 -2.7948061144140937 0 0 0 0 -910.63057299817956 -469.44855782218019 0 -469.44855782218019 -260.51517073825926 0 0 0 0 0.54653272348268445 1.1069118885147162 0 1.1069118885147162 -3.0512803212096555 0 0 0 0 -796.323561703005 -233.43616474688451 0 -233.43616474688451 148.27235549773468 0 0 0 0 -1162.4188300051319 -345.05092299381613 0 -345.05092299381613 166.58740552776362 0 0 0 0 -15.03090433854959 195.34466945474742 0 195.34466945474742 316.75258451238915 0 0 0 0 -11.94821264240818 -10.936038069333335 0 -10.936038069333335 -20.564478516815598 0 0 0 0 -15.69195167391856 -1.5098489957850809 0 -1.5098489957850809 -0.026239365977991369 0 0 0 0 -49.557171676369762 -35.935813799662355 0 -35.935813799662355 175.30532524952105 0 0 0 0 66.400337144350488 122.30632035586677 0 122.30632035586677 -62.396494278904356 0 0 0 0 48.115508018403489 22.242794009933277 0 22.242794009933277 -31.383051608522692 0 0 0 0 271.39497968954311 238.41842039159383 0 238.41842039159383 56.438656374788934 0 0 0 0 444.02930128400112 -57.051275214890666 0 -57.051275214890666 -187.15509856026438 0 0 0 0 -77.166231348212023 -287.25825141907626 0 -287.25825141907626 -55.3770872746245 0 0 0 0 -342.38441940993653 -109.86683657584581 0 -109.86683657584581 -18.47085245535709 0 0 0 0 -37.948647217002872 -30.545588050983497 0 -30.545588050983497 -65.703246731462059 0 0 0 0 -368.65304060188646 -239.73055471997941 0 -239.73055471997941 -8.2452595882750757 0 0 0 0 -353.11336255275819 -372.63177232941962 0 -372.63177232941962 103.65187287466324 0 0 0 0 181.31675381481909 -365.35288947051959 0 -365.35288947051959 -64.511241626867559 0 0 0 0 -19.568626885986305 -14.606303767322061 0 -14.606303767322061 -13.233900068787989 0 0 0 0 -28.546647746792587 -17.179283450795765 0 -17.179283450795765 -11.893799154904627 0 0 0 0 -27.312487282491929 -9.0334822746754071 0 -9.0334822746754071 0.57039440134394681 0 0 0 0 -25.960075623179534 -1.3166495331307164 0 -1.3166495331307164 2.6132784331388663 0 0 0 0 -44.364629520459857 -11.483815431241965 0 -11.483815431241965 16.493226630766003 0 0 0 0 -31.602516228274908 -2.0429896065916182 0 -2.0429896065916182 -31.346406882814335 0 0 0 0 -51.313463196009252 -25.01435620763823 0 -25.01435620763823 4.003966172109358 0 0 0 0 -37.441258218532312 -23.387311970209339 0 -23.387311970209339 -22.868467794969547 0 0 0 0 -36.796480043711199 -20.028157152752101 0 -20.028157152752101 -5.9287351609618781 0 0 0 0 -83.334476662712405 34.202902810866362 0 34.202902810866362 2.296981777282781 0 0 0 0 149.66227033594623 -31.295529718541729 0 -31.295529718541729 20.417020665229757 0 0 0 0 -661.73942034614629 70.578463058303896 0 70.578463058303896 384.45819025713627 0 0 0 0 130.50996153261258 -85.168276517093545 0 -85.168276517093545 66.166650469256638 0 0 0 0 -1.2203310362643833 0.64956339320432122 0 0.64956339320432122 -1.1897253452127678 0 0 0 0 -1640.2799708662496 58.009169192628178 0 58.009169192628178 32.593895423036884 0 0 0 0 -2021.2151886966894 992.30146597608473 0 992.30146597608473 -425.327875089999 0 0 0 0 -1002.2272490653268 -332.54245807758707 0 -332.54245807758707 115.13842681249844 0 0 0 0 -576.88958992299195 -5.7515369750244645 0 -5.7515369750244645 51.305123950631241 0 0 0 0 -664.21355847674567 -235.4467137706597 0 -235.4467137706597 72.89063377220009 0 0 0 0 -351.1071520131718 -288.14736409422494 0 -288.14736409422494 -81.52373282458575 0 0 0 0 -685.9479117797091 -273.58373710888191 0 -273.58373710888191 93.820309106893546 0 0 0 0 -999.62774832991272 355.89017055062868 0 355.89017055062868 -28.978306260505633 0 0 0 0 -427.06563754509989 -225.43618147230518 0 -225.43618147230518 71.820712919637117 0 0 0 0 91.3017174212182 -130.95760600247559 0 -130.95760600247559 12.918179768681739 0 0 0 0 -14.27695015635377 1.113813219243827 0 1.113813219243827 5.8616855063523943 0 0 0 0 178.15959349549303 -68.347721085283411 0 -68.347721085283411 23.221955147851531 0 0 0 0 91.267475064862083 -83.04397664085991 0 -83.04397664085991 242.2233371369548 0 0 0 0 89.781133300039073 -76.4313408464036 0 -76.4313408464036 -111.41919620794852 0 0 0 0 70.830255554956238 -187.56810042827237 0 -187.56810042827237 22.599345129992344 0 0 0 0 33.472459238484589 -55.254787235964614 0 -55.254787235964614 13.837325204836816 0 0 0 0 -23.645976981286367 -96.397449544533629 0 -96.397449544533629 7.3181398965003837 0 0 0 0 -51.614442607718274 97.395547280183166 0 97.395547280183166 -216.92431662584386 0 0 0 0 105.76485342057822 -136.86591054718292 0 -136.86591054718292 -39.401953156278068 0 0 0 0 -29.933562789119435 -5.4873046979189795 0 -5.4873046979189795 -2.7615613397725802 0 0 0 0 -30.515546908704316 -4.1607767716045636 0 -4.1607767716045636 0.75632897403033272 0 0 0 0 -29.579216304311558 11.260724091162047 0 11.260724091162047 1.9468585794775208 0 0 0 0 -229.62066368411615 145.53067272853968 0 145.53067272853968 -154.85159904652573 0 0 0 0 -68.494788879090265 -40.757306816486562 0 -40.757306816486562 -224.1061849445523 0 0 0 0 1.3670573439376312 141.66692750901075 0 141.66692750901075 -365.94968711533329 0 0 0 0 -0.089499819023941996 -2.0023184910654592 0 -2.0023184910654592 -2.2248327525103218 0 0 0 0 1.1701282610883936 68.775079959894356 0 68.775079959894356 -106.94895569100845 0 0 0 0 42.882581271471281 -111.40820386414271 0 -111.40820386414271 -31.689088316079506 0 0 0 0 -63.029574460622825 49.75975954954265 0 49.75975954954265 -112.27997533619009 0 0 0 0 -54.600875044925957 0.83145504546713678 0 0.83145504546713678 0.53261517253638502 0 0 0 0 -70.26314801926128 58.0425668636708 0 58.0425668636708 61.017511553890927 0 0 0 0 -77.333614213755936 -5.8906748473063999 0 -5.8906748473063999 49.686928202200761 0 0 0 0 -10.543151716044889 3.1726251307742288 0 3.1726251307742288 0.38490420561955041 0 0 0 0 -87.07236321855089 -88.166919615805455 0 -88.166919615805455 -32.015152452582697 0 0 0 0 -175.52581887698398 -52.477265118196101 0 -52.477265118196101 62.004076563538547 0 0 0 0 -79.715282953478891 128.45593614406425 0 128.45593614406425 -90.595437994615622 0 0 0 0 -90.723956818454099 -7.8404880825110013 0 -7.8404880825110013 85.498442604781303 0 0 0 0 -58.19403255355919 8.8056454132954443 0 8.8056454132954443 3.6218444192562114 0 0 0 0 -86.590599612900405 41.238378608651146 0 41.238378608651146 49.546854396352046 0 0 0 0 -52.845889583004464 29.004085577229489 0 29.004085577229489 35.026011174541054 0 0 0 0 -85.732555962000333 -8.4713199997677293 0 -8.4713199997677293 14.916625454473433 0 0 0 0 -63.024912553301874 -20.960378699344005 0 -20.960378699344005 21.140920667910905 0 0 0 0 -81.994190075980896 -38.987948168743173 0 -38.987948168743173 0.048791142155096168 0 0 0 0 -80.604914959818416 -27.428871413896559 0 -27.428871413896559 -8.0999349436297052 0 0 0 0 -104.2616533235414 -20.129308856250191 0 -20.129308856250191 -10.351177089098883 0 0 0 0 -125.90693044704676 2.0430734975407177 0 2.0430734975407177 31.054605369551609 0 0 0 0 -42.356322145318131 20.586930904958265 0 20.586930904958265 19.431343851689235 0 0 0 0 -50.333552608826722 -21.515730807061118 0 -21.515730807061118 0.13136051758237954 0 0 0 0 -50.794433400827984 -24.17796643701331 0 -24.17796643701331 0.83735977792093763 0 0 0 0 -9.4893939117668253 0.086117459935728391 0 0.086117459935728391 0.46935369593984788 0 0 0 0 -50.099255044788151 -24.280605099078457 0 -24.280605099078457 -0.92759510267205769 0 0 0 0 -51.165441906014166 -9.7698765995401118 0 -9.7698765995401118 13.39264116045706 0 0 0 0 -50.581776379396615 -20.388187228944844 0 -20.388187228944844 -4.8400200196028891 0 0 0 0 -101.80426748820173 -69.237622950510286 0 -69.237622950510286 -36.171176012966384 0 0 0 0 -4.262326938883092 1.8480323337164215 0 1.8480323337164215 0.83386928980661956 0 0 0 0 -51.361221210609074 -29.59023961625735 0 -29.59023961625735 -29.707794649326388 0 0 0 0 -126.90986555152631 -93.090685999633934 0 -93.090685999633934 21.557781010870229 0 0 0 0 -0.46527778470274939 0.061525332746914074 0 0.061525332746914074 -0.16361387624760582 0 0 0 0 -18.933758988729096 37.880752400657911 0 37.880752400657911 50.899808027304971 0 0 0 0 -68.57324016192797 10.988603826436474 0 10.988603826436474 48.801248302517706 0 0 0 0 -75.935596960927796 2.4096669341927281 0 2.4096669341927281 51.893794868773512 0 0 0 0 -13.40472839442009 -18.181118260096355 0 -18.181118260096355 31.294117552977241 0 0 0 0 -4.6258439758796612 56.822774098809191 0 56.822774098809191 76.912039870653643 0 0 0 0 3.9737767880724277 -14.40916068339925 0 -14.40916068339925 -35.999798520467266 0 0 0 0 -48.952802737145248 13.877640028722453 0 13.877640028722453 4.0920658714462661 0 0 0 0 -62.298219454625723 -30.290526313386863 0 -30.290526313386863 3.6923436444913023 0 0 0 0 -77.002040294981271 -21.849174854080275 0 -21.849174854080275 41.816145917621157 0 0 0 0 -49.423396888039861 -17.371027472177047 0 -17.371027472177047 -10.806710492223829 0 0 0 0 -303.0315341547539 -115.31309009260349 0 -115.31309009260349 -34.359184525557794 0 0 0 0 -94.713556633634653 -42.765092970825435 0 -42.765092970825435 -47.305171751587295 0 0 0 0 -2.606154583402855 0.45201189017877752 0 0.45201189017877752 1.0492026914173316 0 0 0 0 27.19201133491697 100.82231284338269 0 100.82231284338269 38.681130928624953 0 0 0 0 -154.30822475710011 57.277795591880931 0 57.277795591880931 28.929748795334376 0 0 0 0 -188.05253048390659 -38.865492282465993 0 -38.865492282465993 15.884840726763173 0 0 0 0 -57.561869732042396 28.829399260461969 0 28.829399260461969 13.015878233419244 0 0 0 0 -123.18967255654206 7.6500333420361812 0 7.6500333420361812 7.2014717965867021 0 0 0 0 -82.794550312006322 -8.5410866201597173 0 -8.5410866201597173 2.4655180692673184 0 0 0 0 -134.95813139216625 -3.9689311976637782 0 -3.9689311976637782 39.088057193604072 0 0 0 0 -137.77295686115031 0.96295882888375672 0 0.96295882888375672 30.997862473825535 0 0 0 0 -37.706166161458668 -10.493905482468307 0 -10.493905482468307 -7.4787157826631301 0 0 0 0 0.70149278863816367 1.0038070080056016 0 1.0038070080056016 -0.43427720529204095 0 0 0 0 -74.974314540086198 -20.272801092927011 0 -20.272801092927011 -10.611621783265491 0 0 0 0 -111.02884576380166 -12.499427083116416 0 -12.499427083116416 2.6282603470569939 0 0 0 0 -82.969242704417411 -9.1582358730825035 0 -9.1582358730825035 0.65105976020186063 0 0 0 0 -59.278658759034442 -6.1546523097745194 0 -6.1546523097745194 2.4360423589827391 0 0 0 0 -52.281049050543515 -6.2676328426096006 0 -6.2676328426096006 2.4330206081651795 0 0 0 0 3.3363397417488159 -22.236052317700342 0 -22.236052317700342 -6.7275378378147934 0 0 0 0 -1.8307072942792786 -1.4166018246272323 0 -1.4166018246272323 1.873543908007262 0 0 0 0 56.533628117442277 59.704675358017994 0 59.704675358017994 1.8428187828882301 0 0 0 0 24.731227525557188 26.027851322676725 0 26.027851322676725 4.7186751154076774 0 0 0 0 -19.4324970884782 10.795758547371456 0 10.795758547371456 17.867659146286737 0 0 0 0 -55.5429063113952 -15.241384643639549 0 -15.241384643639549 -1.460318855186415 0 0 0 0 -50.173352083751524 -18.1336791076792 0 -18.1336791076792 -0.2151367419246526 0 0 0 0 -17.265797536771018 8.657046399680361 0 8.657046399680361 22.315540652764923 0 0 0 0 -65.301458846081005 -20.080210523373125 0 -20.080210523373125 9.7056773215008434 0 0 0 0 1.831956837195321 73.08090415524839 0 73.08090415524839 44.251582208029504 0 0 0 0 -51.30761262323449 -22.382761920428493 0 -22.382761920428493 8.8522392559807486 0 0 0 0 -54.916803108586464 -7.9753152392604534 0 -7.9753152392604534 16.456842408030298 0 0 0 0 -52.91028884972593 -4.412409183278271 0 -4.412409183278271 33.718277443142142 0 0 0 0 -59.600635697741382 -11.906975214169051 0 -11.906975214169051 25.458998999577034 0 0 0 0 -43.007802329258993 -11.858973626535771 0 -11.858973626535771 22.589521617989703 0 0 0 0 -77.606903651356333 -2.1365217732713973 0 -2.1365217732713973 97.008915275755498 0 0 0 0 -45.789429947231838 -15.047410452858458 0 -15.047410452858458 92.590134251865948 0 0 0 0 -61.404616595886182 -15.747801809302473 0 -15.747801809302473 24.227963842232384 0 0 0 0 -27.595452485181227 1.4484496594637974 0 1.4484496594637974 25.86236604607473 0 0 0 0 -71.048096753815116 4.6228036602769862 0 4.6228036602769862 69.367655932184789 0 0 0 0 -69.318841760192299 24.090767456455978 0 24.090767456455978 69.337973860293857 0 0 0 0 -84.219536257689469 40.638430394943953 0 40.638430394943953 61.59933544649175 0 0 0 0 -129.47699495470442 3.0480706237040067 0 3.0480706237040067 99.622035761260122 0 0 0 0 -163.29998511174927 32.032242848422356 0 32.032242848422356 65.783885765162495 0 0 0 0 -144.33931581559227 -14.493622102958398 0 -14.493622102958398 48.27276597731543 0 0 0 0 -313.30477688336396 10.421172598942576 0 10.421172598942576 58.189276785356014 0 0 0 0 -60.396957820201351 49.426617241386339 0 49.426617241386339 54.82856989705283 0 0 0 0 -68.229499292050605 71.228892041115614 0 71.228892041115614 15.136031652955353 0 0 0 0 -57.833376860089629 83.281589288101259 0 83.281589288101259 -14.496763704374644 0 0 0 0 -0.44770970332319848 -6.9848827298342258 0 -6.9848827298342258 -37.89811696505285 0 0 0 0 -282.77400985984059 -0.95147765985166188 0 -0.95147765985166188 38.021138912767128 0 0 0 0 -181.99161927471141 102.24413892855046 0 102.24413892855046 -31.635788499954288 0 0 0 0 -141.85755625669117 38.592862887408046 0 38.592862887408046 14.046940789562314 0 0 0 0 -317.95002714714815 68.504606559221514 0 68.504606559221514 -37.055665999039775 0 0 0 0 -318.48292604369635 95.50682915932066 0 95.50682915932066 -20.962924050619677 0 0 0 0 -100.69160559468764 94.186969083657232 0 94.186969083657232 -36.992536213987478 0 0 0 0 -359.29223669876228 68.488408236625219 0 68.488408236625219 -37.495583066594918 0 0 0 0 -94.714740860450547 92.761290765546619 0 92.761290765546619 -128.88703469143184 0 0 0 0 -423.00277841026036 -262.10556444724625 0 -262.10556444724625 -202.06888160058884 0 0 0 0 -2.6579306589913045 -1.2468116533854392 0 -1.2468116533854392 1.8138419607336091 0 0 0 0 7.202062850301445 -36.155478001800134 0 -36.155478001800134 11.344182488607657 0 0 0 0 14.728599066020251 -29.529627818598328 0 -29.529627818598328 -63.498432464935831 0 0 0 0 -98.133142939854679 55.523213309910545 0 55.523213309910545 -63.549983839302513 0 0 0 0 12.652978036752756 34.924428180087716 0 34.924428180087716 64.296804024594167 0 0 0 0 35.775698011613713 17.295718226663894 0 17.295718226663894 -47.287327813202864 0 0 0 0 54.145478296526562 33.290668678938573 0 33.290668678938573 -3.8800540419556455 0 0 0 0 6.1466021354608529 47.833333387448874 0 47.833333387448874 48.278317470860202 0 0 0 0 1.8522985019415898 1.8746348003407718 0 1.8746348003407718 3.4462753612783752 0 0 0 0 29.226425471162656 21.728561480101234 0 21.728561480101234 16.334862655330653 0 0 0 0 -4.7228859326401107 39.898903219757159 0 39.898903219757159 23.875188889776837 0 0 0 0 -7.3808983797134715 5.000856083301187 0 5.000856083301187 16.213251135113012 0 0 0 0 -45.489828685487737 25.82272173571198 0 25.82272173571198 6.5975883690441606 0 0 0 0 -24.642631337810599 -34.527176945714132 0 -34.527176945714132 19.092456620008988 0 0 0 0 -3.6357476704561691 -1.6737558977345905 0 -1.6737558977345905 2.8529601719002331 0 0 0 0 -58.93843080483839 -162.00955568048968 0 -162.00955568048968 -18.931709819578828 0 0 0 0 -2.2664214024897831 -1.2149128511775409 0 -1.2149128511775409 2.2801572959477543 0 0 0 0 -77.380711358149711 -194.9996800864983 0 -194.9996800864983 -25.626447938753415 0 0 0 0 9.5908796154981246 23.454450227721622 0 23.454450227721622 -61.465803059879363 0 0 0 0 -169.5706967021697 23.31839907894053 0 23.31839907894053 577.80338337733804 0 0 0 0 -134.73615076002898 -449.44399889908101 0 -449.44399889908101 255.978280769511 0 0 0 0 -71.951608316157945 -197.82943615525312 0 -197.82943615525312 23.728051928512457 0 0 0 0 -89.808315170252172 -153.04090785117205 0 -153.04090785117205 -42.149639055950757 0 0 0 0 -104.72623393660251 -104.27164227774699 0 -104.27164227774699 -126.10717626739313 0 0 0 0 -153.57515128731575 -173.38379806171304 0 -173.38379806171304 -42.699844476161616 0 0 0 0 -97.050627352502488 -136.3487679720829 0 -136.3487679720829 7.8437196997167575 0 0 0 0 -173.78445187056059 -55.712951058515728 0 -55.712951058515728 -26.384865602239131 0 0 0 0 -146.36616253231114 -29.411297206378691 0 -29.411297206378691 -3.6029265291174966 0 0 0 0 -138.92648182895573 -1.0480548436821664 0 -1.0480548436821664 40.409946032690641 0 0 0 0 -155.7902275139204 -17.195458413570464 0 -17.195458413570464 34.352434457837887 0 0 0 0 -203.17160763719221 -48.049026496610054 0 -48.049026496610054 21.882880170730914 0 0 0 0 -125.75467446177936 -42.595778684822449 0 -42.595778684822449 -6.2865011406206577 0 0 0 0 -106.41710250416872 -18.29032418978727 0 -18.29032418978727 -1.5512232719347594 0 0 0 0 -150.79217321299075 -81.357098170639546 0 -81.357098170639546 -49.412214156791975 0 0 0 0 -88.543981864895613 -33.506918463862462 0 -33.506918463862462 -17.853209976547589 0 0 0 0 -17.179434341953964 7.9996980027443492 0 7.9996980027443492 -3.8719531272741179 0 0 0 0 -26.802114795829965 13.44526574472069 0 13.44526574472069 -2.4422938155199168 0 0 0 0 -49.750375746814825 16.843892269255718 0 16.843892269255718 85.991006650277313 0 0 0 0 -69.154419607719319 -13.697977355710464 0 -13.697977355710464 -17.944607779385933 0 0 0 0 -71.328000941166465 -9.4240714705203175 0 -9.4240714705203175 -9.3276908194989119 0 0 0 0 -65.26857091653801 -9.0244631375727522 0 -9.0244631375727522 -11.55934402344883 0 0 0 0 -8.8712438717082982 0.77456708707311606 0 0.77456708707311606 -1.0162898960592122 0 0 0 0 -58.900790777589464 -5.713309551788825 0 -5.713309551788825 -0.33275304748622148 0 0 0 0 -23.611039828030968 11.464961549359465 0 11.464961549359465 13.432258152521111 0 0 0 0 -60.44072938314639 -15.217471095387737 0 -15.217471095387737 16.074340970690173 0 0 0 0 -24.431857923800692 14.675493084066325 0 14.675493084066325 19.631457437292998 0 0 0 0 4.9292823317664443 22.388574910261013 0 22.388574910261013 41.349461977942383 0 0 0 0 32.004903115790512 37.776007471398771 0 37.776007471398771 26.255736769893701 0 0 0 0 -4.4824116493446127 -1.0244319983543591 0 -1.0244319983543591 0.38990640638750662 0 0 0 0 17.736769078117504 23.877519288201256 0 23.877519288201256 -5.6519459964667931 0 0 0 0 -10.816526129240334 2.0680561266568702 0 2.0680561266568702 18.914662819499597 0 0 0 0 10.5725584656102 2.7695930204565684 0 2.7695930204565684 9.047722533470278 0 0 0 0 11.420259840153449 17.574335315958251 0 17.574335315958251 15.415000032638545 0 0 0 0 10.944058427987329 21.772118654833776 0 21.772118654833776 15.445076732716188 0 0 0 0 -0.025425128024458843 0.20733526909235422 0 0.20733526909235422 6.6573592135842254 0 0 0 0 119.00307953109586 80.819080849227248 0 80.819080849227248 65.21142939789263 0 0 0 0 164.19397951995097 -296.38892647834194 0 -296.38892647834194 355.97967333850363 0 0 0 0 -201.98391918347625 -149.13571442448688 0 -149.13571442448688 817.08052259840179 0 0 0 0 -367.26936826990277 -220.66175373024862 0 -220.66175373024862 1201.6804792246458 0 0 0 0 248.39416145057476 -87.294590335745454 0 -87.294590335745454 -304.40957587614753 0 0 0 0 -43.183703358539788 -128.0921475380037 0 -128.0921475380037 -406.45648883344143 0 0 0 0 23.742847735753458 103.30511880957192 0 103.30511880957192 214.25976477790846 0 0 0 0 -279.07394092632603 378.37611905548886 0 378.37611905548886 747.71285931627813 0 0 0 0 756.0112216915295 -146.11940281342277 0 -146.11940281342277 290.0259015044835 0 0 0 0 -162.24416771706456 157.94323739180976 0 157.94323739180976 198.12469172080864 0 0 0 0 -706.91419876083091 455.72049323163355 0 455.72049323163355 99.533124889743988 0 0 0 0 -322.1852035099364 148.45951541885307 0 148.45951541885307 384.01576033388596 0 0 0 0 -95.581690268243563 -26.316081227167597 0 -26.316081227167597 298.19070806868456 0 0 0 0 20.553377411328256 -53.980628183622613 0 -53.980628183622613 42.261437997283629 0 0 0 0 -198.19555493786174 7.9401055118352986 0 7.9401055118352986 290.07645119257887 0 0 0 0 -93.232304097512326 143.52776124915104 0 143.52776124915104 223.22775094178002 0 0 0 0 -12.100732077535213 92.0277348720752 0 92.0277348720752 163.51579890880254 0 0 0 0 -198.40123770387254 342.07464516209143 0 342.07464516209143 -118.48887648407879 0 0 0 0 -15.387728583111311 80.579400935829653 0 80.579400935829653 -170.15912586737909 0 0 0 0 -35.616296960506588 188.58493920482647 0 188.58493920482647 -58.056380635953701 0 0 0 0 -42.527328373951605 215.99010115174974 0 215.99010115174974 64.155547518256526 0 0 0 0 30.866542361000029 268.32976210972924 0 268.32976210972924 -167.13510794137861 0 0 0 0 91.389788818072702 174.40609926182231 0 174.40609926182231 -85.308161380678598 0 0 0 0 -5.9782725472445293 2.9131960648139703 0 2.9131960648139703 -1.6339598590782516 0 0 0 0 19.149705497169634 9.0547895903065196 0 9.0547895903065196 -10.376378741528924 0 0 0 0 7.0817340381618124 -5.9179655971150709 0 -5.9179655971150709 -8.2545668606848892 0 0 0 0 63.414067823912774 54.294584828829954 0 54.294584828829954 8.6829699780953433 0 0 0 0 -9.3898456339393306 9.1868795012482263 0 9.1868795012482263 9.5510811433296112 0 0 0 0 -14.313227696096874 0.78007698458196728 0 0.78007698458196728 10.796355004985642 0 0 0 0 -3.8730049074523123 0.98245352426860677 0 0.98245352426860677 0.19138865037407693 0 0 0 0 -49.61244541493943 43.529530286124384 0 43.529530286124384 -20.265159063814735 0 0 0 0 -15.661188976024391 8.1093179506345834 0 8.1093179506345834 -2.5181086250937144 0 0 0 0 -10.97121329701622 110.91678201854802 0 110.91678201854802 37.79751672523139 0 0 0 0 82.603546986108995 -37.728245921582314 0 -37.728245921582314 -108.5803946659247 0 0 0 0 -177.47245552600361 -39.170114736915146 0 -39.170114736915146 13.388508344879732 0 0 0 0 -480.69666248303838 40.382310660385009 0 40.382310660385009 33.162891635210627 0 0 0 0 -184.24161812941747 -145.32321191698546 0 -145.32321191698546 -78.430169153674157 0 0 0 0 -263.16279532499902 29.432932720290069 0 29.432932720290069 100.34881252476407 0 0 0 0 -2.6355287959013367 258.54786769090686 0 258.54786769090686 -664.42185120188651 0 0 0 0 -394.47021081302228 199.38436953140086 0 199.38436953140086 -116.82054805273658 0 0 0 0 -4.9347426358399957 3.4226081491078091 0 3.4226081491078091 -2.458278081592475 0 0 0 0 -397.89977909040181 286.71018247040644 0 286.71018247040644 -457.1231575403699 0 0 0 0 -272.49399577479198 -132.18871268365496 0 -132.18871268365496 -658.11351120865413 0 0 0 0 8.9536239212320652 255.57886965062215 0 255.57886965062215 -725.59737682148136 0 0 0 0 -179.49613950746425 193.69137647939652 0 193.69137647939652 -466.31047019455468 0 0 0 0 -91.083662494726013 46.791024985038803 0 46.791024985038803 -227.59554768338336 0 0 0 0 -265.34487120738049 -27.756123179709487 0 -27.756123179709487 -75.275433384644472 0 0 0 0 -0.69920888508359269 -0.32537946427706288 0 -0.32537946427706288 -0.42276659693620505 0 0 0 0 -113.34690879296249 -98.591940037219999 0 -98.591940037219999 -202.24088679577054 0 0 0 0 -357.30561059908359 170.71044466369574 0 170.71044466369574 100.37806220203133 0 0 0 0 -185.77152809002291 10.07187825768192 0 10.07187825768192 -0.013143356965660902 0 0 0 0 -1.1945987985949529 -0.43627162653265827 0 -0.43627162653265827 -0.20585980640945412 0 0 0 0 -156.07545260860934 -11.905105980425988 0 -11.905105980425988 1.155726306585628 0 0 0 0 -181.12611470387492 18.38285601251911 0 18.38285601251911 -17.714309220911773 0 0 0 0 17.419940359301108 -58.278626022410023 0 -58.278626022410023 -66.503502945098461 0 0 0 0 -168.40301931431986 -30.455406088429385 0 -30.455406088429385 -7.3782617759023381 0 0 0 0 -18.210553891767631 -23.315295163355049 0 -23.315295163355049 -15.886668433677059 0 0 0 0 -133.24311706501612 9.2037751876787617 0 9.2037751876787617 0.074448012973672678 0 0 0 0 -15.627778042719001 -27.817516365435448 0 -27.817516365435448 -17.674320896752135 0 0 0 0 0.2627245676262504 -0.017242186857046704 0 -0.017242186857046704 0.13694734721902144 0 0 0 0 -16.675365718590911 18.543784812842375 0 18.543784812842375 15.074600733207717 0 0 0 0 0.295380554498621 -0.32126937763125341 0 -0.32126937763125341 0.39083443427430997 0 0 0 0 -6.3695022244937718 -63.212890163974336 0 -63.212890163974336 58.271947247378229 0 0 0 0 -38.012658224832194 -144.66250847976241 0 -144.66250847976241 114.40929822206976 0 0 0 0 -14.607105419139671 -6.7795986342670247 0 -6.7795986342670247 -2.6504430417339844 0 0 0 0 35.276220883424685 -65.497416271747866 0 -65.497416271747866 -35.040425416461801 0 0 0 0 24.068127926429952 -76.523678041049806 0 -76.523678041049806 49.854725679016155 0 0 0 0 -130.88143143386333 -76.643550769458457 0 -76.643550769458457 49.923820170817976 0 0 0 0 -41.004598522336892 -167.57780322603685 0 -167.57780322603685 -38.178713551755095 0 0 0 0 10.747593574102211 -90.203248257613609 0 -90.203248257613609 41.195004136927764 0 0 0 0 43.319956302104401 -160.8535585456184 0 -160.8535585456184 -367.40449439731725 0 0 0 0 -162.77463069980149 -416.50291450549162 0 -416.50291450549162 -130.85299111256762 0 0 0 0 -521.84124500332837 -127.42486863601118 0 -127.42486863601118 71.294135632944375 0 0 0 0 -496.09063465889813 -52.127905361383505 0 -52.127905361383505 10.090669040364357 0 0 0 0 -367.81139646656084 96.051290799108756 0 96.051290799108756 52.756779662969535 0 0 0 0 -5.4428353856172293 -2.7554842369368799 0 -2.7554842369368799 -1.4110567791079143 0 0 0 0 30.055902968897499 -33.105176752792111 0 -33.105176752792111 -82.494149139732201 0 0 0 0 -364.85384254198652 -158.81073297958534 0 -158.81073297958534 -116.53721278414147 0 0 0 0 3.1958839828366763 15.72161415632641 0 15.72161415632641 -81.573791869789446 0 0 0 0 -464.97672123275697 37.072643184022702 0 37.072643184022702 100.00879317264642 0 0 0 0 -605.77203881640162 35.191988284008481 0 35.191988284008481 129.26380085716062 0 0 0 0 -571.93402457322372 132.51438883408059 0 132.51438883408059 98.720027203264436 0 0 0 0 -571.3391542984391 59.674324117419097 0 59.674324117419097 -52.647745073885844 0 0 0 0 -516.2348809553223 -63.104307415627559 0 -63.104307415627559 0.14260648968716277 0 0 0 0 -1.8388474486688438 -0.16397433017479202 0 -0.16397433017479202 0.022949568919325189 0 0 0 0 -6.7538132226763992 42.907392428552754 0 42.907392428552754 13.123702138343306 0 0 0 0 -5.7655452378894552 -20.76354900636511 0 -20.76354900636511 -0.067491946874922187 0 0 0 0 -28.577632293476199 -6.4977930291142272 0 -6.4977930291142272 53.118301040057133 0 0 0 0 -37.798151412122024 -27.24507103501945 0 -27.24507103501945 39.917274951345526 0 0 0 0 23.266783035942353 -25.035823448176892 0 -25.035823448176892 -57.828154113446033 0 0 0 0 -4.0175358148230202 0.49931368424453026 0 0.49931368424453026 0.11478906079245238 0 0 0 0 -8.1526586901818519 -10.182286275696676 0 -10.182286275696676 -34.686654867985816 0 0 0 0 -6.2551996641777805 18.253456189942113 0 18.253456189942113 -8.709328232931199 0 0 0 0 1.875864969297254 -2.2325591750770215 0 -2.2325591750770215 17.23001983273106 0 0 0 0 -3.8515093756614078 -11.436109865406362 0 -11.436109865406362 5.7214606008920814 0 0 0 0 -7.7974429394944309 -5.2985951802028177 0 -5.2985951802028177 0.034011392103772811 0 0 0 0 -5.6751563735124364 7.7335873858529656 0 7.7335873858529656 8.3153060889588009 0 0 0 0 -16.503129838958557 -2.8570562715100714 0 -2.8570562715100714 5.8981716642819659 0 0 0 0 -31.221305049788953 -2.1346418975929549 0 -2.1346418975929549 0.6775607092786271 0 0 0 0 -5.8325985251728127 1.1117738006904183 0 1.1117738006904183 0.90408003566650696 0 0 0 0 -6.6679920362273037 -1.8288503219380949 0 -1.8288503219380949 -0.60229875369813879 0 0 0 0 -10.70347997637964 -33.414756743423133 0 -33.414756743423133 -4.0110000121500065 0 0 0 0 -9.7052078313863603 -8.1867506422278424 0 -8.1867506422278424 9.4601219138021797 0 0 0 0 -22.578014913961667 -6.5264474665538224 0 -6.5264474665538224 -1.7798086608283508 0 0 0 0 -85.269558878462703 -40.435603796481558 0 -40.435603796481558 202.31672731072544 0 0 0 0 -26.685353430281793 -16.293465977649753 0 -16.293465977649753 79.866226455898754 0 0 0 0 -55.559461352784638 35.419781031692196 0 35.419781031692196 127.14735468759477 0 0 0 0 -65.906202938767819 -1.13627689035809 0 -1.13627689035809 208.54747733895374 0 0 0 0 -85.019838054420688 -46.162371219591932 0 -46.162371219591932 68.140799138453019 0 0 0 0 -143.51594319624928 -1.7925712327033807 0 -1.7925712327033807 115.89680983380093 0 0 0 0 -42.714263377296447 41.591804188090123 0 41.591804188090123 -11.067749699634646 0 0 0 0 -24.525650599583059 90.997463751839632 0 90.997463751839632 3.4397549365197619 0 0 0 0 -87.839533314421715 106.62725241392687 0 106.62725241392687 -13.365918156982559 0 0 0 0 -58.581424704665551 31.031968560712698 0 31.031968560712698 102.93612953427476 0 0 0 0 -8.4010816154550412 79.837287293487634 0 79.837287293487634 105.80785555758933 0 0 0 0 -76.580108045633096 75.711612395432667 0 75.711612395432667 212.6430434252311 0 0 0 0 -3.7374510940207983 9.212643971966699 0 9.212643971966699 91.264192388040726 0 0 0 0 -38.233423433078542 2.0735547989116387 0 2.0735547989116387 1.2012161796981342 0 0 0 0 -53.656774248287547 89.895805029018419 0 89.895805029018419 40.56191721446362 0 0 0 0 -91.774328622304893 57.355637795910951 0 57.355637795910951 120.44975871258578 0 0 0 0 -20.209516166862159 7.9841726667151249 0 7.9841726667151249 -72.387492076826732 0 0 0 0 -9.0668807925248984 43.144417364313888 0 43.144417364313888 0.59306125940191734 0 0 0 0 -45.853467937289679 -28.462433489798514 0 -28.462433489798514 44.641121908685832 0 0 0 0 5.3794950034643989 3.2664351366810878 0 3.2664351366810878 0.020169723369369792 0 0 0 0 -1.1931098598796552 -0.40977286652981704 0 -0.40977286652981704 -0.19625687731920485 0 0 0 0 -63.694836556642258 -8.4232554356595166 0 -8.4232554356595166 40.405870982348745 0 0 0 0 -40.639552019674738 111.30739958032851 0 111.30739958032851 -127.74299885701711 0 0 0 0 -135.23354042372739 46.479664092946777 0 46.479664092946777 -0.018958382215385913 0 0 0 0 -135.57510218428797 -36.110256328629916 0 -36.110256328629916 -2.9367591907575346 0 0 0 0 -31.549169886304298 -11.019094940376494 0 -11.019094940376494 -57.716894216822041 0 0 0 0 -35.833275364027941 -4.3957563126628152 0 -4.3957563126628152 -3.2200166063080218 0 0 0 0 -28.727169354151556 -23.469515942663016 0 -23.469515942663016 3.470449397625444 0 0 0 0 -51.248326822762465 -23.551251625830261 0 -23.551251625830261 84.157817998509628 0 0 0 0 -22.992612707934313 33.896392347810206 0 33.896392347810206 4.3423919073418347 0 0 0 0 -90.731227260519518 -3.0614717728409886 0 -3.0614717728409886 113.54696616329883 0 0 0 0 -166.69570942349674 86.359957383714573 0 86.359957383714573 16.790568135797557 0 0 0 0 -25.065459632816783 -11.913768387936127 0 -11.913768387936127 0.99156989536997742 0 0 0 0 0.075369559009889286 -0.010451348646213887 0 -0.010451348646213887 1.265483984756949 0 0 0 0 -3.5876860441348981 -9.8385610040099678 0 -9.8385610040099678 5.6363051636934571 0 0 0 0 -17.133215982648835 -19.818122389157477 0 -19.818122389157477 -0.034611974834251477 0 0 0 0 -16.020961135287507 -5.5848740412430082 0 -5.5848740412430082 4.2415267668537027 0 0 0 0 -14.069794327519048 0.12391495136946418 0 0.12391495136946418 14.892600232699849 0 0 0 0 -29.101381154578121 10.942672685794776 0 10.942672685794776 29.491632320597617 0 0 0 0 -19.331852373194124 0.35442203544802453 0 0.35442203544802453 40.788117129624759 0 0 0 0 -15.828780240831264 8.3326761645197376 0 8.3326761645197376 -1.3772164986143218 0 0 0 0 -21.593369070986228 13.120507049900652 0 13.120507049900652 20.800845171419041 0 0 0 0 -12.871198679284134 16.839600511244981 0 16.839600511244981 5.2345907094583879 0 0 0 0 -17.106545688657206 2.0308887889434288 0 2.0308887889434288 4.8626338829290603 0 0 0 0 -16.557810998994775 13.299247323630169 0 13.299247323630169 3.8572262092500149 0 0 0 0 -10.390351864613081 5.1338825770767542 0 5.1338825770767542 -1.0666268346378878 0 0 0 0 -6.2119113042936078 14.44386860753491 0 14.44386860753491 -2.2766450298805694 0 0 0 0 -11.779572027022368 13.211982224938538 0 13.211982224938538 11.161536259088507 0 0 0 0 -61.673564769218501 -17.441618509906647 0 -17.441618509906647 98.372193519950912 0 0 0 0 -35.888600320700789 -69.452484119805376 0 -69.452484119805376 159.90291390862239 0 0 0 0 -40.325991221987351 99.218687435755129 0 99.218687435755129 51.496708863677149 0 0 0 0 -43.382358259753346 5.148327039478648 0 5.148327039478648 2.7661507658885935 0 0 0 0 -15.751823020109441 37.610990073342322 0 37.610990073342322 82.051813794643536 0 0 0 0 -10.219398440415546 -1.9067996374115879 0 -1.9067996374115879 3.2728107768658581 0 0 0 0 -25.148891542658419 5.9690226917887657 0 5.9690226917887657 7.1713743125772256 0 0 0 0 2.3330203455116134 140.70927528354105 0 140.70927528354105 -141.0879274545423 0 0 0 0 -1.0515669840962296 1.4330450895088873 0 1.4330450895088873 -2.1112463128106422 0 0 0 0 52.475988270552989 39.591417086608217 0 39.591417086608217 18.277370832337624 0 0 0 0 -26.87566102191704 34.994384510352262 0 34.994384510352262 -81.696648556320383 0 0 0 0 -87.921136290649883 60.79557864607176 0 60.79557864607176 24.652071616192927 0 0 0 0 -16.078220950721516 18.292504152669153 0 18.292504152669153 1.8327680753880031 0 0 0 0 0.5653895153336066 9.5135000616939092 0 9.5135000616939092 2.232755443386075 0 0 0 0 37.385803821347508 21.083313970667625 0 21.083313970667625 -3.5604712166820285 0 0 0 0 -5.3759735039911902 8.9394800533890475 0 8.9394800533890475 -1.3830001447745417 0 0 0 0 1.3145597161019396 5.8634958777963675 0 5.8634958777963675 -2.423174289855524 0 0 0 0 2.4768316721940948 5.4300049920088895 0 5.4300049920088895 2.7490397072205877 0 0 0 0 0.083483720627185676 0.89915421077589741 0 0.89915421077589741 1.0165247033446896 0 0 0 0 -27.775565352130798 74.758261345200935 0 74.758261345200935 -26.614837948132788 0 0 0 0 -25.980412173438111 20.487420624178711 0 20.487420624178711 -0.87440094141208213 0 0 0 0 7.1340747995684239 8.942670554665181 0 8.942670554665181 1.2937580390276702 0 0 0 0 13.03911024039553 7.606851805439419 0 7.606851805439419 -12.977201180724819 0 0 0 0 74.335787041411095 52.008353008740187 0 52.008353008740187 -33.576290218115901 0 0 0 0 -28.061157176551205 13.526762318262172 0 13.526762318262172 5.5345363133851606 0 0 0 0 -26.534346399283095 18.295267066657971 0 18.295267066657971 0.69189686548179452 0 0 0 0 -27.070061554119604 18.878211484311535 0 18.878211484311535 1.2681368226503764 0 0 0 0 -36.816176124797494 19.999302268716747 0 19.999302268716747 3.0447997773294446 0 0 0 0 -37.428434533901964 22.303594414869849 0 22.303594414869849 -4.0874423368595671 0 0 0 0 -37.651270546946762 21.247515473898602 0 21.247515473898602 -8.3909266813216163 0 0 0 0 -30.125832302575873 12.534426119407726 0 12.534426119407726 -14.470750113915756 0 0 0 0 -35.358269959295285 20.225344324382149 0 20.225344324382149 -12.518890733394983 0 0 0 0 -31.242667784186779 9.9714453192846122 0 9.9714453192846122 -3.6404330455961826 0 0 0 0 -32.956399861606769 14.566120652745667 0 14.566120652745667 -5.4189909129809166 0 0 0 0 -31.602074188602273 15.335662376752225 0 15.335662376752225 -6.545743307664452 0 0 0 0 -31.073544662838685 19.248652692524956 0 19.248652692524956 6.8643498121418816 0 0 0 0 -33.808305698439653 13.226704765619161 0 13.226704765619161 -1.6364086096548363 0 0 0 0 -3.9064823238603132 1.2318232417837436 0 1.2318232417837436 0.028159349742598039 0 0 0 0 -15.639964941892686 10.203957266021462 0 10.203957266021462 2.0453335868451177 0 0 0 0 3.3327091715109418 6.1806500960115045 0 6.1806500960115045 3.3590422160975777 0 0 0 0 -15.275204998011759 8.8591735215125027 0 8.8591735215125027 3.1097029578249931 0 0 0 0 -15.152396822057199 11.778950046730642 0 11.778950046730642 2.4111186168993299 0 0 0 0 -2.2311623719212506 1.5911013071980378 0 1.5911013071980378 -1.1103963007848314 0 0 0 0 -18.482523464859696 11.174831841440209 0 11.174831841440209 2.7305938512549801 0 0 0 0 -34.269230882455304 12.173631580417805 0 12.173631580417805 -11.51067617306262 0 0 0 0 -16.713639582056203 4.6871955832245931 0 4.6871955832245931 -6.0623869489791105 0 0 0 0 -42.439092379616341 14.71035583376397 0 14.71035583376397 -14.883133375995385 0 0 0 0 0.21009518284924411 3.5104340853620841 0 3.5104340853620841 -1.8643545790672336 0 0 0 0 7.285106984549202 8.1232446788526431 0 8.1232446788526431 -23.577233892129357 0 0 0 0 -11.875658434949223 6.460797785003777 0 6.460797785003777 -6.8599794491733235 0 0 0 0 -7.2447168866638094 5.4392106731829699 0 5.4392106731829699 1.8015077714226209 0 0 0 0 -12.303613591292155 11.716653402642031 0 11.716653402642031 -6.8159752978177863 0 0 0 0 -10.602623952203402 7.0092164567474757 0 7.0092164567474757 -1.9129544410618691 0 0 0 0 -7.6563582424592198 5.2254769766183635 0 5.2254769766183635 -1.7123434381313551 0 0 0 0 -7.1242971590345405 4.0555881457789837 0 4.0555881457789837 -1.7597122373463208 0 0 0 0 -10.691386835875164 15.860294850643186 0 15.860294850643186 -7.8755524787383138 0 0 0 0 -7.1281930954312216 5.3356721716973823 0 5.3356721716973823 -1.7555824662723865 0 0 0 0 -15.223534141058622 -1.9323733748937766 0 -1.9323733748937766 1.4144734349733845 0 0 0 0 -8.2552583693213819 -20.899131522714697 0 -20.899131522714697 32.535460749826598 0 0 0 0 -1.78185924572972 -3.5782549375805957 0 -3.5782549375805957 -1.980559320671091 0 0 0 0 -0.06556397385247692 -7.8816149959754966 0 -7.8816149959754966 -4.5844127896380087 0 0 0 0 18.340620417075115 -7.4382794899356668 0 -7.4382794899356668 -6.7365066342688351 0 0 0 0 6.4357562164259434 5.406112062754346 0 5.406112062754346 -20.489336681078385 0 0 0 0 2.3397602499353525 -36.17969127231072 0 -36.17969127231072 -13.291538145976119 0 0 0 0 18.952351217194519 -11.132160972420934 0 -11.132160972420934 -52.686753795321692 0 0 0 0 -244.07312585168984 143.01968674488216 0 143.01968674488216 -45.20633930908204 0 0 0 0 -5.9557953925064169 -2.2171396036779347 0 -2.2171396036779347 -0.22839322691654551 0 0 0 0 -229.05031100038468 -240.97620330662176 0 -240.97620330662176 -233.07463718095102 0 0 0 0 -617.52272495494981 162.29425485420143 0 162.29425485420143 -182.2870119280069 0 0 0 0 -481.6671834289009 -125.31945587319024 0 -125.31945587319024 -818.10059744955652 0 0 0 0 -502.82075148881995 -76.337503035460031 0 -76.337503035460031 -183.43695117534025 0 0 0 0 -620.82305774919223 145.64636139886898 0 145.64636139886898 -37.245558390236511 0 0 0 0 -566.87853848493069 18.131050448220094 0 18.131050448220094 -5.4989841057431477 0 0 0 0 -631.2257504909212 -195.04082729953643 0 -195.04082729953643 -378.16867229783475 0 0 0 0 -394.31288113772098 -21.419705154775215 0 -21.419705154775215 -65.684313726394066 0 0 0 0 -532.93523556200307 16.177615576513745 0 16.177615576513745 65.782850893587238 0 0 0 0 -267.09483746808473 128.55958799355369 0 128.55958799355369 -18.562869778541341 0 0 0 0 2.5444605385721104 48.416420547740969 0 48.416420547740969 -113.14707468333199 0 0 0 0 -259.55085729274288 64.857535139801257 0 64.857535139801257 32.08920165440918 0 0 0 0 -264.84473770327713 9.5205560050233089 0 9.5205560050233089 -78.936061972817697 0 0 0 0 -106.09773959767335 -78.289738015774446 0 -78.289738015774446 -31.989547839159968 0 0 0 0 -261.43861928974002 65.381789374976307 0 65.381789374976307 3.7511767815319672 0 0 0 0 -36.740538494603243 33.530755082135556 0 33.530755082135556 -104.3131422566189 0 0 0 0 -49.80777912107078 137.42218031654426 0 137.42218031654426 -257.05767348933114 0 0 0 0 -12.698328491358552 65.604759254748728 0 65.604759254748728 -110.6443296512698 0 0 0 0 -36.554492620063684 74.514319630653176 0 74.514319630653176 -63.047074368946824 0 0 0 0 -4.649833759452136 -0.91179794674839165 0 -0.91179794674839165 0.26481847864481389 0 0 0 0 17.081772532917967 24.404534814890212 0 24.404534814890212 -9.3086151754882849 0 0 0 0 -6.6383844279553159 12.02747257978308 0 12.02747257978308 26.853581998923005 0 0 0 0 -1.3006007440213807 -0.99782949341669536 0 -0.99782949341669536 -0.62161289361347016 0 0 0 0 -92.758086808558801 -26.634088244100155 0 -26.634088244100155 54.253091514591347 0 0 0 0 18.640089000993612 20.06064159614084 0 20.06064159614084 -39.552736330452717 0 0 0 0 -4.9301431542614012 1.4083972746825886 0 1.4083972746825886 -1.6851786634211496 0 0 0 0 -1497.5174282216431 679.00897498919755 0 679.00897498919755 106.79735041093276 0 0 0 0 -398.07176596097997 613.83409306780936 0 613.83409306780936 -750.7018591335127 0 0 0 0 -4.6481572221157563 1.3365714542091212 0 1.3365714542091212 1.6145940821087346 0 0 0 0 -46.523406406660797 0.73724423818779883 0 0.73724423818779883 -0.52741984041922763 0 0 0 0 -132.34190735205993 76.779433585323702 0 76.779433585323702 -254.48678042760002 0 0 0 0 -41.236867462219379 -8.0771264993316478 0 -8.0771264993316478 -12.169283036907743 0 0 0 0 -30.718794999465899 -1.0470438918329563 0 -1.0470438918329563 38.266759298017348 0 0 0 0 -22.405220445931704 4.6411549510379295 0 4.6411549510379295 -0.063548211185260994 0 0 0 0 -39.510696858455049 6.0125483140370193 0 6.0125483140370193 2.9994049508885041 0 0 0 0 -585.55242226620612 115.69850700784824 0 115.69850700784824 -31.470968193371803 0 0 0 0 -1496.5706048399588 -239.4990577560167 0 -239.4990577560167 45.805029124251654 0 0 0 0 -13.686498692779423 -25.280722384107065 0 -25.280722384107065 61.707773206018601 0 0 0 0 -8.3121447220782443 -3.1033004001738647 0 -3.1033004001738647 -1.2064770857350351 0 0 0 0 -166.86917425130014 9.9625590291546029 0 9.9625590291546029 -0.33164845666473813 0 0 0 0 -2.5970380925091234 -1.606777814751041 0 -1.606777814751041 -0.38034234679385293 0 0 0 0 118.91375836540101 -267.43777734816166 0 -267.43777734816166 81.114399610996472 0 0 0 0 -1500.5478570854175 360.95514198640075 0 360.95514198640075 -69.621354068403264 0 0 0 0 25.479435361014112 25.046356627986736 0 25.046356627986736 28.182929684817054 0 0 0 0 -478.66288054855977 -52.993228103289674 0 -52.993228103289674 17.515118299934588 0 0 0 0 -1488.7507119443762 -823.21161653055242 0 -823.21161653055242 -59.713632709211765 0 0 0 0 -58.215689421980642 -42.758594775855883 0 -42.758594775855883 -24.710329690644713 0 0 0 0 -32.913409600289015 13.169620651099031 0 13.169620651099031 29.624290626382752 0 0 0 0 -89.685261261092819 47.476625650954531 0 47.476625650954531 13.624981570662726 0 0 0 0 -62.63813366155955 -6.8781997923452423 0 -6.8781997923452423 77.349278009027302 0 0 0 0 -51.716445996851689 20.097740179086038 0 20.097740179086038 50.666786237101746 0 0 0 0 -33.90854900663544 18.861521880586849 0 18.861521880586849 48.912643862029086 0 0 0 0 -28.792361749452539 43.001129709362772 0 43.001129709362772 87.979915679865485 0 0 0 0 -7.3414917694753967 12.269351197186097 0 12.269351197186097 76.460991666062682 0 0 0 0 -6.2876119327320339 28.067329619066705 0 28.067329619066705 27.729376564365225 0 0 0 0 -10.907315040953108 1.851229145562229 0 1.851229145562229 44.397807289952794 0 0 0 0 -26.011063642334193 36.763303303225527 0 36.763303303225527 23.929017742429146 0 0 0 0 -35.461962343702908 14.192723223059986 0 14.192723223059986 38.278467553120763 0 0 0 0 -16.220073157834122 9.0653789064244776 0 9.0653789064244776 -8.4099291070037125 0 0 0 0 -10.509029048265802 15.931200219336665 0 15.931200219336665 -29.703587110027964 0 0 0 0 -20.805309071662123 10.133739486414614 0 10.133739486414614 33.384520886991609 0 0 0 0 -19.826860599147039 34.635613844782057 0 34.635613844782057 37.827586605833517 0 0 0 0 -11.021031980112468 2.1233491569488088 0 2.1233491569488088 -1.0042025301489337 0 0 0 0 -18.487844790090094 10.7238063508388 0 10.7238063508388 -8.6900819483937539 0 0 0 0 -15.87873369567933 5.5188718449552709 0 5.5188718449552709 1.5902553213095416 0 0 0 0 8.5130761956970673 -0.48508408801524183 0 -0.48508408801524183 -14.01088067847877 0 0 0 0 -5.6869315865833983 -5.9411941120661353 0 -5.9411941120661353 -4.047532290904531 0 0 0 0 -3.5153111975583542 -0.064353699229570793 0 -0.064353699229570793 0.14109642231084873 0 0 0 0 -29.953232310086605 -0.039164188399190891 0 -0.039164188399190891 -6.5898247297625261 0 0 0 0 -18.226263543419918 5.3643580911940489 0 5.3643580911940489 0.039068986835218311 0 0 0 0 -25.970831698570692 -15.867411686605124 0 -15.867411686605124 -25.193751032353703 0 0 0 0 4.7977378730574856 8.9524215321521439 0 8.9524215321521439 0.092061154459285033 0 0 0 0 -60.609264955033723 -0.13283965848029311 0 -0.13283965848029311 -11.708585375729854 0 0 0 0 -90.601286514371168 -30.881166504984094 0 -30.881166504984094 -18.329108674223875 0 0 0 0 -93.55284244739596 -4.6190150221351587 0 -4.6190150221351587 -12.637596263340356 0 0 0 0 -42.370556868316271 -30.691733684718628 0 -30.691733684718628 -22.298826438483843 0 0 0 0 3.2831009463370719 23.919590184123649 0 23.919590184123649 8.9744052304713335 0 0 0 0 -6.804422804949553 1.9325828279506538 0 1.9325828279506538 -0.22375250005696462 0 0 0 0 -74.602402506683575 -28.337949195373724 0 -28.337949195373724 -14.209622174031438 0 0 0 0 -79.139763242361369 -17.038979142829938 0 -17.038979142829938 -0.47361254123323704 0 0 0 0 -151.64615132620747 -92.443499747669932 0 -92.443499747669932 -48.486370367311622 0 0 0 0 -2.8283138356014774 0.20456875712046241 0 0.20456875712046241 0.030541510479394102 0 0 0 0 -269.84554837427277 -224.9491425174711 0 -224.9491425174711 -102.7018849338902 0 0 0 0 34.527537849460714 27.152495781393419 0 27.152495781393419 -37.357738150491741 0 0 0 0 -441.88034614556818 209.87838835890349 0 209.87838835890349 -0.17770722883550946 0 0 0 0 -304.16466208713973 11.512817796975526 0 11.512817796975526 50.523842019770029 0 0 0 0 -160.54026346095634 14.072197728580363 0 14.072197728580363 39.616490088449325 0 0 0 0 -118.66934914077865 -3.779174677027072 0 -3.779174677027072 7.7364735940909668 0 0 0 0 -1.1338781122880022 -0.23091025779437757 0 -0.23091025779437757 4.4077752790652784 0 0 0 0 -156.34121764776501 -48.164050155857808 0 -48.164050155857808 -6.6318681302459197 0 0 0 0 -178.18431163914283 -6.4351061046246514 0 -6.4351061046246514 16.573388683571238 0 0 0 0 -175.90950106599121 7.6672636440376323 0 7.6672636440376323 -1.2493331134301116 0 0 0 0 -156.47170712471416 -14.740545767068397 0 -14.740545767068397 -7.1142103757420614 0 0 0 0 -163.1480319796101 7.478093235024744 0 7.478093235024744 -48.123683123612864 0 0 0 0 -194.68169321719324 -8.3324919993576714 0 -8.3324919993576714 -6.173370603973126 0 0 0 0 -318.79131178205716 -60.110908606405246 0 -60.110908606405246 49.551408196963166 0 0 0 0 -194.48146007573814 5.6480162109337471 0 5.6480162109337471 -33.998557842697664 0 0 0 0 -210.08072944523883 -2.6327427934634215 0 -2.6327427934634215 -34.114378766033404 0 0 0 0 -2.3370569793769391 7.0553456606005511 0 7.0553456606005511 2.9846341931527149 0 0 0 0 1.6466523192624507 3.6212700853219957 0 3.6212700853219957 2.5588679709898972 0 0 0 0 -168.18120222246216 -37.404563746368467 0 -37.404563746368467 -7.0189081267685651 0 0 0 0 0.26476751092695849 -0.85379250430037601 0 -0.85379250430037601 0.066949905496629825 0 0 0 0 -220.68677079901681 -34.666898393656993 0 -34.666898393656993 12.117205987743546 0 0 0 0 -153.00221972751751 21.519070630427336 0 21.519070630427336 1.069325367872807 0 0 0 0 0.18470213722454787 0.57757162193539457 0 0.57757162193539457 0.36692509169782772 0 0 0 0 -201.72543422784656 -5.4278427384642782 0 -5.4278427384642782 -2.2357735981381666 0 0 0 0 -163.16387825310085 -8.2776890092825397 0 -8.2776890092825397 -5.4715367650469489 0 0 0 0 -75.790576522267656 -19.164209953931731 0 -19.164209953931731 -50.941863858760826 0 0 0 0 -1.7543380372359252 1.2979371798884927 0 1.2979371798884927 0.20281731653477397 0 0 0 0 -309.09930734832596 34.04676919907115 0 34.04676919907115 -1.6164893294408103 0 0 0 0 -303.60922990833933 55.751604491289527 0 55.751604491289527 -38.180932228131496 0 0 0 0 -158.41424148350779 58.943739004688268 0 58.943739004688268 -117.80006862934988 0 0 0 0 -126.82996796463704 -16.817858850964285 0 -16.817858850964285 -73.915171147037654 0 0 0 0 -191.39772488878953 33.744977066953766 0 33.744977066953766 -72.538553601594685 0 0 0 0 -138.94638482776281 -18.725552738383385 0 -18.725552738383385 -39.509963899444756 0 0 0 0 -130.85648692256655 -14.889267776108909 0 -14.889267776108909 -52.80631270621825 0 0 0 0 -104.56905645012739 -17.267966079131384 0 -17.267966079131384 -39.458914498421223 0 0 0 0 -0.56890753345418688 0.62873402746492957 0 0.62873402746492957 0.007311268963604789 0 0 0 0 -148.57428296933722 -16.052371286021412 0 -16.052371286021412 20.592165536902257 0 0 0 0 -100.65305537950189 16.66627879439784 0 16.66627879439784 35.602055952625939 0 0 0 0 -107.48320121130018 25.096323345780476 0 25.096323345780476 26.88870482130551 0 0 0 0 -24.987071464056498 81.851212459376256 0 81.851212459376256 36.161476471428401 0 0 0 0 -27.244345115187286 26.69638818864745 0 26.69638818864745 5.481904575884073 0 0 0 0 -27.485801222795416 18.58902777270648 0 18.58902777270648 -1.0261323985627069 0 0 0 0 -28.554741232535889 14.240840652062843 0 14.240840652062843 -0.64785827162086207 0 0 0 0 -40.791963065043092 42.001031174317177 0 42.001031174317177 11.979590987306437 0 0 0 0 -27.066790898168264 17.502105938018275 0 17.502105938018275 1.0130900583674496 0 0 0 0 -91.749381299872766 23.3457337931452 0 23.3457337931452 32.63505394383651 0 0 0 0 -49.800600950592525 -19.807705796929469 0 -19.807705796929469 -16.312016745812343 0 0 0 0 -95.081912374960666 -26.209906044070522 0 -26.209906044070522 3.4706771728266403 0 0 0 0 -68.392215251831658 -13.071366183008422 0 -13.071366183008422 -7.358632725452253 0 0 0 0 -31.999200220183411 -25.046963963728103 0 -25.046963963728103 -30.963091465611797 0 0 0 0 -119.5433589255008 -13.171835295843266 0 -13.171835295843266 27.702210745029333 0 0 0 0 0.089336368528456944 1.097974806666258 0 1.097974806666258 -0.69249795886121568 0 0 0 0 -85.098931100832488 -37.280185186072913 0 -37.280185186072913 -4.5098339595015204 0 0 0 0 -92.902310177383697 -34.912295365376224 0 -34.912295365376224 5.0449622811811423 0 0 0 0 3.2205026526680101 -6.0992988051706263 0 -6.0992988051706263 -7.390690550889933 0 0 0 0 -117.30079093050153 -30.993278530734642 0 -30.993278530734642 5.3202450681496884 0 0 0 0 -91.00112165677092 -22.485400499361219 0 -22.485400499361219 1.5416679447498609 0 0 0 0 -114.23915239970665 -17.61012916076379 0 -17.61012916076379 1.4217850899522091 0 0 0 0 -109.05745834478148 -27.783644052019554 0 -27.783644052019554 -4.4286098242579328 0 0 0 0 -0.0087413253300709925 -7.3907826701533637 0 -7.3907826701533637 -7.7578014849752375 0 0 0 0 -65.200069061815157 -26.810207001038862 0 -26.810207001038862 -3.391433651103398 0 0 0 0 -98.880325464131602 -15.656023740412138 0 -15.656023740412138 -22.412918313532828 0 0 0 0 -3.3526998576524996 -0.40589524978753388 0 -0.40589524978753388 -0.33665230294955606 0 0 0 0 -85.552174576956531 -26.039625258780632 0 -26.039625258780632 -26.913025077622478 0 0 0 0 -84.611857963442162 -25.757896206022679 0 -25.757896206022679 -28.101099148213279 0 0 0 0 -130.85547979657338 -14.566553841825382 0 -14.566553841825382 -17.77993272648655 0 0 0 0 -83.872057058819337 -24.455358560493323 0 -24.455358560493323 -30.714593671192006 0 0 0 0 -88.535512797676347 -26.974406067383711 0 -26.974406067383711 -15.15657890038824 0 0 0 0 -24.729434236760426 -11.223814503034191 0 -11.223814503034191 7.1630999423241519 0 0 0 0 -62.349641977973988 31.481484141565154 0 31.481484141565154 -41.141005106982448 0 0 0 0 20.961854108034458 -12.063387551318783 0 -12.063387551318783 -29.577952511891681 0 0 0 0 -1.8131159948625317 -7.5202747764593383 0 -7.5202747764593383 -8.2183666787710159 0 0 0 0 -1.947096072299729 -7.7842832322014104 0 -7.7842832322014104 -11.178939072828678 0 0 0 0 11.96253239113139 -22.438102348409529 0 -22.438102348409529 -30.440061913205227 0 0 0 0 -25.254555345094559 -5.7440316136367073 0 -5.7440316136367073 -41.016622678624572 0 0 0 0 -27.451979653142189 -19.760115264294996 0 -19.760115264294996 -7.2240055583915819 0 0 0 0 -23.453156090537959 -6.0479582415914592 0 -6.0479582415914592 -8.1048546778133641 0 0 0 0 -11.540042195842773 3.4738688742296802 0 3.4738688742296802 5.0872915756021317 0 0 0 0 -38.127309835430424 -15.902138746042084 0 -15.902138746042084 -7.8877273524863085 0 0 0 0 -3.8306520998961844 -7.5659341119694403 0 -7.5659341119694403 -11.700172382928569 0 0 0 0 -36.707313393821096 -13.374688258146875 0 -13.374688258146875 -13.852619159803453 0 0 0 0 51.367672639597004 -38.415324289802051 0 -38.415324289802051 -78.814000001405901 0 0 0 0 -24.398481999594878 -143.20838091935829 0 -143.20838091935829 -43.806373265394598 0 0 0 0 -215.85973483763883 81.940607543379997 0 81.940607543379997 -26.360138576248133 0 0 0 0 -758.13526156031367 -215.53977195615548 0 -215.53977195615548 93.310685929312854 0 0 0 0 -219.23055587613786 -214.42202722925904 0 -214.42202722925904 -233.27703562116432 0 0 0 0 -210.21426888888163 -13.516399260679179 0 -13.516399260679179 -38.365731565109741 0 0 0 0 -1496.9861345678728 -504.6831938661544 0 -504.6831938661544 194.573724144495 0 0 0 0 -780.09106580807565 -180.15674670874586 0 -180.15674670874586 256.05134343278081 0 0 0 0 -1500.3683735753184 48.66045020906482 0 48.66045020906482 315.68492864866619 0 0 0 0 -331.3151702253781 86.801011289616568 0 86.801011289616568 -2.8888769142325827 0 0 0 0 -379.62395009624015 -38.150814311976305 0 -38.150814311976305 76.470647569471296 0 0 0 0 -541.28299715459252 368.75666783096381 0 368.75666783096381 74.572232381749927 0 0 0 0 -840.06906885489298 515.99878743032036 0 515.99878743032036 13.883813229554043 0 0 0 0 -743.682426088395 177.08059269180762 0 177.08059269180762 244.68664599471697 0 0 0 0 -952.15004387649242 241.86271739449722 0 241.86271739449722 225.2404436792024 0 0 0 0 -1498.516095305109 -501.78003167018699 0 -501.78003167018699 -76.422084604394115 0 0 0 0 -4.3995709427336891 3.0002253933645164 0 3.0002253933645164 -2.5716312817726839 0 0 0 0 -88.160137058141117 -13.723891556853914 0 -13.723891556853914 26.54815436265287 0 0 0 0 -138.88458624275518 -36.275112171547732 0 -36.275112171547732 17.807637142482221 0 0 0 0 -12.510236804111472 7.026421896995231 0 7.026421896995231 -6.6539103573332525 0 0 0 0 -37.201122676871819 17.132721084163677 0 17.132721084163677 25.210688988256379 0 0 0 0 -479.68292979321814 98.03409453230708 0 98.03409453230708 -93.680671171578609 0 0 0 0 -1500.1912620146031 26.035811085432815 0 26.035811085432815 172.51068566676906 0 0 0 0 -671.83047369101405 -392.44192407062405 0 -392.44192407062405 -70.809565973530653 0 0 0 0 -580.0103777208169 198.73285068519644 0 198.73285068519644 66.742939099851782 0 0 0 0 -1497.6701775695449 610.74848636076524 0 610.74848636076524 -60.557441410403214 0 0 0 0 -5.3438561463878926 -2.6047114708151682 0 -2.6047114708151682 -2.1027187402593333 0 0 0 0 -273.6124206561617 -639.57805540591448 0 -639.57805540591448 -660.63250093557292 0 0 0 0 -138.90908781912003 -83.043275397878801 0 -83.043275397878801 20.493628784509383 0 0 0 0 -15.234295977021276 -4.6557713734934758 0 -4.6557713734934758 -4.8016649065126691 0 0 0 0 -48.670916066752397 -44.943038291768062 0 -44.943038291768062 11.603619878500439 0 0 0 0 -480.73430951560658 -85.95584658405906 0 -85.95584658405906 29.878670178074898 0 0 0 0 -31.808312707278674 -20.812424267600363 0 -20.812424267600363 -3.0034732841800178 0 0 0 0 -16.422831909869274 -22.739950364739229 0 -22.739950364739229 -28.930539926854181 0 0 0 0 -16.697918294357805 44.704234730101462 0 44.704234730101462 46.859781911361551 0 0 0 0 -10.9935346226749 -0.71297724231741455 0 -0.71297724231741455 -2.8773477472254507 0 0 0 0 -7.3067764660081593 -4.4524457067768708 0 -4.4524457067768708 -6.0992151111015005 0 0 0 0 -143.33541064048381 -2.7657630782420597 0 -2.7657630782420597 45.27716361812486 0 0 0 0 1.6681517583856476 83.796568158848572 0 83.796568158848572 -29.073780372088351 0 0 0 0 -4.4004343218858821 0.75949496794184768 0 0.75949496794184768 -4.1781136619132324 0 0 0 0 -16.07525905843795 3.5466394583775127 0 3.5466394583775127 -7.7185294646255898 0 0 0 0 -95.313849991522147 -40.736598580412192 0 -40.736598580412192 27.88175690506705 0 0 0 0 -3.0993272506706582 0.39865250543095954 0 0.39865250543095954 -0.48561782174057555 0 0 0 0 -38.670408714002406 -27.2350737025115 0 -27.2350737025115 -4.0666989147434833 0 0 0 0 -30.758767400689976 14.445957990163379 0 14.445957990163379 -29.249094789718129 0 0 0 0 -71.373480579295574 -20.301937633740408 0 -20.301937633740408 -14.421883882901966 0 0 0 0 -5.0742675808634488 -7.7886298572044268 0 -7.7886298572044268 -6.6037900434002061 0 0 0 0 -74.774111227641697 -18.237740368562299 0 -18.237740368562299 -10.993843307365751 0 0 0 0 -68.554895799345104 -22.604255150863537 0 -22.604255150863537 -8.2181570841230496 0 0 0 0 -52.590292897817562 -21.223214028523216 0 -21.223214028523216 -10.420317811834138 0 0 0 0 -26.497322203738648 -14.71797658605589 0 -14.71797658605589 -6.2860347003391146 0 0 0 0 -28.76271105637035 -13.331352810135453 0 -13.331352810135453 -4.0063266539552655 0 0 0 0 -50.308964708947315 -18.736309048790986 0 -18.736309048790986 0.61360853456767472 0 0 0 0 -55.154725674117799 -18.09165094099626 0 -18.09165094099626 0.56808299189765421 0 0 0 0 -57.561694659674686 -44.439002698378772 0 -44.439002698378772 -11.748385188927841 0 0 0 0 -41.036319027698482 -42.515833633916031 0 -42.515833633916031 -16.53692362301399 0 0 0 0 -70.236357084238989 -53.487680060704065 0 -53.487680060704065 -9.606700644898865 0 0 0 0 -55.482681418419816 -53.417416838713848 0 -53.417416838713848 -16.142208949181622 0 0 0 0 -0.05126865940837888 -23.347351566572684 0 -23.347351566572684 -20.80852614814404 0 0 0 0 -8.1815989904898743 -4.8849829865380343 0 -4.8849829865380343 -4.4267000334127715 0 0 0 0 -2.763799294052788 -3.1142148035803459 0 -3.1142148035803459 -6.3287343899078685 0 0 0 0 -8.856482595113917 -5.8704065989702485 0 -5.8704065989702485 -5.3668462477566958 0 0 0 0 -19.720672197014252 -4.9318684928513825 0 -4.9318684928513825 -4.4675473899642508 0 0 0 0 -19.9217310040749 -9.0781562350312583 0 -9.0781562350312583 -3.9894006762115168 0 0 0 0 -20.651639918454748 -7.7127998582050168 0 -7.7127998582050168 -4.7594356349040936 0 0 0 0 -66.957907464609889 -23.01595747166914 0 -23.01595747166914 5.8382708813524005 0 0 0 0 -15.667961654482205 -13.204268178742929 0 -13.204268178742929 -6.3367117672402609 0 0 0 0 -0.33351565259363269 -32.947394456650272 0 -32.947394456650272 -40.004931125935855 0 0 0 0 5.0239458445392202 -1.3936971412319004 0 -1.3936971412319004 -4.2672614230827719 0 0 0 0 -9.1413902257978741 5.8465310921651792 0 5.8465310921651792 -1.9495517691873765 0 0 0 0 -27.164811352329707 1.8770669759612701 0 1.8770669759612701 -5.8661860346919639 0 0 0 0 -27.691118663573434 3.2642276730866797 0 3.2642276730866797 -2.2088860647049842 0 0 0 0 -18.518002293726624 -0.25999077249300484 0 -0.25999077249300484 -0.43562679217985334 0 0 0 0 -30.462180311122211 13.991610690241032 0 13.991610690241032 -12.572042104749926 0 0 0 0 -27.42223999449925 11.581028153993429 0 11.581028153993429 -10.685324277500513 0 0 0 0 -30.672423999127204 15.599306204707773 0 15.599306204707773 -2.2293598484193353 0 0 0 0 -28.107178070411464 16.942613413982599 0 16.942613413982599 -0.53283221243782464 0 0 0 0 -26.760018773587944 14.884647250385342 0 14.884647250385342 2.4586896806868026 0 0 0 0 -22.092620000359602 22.349041847148783 0 22.349041847148783 1.2515879729198787 0 0 0 0 -26.074175242056299 19.763987205561762 0 19.763987205561762 2.2634991560225899 0 0 0 0 -17.971914123365423 17.971635698028877 0 17.971635698028877 0.96999559237519861 0 0 0 0 -17.438768576583243 22.850493380878106 0 22.850493380878106 0.39125152233737026 0 0 0 0 -27.61060782045702 14.083018387646938 0 14.083018387646938 0.94497755994134813 0 0 0 0 -55.287191483686911 -3.1056579657151815 0 -3.1056579657151815 -6.7351128955215245 0 0 0 0 -20.336084459281075 7.3952890995328175 0 7.3952890995328175 0.28898796823731132 0 0 0 0 -73.93877069739392 -3.7198163780931282 0 -3.7198163780931282 -3.9949299061145211 0 0 0 0 -82.005696662541595 -24.69828949992143 0 -24.69828949992143 -11.963619413256311 0 0 0 0 -100.32197236673528 -10.771266133161134 0 -10.771266133161134 -4.5700184406687185 0 0 0 0 -50.717472061101944 -0.17378111736275059 0 -0.17378111736275059 -0.51780770010736887 0 0 0 0 -10.093398788139258 0.30345351274057464 0 0.30345351274057464 -1.2455091317494968 0 0 0 0 -74.276417416520417 -26.043248016772509 0 -26.043248016772509 -13.794246119339732 0 0 0 0 -99.177391793275092 -2.449450584158626 0 -2.449450584158626 -44.852395811305541 0 0 0 0 -37.465264808510256 -11.486920270812789 0 -11.486920270812789 -49.543744649552536 0 0 0 0 -196.99856244430703 -20.190417211799286 0 -20.190417211799286 35.160277997711091 0 0 0 0 -0.33903858533847142 0.57607197812660615 0 0.57607197812660615 -0.56082482086583774 0 0 0 0 -97.323101014273561 -53.249589791398648 0 -53.249589791398648 -9.8338618201541976 0 0 0 0 -6.0050541614869104 0.83341018077757667 0 0.83341018077757667 -1.7912249507426452 0 0 0 0 -49.60377011221135 8.8073151101564235 0 8.8073151101564235 -10.689021293239421 0 0 0 0 -72.394466316634862 6.6851589914638225 0 6.6851589914638225 7.0758881142810424 0 0 0 0 -41.941928364940395 1.597743432603238 0 1.597743432603238 -5.7890540709513516 0 0 0 0 -18.534548861171061 29.134430719738248 0 29.134430719738248 5.5829215933050591 0 0 0 0 -22.89143138901261 16.792305416469674 0 16.792305416469674 3.1200080729632589 0 0 0 0 -22.728949613017903 15.721144985935553 0 15.721144985935553 1.8116772482717352 0 0 0 0 -14.428857957340369 20.801601562987344 0 20.801601562987344 -6.7469168582797465 0 0 0 0 -29.909666899438889 15.294908161401963 0 15.294908161401963 2.8534711221950602 0 0 0 0 -24.690240558875303 11.821544957224091 0 11.821544957224091 1.1443780749300458 0 0 0 0 -22.370253091263294 28.72845825158015 0 28.72845825158015 6.7834447265822746 0 0 0 0 -32.162994853338205 13.472958588626724 0 13.472958588626724 -19.891687318807271 0 0 0 0 -32.732072405255167 18.851524808937029 0 18.851524808937029 -4.974694828558313 0 0 0 0 -31.914373450104904 7.283908555974449 0 7.283908555974449 -7.812899316549192 0 0 0 0 -34.86595056236547 9.7467299714960518 0 9.7467299714960518 -9.7114184379270228 0 0 0 0 -41.86694578740935 3.259638012382311 0 3.259638012382311 -10.02515053388197 0 0 0 0 -34.113825312459085 10.202367995369968 0 10.202367995369968 -6.9877703368483708 0 0 0 0 -28.763469651081778 10.634651759642395 0 10.634651759642395 -8.1108846673578228 0 0 0 0 -31.151972765797836 12.321984422824471 0 12.321984422824471 -8.4071554298698175 0 0 0 0 -36.267480276881543 5.8648081813453246 0 5.8648081813453246 -9.977595592477428 0 0 0 0 -26.072517779779446 12.648857708955347 0 12.648857708955347 -10.014739011799065 0 0 0 0 -31.766869960852091 7.5821498083203096 0 7.5821498083203096 -13.637973226089343 0 0 0 0 -42.686073859513272 10.047288097388218 0 10.047288097388218 -12.258669581232425 0 0 0 0 -37.790365751586236 13.448587211493674 0 13.448587211493674 -5.0421584954168432 0 0 0 0 -37.279474148101144 5.3815329822607509 0 5.3815329822607509 -19.246799635827301 0 0 0 0 -54.496862593637616 53.67861149868429 0 53.67861149868429 -1.6532133252940184 0 0 0 0 -37.357909007574563 47.994276090280607 0 47.994276090280607 -0.2465148356732243 0 0 0 0 -37.537091611480719 25.896548667570642 0 25.896548667570642 16.050972774403817 0 0 0 0 -37.066695727526167 7.5483028362091318 0 7.5483028362091318 7.9140862248023041 0 0 0 0 -8.2791041549751441 1.517172180029327 0 1.517172180029327 5.0867600749450261 0 0 0 0 -39.246212358655612 7.1304713591630389 0 7.1304713591630389 -12.178466404308892 0 0 0 0 -8.4307373561145411 -1.3879294258172337 0 -1.3879294258172337 -2.9476420510434815 0 0 0 0 -19.728509944783582 -5.7717408077069194 0 -5.7717408077069194 -8.8803575838355755 0 0 0 0 -13.900388498479515 6.4035905221039684 0 6.4035905221039684 -7.8363235383676511 0 0 0 0 -13.551191504066082 4.8708312410433336 0 4.8708312410433336 -8.2265649864530133 0 0 0 0 -16.241018926722973 3.0853681432831763 0 3.0853681432831763 -9.1210630592286179 0 0 0 0 -0.79613499194518056 3.204769334439554 0 3.204769334439554 -3.7199009567411885 0 0 0 0 -76.270644031232223 35.494456543110573 0 35.494456543110573 -9.2546334229800777 0 0 0 0 -65.216606593829056 50.30096039813543 0 50.30096039813543 -1.9453391982933681 0 0 0 0 -6.1543169882643269 21.567938576521556 0 21.567938576521556 -44.051063960021565 0 0 0 0 -10.730188409914263 8.0785450781531836 0 8.0785450781531836 -7.247836910332353 0 0 0 0 -62.953044705667708 7.6572580010978868 0 7.6572580010978868 -13.957049393189664 0 0 0 0 -61.251666892145295 16.925028394321089 0 16.925028394321089 -43.59923151312978 0 0 0 0 -46.760843363350432 23.404501493196221 0 23.404501493196221 -92.107939867284585 0 0 0 0 -91.617088586048339 85.745071207595174 0 85.745071207595174 -105.68237454977998 0 0 0 0 -69.633834728192596 43.962702040240401 0 43.962702040240401 -41.758552997707739 0 0 0 0 -252.57894986694737 26.746706437168541 0 26.746706437168541 7.6480906130673247 0 0 0 0 1.3018390386298151 -0.82605589782627398 0 -0.82605589782627398 -2.515767907876814 0 0 0 0 -65.693736151639314 -7.0217678025110217 0 -7.0217678025110217 -1.7167537592404187 0 0 0 0 -110.65407022876025 41.052094954921813 0 41.052094954921813 -18.177160233310133 0 0 0 0 -70.763936885290605 26.12602956698538 0 26.12602956698538 -13.201509860214173 0 0 0 0 -54.133359285148231 24.666595856611124 0 24.666595856611124 -21.209234709745942 0 0 0 0 -37.367849557618683 15.326895380759197 0 15.326895380759197 -18.760277335417413 0 0 0 0 -53.715834535498288 11.13151727022705 0 11.13151727022705 -11.79098771619465 0 0 0 0 -2.2829039550615988 4.9351385624273476 0 4.9351385624273476 -8.6530534278206819 0 0 0 0 -4.6844143311675666 -0.42101426076783 0 -0.42101426076783 -2.9661801317137346 0 0 0 0 -10.062293193848745 2.9306721237253441 0 2.9306721237253441 -31.702447614983612 0 0 0 0 -45.903583374300069 8.2105896933871918 0 8.2105896933871918 -12.923176174815353 0 0 0 0 -39.068790826791883 17.995355058606947 0 17.995355058606947 -18.633663595668622 0 0 0 0 -6.2741961785941385 -16.495725537372891 0 -16.495725537372891 -33.174748647098568 0 0 0 0 -6.0243470743689613 -18.77833214830207 0 -18.77833214830207 -18.552783873834414 0 0 0 0 -14.266561250908126 -14.66429142443485 0 -14.66429142443485 -31.524389724122571 0 0 0 0 -21.701281692690827 21.261629061503299 0 21.261629061503299 -20.242397336132854 0 0 0 0 -23.364669414513628 -26.294937808849681 0 -26.294937808849681 -21.781602585000655 0 0 0 0 -14.393308010771307 -11.706573231109815 0 -11.706573231109815 -5.9887782724399585 0 0 0 0 9.1781984455046768 11.954589694146762 0 11.954589694146762 -10.759863840994512 0 0 0 0 -10.438338042906253 -0.023570973679397866 0 -0.023570973679397866 -6.4388425451691091 0 0 0 0 3.8199101687696384 -7.1603222293206272 0 -7.1603222293206272 -27.960828926459726 0 0 0 0 -5.7160961913405544 5.0989010038005738 0 5.0989010038005738 -6.61906785481189 0 0 0 0 -10.095419944053106 5.6076741052766472 0 5.6076741052766472 -14.109332942007313 0 0 0 0 -21.887605975447514 -5.9646327715458938 0 -5.9646327715458938 -4.9114839560215842 0 0 0 0 -3.698573943760108 -0.013170834602703962 0 -0.013170834602703962 -0.41668371701848983 0 0 0 0 -38.380667253552019 -6.8628008417158526 0 -6.8628008417158526 -5.2416094675654676 0 0 0 0 -23.390033889692859 9.0529050535762963 0 9.0529050535762963 -8.3953003935939705 0 0 0 0 -25.797002425184473 -19.193367365739959 0 -19.193367365739959 -24.746014119440588 0 0 0 0 -10.630297618263285 -4.3778346591830086 0 -4.3778346591830086 -1.1337230912386076 0 0 0 0 -13.357067840915988 7.0176587486075732 0 7.0176587486075732 -41.377704663805616 0 0 0 0 -54.427827525527391 19.735214987221752 0 19.735214987221752 -2.9753866818446113 0 0 0 0 -26.759766558287993 -18.951300450317831 0 -18.951300450317831 -26.808954679772796 0 0 0 0 -24.408688297549816 -5.6144057697031258 0 -5.6144057697031258 0.65949286667455453 0 0 0 0 -4.3359965714116697 9.6320193232779729 0 9.6320193232779729 -6.6799255079317845 0 0 0 0 -2.6669554142837804 0.18650101906635186 0 0.18650101906635186 0.32056425293481361 0 0 0 0 -5.125718823381014 5.3185084097336137 0 5.3185084097336137 -7.3397187787058149 0 0 0 0 -24.421279998110549 22.464278442908835 0 22.464278442908835 3.7197774289854237 0 0 0 0 -16.539759088242135 -9.3207298174133939 0 -9.3207298174133939 -8.3442993209877159 0 0 0 0 -15.907725805613154 -4.8578169950624215 0 -4.8578169950624215 -9.8208573568076645 0 0 0 0 -14.183296818489907 -8.2348253858392582 0 -8.2348253858392582 -10.32726906593507 0 0 0 0 -16.582774416656321 5.3638434584822789 0 5.3638434584822789 -24.331240128356114 0 0 0 0 -14.338364264259326 -1.1359292023573744 0 -1.1359292023573744 -5.5080485907797083 0 0 0 0 -22.60441292687392 6.255433072540427 0 6.255433072540427 -0.62574939583601008 0 0 0 0 -10.099977139994735 7.077850619859646 0 7.077850619859646 -4.0878855095193103 0 0 0 0 -12.519850189656971 3.9517572140305939 0 3.9517572140305939 -1.4103191297470579 0 0 0 0 -13.300606149074156 1.1255247645449344 0 1.1255247645449344 -6.5377091155078233 0 0 0 0 -13.543387061106841 9.2012863093934811 0 9.2012863093934811 -2.8430391926376615 0 0 0 0 -11.262521885277593 2.4222549592230589 0 2.4222549592230589 -7.3959132816995652 0 0 0 0 -12.46127746456189 2.1811704615214111 0 2.1811704615214111 -3.0912958782026791 0 0 0 0 -11.471367781319714 2.3835381585040523 0 2.3835381585040523 -1.7085880799772895 0 0 0 0 -12.159940472319377 0.91815945484210282 0 0.91815945484210282 -4.1673442591658585 0 0 0 0 -12.711895452311211 1.3994395430241227 0 1.3994395430241227 -3.2731010730666892 0 0 0 0 -16.507251071983774 2.6861409069852016 0 2.6861409069852016 -9.6044122181874627 0 0 0 0 -36.167108452922548 12.109292420818292 0 12.109292420818292 -12.427509769350365 0 0 0 0 -19.201224740885664 4.8577051707488863 0 4.8577051707488863 -9.4891770293370428 0 0 0 0 -16.171815010206231 -1.7304926617899952 0 -1.7304926617899952 -2.3689295065650491 0 0 0 0 -8.0458856020944491 2.2395563377595309 0 2.2395563377595309 -6.1991237457180368 0 0 0 0 -14.562607073870218 -4.9554823934725896 0 -4.9554823934725896 -1.6227902044258613 0 0 0 0 -19.670642117933312 -2.5725627162994442 0 -2.5725627162994442 -9.6251587773213032 0 0 0 0 -23.492392739986826 2.5911794005901356 0 2.5911794005901356 -5.7579778156330121 0 0 0 0 -11.436024827191432 2.7698131215247486 0 2.7698131215247486 -8.1303330758328229 0 0 0 0 -25.25191031472059 -3.7957519740189127 0 -3.7957519740189127 -10.720480243955762 0 0 0 0 -21.292767059303515 -6.0085212646735044 0 -6.0085212646735044 -12.39183318544201 0 0 0 0 -9.8703699863312977 -0.39960104578166877 0 -0.39960104578166877 -2.0390803081931699 0 0 0 0 -34.324880683390802 -49.625084001058667 0 -49.625084001058667 -18.914982606463184 0 0 0 0 -9.7185754244228519 5.3895380771157164 0 5.3895380771157164 -80.509220261678877 0 0 0 0 -17.615039423137205 21.985862315759846 0 21.985862315759846 -25.728391925927511 0 0 0 0 -49.113399355723232 -39.192942253728631 0 -39.192942253728631 -12.832483268156054 0 0 0 0 -70.387851053201302 -78.553836017287693 0 -78.553836017287693 -61.640439106998315 0 0 0 0 -4.3155735294031743 3.5040186357563066 0 3.5040186357563066 -8.4373526710209692 0 0 0 0 -10.853239604453847 15.717170217460762 0 15.717170217460762 -13.449659440761479 0 0 0 0 -44.137345142326012 -18.26506436894033 0 -18.26506436894033 -2.5288889422408829 0 0 0 0 -1.8775539302660338 0.77346113074734291 0 0.77346113074734291 -0.089313956757214541 0 0 0 0 -12.45939762731723 -28.999461699012954 0 -28.999461699012954 -15.051263914587707 0 0 0 0 0.070031998984632082 1.5542427508535184 0 1.5542427508535184 -12.655275985133699 0 0 0 0 -20.108696218572732 -6.3139812946178608 0 -6.3139812946178608 -13.02097135296026 0 0 0 0 -7.7996188335400802 0.59890312031870963 0 0.59890312031870963 -12.416637542035915 0 0 0 0 -10.877512344618594 1.4775287243392992 0 1.4775287243392992 -0.61533390154350798 0 0 0 0 -51.66604826686671 17.057664199513965 0 17.057664199513965 -1.8463718680573038 0 0 0 0 -8.3950708077181844 1.0606327280751202 0 1.0606327280751202 -2.0770941303740074 0 0 0 0 -8.4303052788782225 -3.5170181732505625 0 -3.5170181732505625 -6.6193934537523091 0 0 0 0 -77.705188310206722 13.109643425169907 0 13.109643425169907 56.792047701071624 0 0 0 0 -6.5952109517893405 -4.8387377929070681 0 -4.8387377929070681 -6.7682786647021658 0 0 0 0 -4.992220228760214 -5.0891260758952441 0 -5.0891260758952441 -2.8874662417044599 0 0 0 0 -8.3202171058419481 -71.332438108428136 0 -71.332438108428136 10.189336653363398 0 0 0 0 -2.8450487691877697 -2.9523555258224281 0 -2.9523555258224281 0.23749328042542528 0 0 0 0 16.074355802316859 -20.629806633766748 0 -20.629806633766748 -13.330482400580285 0 0 0 0 -11.427989922000844 -4.1832280114443847 0 -4.1832280114443847 -1.9326120680954144 0 0 0 0 27.41311083351502 -2.675044897849034 0 -2.675044897849034 1.10313774743463 0 0 0 0 -593.40549688076862 143.77308610866132 0 143.77308610866132 -10.298084124983241 0 0 0 0 -31.527178944093976 75.328426185446801 0 75.328426185446801 45.519615500529653 0 0 0 0 -12.871727677005403 10.563028729218821 0 10.563028729218821 -7.8874623668587578 0 0 0 0 -89.079245554119552 -28.446707418935716 0 -28.446707418935716 205.83142718447129 0 0 0 0 24.757570739122457 -138.10235311477277 0 -138.10235311477277 40.219476374696001 0 0 0 0 -1498.5418097284746 -562.57837565904754 0 -562.57837565904754 -125.2019057975987 0 0 0 0 -588.53175560800901 -418.19285025487545 0 -418.19285025487545 -130.0036059996913 0 0 0 0 -1500.4203873516817 -90.728591539236234 0 -90.728591539236234 188.8439718249796 0 0 0 0 -742.62417563576764 34.972527826924896 0 34.972527826924896 201.86462714052442 0 0 0 0 -1496.5058481086526 239.18458699360818 0 239.18458699360818 233.0110381459447 0 0 0 0 -4.0829587846814945 2.0595243409227635 0 2.0595243409227635 -0.098999765661491212 0 0 0 0 -741.30719707909884 28.395183153447334 0 28.395183153447334 72.80562132182007 0 0 0 0 35.855312324627448 -30.049906065559853 0 -30.049906065559853 -132.40156535581326 0 0 0 0 -741.09297034978408 372.77917522319422 0 372.77917522319422 -146.52586616247939 0 0 0 0 4.162974420178216 76.772694976394092 0 76.772694976394092 -174.77414280180585 0 0 0 0 0.6731117930491628 1.2109800566399329 0 1.2109800566399329 -0.77931064849346399 0 0 0 0 315.99774109897771 -492.98182048673516 0 -492.98182048673516 -1630.3582002645835 0 0 0 0 -841.70951297168563 -32.173374017983576 0 -32.173374017983576 555.88773369559931 0 0 0 0 -889.33643338129582 -654.75104305844889 0 -654.75104305844889 13.884214981226251 0 0 0 0 -364.0205619617991 -250.72201558097368 0 -250.72201558097368 238.17919298054585 0 0 0 0 -419.23559805697732 314.61532506556614 0 314.61532506556614 603.08510663486072 0 0 0 0 15.882519526305259 54.030392731245229 0 54.030392731245229 -186.52240772016739 0 0 0 0 135.65066796654719 104.90949748896492 0 104.90949748896492 -28.417145954192165 0 0 0 0 16.889806642942858 83.387869957974999 0 83.387869957974999 152.08412340479117 0 0 0 0 -51.662012982203123 -179.29282540950999 0 -179.29282540950999 235.7153532249722 0 0 0 0 -312.6587709205487 -70.199003550565976 0 -70.199003550565976 46.682588637904701 0 0 0 0 -51.794455454582931 -194.48308673743668 0 -194.48308673743668 -66.391046198952608 0 0 0 0 427.19750271464909 -306.63848427147468 0 -306.63848427147468 -151.63364152201029 0 0 0 0 580.96216478033602 67.865887550064144 0 67.865887550064144 -398.08676774238484 0 0 0 0 -22.024290310192082 -23.387135781020714 0 -23.387135781020714 -12.675857607598509 0 0 0 0 -31.049093777051894 -39.536975912430535 0 -39.536975912430535 37.244546498995987 0 0 0 0 -378.76191355914125 405.00904262046424 0 405.00904262046424 -31.880008665659261 0 0 0 0 -60.519638777463115 -33.163117449110359 0 -33.163117449110359 44.329272081312411 0 0 0 0 354.06847533870678 548.6476082786694 0 548.6476082786694 -533.8268879564821 0 0 0 0 -785.39872459064918 931.24583918275107 0 931.24583918275107 -262.06931904718476 0 0 0 0 -112.8845049300362 -347.21251506701446 0 -347.21251506701446 -309.21399851590104 0 0 0 0 -11.009056337946902 -3.694020678260614 0 -3.694020678260614 -1.8612407710916798 0 0 0 0 -220.200641497795 59.212050991441174 0 59.212050991441174 -112.97779350091173 0 0 0 0 -32.080470789141913 -11.697465124619058 0 -11.697465124619058 -4.6368412859910677 0 0 0 0 -72.270136620914855 -88.770797592796953 0 -88.770797592796953 191.34784549064989 0 0 0 0 -286.09273858576125 228.10697606627764 0 228.10697606627764 -148.5806014181062 0 0 0 0 -99.576659970283799 -8.126245315504093 0 -8.126245315504093 136.03971545692184 0 0 0 0 -62.650229272967408 -26.277200427342905 0 -26.277200427342905 42.219148670699724 0 0 0 0 -221.97768138066749 -61.052167396787809 0 -61.052167396787809 48.861272644029214 0 0 0 0 59.303873598037171 -126.74888507679498 0 -126.74888507679498 -115.64712068327935 0 0 0 0 -276.35326400911435 -277.38738637364077 0 -277.38738637364077 -7.0304399926999395 0 0 0 0 -228.76788520660193 -209.94651390134277 0 -209.94651390134277 54.399853804114173 0 0 0 0 -319.21075272718736 -242.11831496696732 0 -242.11831496696732 118.84632039330245 0 0 0 0 -285.93939500944907 -170.79814021514721 0 -170.79814021514721 130.91590564785292 0 0 0 0 -294.02273790031177 -190.52300838421979 0 -190.52300838421979 85.241482867268132 0 0 0 0 -279.8975410863859 -184.59671601176797 0 -184.59671601176797 87.721620633898965 0 0 0 0 -163.47771970973554 -114.20114831873252 0 -114.20114831873252 61.635517342299863 0 0 0 0 -315.63002536574641 -119.86002091536466 0 -119.86002091536466 62.591373753214498 0 0 0 0 -294.41680648462989 -108.2917514215892 0 -108.2917514215892 65.032571759442362 0 0 0 0 -566.64243524113226 -227.04923877213491 0 -227.04923877213491 -17.72372418469422 0 0 0 0 -323.8822804783631 -209.2260924805737 0 -209.2260924805737 -20.043316333252733 0 0 0 0 -447.250701545825 -81.60834689670628 0 -81.60834689670628 62.461428870499731 0 0 0 0 -711.01987096239463 -22.407137758525096 0 -22.407137758525096 32.404446700475091 0 0 0 0 -456.96958485924551 -101.48815726911198 0 -101.48815726911198 32.943287258918645 0 0 0 0 -456.28755282758357 66.258918558844925 0 66.258918558844925 26.723315991242998 0 0 0 0 -230.06653657571951 -149.24704012423467 0 -149.24704012423467 -8.2490757197556377 0 0 0 0 7.3307781794392213 -48.850956714972199 0 -48.850956714972199 -89.844526423287789 0 0 0 0 -245.15116945792397 -137.34785718011426 0 -137.34785718011426 42.084588684450864 0 0 0 0 -37.813031824120117 19.493143552417678 0 19.493143552417678 29.695106878201784 0 0 0 0 -99.016764365158451 -0.20012364020271889 0 -0.20012364020271889 12.198239885883595 0 0 0 0 -93.677312310439447 -23.614201465373299 0 -23.614201465373299 104.40386494712766 0 0 0 0 -352.19715237001219 -134.92624222318773 0 -134.92624222318773 201.62769334826135 0 0 0 0 -487.95168238216229 -179.47100737548806 0 -179.47100737548806 205.59732844805694 0 0 0 0 -116.28818262520508 163.3688540463927 0 163.3688540463927 -34.698236779531726 0 0 0 0 2.7981744163307027 4.5610588915339392 0 4.5610588915339392 0.64973182772867943 0 0 0 0 -97.313093524524447 71.416605024426872 0 71.416605024426872 6.1435755486600101 0 0 0 0 160.27090971215512 140.5815290911878 0 140.5815290911878 85.798825949932507 0 0 0 0 0.39507691373084697 7.5901103856724461 0 7.5901103856724461 5.7371344757921214 0 0 0 0 -11.729233519425179 10.124690821300646 0 10.124690821300646 2.9363149707387493 0 0 0 0 -25.96870381935878 26.996023660145056 0 26.996023660145056 -15.262723362244287 0 0 0 0 1.713690065756964 10.367472099096631 0 10.367472099096631 -19.267097942396504 0 0 0 0 -2.4531468546192627 23.603984513844807 0 23.603984513844807 -29.623549240038301 0 0 0 0 -11.714056812077615 9.8999528009580899 0 9.8999528009580899 -17.091016153133751 0 0 0 0 -6.7980741646112364 -2.6126250670566407 0 -2.6126250670566407 -9.1936871798037672 0 0 0 0 -13.858422500457173 13.501226591035213 0 13.501226591035213 -8.458356568493711 0 0 0 0 -29.697896914620287 8.4683831066658968 0 8.4683831066658968 -14.487573704590432 0 0 0 0 -25.867068132374698 4.8044455015142375 0 4.8044455015142375 -13.917365435073066 0 0 0 0 17.687400229244304 -28.177422161829782 0 -28.177422161829782 -11.466166604972386 0 0 0 0 -11.080126963940742 -6.9019613026186164 0 -6.9019613026186164 -11.488489267731026 0 0 0 0 157.42046518476855 -3.1521203011052421 0 -3.1521203011052421 -68.88365315496776 0 0 0 0 -53.649759622858255 15.207560247248693 0 15.207560247248693 -0.72428129018157961 0 0 0 0 -34.561445216761058 16.836120440314517 0 16.836120440314517 -0.60769257851598013 0 0 0 0 -41.081028199023422 5.2983292635796033 0 5.2983292635796033 -5.7775339565805552 0 0 0 0 -24.793465297287185 1.7980677774921787 0 1.7980677774921787 -8.4394115873183182 0 0 0 0 -20.971079088019906 12.085755914830315 0 12.085755914830315 -12.37998476761959 0 0 0 0 -42.745520791839226 -5.3894671273737913 0 -5.3894671273737913 -10.010724061048222 0 0 0 0 -28.214767859473795 15.084757579883899 0 15.084757579883899 -16.809634260026996 0 0 0 0 -42.144896861660527 0.7697860988391767 0 0.7697860988391767 -17.53086050267666 0 0 0 0 -45.077195171761559 5.5787762030633985 0 5.5787762030633985 -8.4749098818319908 0 0 0 0 -56.342021850919991 2.5301403025925993 0 2.5301403025925993 -8.5249187438471381 0 0 0 0 -5.795395631279483 1.6062067132602849 0 1.6062067132602849 -0.65135689017981235 0 0 0 0 -29.796424856620433 7.7405120821417768 0 7.7405120821417768 -10.322742082517379 0 0 0 0 -25.684120109202922 6.0878026173963917 0 6.0878026173963917 -9.6585424499080546 0 0 0 0 -12.882539539206505 12.980807850125551 0 12.980807850125551 -7.4067191902883565 0 0 0 0 -26.108286406594303 7.1844311412160682 0 7.1844311412160682 -0.41837565728444659 0 0 0 0 -33.853492999391165 38.976765324085591 0 38.976765324085591 31.2912156952857 0 0 0 0 -28.307466894930258 5.5147971545011387 0 5.5147971545011387 -7.1816126143939982 0 0 0 0 -19.468595854184059 10.499439640450124 0 10.499439640450124 -4.2677534861713777 0 0 0 0 -17.026687815410398 10.872213015672763 0 10.872213015672763 -4.6016010748389835 0 0 0 0 -19.012545898462122 8.3072274622218174 0 8.3072274622218174 -3.0394190776096366 0 0 0 0 -46.977363743371825 5.1729609254097113 0 5.1729609254097113 -8.3748461337386289 0 0 0 0 -17.07999543194617 4.9316424959443381 0 4.9316424959443381 -3.0299026129327515 0 0 0 0 -29.48832178417139 5.2963799931807269 0 5.2963799931807269 -3.1008501321317627 0 0 0 0 -29.781779266556441 6.2290905229028795 0 6.2290905229028795 -11.191449891477532 0 0 0 0 -27.870050365076168 3.8463252182473298 0 3.8463252182473298 -11.186139001285483 0 0 0 0 -35.18831834131197 41.327232555922365 0 41.327232555922365 44.046524155132829 0 0 0 0 -90.833551635079857 -4.9219229315367556 0 -4.9219229315367556 47.764942920544399 0 0 0 0 -49.546931517597841 -7.9813310538747828 0 -7.9813310538747828 40.859153855078148 0 0 0 0 -61.563282164763223 -34.704735051947409 0 -34.704735051947409 42.815418528580267 0 0 0 0 -59.148625614699995 -33.272879058977196 0 -33.272879058977196 41.689058555155043 0 0 0 0 -128.62871599063374 -54.089913335605161 0 -54.089913335605161 41.367107185889836 0 0 0 0 -190.99623707000501 60.394426491662671 0 60.394426491662671 42.607979011080715 0 0 0 0 -14.710827212202219 60.411146914565379 0 60.411146914565379 -42.365018943950417 0 0 0 0 -207.63540319448475 178.79797695610569 0 178.79797695610569 -106.37876886686809 0 0 0 0 -333.14702182682186 -38.531574891365835 0 -38.531574891365835 42.402514854607944 0 0 0 0 -43.829317187912238 10.270173167256871 0 10.270173167256871 20.752645234488227 0 0 0 0 -43.1860646856112 11.521665370377377 0 11.521665370377377 17.863214022670945 0 0 0 0 -45.344142601170461 19.809837536180567 0 19.809837536180567 -8.8521264601440635 0 0 0 0 -39.206592672078841 0.88591864658610575 0 0.88591864658610575 -8.9091100118457689 0 0 0 0 -27.715400693755328 2.4756289862502854 0 2.4756289862502854 9.8766959326276265 0 0 0 0 -27.516870191124326 40.914375515982101 0 40.914375515982101 78.316600426092918 0 0 0 0 48.837473209756354 45.297502137932497 0 45.297502137932497 -3.0606855621790601 0 0 0 0 -5.764395583765511 1.683463252357182 0 1.683463252357182 3.0820945483763929 0 0 0 0 -34.281424351129317 4.459849590628437 0 4.459849590628437 -0.48519444575504167 0 0 0 0 0.46216827537257998 -0.40456437656424526 0 -0.40456437656424526 1.0649351589839817 0 0 0 0 -15.897647372821325 35.332894000798191 0 35.332894000798191 47.643690170079935 0 0 0 0 176.69115190647244 -41.902393187444432 0 -41.902393187444432 -141.52867733433186 0 0 0 0 -47.094545994620603 23.13804390650148 0 23.13804390650148 -22.516940147465903 0 0 0 0 -50.797359218606289 27.420078101354193 0 27.420078101354193 -20.257779853282955 0 0 0 0 -47.971997107859352 8.5284773825342199 0 8.5284773825342199 2.2837666581358462 0 0 0 0 -51.023444619917427 26.925422626158252 0 26.925422626158252 -20.799261292871961 0 0 0 0 -48.861043787903327 34.187517031160496 0 34.187517031160496 -32.848321629990096 0 0 0 0 -49.57478721030202 22.451532626791959 0 22.451532626791959 -33.462488997564833 0 0 0 0 -53.289999290631386 38.697421193225637 0 38.697421193225637 -36.630354040826205 0 0 0 0 -61.872756500481046 37.478271175190457 0 37.478271175190457 -29.113485617566539 0 0 0 0 -64.787272912777553 44.686875587063696 0 44.686875587063696 -42.450791038179887 0 0 0 0 -50.791968936697231 32.363898752557361 0 32.363898752557361 -69.843251592294109 0 0 0 0 -47.499958901524678 20.774757867567814 0 20.774757867567814 -36.738028170417238 0 0 0 0 -53.175037560962664 11.722211673521088 0 11.722211673521088 -11.697179714916274 0 0 0 0 -49.9740741055939 19.448847916910381 0 19.448847916910381 -43.0817514051123 0 0 0 0 -56.355546956943726 37.341279024950381 0 37.341279024950381 -25.732165868686934 0 0 0 0 -50.355085469873302 34.558390510350819 0 34.558390510350819 -24.82737907478986 0 0 0 0 -59.346032140150783 34.87625311258671 0 34.87625311258671 -19.549591998083088 0 0 0 0 -59.873365297444252 37.056026054094218 0 37.056026054094218 -20.874231309957395 0 0 0 0 -63.550985246365599 42.72684839073554 0 42.72684839073554 -29.568055202186088 0 0 0 0 -57.591517386066698 30.974440762809536 0 30.974440762809536 -23.206212796332693 0 0 0 0 -58.054102394218717 32.853821954829527 0 32.853821954829527 -19.74657070995454 0 0 0 0 -68.253975566309236 34.469660154185476 0 34.469660154185476 -19.753917856133739 0 0 0 0 -64.905971525902714 22.364199572918551 0 22.364199572918551 -19.296294431399929 0 0 0 0 -54.437669238942817 20.917412614443833 0 20.917412614443833 -20.053338505194915 0 0 0 0 36.903146110213129 108.58453194057847 0 108.58453194057847 -79.713521941055205 0 0 0 0 -4.5151830889565829 5.2644619129517922 0 5.2644619129517922 -6.0043955526544845 0 0 0 0 64.403017076176184 90.347511960073007 0 90.347511960073007 -265.19898534979939 0 0 0 0 43.318853170683724 -33.010606720550641 0 -33.010606720550641 -14.253612820712078 0 0 0 0 -8.2581448371511215 23.66796581277049 0 23.66796581277049 -37.161220044492438 0 0 0 0 -88.905737009015866 -27.843446508935813 0 -27.843446508935813 -48.540720326768678 0 0 0 0 1.9588812025504012 -30.163411963283124 0 -30.163411963283124 -183.95922502352278 0 0 0 0 -126.81931919492854 51.634633170246161 0 51.634633170246161 -27.201708192287413 0 0 0 0 -1.5951629709620789 -0.57587141538090947 0 -0.57587141538090947 -0.014147103891039237 0 0 0 0 -131.18465884408943 74.807808650652987 0 74.807808650652987 -93.98708799216547 0 0 0 0 -361.53227218381653 -50.846584269378127 0 -50.846584269378127 61.154898839956331 0 0 0 0 84.277629822128802 47.539802616592624 0 47.539802616592624 -185.43141538984491 0 0 0 0 -1.8927725095220396 1.9534078765795879 0 1.9534078765795879 -2.5345826589830232 0 0 0 0 -8.5264026853656105 -89.923566674538961 0 -89.923566674538961 -54.377748944621999 0 0 0 0 -398.17190832499909 24.149121478255438 0 24.149121478255438 -91.668267433396977 0 0 0 0 -405.61591740959011 -120.82393801163244 0 -120.82393801163244 91.621106392673937 0 0 0 0 -5.5728425947827418 -62.022168690289618 0 -62.022168690289618 -17.360348075508227 0 0 0 0 29.161541530145769 -19.087305991305129 0 -19.087305991305129 -36.095988369092083 0 0 0 0 -1.5505055965626795 -0.41900027257769423 0 -0.41900027257769423 -0.046880046017850674 0 0 0 0 -317.70691477193714 167.9057581822637 0 167.9057581822637 -51.348465729197414 0 0 0 0 -135.3237203292083 -110.04298448773307 0 -110.04298448773307 75.437063045733794 0 0 0 0 -3.91570119940301 -0.53723751213593474 0 -0.53723751213593474 -0.15319753577992046 0 0 0 0 20.469177017714173 35.976171871585393 0 35.976171871585393 15.408284251900341 0 0 0 0 2.8346560955578752 10.640459518389889 0 10.640459518389889 31.600791521711017 0 0 0 0 -5.4688579672529158 -5.9672797577395613 0 -5.9672797577395613 5.6825850571040064 0 0 0 0 18.828265999846735 19.855254489798881 0 19.855254489798881 -26.343211840851836 0 0 0 0 41.739794412110314 8.7216396131539113 0 8.7216396131539113 -69.438900188909429 0 0 0 0 -9.4796801553111436 -19.704233740724703 0 -19.704233740724703 23.739417907115239 0 0 0 0 -47.179518934242878 -113.37058670143369 0 -113.37058670143369 -188.53196515444461 0 0 0 0 -20.463162687482868 -19.493661978319452 0 -19.493661978319452 1.4922267584169475 0 0 0 0 76.048612469529871 -67.758564428554564 0 -67.758564428554564 -43.382957790624459 0 0 0 0 -22.84034678839723 -24.092726024952839 0 -24.092726024952839 -7.8706956254800318 0 0 0 0 -197.94057016592342 -556.23876814301866 0 -556.23876814301866 197.13205949422127 0 0 0 0 -117.40611480036659 131.87814082198707 0 131.87814082198707 -64.302250522943723 0 0 0 0 34.868642686074963 -128.33270318463747 0 -128.33270318463747 -19.170142961972488 0 0 0 0 -58.429210148668062 -31.98461014424538 0 -31.98461014424538 42.791336014911394 0 0 0 0 -165.91663952550471 118.13700826248214 0 118.13700826248214 -63.856924400821299 0 0 0 0 -275.31583191273967 91.346302677183303 0 91.346302677183303 6.6043713426356589 0 0 0 0 -390.60495575104142 136.16924498888966 0 136.16924498888966 19.541835008043563 0 0 0 0 -38.108450770076161 -7.2558955895647159 0 -7.2558955895647159 25.712981837803454 0 0 0 0 -280.48534180739262 126.85095883966869 0 126.85095883966869 110.59006158130796 0 0 0 0 -285.05926812912003 135.31345742748226 0 135.31345742748226 18.603985278781693 0 0 0 0 -267.48724915570347 97.796964271915385 0 97.796964271915385 -32.902541668076083 0 0 0 0 -384.01365222670938 147.67678316150796 0 147.67678316150796 47.286153092990389 0 0 0 0 -633.38730242286329 256.03674486170166 0 256.03674486170166 -56.972272759588577 0 0 0 0 -721.91273849023128 -85.850617357038573 0 -85.850617357038573 25.884226658997704 0 0 0 0 -177.84412472215467 249.45479123237783 0 249.45479123237783 -303.58164258170382 0 0 0 0 46.794593912483833 -341.46235684741714 0 -341.46235684741714 -93.73226974090403 0 0 0 0 -259.82022213056234 122.27210256800845 0 122.27210256800845 -22.782573094833424 0 0 0 0 -157.45862186770034 -44.971330170826178 0 -44.971330170826178 11.220215493458454 0 0 0 0 -21.42314233882248 -10.626556685565596 0 -10.626556685565596 11.031991723239226 0 0 0 0 20.225951856966276 -45.557535099578445 0 -45.557535099578445 -28.889483892855878 0 0 0 0 24.918017703363148 2.1088990769865177 0 2.1088990769865177 7.7527118212556161 0 0 0 0 -28.753967410534791 15.466043712287945 0 15.466043712287945 -5.3227540194193335 0 0 0 0 -152.19089300990345 108.45850834753355 0 108.45850834753355 174.94576930565472 0 0 0 0 -90.020029322342452 442.78940543807403 0 442.78940543807403 67.822903606449472 0 0 0 0 -570.47966885257483 300.42934718534343 0 300.42934718534343 96.969641338892416 0 0 0 0 -11.703607084321447 5.0002422196923249 0 5.0002422196923249 0.52938343086771056 0 0 0 0 -0.94293933172740196 3.8767416780116619 0 3.8767416780116619 -2.2523449909058293 0 0 0 0 -161.59847894411087 -261.7400740402843 0 -261.7400740402843 -359.60691545102145 0 0 0 0 -29.496789189826814 -27.529268894716097 0 -27.529268894716097 -46.811119292087824 0 0 0 0 -3.7303684070135859 -1.6098541654963969 0 -1.6098541654963969 1.6556373069113928 0 0 0 0 -10.39019544759708 -2.5359510085306738 0 -2.5359510085306738 2.0910437758429907 0 0 0 0 -5.5956668922773218 -0.26995187458327408 0 -0.26995187458327408 1.0864254721252049 0 0 0 0 7.7894545242716049 16.116832618946319 0 16.116832618946319 -128.90331836844962 0 0 0 0 -25.086495889698199 -51.277880433174232 0 -51.277880433174232 -163.07971202869794 0 0 0 0 -428.52312711339619 -36.874508616318053 0 -36.874508616318053 98.413469167939184 0 0 0 0 -314.92259527988062 -109.70861047710423 0 -109.70861047710423 104.94542061693573 0 0 0 0 -5.796974753447536 0.32643384998735314 0 0.32643384998735314 1.338031468778869 0 0 0 0 -36.878233625070607 -79.047305183479011 0 -79.047305183479011 -309.27950976105785 0 0 0 0 -202.57681514904107 -163.52194735646663 0 -163.52194735646663 -129.15509431778446 0 0 0 0 -158.41285710448574 -94.102555451415355 0 -94.102555451415355 -126.78136380085658 0 0 0 0 -218.00038163905992 -78.807908418602892 0 -78.807908418602892 -82.659923092076497 0 0 0 0 -223.01138622805775 -130.9929226079621 0 -130.9929226079621 -42.40983874315134 0 0 0 0 -236.13395356985711 -84.467169942223336 0 -84.467169942223336 -33.916728277463335 0 0 0 0 -237.61533101084933 -137.9059269497493 0 -137.9059269497493 16.809898329258431 0 0 0 0 -197.08506630021293 -35.211519578278967 0 -35.211519578278967 -42.885139623067516 0 0 0 0 -165.48382988209778 -42.938173778800774 0 -42.938173778800774 -61.021947189917228 0 0 0 0 -89.023906769556561 -35.698588469473634 0 -35.698588469473634 -85.219310810658499 0 0 0 0 -155.50810057344097 -22.010390001797077 0 -22.010390001797077 -39.762237348717463 0 0 0 0 -159.95379410372334 -29.412557433487564 0 -29.412557433487564 -39.919499370968879 0 0 0 0 -86.696276131486229 -49.48589230444486 0 -49.48589230444486 -138.70816135782115 0 0 0 0 -28.791692428128954 3.2682898512493921 0 3.2682898512493921 -91.019483506234792 0 0 0 0 -93.765709244022219 4.2706641977247273 0 4.2706641977247273 -86.614879049178853 0 0 0 0 -47.384886407668091 70.400001354785672 0 70.400001354785672 6.3462991469987173 0 0 0 0 -124.31125605182388 33.65813292629332 0 33.65813292629332 12.772731874722012 0 0 0 0 -159.99258604168972 -9.2581639212594382 0 -9.2581639212594382 -27.475973808628623 0 0 0 0 -163.74255245423774 -6.074904000209699 0 -6.074904000209699 4.3964491564747732 0 0 0 0 -110.12960000000021 14.881102908824232 0 14.881102908824232 -10.051245619140445 0 0 0 0 -121.03272513638512 -29.26360077077652 0 -29.26360077077652 -55.964114678257829 0 0 0 0 -0.46597577027632298 -0.57683485352589514 0 -0.57683485352589514 -0.62494223904313628 0 0 0 0 2.5645357264647828 37.078015485922151 0 37.078015485922151 -124.53405006173125 0 0 0 0 -12.917917791330183 -39.93889614573709 0 -39.93889614573709 -173.17477504282124 0 0 0 0 -23.373697103755148 -21.964440747965682 0 -21.964440747965682 -181.68973735402687 0 0 0 0 -92.871273364047738 18.543634089951865 0 18.543634089951865 -174.40681716704876 0 0 0 0 -115.22982636541064 -15.866347190291663 0 -15.866347190291663 -66.638063473710645 0 0 0 0 -34.95400435004376 45.29793509964702 0 45.29793509964702 -163.58535930861603 0 0 0 0 -86.37929258719123 112.69842837860506 0 112.69842837860506 -205.55814690180887 0 0 0 0 -239.12950283616374 35.16776778552412 0 35.16776778552412 5.4101515505990392 0 0 0 0 -0.48175721461486631 0.60751762016758537 0 0.60751762016758537 -0.62775022707177364 0 0 0 0 -67.864523886521965 -20.152720739201868 0 -20.152720739201868 -90.296043255945733 0 0 0 0 -17.098166590815708 26.586693786636204 0 26.586693786636204 -54.515578396134515 0 0 0 0 -2.3108292825002295 0.68469042103262989 0 0.68469042103262989 -0.69152813613625419 0 0 0 0 -38.724752611644362 12.962010490219654 0 12.962010490219654 -6.4129733458767078 0 0 0 0 -52.504508410842391 -4.7622339844886028 0 -4.7622339844886028 -11.207754213954104 0 0 0 0 -176.50359738001498 78.651721688406724 0 78.651721688406724 -20.778986958156111 0 0 0 0 -224.99678266616684 33.529906588708855 0 33.529906588708855 -27.904311550759303 0 0 0 0 -78.168134109473613 -73.869177849428524 0 -73.869177849428524 -17.215843727890757 0 0 0 0 -65.072928167643113 8.7432199207833037 0 8.7432199207833037 -22.473290696761978 0 0 0 0 -35.481445589046416 -33.999165933708355 0 -33.999165933708355 -99.306058847625991 0 0 0 0 -82.766299879327562 4.5302143137132589 0 4.5302143137132589 -64.37502800630682 0 0 0 0 -95.583709406919297 -0.5976994261523032 0 -0.5976994261523032 -29.058127030411427 0 0 0 0 -128.03867830953095 69.907480252839377 0 69.907480252839377 -180.19723646742386 0 0 0 0 -198.77889588720427 -17.766088334715278 0 -17.766088334715278 -91.719888642679962 0 0 0 0 -31.79333353056245 30.879197754163442 0 30.879197754163442 107.8689803046683 0 0 0 0 -62.114402777919167 -94.372030317394547 0 -94.372030317394547 31.599590878316121 0 0 0 0 0.46857211472888594 34.207873445011501 0 34.207873445011501 -16.939196001150776 0 0 0 0 -37.724978093105165 -16.540280073834765 0 -16.540280073834765 1.6193247844275902 0 0 0 0 -40.802608454927395 7.2465368370994838 0 7.2465368370994838 11.833371900485872 0 0 0 0 -40.984139547625091 -30.495559949576091 0 -30.495559949576091 -35.167024712694911 0 0 0 0 -26.226426272805838 12.700511045712119 0 12.700511045712119 -42.259695782911876 0 0 0 0 -27.673541615222348 -16.927021038793555 0 -16.927021038793555 -64.772702316739924 0 0 0 0 -8.5976235341768188 -30.15755445579407 0 -30.15755445579407 -60.670940909864839 0 0 0 0 -9.8949682820194766 -7.826452554822211 0 -7.826452554822211 -41.764303760102848 0 0 0 0 -5.9805277016604315 6.4989335581391909 0 6.4989335581391909 -6.9658228051268622 0 0 0 0 -35.032199384240812 -33.771583915379779 0 -33.771583915379779 -54.161841467576551 0 0 0 0 -23.305590964332509 -38.451794998135512 0 -38.451794998135512 -53.951522936554284 0 0 0 0 -33.293161418170712 -46.120340347982165 0 -46.120340347982165 -68.582013266976901 0 0 0 0 -42.531203447451844 -34.333035867230137 0 -34.333035867230137 -28.390485920064293 0 0 0 0 -23.591251122257745 -35.8110408641096 0 -35.8110408641096 -57.785689484991053 0 0 0 0 -26.150676833041871 -46.919747918970643 0 -46.919747918970643 -50.577654498797074 0 0 0 0 -29.509198620567986 -32.561061983661602 0 -32.561061983661602 -46.130497440596173 0 0 0 0 -80.625733570541342 -13.505668309146131 0 -13.505668309146131 -103.49545607850132 0 0 0 0 -91.228566559881983 -17.201798827672064 0 -17.201798827672064 -68.968384729736499 0 0 0 0 -69.482935511767209 -49.181035278830677 0 -49.181035278830677 -75.530020725615941 0 0 0 0 -37.719217956380817 -31.98368070133597 0 -31.98368070133597 -73.012154431366071 0 0 0 0 -51.732450573534152 -38.393010767793839 0 -38.393010767793839 -71.295888144472997 0 0 0 0 -54.754776851683346 -50.565332239583313 0 -50.565332239583313 -47.63342768106213 0 0 0 0 -81.628080752392634 -27.991491211670109 0 -27.991491211670109 -28.016489217454364 0 0 0 0 -71.766090639044705 -29.930579609017968 0 -29.930579609017968 -80.443940083609959 0 0 0 0 -65.911995592510721 -30.656046369194428 0 -30.656046369194428 2.4808993106335038 0 0 0 0 -42.400051833365069 -24.677232137453984 0 -24.677232137453984 -27.742276546741778 0 0 0 0 -36.791961524612361 -48.501373291412051 0 -48.501373291412051 -20.724961649791112 0 0 0 0 -51.351922332498361 -24.493933102750134 0 -24.493933102750134 0.27751674057253695 0 0 0 0 -32.749464650045411 -42.280806710235538 0 -42.280806710235538 13.91255366002315 0 0 0 0 -41.71298033758967 -10.794264017369528 0 -10.794264017369528 18.380071865664831 0 0 0 0 -27.39951584956907 -33.067034779503501 0 -33.067034779503501 -22.706654689034622 0 0 0 0 -30.214158516366297 -46.224897273669512 0 -46.224897273669512 -29.129104965992155 0 0 0 0 -30.512118379165258 -40.453293929490428 0 -40.453293929490428 19.439912699338265 0 0 0 0 -34.05542968361442 -27.721748160809057 0 -27.721748160809057 12.795512181962295 0 0 0 0 -20.965602802049034 -26.925390151898227 0 -26.925390151898227 15.137873249625954 0 0 0 0 -31.24475639647244 -48.051951383936114 0 -48.051951383936114 -2.7151920585092739 0 0 0 0 -27.583490463519411 -42.050928527396763 0 -42.050928527396763 48.387005769597636 0 0 0 0 -31.067513225170842 -40.342529231415028 0 -40.342529231415028 30.106130081004721 0 0 0 0 -17.068374666392629 -22.529906649675468 0 -22.529906649675468 44.04011638837801 0 0 0 0 -27.841987363486624 -23.609086013901106 0 -23.609086013901106 52.24280003477034 0 0 0 0 -32.71100470248814 -26.649332829877608 0 -26.649332829877608 52.14516251882651 0 0 0 0 -48.311810566745407 -12.405610364291078 0 -12.405610364291078 61.673197524229181 0 0 0 0 -8.674980458266873 -34.998534415082304 0 -34.998534415082304 59.767277914253668 0 0 0 0 0.093691139851671323 -36.430623512463626 0 -36.430623512463626 49.52027725167045 0 0 0 0 -15.632450451030309 -13.879051914309002 0 -13.879051914309002 73.069985867650303 0 0 0 0 -30.388260371883007 -29.755284989757001 0 -29.755284989757001 58.62862716791642 0 0 0 0 -36.902672154974425 -12.882080662682711 0 -12.882080662682711 86.500643755432975 0 0 0 0 -28.067950668384583 -35.743194234384191 0 -35.743194234384191 41.770958663552847 0 0 0 0 -42.363736429822893 -27.939040919374747 0 -27.939040919374747 45.802632098239883 0 0 0 0 -16.780832597853077 -42.783211935200598 0 -42.783211935200598 54.158642545041857 0 0 0 0 -53.847706307615226 -23.959007323423066 0 -23.959007323423066 95.531545303740131 0 0 0 0 -123.78546548158374 75.121428910786562 0 75.121428910786562 24.040996973295478 0 0 0 0 -108.06831294593576 7.7394948423898313 0 7.7394948423898313 77.231147452186633 0 0 0 0 31.966878076666035 -98.813771593894671 0 -98.813771593894671 130.49087965339436 0 0 0 0 -0.21461506160370192 -0.053184741770554211 0 -0.053184741770554211 0.530628065189509 0 0 0 0 -12.253503912999804 -22.835162017097446 0 -22.835162017097446 70.335353265968479 0 0 0 0 -17.063905439324117 -29.164938532147744 0 -29.164938532147744 65.858721390713072 0 0 0 0 -40.267441610145397 -30.209106592135868 0 -30.209106592135868 74.994482804473137 0 0 0 0 -33.394725954229216 4.4159404142196763 0 4.4159404142196763 25.008361505213543 0 0 0 0 -42.40891623092466 -27.159495154346132 0 -27.159495154346132 70.196035430471511 0 0 0 0 -45.433576755101967 -3.27067929700479 0 -3.27067929700479 12.917733814536405 0 0 0 0 -44.43690503990365 -5.6132105863207471 0 -5.6132105863207471 8.8863272221506122 0 0 0 0 -36.002041152260063 -46.439605086579377 0 -46.439605086579377 73.225048419340965 0 0 0 0 -47.934534208960031 -18.744958004905584 0 -18.744958004905584 100.46595076719132 0 0 0 0 -65.851172235823469 -41.289000271813165 0 -41.289000271813165 73.026949905872243 0 0 0 0 -86.913907674330403 33.705702133486739 0 33.705702133486739 176.18485344161945 0 0 0 0 -82.810724190359906 -73.838568079919241 0 -73.838568079919241 203.83984353245955 0 0 0 0 -94.717476092893776 95.168224618199474 0 95.168224618199474 316.41877954404225 0 0 0 0 -16.957224937168576 -238.36259156832466 0 -238.36259156832466 331.4827843794377 0 0 0 0 -40.312501858716132 -132.45059545652612 0 -132.45059545652612 19.463231347797773 0 0 0 0 -0.94546503705678653 -0.93935861257322273 0 -0.93935861257322273 0.89703368959252572 0 0 0 0 86.958847883823182 16.328538665967699 0 16.328538665967699 413.50012361218796 0 0 0 0 -169.57673761172737 43.5247576532106 0 43.5247576532106 70.886573952257095 0 0 0 0 -107.21557887130803 11.505949419742592 0 11.505949419742592 92.967153186862561 0 0 0 0 -167.30248824836053 23.279975346346873 0 23.279975346346873 118.30538124478335 0 0 0 0 -134.33338558029573 43.365483716884228 0 43.365483716884228 56.846155243749308 0 0 0 0 -144.85592977508531 34.115402935038901 0 34.115402935038901 34.123486519877588 0 0 0 0 -147.74443190209695 33.558175098571155 0 33.558175098571155 53.508677705858645 0 0 0 0 -138.72851597117824 51.690672258167069 0 51.690672258167069 -8.2444492007007284 0 0 0 0 -151.91488402151481 53.350816086979194 0 53.350816086979194 31.351690582328615 0 0 0 0 -1.0734429681241036 -1.2678808544594631 0 -1.2678808544594631 -0.0030943084702563795 0 0 0 0 -61.674436193248766 26.797906281103678 0 26.797906281103678 -26.4216831526237 0 0 0 0 -31.221503664070951 -95.149287626766409 0 -95.149287626766409 -86.392879582524984 0 0 0 0 -22.622406922692335 -27.75631875165368 0 -27.75631875165368 -66.754247142414897 0 0 0 0 -107.0736347993934 49.980679890046304 0 49.980679890046304 84.939246781595557 0 0 0 0 -389.58454037355659 109.22287653621811 0 109.22287653621811 22.550036596243444 0 0 0 0 -141.60831610015885 -54.169263816662351 0 -54.169263816662351 -228.33255171646488 0 0 0 0 -296.09011101455758 -25.847084596516424 0 -25.847084596516424 108.13812767137915 0 0 0 0 -252.34037279376344 118.0894012027893 0 118.0894012027893 22.468190708124894 0 0 0 0 -0.83154121338430009 -1.225164852400745 0 -1.225164852400745 -1.2283377777527953 0 0 0 0 -109.03080399139253 32.970604207601809 0 32.970604207601809 38.511834227824238 0 0 0 0 63.510393670072517 -23.170260049260833 0 -23.170260049260833 -86.835219019654687 0 0 0 0 -104.63704148487886 38.849772246062457 0 38.849772246062457 14.140376783937882 0 0 0 0 -70.248063221541088 21.435427024744286 0 21.435427024744286 -3.9239612160017714 0 0 0 0 -67.984462952653644 14.095513182267297 0 14.095513182267297 1.7804970080405838 0 0 0 0 -54.056742241476968 11.867859790017064 0 11.867859790017064 -10.46111854847527 0 0 0 0 -52.622987787997772 -6.0713867828458206 0 -6.0713867828458206 19.71529702166572 0 0 0 0 -44.223375044293789 17.642529049467157 0 17.642529049467157 -9.4438024152382241 0 0 0 0 -1500.1004564916493 108.42867691469408 0 108.42867691469408 237.5083264232151 0 0 0 0 -977.78489311836165 82.274799237578037 0 82.274799237578037 74.801106185050031 0 0 0 0 -847.74332381173917 38.007883160449033 0 38.007883160449033 64.055678083925756 0 0 0 0 -0.93107750305156856 1.0524542921821904 0 1.0524542921821904 -0.68947493999419285 0 0 0 0 -423.91551392831752 317.61081918550877 0 317.61081918550877 -101.47484531391358 0 0 0 0 -133.47870666544623 234.49372714528926 0 234.49372714528926 -188.30531237325286 0 0 0 0 -1012.9623791079212 350.26910772721175 0 350.26910772721175 86.036521587942588 0 0 0 0 -1084.7114124361706 274.45800707281302 0 274.45800707281302 78.545680117518344 0 0 0 0 -1497.0127546606618 596.81060336811788 0 596.81060336811788 97.909803888244454 0 0 0 0 -817.47851029722551 668.04530621176002 0 668.04530621176002 -394.26443677948618 0 0 0 0 37.27958456819033 187.75030807640229 0 187.75030807640229 -305.94528416604908 0 0 0 0 -32.178247496616677 304.78670553637812 0 304.78670553637812 -411.85579555483844 0 0 0 0 -5.4835451395267611 3.7317077153758191 0 3.7317077153758191 -3.7080044774621488 0 0 0 0 -53.960208179263645 -81.337301622744434 0 -81.337301622744434 -154.08385951027014 0 0 0 0 -274.9657045248241 87.141039879198786 0 87.141039879198786 -96.104764423775578 0 0 0 0 -310.54464686780739 88.040635856539538 0 88.040635856539538 -81.606872343655425 0 0 0 0 -553.42518774251766 24.594299831313741 0 24.594299831313741 166.80355473561445 0 0 0 0 -245.06264555681264 172.48509006766861 0 172.48509006766861 -116.13418144443564 0 0 0 0 -803.88461367188575 469.5073577759552 0 469.5073577759552 -89.564137655317111 0 0 0 0 -20.15267853919795 -3.7345468270164872 0 -3.7345468270164872 69.929685897557079 0 0 0 0 27.820601304982119 -61.634009619178073 0 -61.634009619178073 -110.39188080123412 0 0 0 0 -2.4759831385973854 0.12691684032693473 0 0.12691684032693473 -1.9384522090652132 0 0 0 0 58.307512604684234 82.117965429247604 0 82.117965429247604 38.470959534465052 0 0 0 0 94.695110172535351 -46.975375590979212 0 -46.975375590979212 -99.706604571145164 0 0 0 0 -28.099692584008153 -8.3301040510353062 0 -8.3301040510353062 42.870976563388282 0 0 0 0 -11.531365792109682 -7.1804009295934748 0 -7.1804009295934748 -5.2113337128485 0 0 0 0 -13.69410065629927 -7.0262705970610568 0 -7.0262705970610568 -4.7480954123290076 0 0 0 0 -3.9943110656802503 -6.1901028626104448 0 -6.1901028626104448 -5.5310574309685734 0 0 0 0 -2.8486465953214051 -0.64330846805409792 0 -0.64330846805409792 0.7184686152374109 0 0 0 0 -4.4047931467357557 -13.51423872783954 0 -13.51423872783954 -103.49072874876408 0 0 0 0 -49.158026303892257 -27.623935950399471 0 -27.623935950399471 -15.109854500156416 0 0 0 0 -22.806528635133873 -33.720839190826865 0 -33.720839190826865 -41.136568336742641 0 0 0 0 -5.3572768482222273 -13.092426702058697 0 -13.092426702058697 -16.860256884633429 0 0 0 0 14.227294680455088 -23.840117326687427 0 -23.840117326687427 0.41365544856546421 0 0 0 0 -7.2564086795828189 -78.899956563532044 0 -78.899956563532044 -35.749194205981937 0 0 0 0 -35.931656356518943 -55.292727093720458 0 -55.292727093720458 38.938388966636047 0 0 0 0 29.016369910187677 -31.112786137159127 0 -31.112786137159127 -134.88078629834013 0 0 0 0 -71.734284089898622 -27.863160948557752 0 -27.863160948557752 -116.84910453035877 0 0 0 0 -355.51607338545364 55.402803386830982 0 55.402803386830982 -62.796542743706979 0 0 0 0 -71.72402856120091 8.3788169701914512 0 8.3788169701914512 -31.732048689299234 0 0 0 0 55.757380814406133 22.210303260949502 0 22.210303260949502 -43.977735526064151 0 0 0 0 -38.782140125728802 -12.016675762933119 0 -12.016675762933119 -6.4881382057728842 0 0 0 0 42.41172503153939 -12.177982230251345 0 -12.177982230251345 -69.125616748030637 0 0 0 0 0.61313276571310027 1.5224412229334305 0 1.5224412229334305 -14.457750487729067 0 0 0 0 -7.0788340885337675 11.631823859853284 0 11.631823859853284 -10.155077849118243 0 0 0 0 -27.558515003845969 3.7958122528089007 0 3.7958122528089007 -5.1369642344798194 0 0 0 0 -8.3047457279717491 8.4078774510025731 0 8.4078774510025731 2.2071965119685224 0 0 0 0 -1.2811766835426113 -1.2802481696844801 0 -1.2802481696844801 -1.5436785929754211 0 0 0 0 6.0575572295947495 -29.919378400407652 0 -29.919378400407652 -26.788819376007638 0 0 0 0 -18.822362210151368 -8.138981206198622 0 -8.138981206198622 -5.1260484177705337 0 0 0 0 -9.2714583542461142 -0.80986655772188243 0 -0.80986655772188243 1.8205896151838159 0 0 0 0 -13.471932003234542 -5.8636899229715027 0 -5.8636899229715027 -4.8309400419843769 0 0 0 0 -16.445320895683835 -5.4664584800211742 0 -5.4664584800211742 -4.4586403129821974 0 0 0 0 -14.272221450039069 -6.0442424409909563 0 -6.0442424409909563 -4.3688292368105976 0 0 0 0 0.36065638384170029 -0.1294877022748202 0 -0.1294877022748202 -3.808977056169808 0 0 0 0 4.5390091095841854 -10.142080555023767 0 -10.142080555023767 -21.942529235157963 0 0 0 0 -4.5643783597430811 0.53733906508816887 0 0.53733906508816887 -3.3976502611937782 0 0 0 0 -12.133865061507095 0.61148155706678153 0 0.61148155706678153 0.62451707130787781 0 0 0 0 -6.31144857213026 0.94722629894081933 0 0.94722629894081933 -7.0803150622859334 0 0 0 0 -1.6630943676382586 -1.5106007059578701 0 -1.5106007059578701 -4.9200970925199039 0 0 0 0 -1.4987501412106212 0.81502116245746947 0 0.81502116245746947 -4.4720962677256466 0 0 0 0 -32.147475820333057 -22.946543935962382 0 -22.946543935962382 -33.402636748397526 0 0 0 0 -30.74853399724816 -13.176066794439976 0 -13.176066794439976 -14.412077106047946 0 0 0 0 -0.090750714048134284 0.99509732022549002 0 0.99509732022549002 -14.356267839495139 0 0 0 0 0.66546586977710831 0.50736083349926275 0 0.50736083349926275 -18.301944137325336 0 0 0 0 -32.179089877579827 -15.037755077265047 0 -15.037755077265047 -8.3375692550253007 0 0 0 0 -17.649843330804288 -8.3990162189588773 0 -8.3990162189588773 -19.273823844287108 0 0 0 0 -42.070081912257592 -9.1437299700005497 0 -9.1437299700005497 -15.374071099622142 0 0 0 0 -14.130616570517759 -6.6122813070120401 0 -6.6122813070120401 -48.860257198006366 0 0 0 0 -13.13286242350614 -12.595064216250648 0 -12.595064216250648 -16.903448628083424 0 0 0 0 -1.2741978629856021 -3.8873771835847037 0 -3.8873771835847037 -19.557353506133467 0 0 0 0 -3.2874368175871496 -10.463699392998706 0 -10.463699392998706 -23.695158595594194 0 0 0 0 -20.93048768466997 -8.1853206387645514 0 -8.1853206387645514 2.4647063928982789 0 0 0 0 -35.004021106815344 -44.362951365674689 0 -44.362951365674689 -54.789432751360437 0 0 0 0 -6.4637785748737784 6.6078212466371404 0 6.6078212466371404 -6.8504494215909233 0 0 0 0 -8.8050308212295931 14.439800504396771 0 14.439800504396771 4.2346119988017392 0 0 0 0 -13.77873734156492 -5.1664626629483337 0 -5.1664626629483337 -17.169741630822273 0 0 0 0 -6.802349674042123 6.7744018178352619 0 6.7744018178352619 -6.6917315959720973 0 0 0 0 -30.362381891791301 -37.758863699230005 0 -37.758863699230005 -56.551199116247858 0 0 0 0 -53.556044914705126 -28.412302058016394 0 -28.412302058016394 -28.611247936393738 0 0 0 0 -33.164216951371145 -50.100607960850198 0 -50.100607960850198 -16.536102854614001 0 0 0 0 -61.265956104164161 -57.691013011300754 0 -57.691013011300754 -26.831459980498039 0 0 0 0 -39.872321591519722 -37.617590049398132 0 -37.617590049398132 -26.740115493223129 0 0 0 0 -45.805480143755631 -58.548715988449658 0 -58.548715988449658 13.565861651325577 0 0 0 0 -66.258520420001787 -64.637403735849034 0 -64.637403735849034 17.040605206477267 0 0 0 0 -39.74584681284432 -37.947367272533938 0 -37.947367272533938 -0.56608195933995376 0 0 0 0 -31.718958192217542 -52.335365253333293 0 -52.335365253333293 11.660923769716646 0 0 0 0 -9.7323656621992995 -32.779240197942727 0 -32.779240197942727 22.005215044176111 0 0 0 0 -32.704964995529735 -56.745911369662736 0 -56.745911369662736 13.529383135874014 0 0 0 0 -207.00071316330104 11.818879893005942 0 11.818879893005942 -11.711742360382459 0 0 0 0 -25.955873132757915 -44.379108269865583 0 -44.379108269865583 91.289676577478531 0 0 0 0 -19.811675316385688 -4.4719362447157902 0 -4.4719362447157902 -0.66983554258304245 0 0 0 0 -115.41594122484639 126.03436479665788 0 126.03436479665788 -321.3078008153476 0 0 0 0 5.4314706413285876 -31.286082740851043 0 -31.286082740851043 -57.137173033261206 0 0 0 0 -1.0327096964319935 -1.6577399656698617 0 -1.6577399656698617 46.542554643402582 0 0 0 0 -15.498308140489826 -71.546311678165694 0 -71.546311678165694 17.976858110384683 0 0 0 0 -41.953445082161124 -114.70611605705153 0 -114.70611605705153 -43.791968149484092 0 0 0 0 -99.665963238867334 -237.41121476360331 0 -237.41121476360331 -146.24892568466839 0 0 0 0 -56.720432222118689 -111.50236264072464 0 -111.50236264072464 36.285414294205111 0 0 0 0 -1.1041206161025912 -92.27688654041367 0 -92.27688654041367 -183.95116095137018 0 0 0 0 240.25339502450879 387.21863894260514 0 387.21863894260514 -269.10207313490741 0 0 0 0 -7.3512413843146476 -0.80196453852465588 0 -0.80196453852465588 -0.091145466034980416 0 0 0 0 -22.458131969237684 -27.000171077182245 0 -27.000171077182245 23.626270493883112 0 0 0 0 -12.256219633235553 -4.2303634460945787 0 -4.2303634460945787 -0.56932753727692731 0 0 0 0 -4.7313674898368845 0.096656789666667464 0 0.096656789666667464 -36.577631815548557 0 0 0 0 -40.699238378597784 9.9906363852987852 0 9.9906363852987852 -6.0502128108637407 0 0 0 0 -44.67174659921784 11.045135794154021 0 11.045135794154021 24.764708737699038 0 0 0 0 -43.65788930033159 5.4257795069561325 0 5.4257795069561325 7.4870118420641063 0 0 0 0 -809.11716696745862 -167.52901930488952 0 -167.52901930488952 -410.96113512934608 0 0 0 0 -40.916332473581861 -5.4157167283019589 0 -5.4157167283019589 15.411471835807333 0 0 0 0 -30.318221781930333 -2.7947394060120132 0 -2.7947394060120132 7.9039126692250647 0 0 0 0 -19.502510931527908 -5.3774181416804616 0 -5.3774181416804616 -3.4954971171857352 0 0 0 0 -587.01659847897463 -233.69545133873817 0 -233.69545133873817 259.84315014340609 0 0 0 0 -330.87775945845306 466.95498872154928 0 466.95498872154928 63.12504619889296 0 0 0 0 441.31258161912046 241.45193573343295 0 241.45193573343295 124.7679600990632 0 0 0 0 211.36518882589007 266.25989427189597 0 266.25989427189597 229.71064002616959 0 0 0 0 -463.228201539574 82.307087689069249 0 82.307087689069249 511.43990865009255 0 0 0 0 -7.7617211614545383 6.7949374411271926 0 6.7949374411271926 -6.556295630241987 0 0 0 0 -21.853914833591261 9.3837824375200398 0 9.3837824375200398 -7.9904491728102585 0 0 0 0 -6.8258718033494148 5.6631337827850112 0 5.6631337827850112 -14.334881269641331 0 0 0 0 1.829601642662432 1.2683250267306043 0 1.2683250267306043 -2.9492915336595535 0 0 0 0 -28.917865893744874 0.54495332654335016 0 0.54495332654335016 -6.4831973067566651 0 0 0 0 -2.0012951269300476 2.2399124111112023 0 2.2399124111112023 -13.550016428426861 0 0 0 0 -10.861870883123629 -8.7389635032720889 0 -8.7389635032720889 -14.5593910052703 0 0 0 0 -2.2386260440398473 51.936417382425134 0 51.936417382425134 280.47704906707804 0 0 0 0 839.6794499229436 528.89663518651651 0 528.89663518651651 296.81089452914603 0 0 0 0 -1.5822583115255142 0.42578706771315389 0 0.42578706771315389 2.03046691495571 0 0 0 0 -103.79282260437321 89.596513881188002 0 89.596513881188002 287.5637212515889 0 0 0 0 -66.7441252982062 14.657092885721795 0 14.657092885721795 -15.9070074207375 0 0 0 0 -65.632230478890506 -72.440216150985407 0 -72.440216150985407 92.665154635780709 0 0 0 0 -55.752500356193195 -113.50958260960942 0 -113.50958260960942 37.345827890327655 0 0 0 0 -60.760313925129594 -14.122792300918718 0 -14.122792300918718 29.64589108310247 0 0 0 0 -13.808400258509664 -10.917893844005789 0 -10.917893844005789 -20.136868706595124 0 0 0 0 -26.777406920995418 8.9760899458233325 0 8.9760899458233325 -5.5047041477014318 0 0 0 0 -24.245458466080891 25.535216102813791 0 25.535216102813791 -65.979112567323426 0 0 0 0 -20.894837446407109 8.6541522211814339 0 8.6541522211814339 18.40782203158858 0 0 0 0 7.3484542911464814 39.704033188427246 0 39.704033188427246 -18.463875499437691 0 0 0 0 -0.10493484404296538 -0.83058700577688072 0 -0.83058700577688072 0.23597342469396709 0 0 0 0 -74.943783005146543 13.395643882848134 0 13.395643882848134 2.8941200895917518 0 0 0 0 -85.305261381188757 36.287553147583253 0 36.287553147583253 -46.647729363961446 0 0 0 0 -51.88073220469596 15.691601524686206 0 15.691601524686206 4.6710705423989225 0 0 0 0 -6.5828830074561999 0.70217533920898845 0 0.70217533920898845 0.95129047631272312 0 0 0 0 -258.35524378534001 -88.370621063099904 0 -88.370621063099904 -71.375268987615783 0 0 0 0 -32.547237424878404 21.060260842029862 0 21.060260842029862 -3.5192573419373048 0 0 0 0 -25.973628376378656 5.6230219462579569 0 5.6230219462579569 7.6540690801345477 0 0 0 0 -4.4255304818076411 4.4461405815119228 0 4.4461405815119228 -2.8518588481258109 0 0 0 0 -19.333041968333418 7.9986534571773973 0 7.9986534571773973 8.3414256436343521 0 0 0 0 -6.4809250010730466 1.4191406627196557 0 1.4191406627196557 -1.8655574902923036 0 0 0 0 -37.101433437266678 15.226409529201476 0 15.226409529201476 -7.7624111663498923 0 0 0 0 -29.063910744755958 9.4450370720763885 0 9.4450370720763885 -13.815463979951346 0 0 0 0 -31.187929254110713 13.434041770680778 0 13.434041770680778 -9.6211100844452631 0 0 0 0 -13.307489636935266 2.5353272804176008 0 2.5353272804176008 -8.9137918606111466 0 0 0 0 -25.937540800843749 10.63328912110217 0 10.63328912110217 -6.0532085348364495 0 0 0 0 -12.146481843775497 2.3972954106221729 0 2.3972954106221729 -6.5207486006665496 0 0 0 0 -17.724393316359908 2.1610227952957839 0 2.1610227952957839 -7.6895816980883627 0 0 0 0 -29.91856994914815 8.5238364565120719 0 8.5238364565120719 1.5115500546544354 0 0 0 0 -26.344040042104098 29.140496635231443 0 29.140496635231443 -9.0091963683566973 0 0 0 0 -45.761473387001388 16.747283290388623 0 16.747283290388623 1.8280841850611438 0 0 0 0 -11.962435620554061 15.399277459231257 0 15.399277459231257 -12.376996367495394 0 0 0 0 -49.417936597573316 25.463375441476025 0 25.463375441476025 -31.147068801547512 0 0 0 0 -4.4163983014208803 -0.17667365465144158 0 -0.17667365465144158 -9.4395068633929213 0 0 0 0 -17.864486256300978 3.6955660532666963 0 3.6955660532666963 -2.2678397701766455 0 0 0 0 -570.91316264360103 -189.12012801529508 0 -189.12012801529508 -60.133279974857352 0 0 0 0 -232.58351448340437 -97.306778673234362 0 -97.306778673234362 -97.144912329143438 0 0 0 0 -163.02152077643132 533.24373338319401 0 533.24373338319401 -590.73909035951317 0 0 0 0 -7.6748347648275868 1.1140001993117554 0 1.1140001993117554 -1.1087002278296763 0 0 0 0 -554.27033513569586 -253.0715612471358 0 -253.0715612471358 36.751353694677825 0 0 0 0 -1496.9396665771683 -929.92950999594325 0 -929.92950999594325 -370.23441207799362 0 0 0 0 -910.16364229433566 -351.11148267405326 0 -351.11148267405326 23.609211247042921 0 0 0 0 -694.24927737740472 21.98754885970078 0 21.98754885970078 62.203049818898677 0 0 0 0 -641.91306478165279 -76.017251349530454 0 -76.017251349530454 -2.5667641100412197 0 0 0 0 -1020.100708420885 -57.656804827382139 0 -57.656804827382139 242.36088289234999 0 0 0 0 -1500.2536304316816 -196.94614291093157 0 -196.94614291093157 245.68451131058711 0 0 0 0 -1497.978704805731 673.09384127387523 0 673.09384127387523 -9.7147504314768405 0 0 0 0 -550.7089010159126 298.8280971046367 0 298.8280971046367 27.404436177595148 0 0 0 0 -8.8375382425342792 -4.7273107220146029 0 -4.7273107220146029 -0.57951158305650741 0 0 0 0 -25.822929915400891 -207.31816624342923 0 -207.31816624342923 143.24017545598096 0 0 0 0 -418.89965728972084 -336.1080973157446 0 -336.1080973157446 237.37448877124569 0 0 0 0 -185.59461881656898 -82.321835752828576 0 -82.321835752828576 244.52183956392577 0 0 0 0 -156.59920099262854 186.99809768530343 0 186.99809768530343 -101.0422488311176 0 0 0 0 -195.63396284778537 118.31449117750911 0 118.31449117750911 73.608563204609538 0 0 0 0 32.164376178665407 -257.75208066768533 0 -257.75208066768533 -175.80152085512759 0 0 0 0 -5.5082494259893906 -1.9051880148152041 0 -1.9051880148152041 -0.67849476085041061 0 0 0 0 -1496.4051960439049 -226.4559602362676 0 -226.4559602362676 -88.486561171037494 0 0 0 0 -1497.9704088163044 368.91384204956472 0 368.91384204956472 -39.724202421049128 0 0 0 0 -466.29948617396894 185.6937009172124 0 185.6937009172124 -57.810574992433715 0 0 0 0 -447.64809018424546 262.73015148124955 0 262.73015148124955 -81.222605372900716 0 0 0 0 -214.29110628615217 217.69387129903271 0 217.69387129903271 -387.00153242269471 0 0 0 0 0.28483604203328206 -0.88465433585740882 0 -0.88465433585740882 -4.0515451328304319 0 0 0 0 -63.613786778736539 29.307178956828352 0 29.307178956828352 3.6068472695028504 0 0 0 0 -1.7963243926133146 0.80683336885579138 0 0.80683336885579138 -393.13190253737855 0 0 0 0 -61.543615288812362 -75.559768230738996 0 -75.559768230738996 -99.745981121271257 0 0 0 0 -199.15652620759283 276.32929573152188 0 276.32929573152188 -315.8353442370294 0 0 0 0 -125.9015218254026 70.140957100272175 0 70.140957100272175 -426.69498787018813 0 0 0 0 -351.73086842472594 111.9952395906883 0 111.9952395906883 -55.042496034947931 0 0 0 0 -161.15140056956079 72.016614039928299 0 72.016614039928299 -55.133838485620004 0 0 0 0 -90.670410184038701 -72.857010094300932 0 -72.857010094300932 -30.39113216917832 0 0 0 0 -214.93892331047755 62.482071460310912 0 62.482071460310912 39.060335502900557 0 0 0 0 53.986627941618281 -1.6973086975150053 0 -1.6973086975150053 31.369362538184181 0 0 0 0 -162.59744162081006 78.48322864564949 0 78.48322864564949 18.259855797331806 0 0 0 0 -74.75865408862137 127.05080267544486 0 127.05080267544486 -163.83489425053676 0 0 0 0 -246.68413105182026 126.74529508550445 0 126.74529508550445 21.635447677651541 0 0 0 0 -0.018026353634922998 21.095379636301573 0 21.095379636301573 -63.169900551478648 0 0 0 0 24.870085048164071 134.43510952762657 0 134.43510952762657 -151.93999250065798 0 0 0 0 25.287727556349637 65.005683972481052 0 65.005683972481052 -230.46133614167763 0 0 0 0 -27.635592284107361 108.16039529780578 0 108.16039529780578 -162.79242428315234 0 0 0 0 -68.993065966849827 105.35499415778571 0 105.35499415778571 -144.12212726597375 0 0 0 0 5.9904788035223646 12.803034298943317 0 12.803034298943317 -207.21368743913854 0 0 0 0 -15.532979406831146 -1.2450552587718562 0 -1.2450552587718562 -117.88732615882714 0 0 0 0 -72.445346463475289 -15.00795211074842 0 -15.00795211074842 -16.535509820038101 0 0 0 0 -23.573768377859778 3.6743789140842864 0 3.6743789140842864 -116.32150998849352 0 0 0 0 -1.5022757629012631 10.551673631780432 0 10.551673631780432 -108.1791243660839 0 0 0 0 -28.483245964204798 1.5424760843854983 0 1.5424760843854983 -28.03291722204176 0 0 0 0 -15.501239773358066 32.306225157137987 0 32.306225157137987 -108.03020981827535 0 0 0 0 -3.7212698300072589 26.573600826471647 0 26.573600826471647 -128.96910310022673 0 0 0 0 -91.550207994151606 -6.4355625482494361 0 -6.4355625482494361 -100.15154047310898 0 0 0 0 -17.649483485555265 43.573910368686143 0 43.573910368686143 -6.077705633273581 0 0 0 0 33.971474141091676 21.597104229289471 0 21.597104229289471 -99.474590166852522 0 0 0 0 -4.9008407826075455 -0.85673002398555198 0 -0.85673002398555198 0.25275423971606159 0 0 0 0 -189.79814890129001 418.07540945841083 0 418.07540945841083 -85.247089060183498 0 0 0 0 -53.185285286509043 -76.104271711792876 0 -76.104271711792876 -84.472946367148779 0 0 0 0 -182.09928287151797 -86.239533595884041 0 -86.239533595884041 -81.551956548922135 0 0 0 0 -73.916393863240046 -36.027949990030095 0 -36.027949990030095 -111.55887039123536 0 0 0 0 -173.97311426018769 -31.549134031401763 0 -31.549134031401763 -109.49516700595763 0 0 0 0 -138.80101418251388 -18.67096764879247 0 -18.67096764879247 -108.81169470670403 0 0 0 0 -141.9989156293459 1.0726305065684301 0 1.0726305065684301 -149.30039781096343 0 0 0 0 -171.42813910152529 -5.6121236099227261 0 -5.6121236099227261 -65.121569426749375 0 0 0 0 -146.56653773571179 45.546296420097747 0 45.546296420097747 -131.41773453326448 0 0 0 0 183.60651538609545 59.87228883843855 0 59.87228883843855 -119.03174741337068 0 0 0 0 -143.65751103090406 77.401347110471988 0 77.401347110471988 -179.20610255133312 0 0 0 0 -174.87306057128126 55.127049364325572 0 55.127049364325572 -25.729795706875535 0 0 0 0 -257.23036849945129 125.12599821897783 0 125.12599821897783 -75.035536674438191 0 0 0 0 -0.65219965331236196 0.81930955883436063 0 0.81930955883436063 -1.2732744614681351 0 0 0 0 -326.90191179649196 -38.916921005355327 0 -38.916921005355327 -13.937207011399209 0 0 0 0 -97.60889798118933 -22.677542219824346 0 -22.677542219824346 -17.828176833739022 0 0 0 0 -156.89403927861667 3.037143249110045 0 3.037143249110045 -2.4534101421770629 0 0 0 0 -135.67073686012975 69.66974051610687 0 69.66974051610687 -20.83306935445701 0 0 0 0 -128.3099446679189 67.54296903089346 0 67.54296903089346 -23.915712049207002 0 0 0 0 -86.476351813538258 42.322122025784722 0 42.322122025784722 -13.694009826317028 0 0 0 0 -72.683567956435581 43.679197569652331 0 43.679197569652331 -22.788677363489313 0 0 0 0 -62.092875709311556 -1.1726890388251832 0 -1.1726890388251832 14.587705545108975 0 0 0 0 -50.639840629162165 -16.504468464757053 0 -16.504468464757053 31.50434868838488 0 0 0 0 -44.730189831159407 30.679706188595212 0 30.679706188595212 35.562863721959957 0 0 0 0 -65.925693422233053 3.8105540973537586 0 3.8105540973537586 17.040545913607332 0 0 0 0 -70.311348735008892 -16.777763558130971 0 -16.777763558130971 21.962418913600345 0 0 0 0 -82.32552992840607 -6.6725712767107641 0 -6.6725712767107641 11.161441113896558 0 0 0 0 -80.814032626868539 3.7932967286578787 0 3.7932967286578787 -5.791988216044615 0 0 0 0 -84.889952621659063 -22.017067489311515 0 -22.017067489311515 6.2767258687440517 0 0 0 0 -55.72606195406388 -27.850306028471223 0 -27.850306028471223 -16.513779750689139 0 0 0 0 -42.275630918160459 -11.453094672946889 0 -11.453094672946889 0.62674754073103145 0 0 0 0 -55.637995970091652 -11.916454543570012 0 -11.916454543570012 9.7501222775842962 0 0 0 0 -51.154702631014061 -10.348261819231073 0 -10.348261819231073 11.885269847676227 0 0 0 0 -55.752909225987437 -18.204810644540657 0 -18.204810644540657 10.371649165952817 0 0 0 0 -53.41384331356312 2.3581102795723154 0 2.3581102795723154 32.873204735576223 0 0 0 0 -3.0477999378180129 -18.9576313044372 0 -18.9576313044372 -64.537755982768431 0 0 0 0 -24.809595388105627 0.24535083335787167 0 0.24535083335787167 3.7697479759873826 0 0 0 0 -20.335927065459373 27.350373786749856 0 27.350373786749856 1.515707643384296 0 0 0 0 -9.5372830359178806 -0.50976798993551098 0 -0.50976798993551098 2.6113379272714914 0 0 0 0 69.138577994992488 -203.29123518792596 0 -203.29123518792596 267.4611892889597 0 0 0 0 20.399298693058199 161.81999722927353 0 161.81999722927353 -71.594933260059634 0 0 0 0 -6.7066916417829816 1.6681548537797664 0 1.6681548537797664 0.53833000752482385 0 0 0 0 -27.807079410104052 -26.152957869628011 0 -26.152957869628011 21.459950090430823 0 0 0 0 -287.24893853079516 294.95608016848195 0 294.95608016848195 -77.123936100507763 0 0 0 0 -186.13670340642966 96.753776232226443 0 96.753776232226443 33.584232514836458 0 0 0 0 -358.7019919936331 83.847487435300962 0 83.847487435300962 205.47066149413786 0 0 0 0 113.56994448291061 141.2295441050108 0 141.2295441050108 28.878962144107049 0 0 0 0 -97.656697860975783 -22.69915655232311 0 -22.69915655232311 -16.980821548749731 0 0 0 0 -1.3463165391792469 2.2234273622046921 0 2.2234273622046921 -2.3824896792598942 0 0 0 0 -23.068050242672143 16.376161687267327 0 16.376161687267327 57.66929563111313 0 0 0 0 -161.28519592902194 36.934612984144422 0 36.934612984144422 33.513471520760049 0 0 0 0 -61.59446816838954 81.714443002065309 0 81.714443002065309 -49.14649078701413 0 0 0 0 -170.5172096802421 71.424880276813241 0 71.424880276813241 35.55418342137142 0 0 0 0 -159.08916873019734 41.298713301061184 0 41.298713301061184 -1.6783409103676945 0 0 0 0 -162.93907982969176 90.809830128545741 0 90.809830128545741 68.692449649894996 0 0 0 0 -160.66013763064075 38.296693968819227 0 38.296693968819227 63.586491221447396 0 0 0 0 199.94685506706651 -273.35033988687809 0 -273.35033988687809 250.17703328438864 0 0 0 0 -6.6806092691543348 -3.3537676512897168 0 -3.3537676512897168 0.26429680117857446 0 0 0 0 -4.1483605670589814 1.7197876424097105 0 1.7197876424097105 0.99447371421370789 0 0 0 0 264.178610010596 -303.71199102775188 0 -303.71199102775188 200.71268318763219 0 0 0 0 -29.428100269407992 8.3709413398769925 0 8.3709413398769925 -6.6029907415478419 0 0 0 0 -17.373076549391023 -5.4942672032233126 0 -5.4942672032233126 4.7502283601607491 0 0 0 0 204.41651454079329 -174.18173756072648 0 -174.18173756072648 273.23054095328206 0 0 0 0 -5.0139875244734204 7.9115704336076691 0 7.9115704336076691 -6.1452159344515085 0 0 0 0 -2.3375589381708508 -1.0675370347403312 0 -1.0675370347403312 0.15869062360549169 0 0 0 0 209.38800893728512 -291.89571085520629 0 -291.89571085520629 214.41759133639914 0 0 0 0 -147.70192158137252 84.108132643711087 0 84.108132643711087 -111.06019135498684 0 0 0 0 -18.027495143939571 -7.1150553496498059 0 -7.1150553496498059 5.1086560739595566 0 0 0 0 -29.23826658272219 14.665864669340067 0 14.665864669340067 -2.1483257611025692 0 0 0 0 -41.28605504910729 -2.9817072441953769 0 -2.9817072441953769 5.0903736148079588 0 0 0 0 -71.838478711553989 -3.6413105325245851 0 -3.6413105325245851 5.0800827055467153 0 0 0 0 -19.858054470040997 26.20763074942613 0 26.20763074942613 -8.7009658454873033 0 0 0 0 -57.617482370031212 18.249820723324206 0 18.249820723324206 -2.0933701671601739 0 0 0 0 -19.94965491259029 7.4406324542973152 0 7.4406324542973152 -5.3347222957131635 0 0 0 0 -23.767813796442454 6.0913903960324092 0 6.0913903960324092 -5.6900428899868984 0 0 0 0 -78.661480965137798 -53.668681893395068 0 -53.668681893395068 -322.15345324024349 0 0 0 0 -7.1786953213869644 7.8441926699235864 0 7.8441926699235864 -3.8666053211323743 0 0 0 0 0.6776006335333733 -385.18662547264137 0 -385.18662547264137 -633.09668745882834 0 0 0 0 -1497.082187750719 -728.06031212016546 0 -728.06031212016546 0.6054609268632648 0 0 0 0 -838.21630355102502 -169.48593192266722 0 -169.48593192266722 208.58282150782478 0 0 0 0 -789.80598332114914 -204.98993029918091 0 -204.98993029918091 172.8557693458298 0 0 0 0 -1500.5579784858185 132.63471765152084 0 132.63471765152084 272.43508674933764 0 0 0 0 -1330.5354507647826 -28.529430349399547 0 -28.529430349399547 179.22115517155521 0 0 0 0 -371.66815939141975 135.77919441850463 0 135.77919441850463 -50.514608543203451 0 0 0 0 -4.7646503680387617 0.4849599356256471 0 0.4849599356256471 -0.37467011922810262 0 0 0 0 133.88480810432884 -207.22122136178666 0 -207.22122136178666 291.7081100120987 0 0 0 0 221.2854694561338 -204.11841062458154 0 -204.11841062458154 251.46453007098631 0 0 0 0 -824.13784724786137 116.14846187381083 0 116.14846187381083 -36.721041245874119 0 0 0 0 -1113.2230756672661 292.0266993046755 0 292.0266993046755 51.275280451827399 0 0 0 0 -830.82936819228189 50.376341350555414 0 50.376341350555414 30.169396366422916 0 0 0 0 -73.690690100740085 85.949052604251619 0 85.949052604251619 -81.333898923865945 0 0 0 0 -91.60570399090409 29.524035878241875 0 29.524035878241875 -8.4394874862086908 0 0 0 0 -39.457827684951781 10.700755588807169 0 10.700755588807169 -8.055644765840043 0 0 0 0 -37.455480053736665 3.1277418113081694 0 3.1277418113081694 4.0934663017551429 0 0 0 0 -48.17790158346088 6.89821119337239 0 6.89821119337239 15.050831570065839 0 0 0 0 -48.675142845171194 5.2398047507595038 0 5.2398047507595038 9.6290182701750382 0 0 0 0 -3.3752346242833848 -0.011802403923921734 0 -0.011802403923921734 -0.68284656360621199 0 0 0 0 -36.965062890569968 13.340116875789604 0 13.340116875789604 2.2258998158504255 0 0 0 0 -16.588905397143435 58.636025325467244 0 58.636025325467244 -80.424225117904371 0 0 0 0 -78.346667695014276 122.05323667373284 0 122.05323667373284 -84.541402034621569 0 0 0 0 -27.490393495352407 97.76112110884236 0 97.76112110884236 -165.10346989343998 0 0 0 0 -70.947800921394673 100.89180390190597 0 100.89180390190597 -32.653597145949334 0 0 0 0 -61.59042274357239 36.229596273467223 0 36.229596273467223 -16.633574610827509 0 0 0 0 -81.025607968921236 42.253305103515231 0 42.253305103515231 -98.526704835048804 0 0 0 0 -96.9343302664752 105.91242182408314 0 105.91242182408314 -83.795738202912389 0 0 0 0 -76.289692344497098 63.422731405254353 0 63.422731405254353 -51.946051973934118 0 0 0 0 -0.596613212573603 -0.23641597440170292 0 -0.23641597440170292 -0.15135310141350811 0 0 0 0 -58.484715797525496 -21.595773953778234 0 -21.595773953778234 -16.970439336637583 0 0 0 0 -72.807054044753443 59.804080800449583 0 59.804080800449583 -51.356194240468824 0 0 0 0 0.93300730140301424 0.087386026539856276 0 0.087386026539856276 0.96795937846893931 0 0 0 0 -7.9250144113667425 0.40766979829282118 0 0.40766979829282118 3.882729856193202 0 0 0 0 -27.631490698571355 20.698491978624986 0 20.698491978624986 22.926012104131132 0 0 0 0 -30.919456427162174 -6.3815458296176075 0 -6.3815458296176075 0.61433438081985514 0 0 0 0 -30.978140778550326 -12.135429760079205 0 -12.135429760079205 -13.774742779591406 0 0 0 0 -63.092147534574451 -10.716377760851174 0 -10.716377760851174 9.6101648352096163 0 0 0 0 -48.369719824593403 18.271031729591868 0 18.271031729591868 5.8864152712476425 0 0 0 0 -2.2406772536477391 0.12210159304238566 0 0.12210159304238566 -0.10570846221931984 0 0 0 0 -34.529029299524886 0.046230434625008421 0 0.046230434625008421 2.3340513190975782 0 0 0 0 -43.523542595169658 19.820720110671687 0 19.820720110671687 26.747282934252326 0 0 0 0 -24.389208910231332 -7.1056209359308014 0 -7.1056209359308014 9.8661650069954021 0 0 0 0 -41.546721092211328 -9.9325313316796837 0 -9.9325313316796837 23.278669404314769 0 0 0 0 68.15977557215956 -78.220832431318513 0 -78.220832431318513 -137.36274332185394 0 0 0 0 -271.0309259577698 -27.401028479122942 0 -27.401028479122942 244.91692235178925 0 0 0 0 0.50715995258775592 55.816597120353435 0 55.816597120353435 11.033875406038987 0 0 0 0 26.925304562543715 33.228264069437046 0 33.228264069437046 -10.282539844129133 0 0 0 0 27.309929212532552 -144.79363301165199 0 -144.79363301165199 -32.252565615974163 0 0 0 0 -8.1554018440954099 -0.23889728052446557 0 -0.23889728052446557 3.3637721698307992 0 0 0 0 -8.977732348284917 -177.47661775337565 0 -177.47661775337565 40.153165516141598 0 0 0 0 -80.801202023807491 -120.72493460611327 0 -120.72493460611327 169.89708331365728 0 0 0 0 -153.50308568237233 0.060489633029192191 0 0.060489633029192191 157.35524127692042 0 0 0 0 1.2000204023934202 59.358445417013172 0 59.358445417013172 -36.526821061679129 0 0 0 0 -80.587079279954196 -125.04695580010775 0 -125.04695580010775 -204.92213753111719 0 0 0 0 -19.367880654233886 134.29851413897268 0 134.29851413897268 51.905362384547516 0 0 0 0 -93.484295331076282 55.008480081675316 0 55.008480081675316 132.89478961346322 0 0 0 0 -60.766683845293301 52.348729076366908 0 52.348729076366908 129.54283465543722 0 0 0 0 -59.772767984297388 10.763258386687994 0 10.763258386687994 111.04619287237347 0 0 0 0 -59.328566513972874 51.239092144433926 0 51.239092144433926 68.928688468202381 0 0 0 0 -54.521499343191408 -0.36434163051717405 0 -0.36434163051717405 81.231249619519076 0 0 0 0 -28.124187665849604 -7.8572247555093782 0 -7.8572247555093782 74.365462567588111 0 0 0 0 -28.516551572269236 0.78781248030554707 0 0.78781248030554707 65.61296394105193 0 0 0 0 -28.043956453740975 14.186821181737287 0 14.186821181737287 49.200909383861472 0 0 0 0 -61.388430736782539 -1.1546630776242637 0 -1.1546630776242637 49.832016788046531 0 0 0 0 -31.005213806488172 -2.1942421994129706 0 -2.1942421994129706 -0.28566724554345857 0 0 0 0 -48.557063640455453 5.8649570229481469 0 5.8649570229481469 37.748295048157161 0 0 0 0 -25.133675298841808 -37.331469066262343 0 -37.331469066262343 -4.8516549914047573 0 0 0 0 -10.764211011514842 -3.3039476301040431 0 -3.3039476301040431 -3.223036594544356 0 0 0 0 -20.649080471969569 10.939473925214998 0 10.939473925214998 -2.8289004024763926 0 0 0 0 -4.7757520994398286 6.0851675895387141 0 6.0851675895387141 3.4330854913178808 0 0 0 0 -31.95367077832077 -8.3397243617453114 0 -8.3397243617453114 20.233180934583288 0 0 0 0 -7.6468195233210281 -11.776013120452262 0 -11.776013120452262 -26.336161120851102 0 0 0 0 -7.278295039751054 -0.63884921154539409 0 -0.63884921154539409 0.13803659651778055 0 0 0 0 -16.684627184815326 1.9681588781049868 0 1.9681588781049868 1.9181756468124149 0 0 0 0 13.634874017650873 -24.64535413507474 0 -24.64535413507474 -24.624535418957748 0 0 0 0 -267.27382105628567 -93.586139431366973 0 -93.586139431366973 -50.267657568261257 0 0 0 0 2.3984257591619098 -27.390420933074893 0 -27.390420933074893 -25.173681539689369 0 0 0 0 -3.4654670466347444 -0.13130050876225363 0 -0.13130050876225363 -1.0562649268814595 0 0 0 0 -8.7351544711618772 -3.7224936467100633 0 -3.7224936467100633 6.656416766400298 0 0 0 0 -16.88009875195775 -3.5481638915517388 0 -3.5481638915517388 -1.6563380547507665 0 0 0 0 -17.86915333850262 -0.51845863559353234 0 -0.51845863559353234 0.023923113301382415 0 0 0 0 0.50243634875550924 -48.111065644058726 0 -48.111065644058726 20.302012795032624 0 0 0 0 -16.554405084109938 -9.0021222956274265 0 -9.0021222956274265 -3.9382500733214338 0 0 0 0 -14.381505844598831 -5.5153270549254909 0 -5.5153270549254909 -2.0381717782795743 0 0 0 0 -9.3752612038915686 -8.9896067390936878 0 -8.9896067390936878 11.508750495565437 0 0 0 0 -19.206525759990271 1.1333896482855597 0 1.1333896482855597 1.7921520078003201 0 0 0 0 4.3658860863142763 -26.368482637254147 0 -26.368482637254147 59.879547034995994 0 0 0 0 -12.009218630981195 -8.2253512492152367 0 -8.2253512492152367 47.693783606111992 0 0 0 0 4.8789559073989039 -41.967013948344785 0 -41.967013948344785 73.105155328992623 0 0 0 0 -4.0785472075367579 -20.116843143028746 0 -20.116843143028746 58.522935731054531 0 0 0 0 -27.845654092663608 -8.8394927533054215 0 -8.8394927533054215 64.637888239743006 0 0 0 0 -17.866158489696318 -19.214707434872253 0 -19.214707434872253 73.562416054427558 0 0 0 0 -15.637586575521709 -21.703881282242492 0 -21.703881282242492 74.6625595886253 0 0 0 0 -15.208107450702755 -31.956777957411077 0 -31.956777957411077 81.310667386197565 0 0 0 0 -26.706593848590273 22.207894894309902 0 22.207894894309902 5.742990800716143 0 0 0 0 -41.880035228548877 -15.581143445221642 0 -15.581143445221642 -4.2128433853571323 0 0 0 0 -3.9829421567580923 0.83636153023561022 0 0.83636153023561022 1.883985914873973 0 0 0 0 -70.730089959544785 -2.4189532302916632 0 -2.4189532302916632 57.215288219836111 0 0 0 0 -30.043204914961855 -7.9061289510312882 0 -7.9061289510312882 -2.0669801835107755 0 0 0 0 -21.343653792613622 6.8786332484091872 0 6.8786332484091872 15.570353633584091 0 0 0 0 -36.449554575977345 -67.472943505866169 0 -67.472943505866169 31.607292976401709 0 0 0 0 33.26209704140183 95.353181878573309 0 95.353181878573309 -250.24860358398018 0 0 0 0 -154.28837378139451 -38.93929226074988 0 -38.93929226074988 23.096217478807375 0 0 0 0 -0.1667859876252642 -3.1065334714109794 0 -3.1065334714109794 -2.0190195947685878 0 0 0 0 187.22290939166578 68.117816919949746 0 68.117816919949746 -232.10981774361562 0 0 0 0 -1.1783244918757152 0.95427655319692306 0 0.95427655319692306 -0.39067804952517116 0 0 0 0 -31.780721773261575 -34.131615157529495 0 -34.131615157529495 -92.250654937208765 0 0 0 0 -94.23247579648887 8.6116137960311789 0 8.6116137960311789 52.006545190640736 0 0 0 0 13.166460594851742 21.196177440465362 0 21.196177440465362 -42.159292189021471 0 0 0 0 -17.255024701290495 -18.766322896903603 0 -18.766322896903603 -11.591592442578985 0 0 0 0 -14.31219881648758 -17.960410059654805 0 -17.960410059654805 -11.508459780946396 0 0 0 0 32.566440512676309 2.2266000599606741 0 2.2266000599606741 -38.675525358376262 0 0 0 0 44.453054960741611 -44.274025262830946 0 -44.274025262830946 -9.6121706492332919 0 0 0 0 -58.470279873007371 -226.34074242411759 0 -226.34074242411759 -353.21480440016398 0 0 0 0 -28.89292367375856 -39.164648665803725 0 -39.164648665803725 91.9071329535941 0 0 0 0 -27.005700006116296 -7.8245794469023027 0 -7.8245794469023027 -1.8362451351714206 0 0 0 0 -91.233540753685247 -76.532511261756554 0 -76.532511261756554 123.90708288835049 0 0 0 0 -4.3892398698262696 25.78557922712389 0 25.78557922712389 -180.54888605067686 0 0 0 0 27.100702390458764 71.759222426903307 0 71.759222426903307 -131.32025338609583 0 0 0 0 0.1301168272067148 1.3897150149905668 0 1.3897150149905668 -0.23493746079717193 0 0 0 0 101.7953555193244 -43.151659220687861 0 -43.151659220687861 -165.61344288864234 0 0 0 0 -189.33554112661204 123.9872048014746 0 123.9872048014746 -103.37213561652391 0 0 0 0 -270.07049725628804 -28.419810088474492 0 -28.419810088474492 -54.822662903475248 0 0 0 0 -118.146092634669 0.27359719671596849 0 0.27359719671596849 -91.558546473937781 0 0 0 0 -83.219324184427023 42.254581410233527 0 42.254581410233527 -108.93214177156341 0 0 0 0 -138.33078649227105 17.599988777600288 0 17.599988777600288 -81.148286244944757 0 0 0 0 -2.8552273598488682 36.895070685940482 0 36.895070685940482 -119.33950160444533 0 0 0 0 -48.145352526539682 55.600419191605482 0 55.600419191605482 -65.614280321588907 0 0 0 0 -28.091848127304957 -4.4576512056248987 0 -4.4576512056248987 -72.83012067439995 0 0 0 0 -140.12712125377425 55.942674842661134 0 55.942674842661134 -76.700318969399859 0 0 0 0 -87.342387522820445 23.031942113835953 0 23.031942113835953 -56.739086222717958 0 0 0 0 183.3391200715073 4.7033860316075788 0 4.7033860316075788 -162.06658184556164 0 0 0 0 0.062225000411867626 0.58093960153874957 0 0.58093960153874957 -2.2188652417084249 0 0 0 0 -44.508835662848469 131.46661684853279 0 131.46661684853279 -230.14110578308308 0 0 0 0 64.221594476318842 -39.614290304141718 0 -39.614290304141718 -261.99388211416141 0 0 0 0 40.433098186949792 -32.378299878979192 0 -32.378299878979192 -110.99643876202867 0 0 0 0 -23.105820037944341 1.0580341189369165 0 1.0580341189369165 -73.347534218529518 0 0 0 0 -50.647021427314485 -49.68751189058753 0 -49.68751189058753 8.9810271636758898 0 0 0 0 -60.675922543160141 44.838680303914686 0 44.838680303914686 51.679664791542237 0 0 0 0 -93.350448604221356 89.86085632199422 0 89.86085632199422 -6.6401051448488033 0 0 0 0 -1.0110701607645751 -21.578546069972845 0 -21.578546069972845 34.053536462888019 0 0 0 0 79.45956757244619 76.221896333205166 0 76.221896333205166 14.576743564107915 0 0 0 0 98.353631462092608 78.973664760368749 0 78.973664760368749 -10.240454101778141 0 0 0 0 -0.42656044199590104 1.6635464002955809 0 1.6635464002955809 -3.9262786861422132 0 0 0 0 100.94515214438343 -87.170555321822661 0 -87.170555321822661 -96.991957641084184 0 0 0 0 -26.46013325007516 -15.6969471182083 0 -15.6969471182083 82.671731662973741 0 0 0 0 -5.3392099532650263 -30.752605522363922 0 -30.752605522363922 -33.697376233959858 0 0 0 0 -0.54649192148519887 -10.361870243366639 0 -10.361870243366639 -40.822390506292095 0 0 0 0 -146.80993913787188 99.62918230969936 0 99.62918230969936 -19.742685733067518 0 0 0 0 -105.51150742125037 33.013837624232863 0 33.013837624232863 58.660837666349607 0 0 0 0 -187.4764973712613 118.66930545857866 0 118.66930545857866 5.1679942236934835 0 0 0 0 -120.07132913905298 103.01422994398365 0 103.01422994398365 -21.729153293157992 0 0 0 0 -122.6162187341065 97.585988854712113 0 97.585988854712113 -26.313404987874719 0 0 0 0 -84.982012146890384 86.26267263959781 0 86.26267263959781 -87.162852849100773 0 0 0 0 -97.806815750885107 113.56294446647576 0 113.56294446647576 -32.545738052393858 0 0 0 0 -48.623345926194816 28.088674365146858 0 28.088674365146858 -42.594272370896761 0 0 0 0 -128.61940258895538 167.20457861299195 0 167.20457861299195 -118.83417402850472 0 0 0 0 -34.338504577898675 71.029348185636422 0 71.029348185636422 -196.81819821127294 0 0 0 0 -235.78892131099883 -11.911132503191993 0 -11.911132503191993 -26.341926725761141 0 0 0 0 -21.442847868695253 88.080138641467911 0 88.080138641467911 16.05309847478452 0 0 0 0 -100.83518514588286 -1.9893684032898591 0 -1.9893684032898591 119.13440595096196 0 0 0 0 -63.068843714125137 -62.577811123142581 0 -62.577811123142581 27.650229222929283 0 0 0 0 -62.074803354346841 35.358845193971433 0 35.358845193971433 -31.897105184387783 0 0 0 0 -51.893554896076864 54.470496524402883 0 54.470496524402883 -76.569773207781964 0 0 0 0 18.270966435836044 18.419505247801759 0 18.419505247801759 -159.50503829995495 0 0 0 0 52.229705835220216 -41.76337708168063 0 -41.76337708168063 -111.75982907275579 0 0 0 0 57.213698934996046 107.09822790385655 0 107.09822790385655 -237.93729973625915 0 0 0 0 -0.037526559709149865 0.60229305872108441 0 0.60229305872108441 -2.2290191556134342 0 0 0 0 19.667309154858003 45.410462829394945 0 45.410462829394945 -240.83368051957214 0 0 0 0 17.775024282765116 68.795068648817391 0 68.795068648817391 -155.09720384784657 0 0 0 0 -87.08299306144545 147.50484393338579 0 147.50484393338579 -199.8141996262529 0 0 0 0 -0.65549718029816795 -0.056156839590050911 0 -0.056156839590050911 -0.66022077899889542 0 0 0 0 24.229420138589376 8.8562748579894901 0 8.8562748579894901 -65.13811184004885 0 0 0 0 -26.944092692538106 65.470501404044853 0 65.470501404044853 -40.618855800337087 0 0 0 0 -143.57932957432422 50.075096850190903 0 50.075096850190903 89.473736887825197 0 0 0 0 -65.018343346597248 63.033731819262925 0 63.033731819262925 17.015924760620237 0 0 0 0 -111.94866170612659 135.07557132852787 0 135.07557132852787 -60.424305901372691 0 0 0 0 -29.016332499929376 17.200686724463139 0 17.200686724463139 25.136541308187589 0 0 0 0 -49.698957142574272 74.157435029790349 0 74.157435029790349 -10.085067968189605 0 0 0 0 48.293048496051142 72.316849988508125 0 72.316849988508125 -48.288911846537303 0 0 0 0 -12.883745875184632 4.0385893891072726 0 4.0385893891072726 -2.608220759359146 0 0 0 0 -22.528454344388855 -4.622946522063426 0 -4.622946522063426 17.361622374223423 0 0 0 0 -42.217893784632793 24.482860951841417 0 24.482860951841417 -70.710038346612635 0 0 0 0 -165.16341663741696 36.851306967058008 0 36.851306967058008 29.983340781118727 0 0 0 0 -86.120292843304924 27.540678124818442 0 27.540678124818442 -11.370508780983073 0 0 0 0 -31.790444010346164 6.8586968424711117 0 6.8586968424711117 -41.707154179836692 0 0 0 0 -10.922399797911339 -4.6142930372857514 0 -4.6142930372857514 -84.437403027456227 0 0 0 0 -30.313731156921005 7.5853839001382966 0 7.5853839001382966 -60.499978636270896 0 0 0 0 -10.285749673405604 -2.8549184989442935 0 -2.8549184989442935 -90.109997522837375 0 0 0 0 -13.872900245806653 1.239300317728381 0 1.239300317728381 -0.2467024314720796 0 0 0 0 -51.508908503208431 10.482514678914868 0 10.482514678914868 -54.408423343942331 0 0 0 0 -66.685103409892179 38.55413730000069 0 38.55413730000069 -79.545268391624973 0 0 0 0 -10.139096813639071 3.3495126388944527 0 3.3495126388944527 -95.078342989493621 0 0 0 0 -41.355539933368505 16.20975998177056 0 16.20975998177056 -80.228356668344986 0 0 0 0 -11.504229119992033 2.8945191290456478 0 2.8945191290456478 -84.456812430408434 0 0 0 0 -0.24665562112392081 -3.0290067623560901 0 -3.0290067623560901 -87.833624289031263 0 0 0 0 -9.9388026310375608 -7.8399839431681357 0 -7.8399839431681357 -89.477926126934278 0 0 0 0 -28.105353015775449 -24.282896795103852 0 -24.282896795103852 7.9096105661665206 0 0 0 0 -51.470863447611691 12.308040744169148 0 12.308040744169148 -49.372052389842771 0 0 0 0 -21.661739361711227 -9.5819926902157135 0 -9.5819926902157135 -48.642271697067599 0 0 0 0 -63.068993334653214 9.3496761148730911 0 9.3496761148730911 -24.525611191922508 0 0 0 0 -90.067956208933367 36.63576571269607 0 36.63576571269607 -52.100222307944946 0 0 0 0 -101.11541396701705 25.221395126191055 0 25.221395126191055 -57.594239102347728 0 0 0 0 -102.99313275693044 29.190993750885582 0 29.190993750885582 -33.878679263428694 0 0 0 0 -69.370067203634562 39.13306784995666 0 39.13306784995666 -32.999425463175498 0 0 0 0 -40.168831000905016 45.234542933315709 0 45.234542933315709 -29.677314346127787 0 0 0 0 -65.290984681857481 24.187066225481317 0 24.187066225481317 14.389894386648848 0 0 0 0 -33.632239843939892 35.713205232530015 0 35.713205232530015 -63.031119096784778 0 0 0 0 -86.784826744598121 25.164164021813463 0 25.164164021813463 -60.840907863762595 0 0 0 0 -108.70210823234211 48.179197226274312 0 48.179197226274312 -39.00238967524092 0 0 0 0 -89.56915889950065 42.560306887473416 0 42.560306887473416 -38.244046246801076 0 0 0 0 -109.9718108780425 7.1931051347189054 0 7.1931051347189054 -51.408605778259982 0 0 0 0 -90.074810922262188 35.514359876766434 0 35.514359876766434 -45.387134137233716 0 0 0 0 -123.09968089714565 46.605581883004277 0 46.605581883004277 -47.970233459008966 0 0 0 0 -27.374931511094303 -89.179047285815926 0 -89.179047285815926 -105.28750651191285 0 0 0 0 -75.942343617912115 15.402719885867441 0 15.402719885867441 -54.284471553701678 0 0 0 0 -182.92204666499913 -102.02225510727317 0 -102.02225510727317 -31.72667977265553 0 0 0 0 -201.49118424397227 16.337473818679861 0 16.337473818679861 -44.075458791076926 0 0 0 0 -127.97743320024853 69.44896473319389 0 69.44896473319389 -94.327928350014218 0 0 0 0 -134.45058981424677 35.83067215100246 0 35.83067215100246 -47.41003408470408 0 0 0 0 -128.89995998712811 148.61962696193405 0 148.61962696193405 -224.12337279009037 0 0 0 0 -5.1508560297611128 -0.035551043817487249 0 -0.035551043817487249 -0.18162949616491403 0 0 0 0 -1.3921607797889237 7.3863407976776472 0 7.3863407976776472 -133.432725248938 0 0 0 0 -417.58630170090362 -144.72680124944986 0 -144.72680124944986 -22.647992717086368 0 0 0 0 -384.04150738877252 121.30513724003755 0 121.30513724003755 -74.042582539380049 0 0 0 0 3.2749497027698453 -213.52170916727061 0 -213.52170916727061 -199.2443997477458 0 0 0 0 70.880339845568415 197.64618663646934 0 197.64618663646934 29.321718223195148 0 0 0 0 140.3241554787524 76.415600134496458 0 76.415600134496458 -51.967978329855441 0 0 0 0 -9.0801830868734754 8.9759439876232285 0 8.9759439876232285 -8.1567019790693784 0 0 0 0 31.073783572114962 -35.632443650615414 0 -35.632443650615414 -51.307061382928055 0 0 0 0 -47.053356696550509 -59.50720101490856 0 -59.50720101490856 -39.446908781148132 0 0 0 0 -100.99631464809795 -121.95543701561644 0 -121.95543701561644 -37.466575171171655 0 0 0 0 -119.77286161483562 -92.619067388960389 0 -92.619067388960389 -40.539522828054828 0 0 0 0 -71.372165577330861 -55.694436071343887 0 -55.694436071343887 -24.311699593606022 0 0 0 0 -69.12094222095584 -78.582339628608679 0 -78.582339628608679 -69.694177854707959 0 0 0 0 -106.67956588181187 -34.808943412306689 0 -34.808943412306689 -47.019521151774825 0 0 0 0 -64.246438647612649 1.7489265316162346 0 1.7489265316162346 -151.85592835276566 0 0 0 0 -34.750367922068108 -47.434951787814953 0 -47.434951787814953 -107.54094780221294 0 0 0 0 -103.92181930019797 -62.39367195347404 0 -62.39367195347404 -9.3163215796698751 0 0 0 0 -54.755759524758105 -163.47554249263067 0 -163.47554249263067 -188.71185919490836 0 0 0 0 -67.207520659783768 -46.749723391507359 0 -46.749723391507359 1.4818583043233957 0 0 0 0 -19.12871108607942 -69.450013170198872 0 -69.450013170198872 11.683160849091109 0 0 0 0 -199.16854816267005 -131.90273906987113 0 -131.90273906987113 -61.633530537406841 0 0 0 0 7.8105526520193962 -109.01018707514822 0 -109.01018707514822 -109.46022621144584 0 0 0 0 -252.65650471449044 -14.404282665922892 0 -14.404282665922892 3.4616413779622235 0 0 0 0 -146.16380514806224 33.075833912775124 0 33.075833912775124 12.284809926609341 0 0 0 0 -47.112455440012127 30.683447725432416 0 30.683447725432416 151.04924527558251 0 0 0 0 70.757418186285918 -23.749750455853686 0 -23.749750455853686 12.744896507434532 0 0 0 0 37.334281512517919 22.65117250385606 0 22.65117250385606 -25.160352005908408 0 0 0 0 12.830463269903021 -11.622515152670246 0 -11.622515152670246 -67.139441833124806 0 0 0 0 75.484400591711164 137.40142900601086 0 137.40142900601086 136.70245856264683 0 0 0 0 -9.6876822781408869 8.308862005016632 0 8.308862005016632 -6.6157658482745356 0 0 0 0 -3.0668016796326887 -0.25464250295784563 0 -0.25464250295784563 2.1363900619132927 0 0 0 0 17.029927165187246 -8.8348323605116548 0 -8.8348323605116548 78.36454858142406 0 0 0 0 -16.954044734816307 10.089568638394098 0 10.089568638394098 -45.568621215795361 0 0 0 0 -9.6494756738265881 5.5793991874503028 0 5.5793991874503028 -2.5639617917482265 0 0 0 0 -57.7814382874285 46.444645129919763 0 46.444645129919763 111.69390975411022 0 0 0 0 -20.846860602796369 65.300045295598693 0 65.300045295598693 67.237282270109517 0 0 0 0 -57.267570504295691 -24.221485134661862 0 -24.221485134661862 33.641445689293505 0 0 0 0 -81.046113063208395 23.481136246543429 0 23.481136246543429 71.633388232696916 0 0 0 0 -49.634800364739931 -3.156945059651207 0 -3.156945059651207 -2.5658591626103089 0 0 0 0 -48.960913522082336 -40.803260350769747 0 -40.803260350769747 -31.210789954258871 0 0 0 0 -2.6521619685063342 -16.090985897938708 0 -16.090985897938708 -44.093757894364899 0 0 0 0 -39.939899449935183 -18.484359063469469 0 -18.484359063469469 44.266413255928455 0 0 0 0 -8.2558515270910675 -2.2838934471484444 0 -2.2838934471484444 -0.3890266268454674 0 0 0 0 -24.958380630717556 -44.232548360065039 0 -44.232548360065039 12.794133060076092 0 0 0 0 31.975979607895056 9.2681511354147403 0 9.2681511354147403 -64.576271625116533 0 0 0 0 -30.943304406971151 9.3086383800657586 0 9.3086383800657586 -119.50984057542291 0 0 0 0 10.139317476823919 -53.458812533187711 0 -53.458812533187711 -179.9460923955578 0 0 0 0 -10.714000928594714 -61.300196036632087 0 -61.300196036632087 -167.21281917034912 0 0 0 0 -170.63087105006639 -150.87205179534612 0 -150.87205179534612 -72.211203280448103 0 0 0 0 -112.64189814043561 -110.60366598255837 0 -110.60366598255837 -65.171393782374366 0 0 0 0 -110.74836251722778 -99.669603784948379 0 -99.669603784948379 -35.084287883530806 0 0 0 0 -62.148231818128465 -16.352160919327815 0 -16.352160919327815 -6.8796533176944195 0 0 0 0 -165.5385826963859 -67.056409468065453 0 -67.056409468065453 -16.941995683388313 0 0 0 0 -56.097905411513807 15.045419673722279 0 15.045419673722279 32.931488582905217 0 0 0 0 -9.0799362819433327 -84.292935455020711 0 -84.292935455020711 -375.38612536123827 0 0 0 0 -2.8511853391885618 -0.61377835209481102 0 -0.61377835209481102 -0.35653885358323589 0 0 0 0 -229.50766315130846 -80.087664397178401 0 -80.087664397178401 -69.76687693783856 0 0 0 0 -92.394630634732493 92.181982145234542 0 92.181982145234542 -153.23370400387063 0 0 0 0 -77.245446038885916 -147.00092733032 0 -147.00092733032 -171.54895487454382 0 0 0 0 -100.66496466682861 31.980569263953953 0 31.980569263953953 28.150068936400885 0 0 0 0 42.766434816717322 -8.1560829472366834 0 -8.1560829472366834 -96.733270774680022 0 0 0 0 -38.919063700267657 20.813649865539787 0 20.813649865539787 27.079523951229476 0 0 0 0 -33.341632379977455 23.687003983533032 0 23.687003983533032 28.272340538763956 0 0 0 0 -60.111105586258304 -39.890863706584582 0 -39.890863706584582 76.422438275606169 0 0 0 0 -69.202268549247378 23.726672447501642 0 23.726672447501642 40.440092391328562 0 0 0 0 -58.068933019806366 -18.352083527563082 0 -18.352083527563082 -75.872955239402927 0 0 0 0 -1.9462087448328589 -85.250537610178412 0 -85.250537610178412 -18.568130975142708 0 0 0 0 27.624490759755815 -68.210480205691738 0 -68.210480205691738 -153.29368811577112 0 0 0 0 61.415399797513501 -6.2767502786996374 0 -6.2767502786996374 -127.79106526646888 0 0 0 0 -6.0755964978654777 -5.5009953181675488 0 -5.5009953181675488 -3.9966546736666495 0 0 0 0 68.938283511620455 -7.3467856495540786 0 -7.3467856495540786 -23.630718392392282 0 0 0 0 -10.699230942430404 -1.6994190518948926 0 -1.6994190518948926 -20.221245907451703 0 0 0 0 42.312865819806461 62.677231265155342 0 62.677231265155342 50.474077774870238 0 0 0 0 -13.426687122724625 4.1788695103878721 0 4.1788695103878721 -0.5939801830750473 0 0 0 0 -2.5734989008515186 28.15121452207768 0 28.15121452207768 -57.096618982769542 0 0 0 0 -6.359042533381853 30.030541215951871 0 30.030541215951871 -53.105492018985387 0 0 0 0 -6.1186290357429698 24.269796787972183 0 24.269796787972183 21.270620472248993 0 0 0 0 -5.3435992874783551 25.480663142484445 0 25.480663142484445 -43.796655665425533 0 0 0 0 -31.967743212395362 37.555501121360521 0 37.555501121360521 34.624962853636816 0 0 0 0 -34.374044860049253 64.013337974738988 0 64.013337974738988 -5.3273010019975118 0 0 0 0 -31.882642767051948 45.762836497521675 0 45.762836497521675 43.016443404821985 0 0 0 0 -79.196428800264584 -56.679236028734977 0 -56.679236028734977 123.53889881116652 0 0 0 0 -20.506138417199509 -21.14454218219521 0 -21.14454218219521 85.15430755820455 0 0 0 0 -5.6243720590170732 3.3525219786530176 0 3.3525219786530176 1.5229506976205966 0 0 0 0 -33.955689612542592 -0.11698026406811435 0 -0.11698026406811435 0.64792775712402118 0 0 0 0 -32.540880802171841 17.949077340670783 0 17.949077340670783 21.813975817726487 0 0 0 0 -17.901724437233668 14.337529789152882 0 14.337529789152882 -10.481041524472403 0 0 0 0 -33.194198740071442 30.998038541131564 0 30.998038541131564 47.571156464009619 0 0 0 0 -12.481332365222084 -4.7520280245031525 0 -4.7520280245031525 -4.5940463930303359 0 0 0 0 -17.561435605750006 3.4863342656405454 0 3.4863342656405454 -1.6443574426053078 0 0 0 0 -146.58871559537465 289.65531201960835 0 289.65531201960835 -399.96261407774 0 0 0 0 -632.61243857990121 530.36083032721399 0 530.36083032721399 -309.34464643708088 0 0 0 0 -722.89846300239947 381.72299013458996 0 381.72299013458996 -50.257202550931652 0 0 0 0 -176.56374416169433 304.53021090635411 0 304.53021090635411 -198.80363360026467 0 0 0 0 -115.55357806742722 115.18165557394605 0 115.18165557394605 -116.21573199533304 0 0 0 0 80.452699327635642 -49.901181079695561 0 -49.901181079695561 -138.69957583772151 0 0 0 0 -249.95451486171868 192.09944590441967 0 192.09944590441967 -149.55311327595246 0 0 0 0 -14.400845153776796 -1.677988792949237 0 -1.677988792949237 -1.6118589593479467 0 0 0 0 -74.436667387756188 -23.203275201660063 0 -23.203275201660063 114.1961607805747 0 0 0 0 -21.959159973274382 27.106357995904546 0 27.106357995904546 32.552377604042704 0 0 0 0 -26.311619180327853 -259.37103376883761 0 -259.37103376883761 -109.14010686593338 0 0 0 0 -768.76513385725411 235.11215950090809 0 235.11215950090809 -338.35862729233122 0 0 0 0 -2.6871078094804668 3.0145476120066217 0 3.0145476120066217 -2.2389259218789022 0 0 0 0 -656.88704573540508 -483.04216465984291 0 -483.04216465984291 -8.7002961708913062 0 0 0 0 -1195.4951788703904 85.000244074874445 0 85.000244074874445 127.25792465347877 0 0 0 0 -5.7421387502073404 1.8217150338010279 0 1.8217150338010279 -0.55898087548270259 0 0 0 0 -963.61572552058169 199.19883729907542 0 199.19883729907542 83.612907090987619 0 0 0 0 -130.00874008331539 151.5109739682789 0 151.5109739682789 -297.94159697234863 0 0 0 0 -449.15560428047115 413.14164019312682 0 413.14164019312682 -497.01099966230299 0 0 0 0 -1.8449860412073349 17.560172246092975 0 17.560172246092975 -184.34625054721255 0 0 0 0 108.21560905147544 65.504386884236965 0 65.504386884236965 -65.476889242231209 0 0 0 0 3.1328910781426202 -158.3178178063481 0 -158.3178178063481 -109.9777833281837 0 0 0 0 -508.3947563774957 -256.56207304877489 0 -256.56207304877489 -4.8055779512077379 0 0 0 0 -1253.0487335653181 280.73349299341044 0 280.73349299341044 66.724735684059851 0 0 0 0 -609.14902745337895 111.50683384275635 0 111.50683384275635 111.06083089503181 0 0 0 0 -487.62118035543494 80.704039206793254 0 80.704039206793254 53.085667387467765 0 0 0 0 -526.02850026188878 -65.714336748777384 0 -65.714336748777384 13.329581766282899 0 0 0 0 -267.02282560386311 -83.485493365035836 0 -83.485493365035836 -0.80239396671572649 0 0 0 0 -398.95148220209308 95.534388224566328 0 95.534388224566328 -30.630134991154591 0 0 0 0 62.6717763505074 -31.639593435124254 0 -31.639593435124254 -113.92955958705079 0 0 0 0 -2.7341377775968092 -1.8256598441073431 0 -1.8256598441073431 -1.5009576651701106 0 0 0 0 -198.55771765187336 -98.685120829755078 0 -98.685120829755078 34.444700098789383 0 0 0 0 -104.91628376934568 33.525064346056297 0 33.525064346056297 0.23536427571616514 0 0 0 0 -188.13563398472508 -46.476716984920813 0 -46.476716984920813 -215.71322303331704 0 0 0 0 -275.93993459540275 52.587098749562301 0 52.587098749562301 -15.63585518912214 0 0 0 0 -178.46699017101184 193.07443405234471 0 193.07443405234471 -231.34258568401322 0 0 0 0 -412.97026912167593 248.46639341544869 0 248.46639341544869 -25.694861872579168 0 0 0 0 -323.60347502286248 218.28009079530602 0 218.28009079530602 -235.70899337200888 0 0 0 0 -521.9730574986288 106.76826598549178 0 106.76826598549178 33.311012163048872 0 0 0 0 -428.8529411659805 224.07849866112383 0 224.07849866112383 -20.809219483126071 0 0 0 0 -423.1844741751018 264.14209626526122 0 264.14209626526122 -7.0243327234147728 0 0 0 0 -381.98844913274002 233.95702947450309 0 233.95702947450309 -31.553420540211846 0 0 0 0 -481.47094421558018 250.38562800803265 0 250.38562800803265 0.9042472319533772 0 0 0 0 -207.47252278184294 49.459908844176653 0 49.459908844176653 34.213856257058524 0 0 0 0 -400.90081417060276 196.23954084700063 0 196.23954084700063 -19.639717641380457 0 0 0 0 -434.18330766358361 311.01242183494583 0 311.01242183494583 -210.10450192521785 0 0 0 0 -631.77103694201253 183.3655765322701 0 183.3655765322701 58.556209904701063 0 0 0 0 -592.34050390624452 193.64805203184369 0 193.64805203184369 -256.36412942835295 0 0 0 0 -951.57595285561149 194.12571628189883 0 194.12571628189883 -403.04613017626707 0 0 0 0 -952.96825494885547 222.06917538922744 0 222.06917538922744 -146.62147443015147 0 0 0 0 -704.23563743324507 356.78010436069462 0 356.78010436069462 -241.51208457002122 0 0 0 0 -127.50137765022689 398.26042894451029 0 398.26042894451029 -313.14135022734013 0 0 0 0 -273.63403076938926 386.50724807245592 0 386.50724807245592 -308.96179357655819 0 0 0 0 -35.653370748820116 160.77757106939725 0 160.77757106939725 -396.75027304412379 0 0 0 0 220.67509390426596 73.792864324305128 0 73.792864324305128 -373.83238182272464 0 0 0 0 -0.93146578911364486 38.825249032675401 0 38.825249032675401 -56.186948161968303 0 0 0 0 -3.052367478053625 0.21818544254444561 0 0.21818544254444561 -1.3361246485366305 0 0 0 0 7.9726024070519088 -25.255482932533823 0 -25.255482932533823 -59.758241287244573 0 0 0 0 37.619524728248507 -141.50588781226179 0 -141.50588781226179 -168.29404847792102 0 0 0 0 -4.2576043933934047 -0.019228931347568867 0 -0.019228931347568867 -0.95200601432681753 0 0 0 0 -771.97521574983421 153.35634979057522 0 153.35634979057522 -38.524059709659241 0 0 0 0 -720.30980096446774 -255.20202899471565 0 -255.20202899471565 275.90664417130711 0 0 0 0 -664.1797369910214 373.43272342655268 0 373.43272342655268 -314.70729840134845 0 0 0 0 39.161206126781472 70.099404225244569 0 70.099404225244569 -291.64821283564834 0 0 0 0 238.44828971874438 -39.124087902762767 0 -39.124087902762767 -290.83559735436666 0 0 0 0 -437.26856445283977 -145.52243951905609 0 -145.52243951905609 184.32852310714247 0 0 0 0 -49.028841338417742 -62.41713779704267 0 -62.41713779704267 -294.17791303823651 0 0 0 0 150.72350565648395 -116.62074444383211 0 -116.62074444383211 -299.8676652907543 0 0 0 0 -37.948784982372672 -67.570974404930894 0 -67.570974404930894 49.767022577581656 0 0 0 0 -11.511024419414603 -1.7280157942244996 0 -1.7280157942244996 -0.80603218666127197 0 0 0 0 -2.121240310898429 -21.882929876639309 0 -21.882929876639309 -13.906458154705206 0 0 0 0 -5.7355025755728217 2.1778321284618638 0 2.1778321284618638 -1.8184077580811029 0 0 0 0 -108.98494586614197 29.331295344856926 0 29.331295344856926 30.266256611814697 0 0 0 0 -9.3394221215198741 24.400205295873889 0 24.400205295873889 2.3420919172269805 0 0 0 0 -20.4385359650787 15.314263887543348 0 15.314263887543348 17.833924335312986 0 0 0 0 2.8723540776463778 -6.8261693773724801 0 -6.8261693773724801 -130.62289125127063 0 0 0 0 -11.958231010721647 -39.409248381578436 0 -39.409248381578436 -53.40481952270693 0 0 0 0 9.0832056041272153 -9.0746102467583114 0 -9.0746102467583114 -73.144736134432605 0 0 0 0 -17.948969635690446 -1.9721583353921233 0 -1.9721583353921233 -21.870847071770186 0 0 0 0 80.741168788629693 -16.019127790035782 0 -16.019127790035782 -26.001800527217711 0 0 0 0 55.021132397663678 45.330046233434132 0 45.330046233434132 -10.770282051596951 0 0 0 0 51.774444276868508 -73.101695823457703 0 -73.101695823457703 -1.3656870438680926 0 0 0 0 -11.64796298035435 -41.436916866671254 0 -41.436916866671254 -9.295984826611857 0 0 0 0 -3.61112359015533 -52.223513719450239 0 -52.223513719450239 -22.525659162315605 0 0 0 0 -73.791898078998202 -17.768193067367065 0 -17.768193067367065 -38.781283766380511 0 0 0 0 -8.8788682380212762 5.707398676771561 0 5.707398676771561 0.14935050858881826 0 0 0 0 -17.017509119098303 -2.5019652863435677 0 -2.5019652863435677 7.3429012253431001 0 0 0 0 -48.095168724843461 -53.663719610922499 0 -53.663719610922499 -25.339126541375663 0 0 0 0 -20.629100016820303 -3.6431771061052132 0 -3.6431771061052132 93.921945963653343 0 0 0 0 -44.11760950860662 -62.088202363639539 0 -62.088202363639539 -22.990451552074774 0 0 0 0 -23.61979213631821 -78.928997538410954 0 -78.928997538410954 0.72429196570556087 0 0 0 0 -75.517869414174129 -44.344182283715782 0 -44.344182283715782 35.762046914770508 0 0 0 0 -5.459288882877388 0.084813572506777124 0 0.084813572506777124 2.3058431358424833 0 0 0 0 -104.13075309025953 -11.50550973119698 0 -11.50550973119698 -1.8276365272449766 0 0 0 0 -107.21153025868171 10.828653552683619 0 10.828653552683619 -2.1425089836302504 0 0 0 0 -25.672302406101153 29.895823897122682 0 29.895823897122682 1.7099869938901975 0 0 0 0 -103.50586245099839 -8.3530701369836606 0 -8.3530701369836606 -3.3927341304670335 0 0 0 0 -33.367281747679954 -21.235096240764278 0 -21.235096240764278 -15.413069906768783 0 0 0 0 -31.284153248753967 -10.284201451899092 0 -10.284201451899092 -7.3291978645139579 0 0 0 0 -16.742582688202674 -78.118617331047972 0 -78.118617331047972 -123.2504071556732 0 0 0 0 -1.8557299710307689 -11.945063900952562 0 -11.945063900952562 82.470403102189721 0 0 0 0 -30.9195843111047 -19.547774848645929 0 -19.547774848645929 -13.107144093482738 0 0 0 0 -6.3013261901026993 2.0192897345040066 0 2.0192897345040066 -0.74435476103886522 0 0 0 0 -16.68274924133847 2.8772200268584687 0 2.8772200268584687 5.8421940041056599 0 0 0 0 26.475570765214798 80.081264660353554 0 80.081264660353554 16.398366575290311 0 0 0 0 -12.842058192836703 -21.051316913651135 0 -21.051316913651135 -75.877352637091462 0 0 0 0 -74.870303298182762 50.822252117340327 0 50.822252117340327 -28.35648435600524 0 0 0 0 -47.747643478866848 -46.712160855302727 0 -46.712160855302727 -27.156399909582305 0 0 0 0 -32.756189543119035 -14.31072316216671 0 -14.31072316216671 -16.537102089509773 0 0 0 0 -1.4541096194177445 -4.6494654915903482 0 -4.6494654915903482 -0.60854581004972319 0 0 0 0 -32.632001102530012 -2.58117435413393 0 -2.58117435413393 11.821340040082912 0 0 0 0 -33.525853301558072 -11.27485920613357 0 -11.27485920613357 -5.4172430378564513 0 0 0 0 -20.232057521133303 -15.409111848784454 0 -15.409111848784454 -5.4517007894520422 0 0 0 0 -215.90094927943755 246.22043297574669 0 246.22043297574669 -58.460463742092543 0 0 0 0 -241.18795493709558 218.72759940206299 0 218.72759940206299 -93.772081690853611 0 0 0 0 -275.60741990859606 197.79988658193679 0 197.79988658193679 21.183504322441081 0 0 0 0 -462.44728736682873 324.63030556030049 0 324.63030556030049 -30.958490535148485 0 0 0 0 -328.85730852525649 190.83472169592949 0 190.83472169592949 23.484767032342006 0 0 0 0 -618.86147935216832 314.69407341792157 0 314.69407341792157 16.020077319318574 0 0 0 0 -477.18681788681533 287.3197727170184 0 287.3197727170184 -12.953605707310089 0 0 0 0 -415.95535741310141 218.58909125342666 0 218.58909125342666 -132.20595261717835 0 0 0 0 -985.44468312971503 -5.3849396717222362 0 -5.3849396717222362 133.40908591589141 0 0 0 0 -914.94452122156633 431.96662695462851 0 431.96662695462851 26.242579035637391 0 0 0 0 -511.32410707064446 285.31053348338918 0 285.31053348338918 48.42501174558447 0 0 0 0 -572.63935351847113 171.52502253872899 0 171.52502253872899 104.33825300479566 0 0 0 0 -260.78096051085959 -161.7673215902928 0 -161.7673215902928 -140.01247265951497 0 0 0 0 26.976050767798824 -12.844363525014188 0 -12.844363525014188 37.433676051196187 0 0 0 0 -20.544335286900395 -17.550646726280334 0 -17.550646726280334 4.5834639764144889 0 0 0 0 25.696821617332716 -8.9419177862800723 0 -8.9419177862800723 55.264089589925561 0 0 0 0 35.447629413469258 -29.982561143650287 0 -29.982561143650287 5.0413633759926597 0 0 0 0 -484.4762646778745 242.60821215278088 0 242.60821215278088 42.232468396171498 0 0 0 0 26.344060123879899 -13.013781007901571 0 -13.013781007901571 64.605998622334027 0 0 0 0 32.682585523174566 -29.141323971618419 0 -29.141323971618419 57.642714320094683 0 0 0 0 -4.4593776771699929 -2.3494837384343139 0 -2.3494837384343139 -1.8408166362779173 0 0 0 0 33.496525741684309 -30.929542753700048 0 -30.929542753700048 34.843950901056985 0 0 0 0 -399.23506964886747 162.67389724798522 0 162.67389724798522 -72.014888060368321 0 0 0 0 -206.83271858459921 50.390344225350532 0 50.390344225350532 -1.362438006642833 0 0 0 0 -141.44195269329703 28.949788632111108 0 28.949788632111108 4.222698418498112 0 0 0 0 -131.75391342295916 84.354825880461931 0 84.354825880461931 -82.428779107606715 0 0 0 0 -16.717457914468277 -18.577915501232155 0 -18.577915501232155 12.724703044178677 0 0 0 0 -100.69639282041044 36.992666488999816 0 36.992666488999816 -11.921499452217631 0 0 0 0 25.249997262994839 -49.972602385895698 0 -49.972602385895698 21.042472007828223 0 0 0 0 -352.87972893675669 125.33468515062145 0 125.33468515062145 -7.2503750212219984 0 0 0 0 -2.1359044724893614 -13.279735645789234 0 -13.279735645789234 -4.9689130620752273 0 0 0 0 -127.15862002313952 71.53421909596409 0 71.53421909596409 3.2209634444488984 0 0 0 0 -164.43022507705246 38.190021607943777 0 38.190021607943777 32.563486313597878 0 0 0 0 -46.322458151177671 -83.737186125688822 0 -83.737186125688822 27.94652209393962 0 0 0 0 -149.13305273955484 77.652284528227028 0 77.652284528227028 78.541541853271156 0 0 0 0 -148.84194291604354 71.440309484357158 0 71.440309484357158 30.739674631523485 0 0 0 0 13.677519438691888 78.868408261079367 0 78.868408261079367 7.9791131891938676 0 0 0 0 -3.0504771485781106 0.98639693195381817 0 0.98639693195381817 -0.050880013816972713 0 0 0 0 -131.59518005578957 142.31452362792334 0 142.31452362792334 41.133009540482362 0 0 0 0 -293.01191182612979 -125.05156260875341 0 -125.05156260875341 49.188754206831618 0 0 0 0 -55.59399213594952 94.003450612169672 0 94.003450612169672 -151.3187670842251 0 0 0 0 -326.60343258720422 90.861130031142693 0 90.861130031142693 86.823801125700811 0 0 0 0 -2.815800278360939 -19.723644591035509 0 -19.723644591035509 42.406151591595517 0 0 0 0 -4.3025409731117179 -30.720383944968944 0 -30.720383944968944 -38.907580069238065 0 0 0 0 -797.96310337972363 391.78676766069611 0 391.78676766069611 -347.26606142210403 0 0 0 0 -5.1664316070882723 -0.8812111962580933 0 -0.8812111962580933 -0.092675230886456461 0 0 0 0 -296.73451708371203 372.44277081749777 0 372.44277081749777 -333.03209812160731 0 0 0 0 -610.00193981580605 333.87406460902412 0 333.87406460902412 -309.02369452978019 0 0 0 0 -489.26344529622475 504.35533201980525 0 504.35533201980525 -345.08118596862499 0 0 0 0 -812.57360445923473 503.44960600891216 0 503.44960600891216 -160.56501215029675 0 0 0 0 -17.121136968715941 -21.726972112565456 0 -21.726972112565456 3.6668268357353995 0 0 0 0 -2.2466650641263461 -8.6470951375375815 0 -8.6470951375375815 -0.20373129103058041 0 0 0 0 -306.83586975563594 260.21599571815977 0 260.21599571815977 -156.81801604754526 0 0 0 0 57.176129904657728 -13.827321535969077 0 -13.827321535969077 12.284991177134543 0 0 0 0 -85.135689235342397 -36.974983225991082 0 -36.974983225991082 -20.264723837267468 0 0 0 0 -92.276179751163909 8.2098004148755308 0 8.2098004148755308 -13.102256160602096 0 0 0 0 -22.252938880017354 -0.60977960354350103 0 -0.60977960354350103 -0.056878761336688122 0 0 0 0 -70.120246074809998 3.1586442399200223 0 3.1586442399200223 3.4266979349396758 0 0 0 0 -76.246031546702852 -7.1538648412352472 0 -7.1538648412352472 0.065888221431578131 0 0 0 0 -106.18792475364398 29.342897978339096 0 29.342897978339096 48.008841065606475 0 0 0 0 -58.020857978505774 13.215193242909493 0 13.215193242909493 -6.3238838058633746 0 0 0 0 -69.712523011902078 10.932901323057258 0 10.932901323057258 0.12917033999563077 0 0 0 0 -94.052631548267527 -6.322805575288271 0 -6.322805575288271 41.128320199672999 0 0 0 0 -104.43450198856317 2.4236928236716722 0 2.4236928236716722 -6.2819398035969698 0 0 0 0 -39.795423113405377 -12.346940902801407 0 -12.346940902801407 -33.690072717218072 0 0 0 0 -110.85183979962301 -10.97070726321553 0 -10.97070726321553 -16.07908110255039 0 0 0 0 -38.737113500309533 13.2813098292429 0 13.2813098292429 -29.881030662940248 0 0 0 0 -28.04312207366047 7.0746344081188113 0 7.0746344081188113 -37.908325554371459 0 0 0 0 -36.156799491911443 9.9292429641020021 0 9.9292429641020021 -37.595444353665748 0 0 0 0 -35.524672546270267 11.066972599982847 0 11.066972599982847 -40.26170135402208 0 0 0 0 -71.107252709704966 11.230766670645028 0 11.230766670645028 -1.669877469629131 0 0 0 0 20.162959609100653 143.77911778753025 0 143.77911778753025 85.230685032774659 0 0 0 0 229.82383847434176 58.145499380136357 0 58.145499380136357 -286.22940405223926 0 0 0 0 231.81055279518841 -583.86678209175773 0 -583.86678209175773 -694.35657637324334 0 0 0 0 -226.08029055884253 -18.662119497386811 0 -18.662119497386811 -56.626014375794853 0 0 0 0 -463.15476269619558 -180.06092952174467 0 -180.06092952174467 -25.552705430783135 0 0 0 0 -57.242847563022224 -23.710654074442346 0 -23.710654074442346 -70.116628664783434 0 0 0 0 -50.547001889452076 6.0240785346463781 0 6.0240785346463781 -34.063982850369598 0 0 0 0 -78.115194991880344 33.132272839296661 0 33.132272839296661 37.881033400273736 0 0 0 0 -56.029090640882714 59.429762398838193 0 59.429762398838193 13.543285083070487 0 0 0 0 -25.921520528721885 32.250055676080137 0 32.250055676080137 156.96064170424506 0 0 0 0 3.3376832977145909 -16.348644987258467 0 -16.348644987258467 47.600644381634538 0 0 0 0 9.0412307086617147 -6.5950381677055248 0 -6.5950381677055248 40.465559065886666 0 0 0 0 -46.357998953252718 3.7663682932684424 0 3.7663682932684424 40.862279829271756 0 0 0 0 -14.321118256719274 -0.58267154208760985 0 -0.58267154208760985 -27.635266976169135 0 0 0 0 -32.724828970222461 -30.240125499130073 0 -30.240125499130073 8.5784932213000502 0 0 0 0 -28.253808006037616 -0.093071573910037841 0 -0.093071573910037841 31.903309753654639 0 0 0 0 -28.145719590072076 -31.088541103762282 0 -31.088541103762282 88.366198537989476 0 0 0 0 -160.03812034220482 -5.3529369256556265 0 -5.3529369256556265 38.941031644814302 0 0 0 0 -102.29538598238651 -69.683069421903156 0 -69.683069421903156 40.426185298380858 0 0 0 0 19.996848813749239 -24.705340198414888 0 -24.705340198414888 30.239751147337756 0 0 0 0 -81.731533806662355 -9.0492450757666347 0 -9.0492450757666347 31.862263943828566 0 0 0 0 -80.743948747164723 -22.16718555267164 0 -22.16718555267164 23.348071476802488 0 0 0 0 -11.962263834814276 -1.9616680092251055 0 -1.9616680092251055 -0.2116979869782778 0 0 0 0 -18.596149635524853 -14.152865257108033 0 -14.152865257108033 32.180256061251384 0 0 0 0 -29.299338693253958 -5.5802781088987103 0 -5.5802781088987103 23.292444396063274 0 0 0 0 -9.7752451634951285 -10.058111273971008 0 -10.058111273971008 21.108560575305546 0 0 0 0 -81.674524479130014 -57.538699322865568 0 -57.538699322865568 63.633438048406333 0 0 0 0 -2.2798498543364083 1.526543986803274 0 1.526543986803274 -0.31142944113273607 0 0 0 0 184.54721405927194 90.541132395674367 0 90.541132395674367 -146.52098629421744 0 0 0 0 2.7650605292074033 158.80787635952333 0 158.80787635952333 -137.32815349439352 0 0 0 0 -6.3372623163758881 2.2917879109609878 0 2.2917879109609878 -0.10390100361574328 0 0 0 0 -128.49663705910552 103.28312000282767 0 103.28312000282767 172.24224236770397 0 0 0 0 -34.726912154420461 29.119724214578923 0 29.119724214578923 154.07695377220534 0 0 0 0 -10.030202107591322 -3.8093742315854797 0 -3.8093742315854797 26.042654547217126 0 0 0 0 -19.096147321990429 -42.343341714945382 0 -42.343341714945382 -37.824290519611168 0 0 0 0 -3.9344922289263451 -0.11915755834684738 0 -0.11915755834684738 -0.029508308716254206 0 0 0 0 -69.853316563527187 259.19182371055967 0 259.19182371055967 -319.04176786115659 0 0 0 0 -315.68766591881194 90.964809448885717 0 90.964809448885717 -37.214834800050085 0 0 0 0 -16.178498600047988 -123.75008401820565 0 -123.75008401820565 34.465938358464882 0 0 0 0 49.744237679227808 107.4967993718808 0 107.4967993718808 -229.20580648028044 0 0 0 0 -156.78371594186865 13.831016822486617 0 13.831016822486617 348.54810266436857 0 0 0 0 -8.1492664781508211 -48.844098961954387 0 -48.844098961954387 -12.054267902951324 0 0 0 0 -7.0932362948020788 1.8171319541768121 0 1.8171319541768121 0.13674827937740641 0 0 0 0 -136.72901623491452 -105.55711913694608 0 -105.55711913694608 -35.61450072721891 0 0 0 0 -106.34662135186954 -90.583024768603082 0 -90.583024768603082 -227.73233383454863 0 0 0 0 -143.06719718235581 34.355753585365846 0 34.355753585365846 -32.826569634041334 0 0 0 0 -181.87784639866732 139.47861782547716 0 139.47861782547716 -296.07821513068575 0 0 0 0 -278.80750788321529 197.29339935007647 0 197.29339935007647 -8.62501348502974 0 0 0 0 -291.62092704446741 58.795256489341682 0 58.795256489341682 122.62451995023548 0 0 0 0 -288.90118166020557 59.553636637970044 0 59.553636637970044 -25.660276795444588 0 0 0 0 -220.29606485690965 -1.236366143352825 0 -1.236366143352825 11.837199694650735 0 0 0 0 -295.23915201976524 23.292716397852018 0 23.292716397852018 -8.3687622202796774 0 0 0 0 -294.45531536630551 -4.9140397834557916 0 -4.9140397834557916 37.817575761349872 0 0 0 0 -326.65154997185346 2.0798141374007173 0 2.0798141374007173 52.707000023545334 0 0 0 0 60.038910292212847 38.753478433846752 0 38.753478433846752 24.402635955947517 0 0 0 0 -0.13402054614818359 0.5658431002096691 0 0.5658431002096691 1.0607393162800172 0 0 0 0 16.049207947147806 13.530247794827119 0 13.530247794827119 9.9562709829178857 0 0 0 0 -37.042424450586623 7.5211243926719362 0 7.5211243926719362 84.487251964410007 0 0 0 0 -162.60037500252292 -81.756259882343329 0 -81.756259882343329 27.906652090559874 0 0 0 0 -11.480577806953079 -20.823715833576216 0 -20.823715833576216 13.498275105767789 0 0 0 0 2.7130709938828659 -11.409376613107725 0 -11.409376613107725 4.1378549243308953 0 0 0 0 -12.736704932469365 -25.327433801441202 0 -25.327433801441202 3.9549837002428916 0 0 0 0 1.7425714250584861 0.081676427454112854 0 0.081676427454112854 16.536620305861106 0 0 0 0 14.270653531633798 2.9400187869910042 0 2.9400187869910042 -0.9767292872265898 0 0 0 0 -17.679775155242169 -25.412700503215092 0 -25.412700503215092 -12.7830263687284 0 0 0 0 -51.475213672242717 -15.927073761371275 0 -15.927073761371275 15.227427631724822 0 0 0 0 -23.510234993478662 -13.328727028114827 0 -13.328727028114827 14.540223541690011 0 0 0 0 -21.895020672229293 -11.852107396773135 0 -11.852107396773135 14.824041257390491 0 0 0 0 -14.909002038541075 -11.716339517294728 0 -11.716339517294728 14.7946687721751 0 0 0 0 -122.16119624385829 -1.7935811307347649 0 -1.7935811307347649 36.869473597591423 0 0 0 0 21.273874525610154 -24.286686314168719 0 -24.286686314168719 -10.210225812435056 0 0 0 0 13.132248669354226 -140.03894099340641 0 -140.03894099340641 -40.765215978381548 0 0 0 0 -137.5686844154543 86.582324204392535 0 86.582324204392535 -39.280637205730272 0 0 0 0 -13.88643329312038 -23.23555076373621 0 -23.23555076373621 -1.8055461025342119 0 0 0 0 -30.998995366032204 80.442418776992099 0 80.442418776992099 30.131294324783994 0 0 0 0 -273.27536014197597 -176.96821648841785 0 -176.96821648841785 -61.373958777631742 0 0 0 0 62.801410089070487 -66.957878259634867 0 -66.957878259634867 -51.876604789306839 0 0 0 0 106.49046209090261 -76.651626535023297 0 -76.651626535023297 -87.320583513556358 0 0 0 0 -13.355964889539148 -22.501359502911065 0 -22.501359502911065 -1.3163568831132686 0 0 0 0 -324.72430314671556 0.16071455884139141 0 0.16071455884139141 53.089698854527342 0 0 0 0 -251.47548507353713 -175.16819935161493 0 -175.16819935161493 67.494974864253777 0 0 0 0 -84.547149208947303 -153.267141040149 0 -153.267141040149 27.607321783989391 0 0 0 0 -153.48684724855957 0.038705992992618121 0 0.038705992992618121 -127.58024410586449 0 0 0 0 -179.18315756070479 -92.61938460302099 0 -92.61938460302099 -2.7850923566411439 0 0 0 0 -117.91361536922159 -31.868516239446308 0 -31.868516239446308 50.6611712413644 0 0 0 0 -128.53311958743689 -33.316430376225071 0 -33.316430376225071 12.003800898767622 0 0 0 0 -76.851405443936528 -54.618357167691556 0 -54.618357167691556 -29.770345424757579 0 0 0 0 -130.03949295201073 -48.376135946359682 0 -48.376135946359682 -42.358718141702411 0 0 0 0 -220.90522550770402 -7.1159489331362238 0 -7.1159489331362238 -14.072481308002807 0 0 0 0 -120.04254323821442 -42.030748838303225 0 -42.030748838303225 -23.724634495300961 0 0 0 0 -237.96662768034912 -70.952206505064169 0 -70.952206505064169 -15.804632567060253 0 0 0 0 -263.67488124742886 2.8531067290741703 0 2.8531067290741703 12.287469051022981 0 0 0 0 -115.66730053057609 -29.155119785492673 0 -29.155119785492673 -5.9669791932010412 0 0 0 0 -25.988553714279988 -29.910205043054248 0 -29.910205043054248 -39.88460993293711 0 0 0 0 -19.263062951085885 -5.1464308054869434 0 -5.1464308054869434 -1.8358095194671478 0 0 0 0 -60.059186797987877 -19.161533572966732 0 -19.161533572966732 14.915331857658202 0 0 0 0 -139.7457854272912 5.9415573325580908 0 5.9415573325580908 62.494455569622005 0 0 0 0 22.426895139435146 -24.772629432214444 0 -24.772629432214444 -28.193770959693666 0 0 0 0 -16.507129731231121 -21.920704451462147 0 -21.920704451462147 0.0019723061989864732 0 0 0 0 -14.704246375312664 -66.693928668679291 0 -66.693928668679291 8.6018602132535307 0 0 0 0 -12.313156834506323 -3.0276355919402542 0 -3.0276355919402542 -0.14067748159039262 0 0 0 0 -32.899326011302037 -33.053533361023028 0 -33.053533361023028 39.544946887657716 0 0 0 0 -33.628347070041855 -30.114990419345304 0 -30.114990419345304 29.629517256143117 0 0 0 0 -10.968810184107497 -53.080292757336338 0 -53.080292757336338 23.526251582905388 0 0 0 0 -17.930029078401276 -14.899312877288594 0 -14.899312877288594 58.795004944837956 0 0 0 0 -90.685387486963009 -22.76390191305245 0 -22.76390191305245 -13.06239029793187 0 0 0 0 -5.0939897534082021 2.4982942453949448 0 2.4982942453949448 -0.6761727137628597 0 0 0 0 -265.37990749210576 -148.74625168250429 0 -148.74625168250429 -72.17637630345962 0 0 0 0 -87.963147659032984 -45.586857410465655 0 -45.586857410465655 -44.744284468156138 0 0 0 0 -470.00692363981216 -224.10956234273272 0 -224.10956234273272 -92.319154258073013 0 0 0 0 -2.6348228396802398 0.64615582538794758 0 0.64615582538794758 -0.10017987635857395 0 0 0 0 -47.013208122610962 197.59153907651933 0 197.59153907651933 128.33544468859327 0 0 0 0 -56.744737183214056 16.114786656685737 0 16.114786656685737 186.18114423688621 0 0 0 0 -54.97754313999576 -65.761353131233591 0 -65.761353131233591 94.045836669762139 0 0 0 0 -200.82312491765333 -79.395335016616627 0 -79.395335016616627 16.343978995446378 0 0 0 0 -142.97072615509569 71.715943579858504 0 71.715943579858504 28.398750484300763 0 0 0 0 -45.380365107283069 -26.432524663603544 0 -26.432524663603544 33.748958552475415 0 0 0 0 -336.44052960002045 121.77917454369936 0 121.77917454369936 112.29552610637802 0 0 0 0 -409.12210318839425 42.923699051711537 0 42.923699051711537 31.647550342513568 0 0 0 0 -294.95210983740253 113.0761429008744 0 113.0761429008744 -23.629312407592806 0 0 0 0 -434.96069520382662 150.57948596257029 0 150.57948596257029 -16.3428094530218 0 0 0 0 -305.90649529730581 128.06943468177292 0 128.06943468177292 73.46726105541893 0 0 0 0 -300.9062545501165 -167.4829996134531 0 -167.4829996134531 -90.472438223112476 0 0 0 0 -511.14219974790103 55.274984584099002 0 55.274984584099002 44.416130536517812 0 0 0 0 -76.153997001994867 -54.038397549909405 0 -54.038397549909405 -42.014986537335972 0 0 0 0 -50.743010216610855 -103.70947910536415 0 -103.70947910536415 -70.541612672601048 0 0 0 0 -2.4942422689859995 -52.922586294847633 0 -52.922586294847633 -17.405920287704248 0 0 0 0 1.6792572822896545 -65.219834959962895 0 -65.219834959962895 0.60122788944045169 0 0 0 0 -31.690795775887636 -85.778903668491921 0 -85.778903668491921 -9.2133668948235936 0 0 0 0 -75.123977649342123 -68.633546580013444 0 -68.633546580013444 70.983767685621956 0 0 0 0 -2.1573361935807043 16.725897029086354 0 16.725897029086354 113.57085589951475 0 0 0 0 2.025623742461903 -22.156271481025215 0 -22.156271481025215 0.59885488459622138 0 0 0 0 -3.5411585615641954 -5.0521216283246018 0 -5.0521216283246018 3.7138423746896807 0 0 0 0 -2.0345509733906511 62.441144607302704 0 62.441144607302704 94.75723071303446 0 0 0 0 44.309318638449895 56.257604594925624 0 56.257604594925624 -75.418838550680448 0 0 0 0 -56.618333091548266 -71.002740464471344 0 -71.002740464471344 -73.120159959313241 0 0 0 0 16.036991584696807 1.3856353316086825 0 1.3856353316086825 -13.395710547880995 0 0 0 0 27.636261706435107 18.773426041243965 0 18.773426041243965 -2.7167778543700933 0 0 0 0 5.1759358845138195 4.0384095027543481 0 4.0384095027543481 4.2409794173863702 0 0 0 0 14.003545080708136 -3.6023539291436464 0 -3.6023539291436464 -18.650555100660313 0 0 0 0 -8.8993394993831316 -0.17165093901303408 0 -0.17165093901303408 -11.572125576833059 0 0 0 0 13.674780208268203 24.316613372742836 0 24.316613372742836 28.987660496151875 0 0 0 0 -3.7990963658156289 -3.8379309581278553 0 -3.8379309581278553 2.7291119378947819 0 0 0 0 -0.46722711388840854 -1.6649375863381941 0 -1.6649375863381941 -4.2147511389807057 0 0 0 0 2.8278586861015356 -4.9708522632836321 0 -4.9708522632836321 -17.85317113672545 0 0 0 0 -0.045543927331493705 -0.10764888156560914 0 -0.10764888156560914 -0.054924371578034759 0 0 0 0 17.748737397781952 10.89644876693319 0 10.89644876693319 12.652382658468468 0 0 0 0 -282.76084918348806 31.428740908462032 0 31.428740908462032 -3.3534869777067797 0 0 0 0 -1.2443462198285653 0.25460281247030636 0 0.25460281247030636 3.0483481887726498 0 0 0 0 -339.87164226270397 50.143653412267668 0 50.143653412267668 67.053610468698025 0 0 0 0 -280.67053063549838 41.404637949698781 0 41.404637949698781 11.877562496034443 0 0 0 0 -372.48297947985338 18.106502790484228 0 18.106502790484228 31.043281731312163 0 0 0 0 -330.1509746290194 20.940389812855301 0 20.940389812855301 -4.8205758216208778 0 0 0 0 -539.27171659680243 36.084197733292058 0 36.084197733292058 23.441949438811662 0 0 0 0 -176.29733332277101 -4.9341519954855357 0 -4.9341519954855357 -112.68599579387774 0 0 0 0 -262.37951783408062 -30.112068097495467 0 -30.112068097495467 -5.9858111742696565 0 0 0 0 -262.11847209932603 120.08320025654757 0 120.08320025654757 122.98416869538414 0 0 0 0 -224.31408268180348 49.349732355341075 0 49.349732355341075 -129.28066359100967 0 0 0 0 -318.35441794527287 82.488644616562624 0 82.488644616562624 -102.48526223779845 0 0 0 0 -376.36250591504722 60.109582838683309 0 60.109582838683309 44.626402553052685 0 0 0 0 -316.09718770364361 -48.211512102355073 0 -48.211512102355073 7.166390605372726 0 0 0 0 -295.47958592062969 -39.654051527550109 0 -39.654051527550109 2.0023331272004725 0 0 0 0 -228.41351699507504 112.61774201694061 0 112.61774201694061 44.306614513078799 0 0 0 0 -142.21618918602326 158.31780132225822 0 158.31780132225822 19.044505108604426 0 0 0 0 -227.08437129077538 175.56497181627537 0 175.56497181627537 46.221220393394105 0 0 0 0 -28.963974895890715 -116.46592008841981 0 -116.46592008841981 -98.493203689398797 0 0 0 0 -164.44094031928034 -93.349224396068166 0 -93.349224396068166 85.950224838973554 0 0 0 0 21.669291816337136 52.669264761324939 0 52.669264761324939 45.298390583204309 0 0 0 0 -35.023578530262967 9.2583326328485782 0 9.2583326328485782 36.459245468062363 0 0 0 0 65.079889719978382 -4.432846635276519 0 -4.432846635276519 -4.2492667030473967 0 0 0 0 -0.23747346854129092 -0.50824643095106481 0 -0.50824643095106481 -1.5253453613427794 0 0 0 0 3.4803715659254522 4.1045472502055418 0 4.1045472502055418 -11.982247240013749 0 0 0 0 16.499207469407338 -22.500126592120978 0 -22.500126592120978 -3.5189560833478026 0 0 0 0 1.4820344240033592 -14.771505685132979 0 -14.771505685132979 12.597379159427419 0 0 0 0 -7.8528214245825438 -20.91346327402357 0 -20.91346327402357 10.033559473227797 0 0 0 0 -19.979138303782747 -2.6218621259324664 0 -2.6218621259324664 3.5215281656619482 0 0 0 0 -19.200124467612042 -4.0319717385499736 0 -4.0319717385499736 1.2878077423983942 0 0 0 0 26.424642311251773 -52.109038652221216 0 -52.109038652221216 44.176720479734286 0 0 0 0 -19.783088755333665 -5.8368531449316379 0 -5.8368531449316379 3.7132874485755565 0 0 0 0 -23.132696084643158 -2.6614212907545607 0 -2.6614212907545607 0.72458830379855499 0 0 0 0 -20.555290669796968 -5.0765761137691428 0 -5.0765761137691428 3.5078855862757106 0 0 0 0 -13.453820335493219 -2.0052488104529402 0 -2.0052488104529402 16.394761605212807 0 0 0 0 -4.232959989556548 -23.574905011653755 0 -23.574905011653755 16.351372314969382 0 0 0 0 -20.747327793704244 -4.4047252734158064 0 -4.4047252734158064 14.052118040446658 0 0 0 0 -19.2686391732841 -4.5092097312187889 0 -4.5092097312187889 8.891610952663541 0 0 0 0 -22.742662489393751 -2.7754256092311493 0 -2.7754256092311493 8.1072017925025648 0 0 0 0 -18.802145556563119 -5.4698678159179508 0 -5.4698678159179508 6.8387316306111643 0 0 0 0 -18.022981115398579 -5.2206501383789146 0 -5.2206501383789146 13.882628084343196 0 0 0 0 -19.088049324586791 -2.2053557243336854 0 -2.2053557243336854 10.503670651446555 0 0 0 0 -17.86541176701212 -2.4080575245698128 0 -2.4080575245698128 11.377401830581448 0 0 0 0 -16.980724957230912 -3.9908990733317466 0 -3.9908990733317466 3.7746816091179518 0 0 0 0 -19.566925287216236 -3.5723273902775077 0 -3.5723273902775077 10.950009898364442 0 0 0 0 -19.126067074597813 -4.1905394592445191 0 -4.1905394592445191 6.3299133512218759 0 0 0 0 125.32706175836211 97.54506433619099 0 97.54506433619099 88.885643213716321 0 0 0 0 -119.2790450417524 0.64724329258569924 0 0.64724329258569924 19.484757059740105 0 0 0 0 -3.5610215596351598 0.4384381612368955 0 0.4384381612368955 0.9389378547542151 0 0 0 0 0.99129284755511549 -1.4895389717467751 0 -1.4895389717467751 0.94979393355387742 0 0 0 0 -6.8510098433321058 -5.1543569995812462 0 -5.1543569995812462 10.336146438919048 0 0 0 0 -22.178324286152019 -2.8540852643443486 0 -2.8540852643443486 14.286429846620194 0 0 0 0 -353.62771094633172 -41.323889659744509 0 -41.323889659744509 5.5542360337558421 0 0 0 0 -18.26675215654916 -1.6334609931551043 0 -1.6334609931551043 14.347181721093875 0 0 0 0 -15.492850530397845 -6.8211890146321821 0 -6.8211890146321821 22.030640050805459 0 0 0 0 -19.532287114536757 -2.6837095995436471 0 -2.6837095995436471 28.326242321772042 0 0 0 0 -19.910079291854345 -2.5394428431075085 0 -2.5394428431075085 24.333070228497036 0 0 0 0 -19.055961186639252 -5.3829844827079114 0 -5.3829844827079114 26.009543932159431 0 0 0 0 -18.130712147673705 -6.2276957787784326 0 -6.2276957787784326 17.448688729680725 0 0 0 0 -18.573603137287137 -5.0315756011304984 0 -5.0315756011304984 20.3450004379863 0 0 0 0 -19.429097569754958 -2.5987590387289856 0 -2.5987590387289856 18.347105303501394 0 0 0 0 -20.596021437965646 -2.4406735102434141 0 -2.4406735102434141 27.545926968127787 0 0 0 0 -18.534537258918135 -3.8959981261677967 0 -3.8959981261677967 21.296849150182425 0 0 0 0 -20.821549023382431 -3.1855271649790211 0 -3.1855271649790211 28.012700526592198 0 0 0 0 -18.541837894292257 -4.067320621601084 0 -4.067320621601084 14.008355002602343 0 0 0 0 -20.808789198853447 -3.2215851224484595 0 -3.2215851224484595 21.102706595541349 0 0 0 0 -198.24559112431962 141.68145742190791 0 141.68145742190791 163.98293362181721 0 0 0 0 7.4615903628218803 1.0027273590571895 0 1.0027273590571895 -4.1537033271374639 0 0 0 0 -5.2524760047917241 -3.7207917537901878 0 -3.7207917537901878 -2.3428569112397692 0 0 0 0 2.7757280746582182 -7.5815812506648399 0 -7.5815812506648399 1.7881821444807429 0 0 0 0 4.7660644512925501 9.3229019800005517 0 9.3229019800005517 -83.434475408464436 0 0 0 0 -3.0831959485002045 -1.51807380451406 0 -1.51807380451406 -0.54785874100135246 0 0 0 0 -46.054537054008506 -76.561009892470111 0 -76.561009892470111 -181.25511407435079 0 0 0 0 -421.45883570972728 -65.048885686229369 0 -65.048885686229369 -5.3373592392135834 0 0 0 0 -330.71925601549083 100.55091487816117 0 100.55091487816117 -0.42345442424266366 0 0 0 0 -328.99130715997671 -10.920163504963057 0 -10.920163504963057 -145.21230413755166 0 0 0 0 -374.26963915902707 64.963567735019296 0 64.963567735019296 145.27565059398239 0 0 0 0 -418.49531444265813 -26.97078650354706 0 -26.97078650354706 276.5403360805285 0 0 0 0 -475.17224344552778 -96.858344389642639 0 -96.858344389642639 23.692195184912634 0 0 0 0 -197.23440021349052 185.69959327281003 0 185.69959327281003 -175.49802658012595 0 0 0 0 -5.4643829607766747 -4.4142954238800485 0 -4.4142954238800485 18.690033124601069 0 0 0 0 -550.20316897092198 164.36627614989311 0 164.36627614989311 91.414005600272048 0 0 0 0 -16.020736583892358 -6.2858671111465583 0 -6.2858671111465583 27.306334020069698 0 0 0 0 -5.1994362792483635 0.98364396976032964 0 0.98364396976032964 0.69017050304618976 0 0 0 0 -13.473764112275603 0.27309432333856876 0 0.27309432333856876 29.788385814968024 0 0 0 0 -980.20088447209855 -75.368428251342266 0 -75.368428251342266 -82.565465265914554 0 0 0 0 -438.63611551059694 201.77457232928236 0 201.77457232928236 -244.47016737806553 0 0 0 0 -243.04568792335704 -64.353158914731466 0 -64.353158914731466 -141.90546927849255 0 0 0 0 73.990610520881091 -150.08895575104475 0 -150.08895575104475 -12.606940306468459 0 0 0 0 -136.81856744131528 80.521057068148366 0 80.521057068148366 13.175947477107911 0 0 0 0 89.784353627284872 63.705694681912064 0 63.705694681912064 103.14635888565681 0 0 0 0 -50.763557887826209 -224.54707074356816 0 -224.54707074356816 428.8579105805693 0 0 0 0 2.7558430801745999 113.02466546373898 0 113.02466546373898 -222.78462048986603 0 0 0 0 24.878167125256368 56.894961656039868 0 56.894961656039868 -251.91475069866283 0 0 0 0 -164.24377466445185 33.211895408186138 0 33.211895408186138 120.93315739887839 0 0 0 0 -14.930519182933494 48.235850250481235 0 48.235850250481235 -206.80548783368522 0 0 0 0 -44.581536142341065 -133.0711342445511 0 -133.0711342445511 47.522107859091193 0 0 0 0 -39.564333167058066 -190.75458363791131 0 -190.75458363791131 26.548618693548633 0 0 0 0 143.21666940626346 -42.400388947112333 0 -42.400388947112333 14.093718707958033 0 0 0 0 180.51428450843923 -147.40518834503018 0 -147.40518834503018 164.91426819172921 0 0 0 0 201.76621737881214 -77.391663064754539 0 -77.391663064754539 152.3401017899123 0 0 0 0 129.16109489894734 -165.94066898389974 0 -165.94066898389974 79.234849744789244 0 0 0 0 4.891346338983567 -157.17822575878017 0 -157.17822575878017 238.82815895541353 0 0 0 0 26.339298692855664 -60.79849911634301 0 -60.79849911634301 112.3330496412309 0 0 0 0 133.41374185285531 -23.338426884023647 0 -23.338426884023647 362.50573561184501 0 0 0 0 38.924266487600107 -97.898816934866772 0 -97.898816934866772 330.45374534182338 0 0 0 0 334.59257220153813 -69.147342159674736 0 -69.147342159674736 204.15304222661143 0 0 0 0 334.59257220160362 -69.147342159674736 0 -69.147342159674736 204.15304222661871 0 0 0 0 -7.3494499911830644 -309.92392998420473 0 -309.92392998420473 474.47865756283318 0 0 0 0 -14.90810415272934 -16.879179409710929 0 -16.879179409710929 10.234997052782841 0 0 0 0 28.146185323102145 -17.822131915404043 0 -17.822131915404043 -0.43343753988301614 0 0 0 0 1.0456391323492014 -5.9511042275778863 0 -5.9511042275778863 -3.2665694663499458 0 0 0 0 239.14330357197832 -131.19355271135464 0 -131.19355271135464 7.5394505612312059 0 0 0 0 80.943264534293121 -348.64385854644752 0 -348.64385854644752 272.2048362787682 0 0 0 0 1.4453153454269341 -18.84887534025529 0 -18.84887534025529 16.482110527647365 0 0 0 0 -131.14521403425579 19.381993650823915 0 19.381993650823915 69.803636463468138 0 0 0 0 -12.482003108794244 -19.883776836949075 0 -19.883776836949075 5.1350552376701728 0 0 0 0 27.601804661782808 -4.032510112393993 0 -4.032510112393993 -21.545918000087113 0 0 0 0 57.050065601897586 -32.565398438575812 0 -32.565398438575812 -6.2448152687393303 0 0 0 0 0.65350336622280736 1.4806732745462305 0 1.4806732745462305 -4.0797074845699299 0 0 0 0 33.769128401114813 1.972140318586753 0 1.972140318586753 -24.515044220098389 0 0 0 0 -462.01471899426406 204.6309119366465 0 204.6309119366465 -73.860611935989255 0 0 0 0 -91.41812404659504 -2.6602262461397004 0 -2.6602262461397004 -2.138065090452983 0 0 0 0 -43.597580395163277 52.667956814722402 0 52.667956814722402 -1.3213205420888698 0 0 0 0 -43.452154360344139 25.582627247849814 0 25.582627247849814 -24.927275059744261 0 0 0 0 -42.670951935389724 9.0692753431763151 0 9.0692753431763151 5.1907729310059949 0 0 0 0 -23.815953188497588 27.723205281044102 0 27.723205281044102 -10.464672742434232 0 0 0 0 1.2155420687965872 1.5301259343747304 0 1.5301259343747304 -8.1747967773564909 0 0 0 0 4.2237269102101891 1.2321891440610671 0 1.2321891440610671 -18.172966735173759 0 0 0 0 -59.001306003708123 1.4742603865161072 0 1.4742603865161072 -8.2674723180934961 0 0 0 0 -88.671522142891263 33.544849701546809 0 33.544849701546809 -1.2640736998728244 0 0 0 0 -23.051150638667242 -6.8979161749876745 0 -6.8979161749876745 5.8434914508758347 0 0 0 0 88.896523651372263 -312.32713295250505 0 -312.32713295250505 267.33476340404559 0 0 0 0 -31.025621405668971 13.901635745281965 0 13.901635745281965 -21.809383161617006 0 0 0 0 334.59257220155632 -69.147342159722029 0 -69.147342159722029 204.15304222659324 0 0 0 0 123.22973540909152 -217.507864002524 0 -217.507864002524 167.66685800809137 0 0 0 0 290.76293788544717 -228.72244669042811 0 -228.72244669042811 150.07746453341679 0 0 0 0 188.59465183022257 -252.18926528895827 0 -252.18926528895827 161.04984151205144 0 0 0 0 66.004884085137746 -123.79237457429281 0 -123.79237457429281 150.77140278219304 0 0 0 0 238.40626863143552 -133.61533133438206 0 -133.61533133438206 114.13181603356497 0 0 0 0 -31.761598540003888 13.656777892271748 0 13.656777892271748 -6.6916345453155373 0 0 0 0 -7.212978989486146 10.757336325347751 0 10.757336325347751 -24.257126188740585 0 0 0 0 1.5304783382145946 1.5297772614835417 0 1.5297772614835417 -12.431185347282366 0 0 0 0 -592.84823729303571 73.689603918191096 0 73.689603918191096 50.250730240750272 0 0 0 0 -438.361314208767 111.77664011742127 0 111.77664011742127 -71.873159353236133 0 0 0 0 -288.02532570426774 -23.226394255343621 0 -23.226394255343621 -25.839336854602152 0 0 0 0 -596.64375764609576 -56.680083681560063 0 -56.680083681560063 73.092052000800322 0 0 0 0 -396.52113655346329 1.2848124976153485 0 1.2848124976153485 -28.911999820455094 0 0 0 0 -123.19576642321476 -12.155361881330634 0 -12.155361881330634 -115.40971842939689 0 0 0 0 -302.93005891011126 -147.33918063485544 0 -147.33918063485544 -13.736806132199945 0 0 0 0 -131.77112737737116 -82.501245759109224 0 -82.501245759109224 -69.872656190629641 0 0 0 0 66.273257178378117 -69.342279998620143 0 -69.342279998620143 -131.5913687546954 0 0 0 0 5.4376829596512835 77.200985914727426 0 77.200985914727426 -77.909979478772584 0 0 0 0 -27.126816655601942 12.954897297264324 0 12.954897297264324 -157.87179701767673 0 0 0 0 -51.192219825084067 83.237147168677438 0 83.237147168677438 -163.22218806241654 0 0 0 0 -163.04378139606706 0.66303265604437911 0 0.66303265604437911 -113.57791695569904 0 0 0 0 -134.42635536885791 -18.288930429585889 0 -18.288930429585889 -115.79364509502727 0 0 0 0 -187.71261990964558 14.257905503660368 0 14.257905503660368 -111.90768262195343 0 0 0 0 -289.19222890147921 -31.74956244845248 0 -31.74956244845248 -76.605613130501297 0 0 0 0 -259.48057026535753 39.592008592152524 0 39.592008592152524 -105.9707885662483 0 0 0 0 -133.61771164154197 50.033877697487696 0 50.033877697487696 -157.51089648629568 0 0 0 0 -93.106161666697517 88.287972547719164 0 88.287972547719164 -149.31409907520356 0 0 0 0 -131.01785104036389 47.930810969775848 0 47.930810969775848 -158.29812009754278 0 0 0 0 -144.23237067772243 84.227958681113705 0 84.227958681113705 -145.7914389189541 0 0 0 0 -175.48210820347595 82.368711482351046 0 82.368711482351046 -133.20820927176283 0 0 0 0 -144.09900073774588 82.93785541714351 0 82.93785541714351 -133.31495876334975 0 0 0 0 -345.33049683371974 108.14633170538877 0 108.14633170538877 -76.213038858020809 0 0 0 0 -258.83225480342116 77.472106519287081 0 77.472106519287081 -89.362470802903999 0 0 0 0 -636.70513243622554 75.256818677895353 0 75.256818677895353 43.654241903794173 0 0 0 0 -132.95982068263766 319.56745746199886 0 319.56745746199886 -330.06935465394963 0 0 0 0 -647.23996600768487 278.84907352448812 0 278.84907352448812 -46.056907615871751 0 0 0 0 -395.87778126810372 401.34494487390111 0 401.34494487390111 -236.2731098310469 0 0 0 0 -115.97825855398332 227.442940054254 0 227.442940054254 -172.34834086187766 0 0 0 0 -110.83903578673744 222.47796527481205 0 222.47796527481205 -233.48857601059353 0 0 0 0 -27.682042515367357 175.31214576279035 0 175.31214576279035 -211.87154692969307 0 0 0 0 119.55478393725389 94.755552463611821 0 94.755552463611821 -222.21415353229895 0 0 0 0 66.194299607413996 55.120473152313025 0 55.120473152313025 -162.3261558674385 0 0 0 0 -13.919352883251122 84.569700475729405 0 84.569700475729405 -67.412187011966353 0 0 0 0 -31.192009338417847 74.532650664315952 0 74.532650664315952 -164.36957224216599 0 0 0 0 -2.5635458700835443 83.192608954796924 0 83.192608954796924 -181.55490832963005 0 0 0 0 -105.3338889916995 110.19020418697255 0 110.19020418697255 -183.17277866593918 0 0 0 0 -21.861185271725844 92.102852915546464 0 92.102852915546464 -180.28822623292035 0 0 0 0 -108.2109773944685 118.51168815181518 0 118.51168815181518 -142.96843722873018 0 0 0 0 -136.65597249158236 109.43004879146883 0 109.43004879146883 -144.08517147518 0 0 0 0 -158.8643099849578 186.1550529517317 0 186.1550529517317 -158.50962613004958 0 0 0 0 -136.98123599457995 157.68616163277056 0 157.68616163277056 -144.42499820693047 0 0 0 0 -368.15461803507787 146.27782502882474 0 146.27782502882474 -56.711003016267568 0 0 0 0 -225.6802315884197 247.78660889240928 0 247.78660889240928 -167.78411362990096 0 0 0 0 -341.29264865643745 173.15210582674626 0 173.15210582674626 -46.622136575133482 0 0 0 0 -228.53340506588938 136.72767574498175 0 136.72767574498175 -108.91780137490969 0 0 0 0 -232.11888772248494 68.540595223140372 0 68.540595223140372 -65.174882218931089 0 0 0 0 -226.34371842393887 90.834686899786135 0 90.834686899786135 -37.912432734903632 0 0 0 0 -255.24712961051046 -6.1420226412619741 0 -6.1420226412619741 -24.517023822838382 0 0 0 0 -373.6256643705492 -5.5118247016871464 0 -5.5118247016871464 10.721078646035267 0 0 0 0 -259.65066540607131 -26.144426822397236 0 -26.144426822397236 8.3369800577384012 0 0 0 0 -324.04923817293093 40.440755462946981 0 40.440755462946981 52.656055986579304 0 0 0 0 -392.00917794204724 208.63970773695655 0 208.63970773695655 -27.797205201279212 0 0 0 0 -550.42762727553236 125.72173359906174 0 125.72173359906174 21.600513460572984 0 0 0 0 -130.13641104953786 7.6306670814446989 0 7.6306670814446989 -45.620493960742579 0 0 0 0 -197.60611935053021 14.716779625571689 0 14.716779625571689 -43.611116147221765 0 0 0 0 -177.61373008273858 1.6859216959132937 0 1.6859216959132937 -40.979306276876741 0 0 0 0 -160.95622384055605 35.67200837276323 0 35.67200837276323 -50.662595156123643 0 0 0 0 -107.48148679352198 28.155161207495439 0 28.155161207495439 -65.509668607097865 0 0 0 0 -108.25425882051225 78.630922973143157 0 78.630922973143157 -123.44602251413016 0 0 0 0 -170.17024411278771 73.844259814514658 0 73.844259814514658 -95.161384342578458 0 0 0 0 -147.38643587760816 90.707988415419095 0 90.707988415419095 -82.89660262889447 0 0 0 0 -136.56424032485938 99.850395013699654 0 99.850395013699654 -115.10088096243999 0 0 0 0 -93.469926436360765 -3.3900173158494908 0 -3.3900173158494908 -31.654444217708601 0 0 0 0 -151.38426025247827 21.719834003880351 0 21.719834003880351 -32.683460515809202 0 0 0 0 -134.55273238774316 -58.363586896318793 0 -58.363586896318793 58.652450190455056 0 0 0 0 -157.50018625231132 -28.272359218954534 0 -28.272359218954534 -18.303107067724341 0 0 0 0 -231.66611389970149 127.30390118822925 0 127.30390118822925 -93.314790739416821 0 0 0 0 -234.75827323379872 119.87768876251539 0 119.87768876251539 -106.5775053647576 0 0 0 0 -137.68783354152038 71.068606102301601 0 71.068606102301601 -78.89028924696504 0 0 0 0 17.028431405466108 41.719583746532408 0 41.719583746532408 -104.06507221952802 0 0 0 0 -106.34845910272134 123.31580135056902 0 123.31580135056902 -141.71343012254329 0 0 0 0 -195.77759499381773 184.47457925173103 0 184.47457925173103 -194.63112133756158 0 0 0 0 -221.77258575098949 89.507290872176782 0 89.507290872176782 -53.247813155416225 0 0 0 0 -125.11719178875319 141.00228408558405 0 141.00228408558405 -37.115993131412324 0 0 0 0 86.326414120243498 -21.880435521171421 0 -21.880435521171421 -34.546016228293652 0 0 0 0 -106.26089701770979 -28.599926342337767 0 -28.599926342337767 270.01120819462994 0 0 0 0 -8.2389201107250827 1.4485468657634666 0 1.4485468657634666 0.76703732394999058 0 0 0 0 -172.83839295726466 20.39413675458195 0 20.39413675458195 213.83746461912915 0 0 0 0 -9.9450872326277384 1.8349914181290892 0 1.8349914181290892 0.97556113851376747 0 0 0 0 -145.98595432684124 -128.69754730225122 0 -128.69754730225122 174.01285257774589 0 0 0 0 -94.333145664811127 -30.103715897040729 0 -30.103715897040729 32.892007850512528 0 0 0 0 80.901079487544848 9.5213914845380714 0 9.5213914845380714 41.350696333008045 0 0 0 0 -34.258085918077995 67.968937143205039 0 67.968937143205039 13.137433043879241 0 0 0 0 -3.3674821419354011 0.89452839717405475 0 0.89452839717405475 0.26486648421554593 0 0 0 0 -125.66771263377086 192.7344751829728 0 192.7344751829728 -246.39049687103432 0 0 0 0 -108.75732255956245 124.4642266459432 0 124.4642266459432 -33.931981562932151 0 0 0 0 -170.15165687206445 54.170291008511413 0 54.170291008511413 28.89972438359473 0 0 0 0 -28.989265349976449 58.064930078809311 0 58.064930078809311 -77.76090944096677 0 0 0 0 -32.291093389523439 76.709341331181832 0 76.709341331181832 -4.3147620792715315 0 0 0 0 -80.534164310491178 83.024274370846342 0 83.024274370846342 17.628860588044972 0 0 0 0 -87.780667720504653 36.048676713338466 0 36.048676713338466 47.935446721321568 0 0 0 0 -110.69449811627965 36.6398860182926 0 36.6398860182926 60.2646306227075 0 0 0 0 -123.07829425484488 61.748394956794073 0 61.748394956794073 29.254619341684702 0 0 0 0 -24.551718089422138 111.49489856818491 0 111.49489856818491 190.61043170419362 0 0 0 0 -4.5820870333072889 51.617321310303851 0 51.617321310303851 48.554530514503313 0 0 0 0 -0.25314689531978729 76.810510756108215 0 76.810510756108215 -25.219706674148256 0 0 0 0 -5.0436957698520928 76.377825782027685 0 76.377825782027685 -4.1337801622817096 0 0 0 0 -31.626694591392038 82.801486670950482 0 82.801486670950482 -5.6029156751046685 0 0 0 0 7.6193703994322277 71.925996372151531 0 71.925996372151531 -33.913836078927716 0 0 0 0 -0.66724036002597131 132.61107567558247 0 132.61107567558247 -38.095799453430118 0 0 0 0 6.3891539394639949 58.570361897126645 0 58.570361897126645 -99.418653062237354 0 0 0 0 -26.817273646219292 51.59389992115041 0 51.59389992115041 -28.717378112557526 0 0 0 0 -232.17899860016678 183.65158242692405 0 183.65158242692405 -113.63618742662766 0 0 0 0 98.092726314516767 -20.130319744802364 0 -20.130319744802364 85.016092498731496 0 0 0 0 -229.63889615852622 102.93453989410364 0 102.93453989410364 44.657163527979947 0 0 0 0 -330.3223737723024 -115.50035513996772 0 -115.50035513996772 392.16065147372046 0 0 0 0 -565.85817183724976 45.683114135155392 0 45.683114135155392 284.63806601625583 0 0 0 0 -246.0587594809831 -38.860043176011459 0 -38.860043176011459 171.84819061722601 0 0 0 0 -498.57166065082788 18.692637477708672 0 18.692637477708672 145.72043411203686 0 0 0 0 -536.12595893982439 99.387649354159748 0 99.387649354159748 106.96450131250458 0 0 0 0 -235.58965981076108 90.325632446551936 0 90.325632446551936 12.146823091693477 0 0 0 0 -568.08507732835051 326.23791646516713 0 326.23791646516713 -146.99960780241781 0 0 0 0 -689.85629382080447 62.083467243304653 0 62.083467243304653 141.00162374115371 0 0 0 0 -526.03654191761598 -48.754076077827449 0 -48.754076077827449 143.48868179321448 0 0 0 0 -532.32577713512728 -66.685321316234877 0 -66.685321316234877 93.462911228030862 0 0 0 0 -363.7432456872225 -65.530682287793297 0 -65.530682287793297 92.41089040068789 0 0 0 0 24.04192114141415 -60.695941325786634 0 -60.695941325786634 -65.498895677855671 0 0 0 0 -14.959084475224165 -21.644053299659497 0 -21.644053299659497 -2.0872416754945888 0 0 0 0 -152.93845356283805 108.66452404891925 0 108.66452404891925 14.935166184765876 0 0 0 0 -244.49432178300185 -14.055699347677091 0 -14.055699347677091 100.67580167138249 0 0 0 0 -451.32515874033652 58.305226129727998 0 58.305226129727998 170.90262207032447 0 0 0 0 -267.02731762614883 111.39348869795532 0 111.39348869795532 -288.85967604196958 0 0 0 0 -600.72688646919869 168.82832703548593 0 168.82832703548593 126.83515089062212 0 0 0 0 -344.13874157192913 -112.34121610289958 0 -112.34121610289958 -89.404057105948596 0 0 0 0 -155.68340978221863 48.832937228849687 0 48.832937228849687 0.26377278670588566 0 0 0 0 -13.252549180973958 -21.656169728088202 0 -21.656169728088202 0.38240750272079183 0 0 0 0 -31.82561649728359 -113.28381621286917 0 -113.28381621286917 -111.17266508986449 0 0 0 0 36.516901435722502 -65.00266424695792 0 -65.00266424695792 -12.789394212301886 0 0 0 0 -179.35343603626097 -1.042818129385978 0 -1.042818129385978 61.325410651365928 0 0 0 0 -0.54221620671200021 0.21740077541605096 0 0.21740077541605096 -0.64678809158098005 0 0 0 0 137.27475556128775 9.0952748539921231 0 9.0952748539921231 -7.8657859823059653 0 0 0 0 -25.624774778778374 210.72769143896517 0 210.72769143896517 -29.429365426022741 0 0 0 0 -582.23086508382221 146.77650524790624 0 146.77650524790624 -39.477168453409831 0 0 0 0 -810.19186981541043 542.15078433132817 0 542.15078433132817 -80.076637533864414 0 0 0 0 -10.085563227825332 15.154868885481392 0 15.154868885481392 -238.96153016600738 0 0 0 0 -195.96885468661799 518.90337559512102 0 518.90337559512102 -409.37862799796403 0 0 0 0 -605.14248650398054 403.91942519761096 0 403.91942519761096 -68.558753368719408 0 0 0 0 -264.43146178505413 381.69214131886474 0 381.69214131886474 -308.44665020235743 0 0 0 0 -5.172184098266257 1.6481057033410007 0 1.6481057033410007 0.57254231828141222 0 0 0 0 
</DataArray>
<DataArray type="Float64" Name="cross_section_updated" format="ascii">
1 1 0.0097192717624213654 1 1 1 1 1 1 1 1 1 1 1 1 1 0.0099427343987609235 1 1 1 0.010013688564046034 1 0.0057008741812062946 0.0099745118767352071 0.010004388896241993 1 1 1 1 0.009999704127918169 0.0053727541578813057 1 1 1 0.010105560266256312 1 1 1 0.0082552583695988131 1 1 1 1 0.0088478762484329801 1 1 1 0.0096346773017618789 0.009089197127393308 1 1 1 1 1 1 1 1 1 1 0.010028896894612453 1 1 1 0.010032490327578969 1 1 1 1 1 1 1 1 0.010378568275246547 1 1 1 1 0.0054075082572854014 1 1 1 1 1 1 1 1 1 1 1 0.0092853143621720001 1 1 1 1 0.0061933372039126924 1 1 0.010034433851045459 1 0.0088681287240176421 1 1 1 0.0092383737115422204 1 1 1 0.0095059321292260707 1 1 1 1 1 1 1 1 1 1 1 1 1 1 1 1 1 1 1 1 1 1 1 0.0048028499985768146 1 1 1 1 1 1 1 1 1 1 1 1 0.0049602346810408895 1 1 1 1 0.010023816341702907 1 1 1 0.010024823735461284 1 1 1 1 1 1 1 1 0.0046823112032964506 1 0.0046921968443019817 1 1 1 1 1 1 1 0.012474622459548172 1 1 1 1 0.0057640876293048645 1 1 1 1 1 1 1 0.01016088184297213 1 1 1 1 1 1 1 1 1 1 0.0097241104503351487 1 1 1 1 0.011388828399187919 1 1 1 0.010441327731239626 1 1 1 1 1 1 1 1 1 1 1 1 1 1 1 1 1 0.0096740531805805299 1 0.0098738661460183955 1 1 1 1 1 1 1 1 1 1 1 1 1 0.0098448440282472675 1 1 1 0.009761366941764547 1 1 1 1 1 1 1 1 1 0.0099165229135172832 1 1 1 1 1 1 1 1 0.010074145447070327 1 1 1 1 1 1 0.010203503361738329 1 1 0.010383575209521316 1 1 1 1 1 0.0097083166635180268 1 1 1 1 1 0.010072655084952023 1 1 1 1 1 1 1 1 1 1 1 1 1 1 1 1 1 1 1 1 1 1 0.010033813142844888 1 1 1 1 1 0.0099436051117774479 1 1 1 1 1 1 1 1 1 1 1 1 1 0.0098923027058965413 1 1 0.011192693853033444 1 1 1 0.0088812675607746628 1 1 0.0096029465651654156 1 1 0.010006017065280714 1 1 1 1 0.0089504685879325096 1 1 1 1 1 1 1 1 1 1 1 1 1 1 1 1 1 1 0.0098412295891357176 1 1 1 1 1 1 1 1 1 1 1 1 0.0088516802164097588 1 1 1 1 1 1 0.0097223162018232126 1 1 1 1 1 1 1 0.0094312317779981641 1 1 1 1 1 1 1 0.0089686032271447252 1 0.0095206146010016236 1 1 1 1 1 1 0.0099774310154276211 1 1 1 1 1 1 0.010122350238943749 1 1 1 1 1 1 1 1 1 0.0089714706717844359 1 1 1 0.010657268335218458 1 1 1 1 0.011351756451992935 1 0.0074873845859484787 1 1 1 1 1 1 1 1 1 1 1 1 1 1 0.0087108885341043493 1 0.0097587007041578713 1 0.010538137389747923 1 1 1 1 0.010035402170075244 1 0.0072894792768558123 1 1 1 1 1 1 1 1 1 1 1 1 0.0093517684599721956 1 1 0.0098255205142412545 1 1 1 1 1 1 1 1 1 1 1 1 1 1 1 1 0.0095277587556707923 1 1 1 1 1 1 1 1 1 1 1 1 1 1 1 1 1 1 1 1 1 1 1 0.0078167963965851094 1 1 1 1 0.008603511748412368 1 1 0.010180940207014377 1 1 1 0.010106794759944051 1 1 1 1 1 1 1 1 1 1 1 1 0.0099497773482592044 1 1 0.0099161894621990765 1 1 1 1 1 1 1 1 1 1 0.0097895471058627344 1 1 1 1 1 1 1 1 1 0.009483626918007566 1 1 1 1 1 1 1 1 1 1 1 1 1 1 0.010421503546308211 1 1 0.010057813040552858 1 1 1 0.0088354414171997187 1 1 0.0090039612121509596 1 1 1 1 1 1 1 1 1 1 1 1 1 1 1 1 1 1 1 1 1 0.011121119179499053 0.0073856247119841647 1 1 0.0073691095235268438 1 1 1 0.01124220109409956 1 1 1 1 1 1 1 1 1 1 1 1 1 1 1 1 1 1 0.010401151352784745 1 1 0.0093367406268347313 1 1 1 0.0098173015705189538 1 1 1 1 1 1 1 1 1 1 1 1 1 1 1 1 1 1 1 1 1 1 1 1 1 1 1 1 1 1 1 1 1 1 1 1 1 0.0095817452665057715 1 1 1 1 1 1 0.008897164860981379 1 1 1 1 1 1 0.0093557059532374618 1 1 1 1 1 1 0.010291492306164468 1 1 1 1 1 0.010992955757656311 1 1 1 1 1 0.0098629001714588306 1 1 1 1 1 1 0.0041885593493009984 1 1 1 1 1 1 0.0070994364441529919 1 1 0.0099348982898188887 1 1 1 1 1 0.0082053472522225258 1 1 0.0078982629388408693 1 1 1 1 1 1 1 1 0.0094575684382533984 1 1 1 0.0089768378083790457 1 1 0.0085277030270362077 1 1 1 1 0.0088777898400014335 1 1 1 1 1 0.0094074555435270171 1 1 0.0031298778939257456 1 0.0043845697818682191 0.0081937778232136493 1 1 1 1 0.0090053520190218339 0.0098218906883341239 1 1 0.0038312815304145137 1 1 1 1 1 0.0037084355691821124 1 1 1 1 1 1 0.0094424807410250985 1 1 1 1 1 1 1 1 1 1 1 1 0.010081399914644667 1 1 0.0063910224019140312 1 0.0068862864012106872 1 1 0.0075507981822198148 1 1 1 1 1 1 0.0096010335240794276 1 0.0096972545856976559 1 1 1 0.0086674503377857457 1 0.0095980826034469859 0.0084473083372603348 1 1 0.0090370698541001951 1 1 0.010304053154449941 1 1 1 1 1 1 1 1 1 1 1 1 1 1 1 1 1 1 1 1 1 1 1 1 1 1 1 1 1 1 1 1 1 1 1 1 1 1 1 1 1 1 1 1 1 1 1 1 1 1 1 1 1 1 1 1 1 1 1 1 1 1 1 1 1 1 1 1 1 1 1 1 1 1 1 1 1 1 1 1 1 1 1 1 1 1 1 1 0.0086272694913122807 1 0.0094968817776220418 1 1 1 1 1 1 1 1 1 1 1 1 1 1 0.010414786287613238 1 1 0.0093712825945999438 1 0.0085329519276489754 1 0.0092301574794642505 0.0091515520771000489 1 1 1 1 1 1 1 1 1 1 1 1 1 1 1 1 1 1 1 0.0090569821503736891 1 1 0.0099932527950111361 1 1 1 1 1 1 1 0.0093611380025188182 1 1 1 1 1 1 1 1 0.0073135040335163045 1 1 1 1 1 1 1 1 1 1 0.0079513365255483529 1 1 1 1 1 1 1 1 1 1 1 1 1 1 1 1 1 1 1 1 1 1 1 1 1 1 1 1 1 1 1 1 1 1 1 1 1 0.010116257632249387 1 1 1 1 1 1 1 1 1 1 0.010453950631792455 1 1 1 1 1 0.011016640005725539 1 1 1 1 1 1 1 1 1 1 1 1 1 1 1 1 1 1 1 1 1 0.003311645023567184 1 1 1 1 1 1 1 1 1 1 1 1 0.0093278024357895031 1 0.010193507631697499 1 1 1 1 0.0089301309003211073 1 1 1 1 1 1 1 1 1 1 1 1 1 1 1 1 1 1 1 1 1 1 0.0082090380807389313 1 1 0.010303263837215589 1 1 1 1 1 1 0.0093251084097516895 1 1 1 1 1 0.0073995494958301782 1 1 1 0.0082889200661369709 1 1 0.0078582405801168667 0.0069859372302999391 1 1 1 1 1 1 1 0.0066884628166596349 1 1 1 1 1 1 1 1 1 1 1 1 0.0093569451435126239 1 0.0085708852698734555 1 1 1 1 1 1 1 1 1 1 0.0052634133206331604 1 1 1 0.0099846506326742024 1 1 1 1 1 0.0099860059214341625 1 1 0.0097812405900812912 0.0036220798405727389 1 1 1 0.010002468411980159 1 0.0081953702689193456 1 0.0066819852108208309 1 1 1 1 1 1 1 1 1 1 1 1 1 1 1 1 0.0045663823444038621 1 1 1 1 1 1 1 1 1 1 1 1 1 1 1 1 1 1 1 1 1 1 1 1 1 0.0099831499681923425 1 1 0.0096777345694596638 1 1 1 1 1 1 1 1 1 1 1 1 1 1 1 1 1 1 1 1 1 1 1 1 1 1 1 1 1 1 1 1 1 1 1 1 1 1 1 1 1 1 1 1 1 0.009292467108323722 1 0.0085844347085784443 1 1 1 1 1 1 1 1 1 0.010618428952788913 1 0.0075770056260567901 1 1 1 1 1 1 0.009941949993616311 0.009371490105494748 1 1 1 1 1 1 1 1 1 0.0089631804477630587 1 1 1 1 1 0.010018190132583805 0.0098535741532715763 1 1 0.0091273283380315217 1 1 0.0092487034198560237 1 1 1 0.0096928280127966029 1 1 1 1 0.0095222544949976375 1 0.010048041213408309 1 1 1 0.0085440200067557117 1 1 1 1 1 1 1 1 1 1 0.0098783301840262138 1 1 1 1 1 1 1 1 1 1 0.0098820810866798846 1 1 1 1 0.0095078034834599721 1 0.010001218276111329 1 1 1 0.0096810773902768713 0.0097457844184325529 1 1 1 1 1 1 1 1 1 1 1 1 1 0.0095350454473271673 1 1 1 1 1 0.010664763459539706 1 1 1 1 0.010631744417248418 1 1 1 0.010322705151886631 1 1 1 1 1 1 1 1 1 1 0.010986251682859849 1 1 1 1 1 1 1 1 0.010242426553073352 1 1 0.0089001200499970786 1 1 1 1 1 1 1 1 1 1 1 1 0.0062712177110290628 1 1 1 1 0.0061064643339459254 0.0089374362134810037 1 1 0.0096489742213340043 1 1 1 1 1 1 1 1 1 1 1 1 1 1 0.010031135124253965 1 1 1 1 1 0.01001570239486398 1 1 1 1 1 1 1 0.010209189081542808 1 1 1 1 1 1 1 1 1 1 1 1 0.0067123468569154745 1 1 1 1 0.010234433913107802 1 1 1 1 1 1 1 1 1 0.0054338705611797202 1 1 1 0.010017520673587242 1 1 0.0095164201217648667 1 1 1 1 1 1 1 1 0.004976025392264099 1 1 0.010198782139435912 1 1 1 1 1 1 1 1 1 1 1 1 1 0.0095233929433731386 1 0.0098336575576155796 1 1 1 1 1 1 1 1 1 1 1 0.011390764099373181 0.010526263568056977 1 1 1 1 1 1 1 0.0085712874665143726 1 1 1 0.0097610249650426847 1 1 1 0.010023407574072229 1 1 1 0.0097421914572672855 1 1 0.010011943339768105 0.010270857203491633 1 1 0.0099176840064409341 1 1 1 0.010693890732838149 0.010272963032137102 1 1 1 1 1 1 1 1 1 0.010275445595364635 1 1 1 1 1 1 1 1 1 1 1 0.0098461126752623623 1 1 1 1 1 1 1 1 1 1 1 1 0.009692344547397657 1 1 1 1 1 1 1 1 1 0.0097509826009113572 1 1 1 0.009904750728776059 1 1 1 1 1 1 1 0.010347043672986528 1 1 1 1 1 0.010018981736007534 1 1 0.011082669991239942 1 1 1 1 1 1 1 1 1 1 1 1 1 1 1 1 1 1 1 1 1 1 1 1 1 0.0095118308075169619 1 1 1 0.0097400054707902223 1 1 1 1 0.0098132983871259821 1 1 1 1 1 1 1 1 1 0.0097718253367267433 1 1 1 1 1 1 1 1 1 1 1 1 1 1 1 1 1 1 1 1 1 1 1 1 0.0095798961854727718 1 0.0093040066358079116 1 1 1 1 1 1 1 1 1 1 1 1 1 0.0072446038866817719 1 1 1 1 0.0090182527353531161 1 1 1 1 1 1 1 1 1 1 1 1 1 1 0.009710052131457635 1 1 1 1 1 1 1 1 1 1 1 1 1 0.01015407561088306 1 0.0092221654966730404 1 1 1 1 1 1 1 1 0.0092897911147760606 1 1 1 1 1 1 1 1 1 1 1 0.010000431269536991 1 1 1 1 1 1 1 0.0078704606126685991 1 1 1 1 1 1 1 1 1 1 1 1 1 1 1 1 1 1 1 1 1 1 1 1 1 1 1 1 1 1 1 1 1 1 1 1 1 1 1 1 1 0.0085992707176466444 1 1 1 0.0095157918409025221 1 1 1 1 1 1 1 1 1 1 1 0.0094065222091964801 1 1 1 1 1 1 1 1 1 1 0.0093342641617309811 1 0.0085190196556978112 1 1 0.010618052983418272 1 1 1 0.010091778877331391 1 1 1 1 1 1 1 1 1 1 1 1 1 1 1 1 1 1 1 1 1 1 1 1 1 1 1 1 1 1 1 1 1 1 1 1 1 1 1 1 1 1 1 1 1 1 1 1 1 1 1 1 1 1 1 1 1 1 1 1 1 1 1 1 1 1 1 1 1 1 1 1 1 1 1 1 1 1 1 1 1 0.0097080360122255883 1 0.0098431808174577959 1 1 1 0.0092481424451572262 1 1 1 1 1 1 1 1 1 1 1 1 1 1 1 1 1 1 0.0099989732277875731 1 1 1 1 1 1 1 1 1 1 1 1 1 0.010020325198280696 1 1 0.010045397688784395 1 1 1 1 1 1 1 1 1 1 0.009560259539297105 0.0088613851849075973 1 0.0091299916467191648 0.0099894109943581295 1 1 1 0.0085034712173221016 0.010021278543926667 0.010337258052340767 1 0.010150917564504029 1 1 1 1 1 1 1 1 1 1 1 1 1 1 1 0.0088877838572776948 1 1 1 1 1 1 1 1 1 1 1 1 1 1 1 0.010003951761830818 1 1 1 1 1 1 1 1 1 1 1 1 1 1 1 1 1 1 1 1 1 0.010026462759791025 1 1 1 0.0099743521657540638 1 1 1 1 1 0.010003792475308842 1 1 1 1 1 1 1 1 1 0.0086925928400938945 1 1 1 1 1 1 1 1 1 1 1 1 1 1 0.0094144765685558358 1 1 1 1 1 1 1 1 1 1 1 1 1 1 1 1 1 1 1 1 1 1 1 1 1 1 1 1 1 1 1 1 0.010002076699418936 1 0.0098021832878430696 1 1 0.0096577507515267051 1 0.0099137702566164561 1 0.0085341390183827064 1 1 1 1 1 1 0.0098335042401623499 1 1 0.0096112409022158455 1 1 1 1 1 1 1 1 1 0.0086726465656601776 1 1 1 1 1 1 1 1 1 1 1 1 0.009404889463102967 1 1 1 1 1 1 1 1 1 1 1 1 1 1 1 1 1 1 1 1 1 1 1 1 1 1 1 1 1 1 1 1 1 1 1 1 1 1 1 1 1 1 1 1 1 0.0094442772536664776 1 1 1 0.0095757211583430476 0.010562441335629832 1 0.0097262077793455678 1 1 1 1 1 1 1 1 1 1 1 1 0.010090025968916162 1 1 1 0.010012869376310929 1 1 1 1 1 1 0.0097603883647443823 1 1 1 0.0099973646007657409 1 1 0.0099037027686396106 0.009739988893350213 1 1 1 1 0.0099347123614523022 1 1 1 1 1 1 1 1 1 1 1 1 1 1 1 1 1 1 1 1 1 1 1 1 1 1 1 1 1 1 1 1 1 1 1 1 1 1 1 1 1 0.010158387933582147 1 1 0.0098499336834907882 1 1 0.0087211777421903596 0.010143856984601397 1 1 0.0088458420375128795 1 1 1 1 1 1 1 0.010003767967298396 0.0090979042428505422 1 1 1 1 1 1 1 1 1 0.010085931088616421 1 1 1 1 1 1 0.010014884713113941 1 1 1 1 1 1 1 1 1 1 0.0095591482245933161 1 1 1 0.010040718572057976 1 1 1 1 1 1 1 1 1 1 1 0.0099945503746437046 1 0.0099672108524497347 1 0.010007834429209474 1 1 0.0098867458399703716 1 1 1 0.009821989495025156 1 1 1 1 0.010000894362538093 1 1 1 1 1 1 0.0098869434418266955 1 1 0.0099655856985563507 1 1 1 1 1 1 1 0.0099979493380392345 1 1 1 1 0.0099682174324129003 1 1 1 1 1 0.01000472416913493 1 1 1 1 1 1 1 1 1 1 1 1 1 1 1 1 1 1 1 1 1 1 1 1 1 1 1 0.0096527229905719256 1 1 1 1 1 1 1 1 1 1 1 1 1 1 0.010009541179433892 1 1 1 0.010031048542964638 0.010139842971644601 1 1 1 1 1 1 1 1 1 1 1 1 1 1 1 1 1 1 1 1 1 1 0.0099900442743209028 1 0.0099755275718905832 1 1 0.01055490852850539 0.010646482758286592 1 1 1 1 1 1 1 0.0099921941566475433 0.0098842431749218695 0.0099626751996786285 1 1 1 0.0099964771586877454 1 1 1 1 1 1 0.0089583565127908053 1 1 1 1 1 1 0.0092044617674127971 1 1 1 1 1 1 0.0099001174359071454 1 1 1 1 1 0.0098671096641922366 1 1 1 1 1 0.010022495228614764 1 1 1 1 0.0097222478188983951 1 1 1 1 0.0095839907543527059 1 1 1 1 0.010738606260467763 0.010697992425939903 1 1 1 0.0093824975839929756 1 1 1 1 0.0095881682419585532 1 1 1 1 0.0088059307667678506 1 1 1 0.0089085397428177327 1 1 0.010555541885538533 1 1 1 1 1 1 1 1 1 0.0098922391817289484 0.010696610317537717 1 1 1 1 0.0091704950328665817 1 1 1 0.01005287879795266 1 1 1 1 0.010297157058725085 1 1 1 1 1 1 1 1 1 1 1 1 1 1 1 1 1 1 1 1 1 1 1 1 1 1 1 1 1 1 1 1 1 1 1 1 1 1 1 1 1 0.0098678673538930509 1 1 1 1 1 0.0099283391597230347 1 1 1 1 1 1 1 1 1 0.0098623518091659375 1 1 1 1 1 1 1 1 0.0097382349493311468 1 1 1 1 1 1 1 0.0097870595596081782 1 1 1 0.0099754769823174258 1 0.0094832011663375949 1 1 0.0098281253167191822 1 1 1 1 1 1 1 0.0096793666463110134 1 1 1 1 0.0094609566233468251 1 1 1 1 1 1 1 1 1 1 1 1 1 1 1 1 0.0088623087549247522 1 1 0.0090176876883953337 1 1 1 0.0097229732114730225 1 1 1 1 1 1 1 1 1 0.0091072297386194639 1 1 1 1 1 0.010006345344751737 1 0.008768190039313041 1 1 1 1 1 1 0.0094585551535186756 0.0099177231338244045 1 1 1 1 0.0087515665327490243 1 0.0084542351726756317 1 1 1 0.010271372746235538 1 1 1 1 1 1 1 0.0098010290743013352 1 0.009557296449350338 1 1 1 1 1 1 1 1 1 1 1 1 1 1 1 1 0.010212606077393795 1 1 0.010526371450906844 1 1 1 1 0.010699363947200533 1 1 1 1 1 1 1 1 1 1 1 1 1 1 1 1 1 1 0.008697024932896702 1 0.0089159419260846171 1 1 1 1 0.0095684617590384245 1 1 1 1 1 1 1 1 0.0097358384660485627 1 1 1 1 1 1 1 1 0.0091900225696537607 1 1 1 1 0.010162292742762489 1 0.009710485987637579 1 1 1 1 1 1 1 1 1 1 1 1 0.010047399203853849 1 1 1 1 1 1 1 1 1 1 1 1 0.0087887185847041471 0.0096331301236448254 1 0.010105597284322173 1 1 0.0099136997143103155 1 0.0097896678397681042 1 1 1 1 1 1 0.0091479908377129545 1 1 1 1 1 0.0095329945433862227 1 1 1 1 0.0097726918733284322 1 1 1 1 1 1 1 1 1 1 1 1 1 1 1 1 1 1 1 1 1 0.0091568901919352047 1 1 1 1 1 1 1 0.0092958071092941932 0.0097513485056633115 0.0098283565536839649 1 1 1 0.0099078342679155846 1 1 1 1 1 1 1 0.0099743337889519022 1 1 1 1 1 1 0.00989462114561287 1 0.0095802512870715329 1 1 1 1 0.010149366890251567 1 1 1 1 1 1 1 1 1 1 1 1 1 1 1 1 1 1 1 0.0098677943716955173 1 1 1 1 1 0.0096660591938273581 1 1 0.010006710800634706 1 1 1 0.0094151241336204537 0.010322575729012452 0.010023100747451347 0.0094661627110880272 1 0.0093794080354463356 1 0.0095845096420896017 0.0093712861992454252 0.010330025195123065 1 1 0.010529049248400339 1 1 1 1 1 1 0.0093813573998285296 1 1 1 1 1 1 1 1 1 1 0.0099271736859577846 1 1 1 0.01001868522782658 1 1 1 1 1 1 0.0090379853967181897 1 1 1 1 1 1 1 1 1 1 1 1 1 1 1 1 1 1 1 1 1 0.0093672236749197408 1 0.0091540394305255068 1 1 1 1 0.009922737232085246 1 1 1 1 1 1 1 1 1 1 1 1 1 1 1 1 1 1 0.0095032660734737581 1 1 1 1 0.008899924628686981 1 1 0.010008316242374759 0.0098904921846396186 1 1 1 1 1 1 1 1 1 1 0.0097018746868064894 1 1 1 0.0098340803151109636 1 1 1 1 1 1 1 1 1 1 1 1 0.0095216712565322405 1 1 1 1 1 1 1 1 1 1 0.0097423725010149943 1 1 1 1 1 1 1 1 1 0.0096606651503036815 0.0098812001834819273 1 1 1 1 1 1 1 1 1 1 1 1 1 1 1 1 1 1 1 1 1 1 1 1 1 1 1 1 1 1 1 1 1 1 1 1 1 1 1 1 1 1 1 1 1 0.0096886509693285012 1 1 1 1 0.010155394651804662 1 1 1 1 1 1 1 1 1 1 1 1 1 1 1 0.0098758831401652026 1 1 1 1 1 1 1 0.006146311787143352 1 1 0.0099255125817722251 1 1 1 0.0069403866086102817 1 1 0.011267674285977041 1 1 1 1 1 1 0.010500372307772397 1 0.0095996812150522283 1 1 1 0.0090340873800591939 1 1 1 1 1 1 0.0088028665068804347 1 1 1 1 1 0.010128698502389233 1 1 1 0.0077809626652972069 1 1 1 1 1 0.0075221943677994708 0.0089289301285802557 1 1 1 1 1 1 0.009266543986662339 1 1 1 1 1 1 0.0095337838427470515 1 1 1 1 0.010006406695893609 1 1 1 1 1 1 1 1 1 1 1 1 1 1 1 1 1 1 1 1 1 1 1 1 1 1 1 1 1 0.0087587593399698713 1 0.0087170085393283893 0.0085323876071142519 0.0097200614729109312 1 1 1 0.0090227174895160418 1 0.010011011702654612 1 1 1 1 1 1 1 1 0.0090318278192621469 1 1 1 1 1 1 1 1 1 1 1 1 1 0.0098205364539943104 1 1 1 1 1 1 1 1 1 1 1 0.0069606572149820377 0.0099756723135589285 1 1 1 1 0.0099377328229537775 0.0074829655411835835 1 1 1 1 1 1 1 1 1 1 1 1 1 0.0095262279650774988 1 0.0099110390845331808 1 1 1 1 1 1 0.010125150899193018 0.0094357344537097602 1 0.0065943265106022889 1 1 0.010059755366748318 1 0.006093972765613795 1 1 0.006392188017351438 1 1 1 1 1 1 1 1 1 1 1 0.0095673339526273007 1 0.0098413158189978728 1 1 1 0.0095174249386832249 1 0.0094025087992155969 1 0.0094151665769794564 1 1 1 1 0.0093720711046744037 1 1 0.0079793285728185729 0.0094612476077304067 1 1 0.009583084018798085 1 1 1 0.0098931650951840748 0.0097506895987764016 1 0.0086866685113752458 1 1 0.010136917380825353 1 1 1 1 1 0.0092344945895574265 1 0.007617024349213828 1 1 0.0085107833035395139 0.0097049005850768887 1 1 1 0.0099199287243428077 1 1 1 1 1 1 1 1 1 0.0078007556234178325 1 1 0.0098843472255724582 0.0081213131742754307 1 1 1 1 1 1 1 1 0.0094884749130092379 1 1 1 1 1 1 0.0091870124296327214 1 1 1 1 1 1 0.0086114133966169893 1 1 1 1 1 1 1 1 1 1 1 1 1 1 1 1 1 1 0.0098922341597363749 1 1 1 1 0.0081945636453721483 0.007926222823733526 1 1 1 1 1 0.0096624092054825098 1 0.0094045839213245733 1 0.0077470074758358622 1 1 1 1 0.0098034920794766757 1 0.010030571415869166 1 0.009310832168867321 0.0053687681097879959 1 1 1 1 1 1 1 1 1 1 1 1 1 0.0053574968817608828 1 1 1 1 0.0048095681816769662 1 1 1 1 1 1 1 1 1 1 1 1 1 1 1 0.0092331928037001978 1 0.0097339960161508376 1 1 1 0.0050661139939414453 0.010001520615075549 1 1 1 1 0.0097928583494730544 1 1 1 0.0099211697696578414 1 1 1 1 1 1 0.0093779699550421026 1 0.010048063505433457 1 1 1 1 1 0.0097401565834587048 1 1 1 1 0.009903056175626139 1 1 1 1 1 0.010307152304726182 1 1 1 1 1 0.0063952097394009977 1 0.0077817043546809361 1 1 1 1 0.0093705820483237102 0.010568105592653611 1 0.0049195269364386597 1 0.0094002662953514976 0.0085682935402032964 1 0.010100264414574381 1 1 1 1 1 1 1 1 0.009825537060878152 1 1 1 1 1 1 0.0094896079239070764 0.0070571292140591988 1 1 0.010003156404877814 1 0.0077346792720578888 1 1 1 1 1 1 1 1 1 1 1 1 1 1 1 1 1 1 1 1 1 1 1 1 1 1 1 1 1 1 1 1 1 0.0098079811994891963 1 1 1 1 1 1 0.010004327017700841 1 1 1 1 1 1 1 1 1 1 1 1 1 1 0.0098254712068212534 1 1 1 1 1 0.0098582203780659128 1 0.0081669934353772403 1 1 1 1 1 1 1 0.006852508958900768 1 0.0095818067238334186 1 1 1 0.0022055246516004567 1 1 1 1 1 1 1 0.0099125172772810046 1 1 0.0097109440492447879 1 1 1 1 1 1 0.004567344369431561 1 1 0.005126269831110441 1 1 1 0.010013168774129279 1 1 0.0082415340759061529 1 0.0064796023556842816 0.0070802113953950547 1 1 0.0068253929751506421 0.011837916667935692 1 1 1 1 1 0.010040779567401473 1 1 1 1 1 1 1 0.0093762719305954673 1 1 0.010367614229369992 1 1 0.0080719619026048944 1 0.0098017292778310519 1 1 1 1 1 1 1 1 1 1 1 1 1 1 1 1 1 1 1 1 0.0092171799828009611 1 1 1 1 1 1 1 1 1 1 1 1 1 1 1 1 1 0.0087890792169970748 1 1 1 1 0.0094099072149363572 1 1 1 1 1 1 1 1 1 1 1 0.0006633803602173402 1 0.0094237867125976094 1 1 1 1 1 0.00019659906691239836 1 0.00029083103629150026 1 1 1 0.009893234777446509 1 1 1 1 1 1 1 1 1 1 1 1 0.010345387225302939 1 1 1 0.01096182410849434 1 1 1 1 1 0.0097708181300217838 1 1 1 1 1 1 1 1 1 1 1 1 1 1 1 1 1 1 0.010041315022548356 1 1 0.010049566193394074 0.009747501911853718 1 1 1 1 1 1 0.0089941034632126382 1 1 1 0.0095855684966338374 1 1 1 1 1 1 1 1 0.0098472740495916464 1 1 0.0096853756134628408 1 1 1 1 1 1 1 1 1 0.0097422628058473452 1 1 1 1 1 1 1 1 1 1 1 1 1 1 1 0.010089566702977707 1 1 1 1 1 0.010094348827607012 1 0.0095446841139312719 1 1 1 1 1 1 1 1 1 1 1 1 1 1 1 1 0.009316097156455613 1 1 1 1 1 1 1 1 1 1 1 1 1 1 1 1 1 0.0093822760725454524 1 1 1 1 1 1 1 1 1 1 1 0.0099370005504610236 1 1 1 1 1 1 1 1 1 1 1 1 1 0.0092952014071134032 1 1 1 0.0096892294874892232 1 1 1 1 1 1 1 1 1 1 1 1 1 1 1 1 1 1 1 1 1 1 1 1 1 1 0.0098974878540783566 1 1 0.009596289336843037 1 1 1 1 1 1 1 1 1 1 1 1 1 0.0098491553744834426 1 1 1 1 1 1 1 1 1 1 1 1 1 1 1 1 1 1 1 0.0099438350320452378 1 1 1 1 0.009087730528569888 1 1 1 0.0095211895653160277 1 1 0.009186815550513731 1 1 1 1 1 1 1 1 1 0.010048576415562402 1 1 1 1 1 1 0.010015317726038682 1 1 1 1 0.010078208883254482 1 1 1 0.0078140252979905008 1 0.0090585929507296954 0.00818684543427586 1 1 1 1 1 1 1 1 1 1 1 1 1 0.010411989149681647 1 1 1 1 1 1 0.0099957820658620206 0.0082538533084933873 1 1 0.010260963318415927 1 1 0.008887150941457405 0.00886542208093671 1 0.0098246139424028271 1 1 1 1 0.0087933361471222559 0.009955414744535214 1 1 0.0096781563850328687 1 1 1 1 1 1 1 0.0091831241795379409 1 1 0.010008043494042372 1 1 1 0.0099358929930627934 1 1 1 1 1 1 1 1 1 1 0.0091252705210899971 1 1 1 1 1 1 0.010835668613176159 1 1 1 1 1 1 1 1 1 1 1 1 1 1 0.0076026552727724277 1 1 1 0.0080455284527031993 1 1 1 1 1 1 1 1 1 0.011005194214583465 1 1 0.0085359741450122626 1 1 0.0095136267841881891 1 0.010219778248561453 1 0.010002922994704729 0.009701294504437909 1 1 1 1 1 1 1 1 1 1 1 1 1 1 1 1 1 1 1 1 1 1 1 1 1 1 1 1 1 1 1 1 1 1 1 0.008099219349830036 1 1 1 1 1 1 1 1 1 1 1 1 1 1 1 1 1 1 1 1 1 1 1 1 1 1 1 1 1 1 1 1 1 1 1 1 1 1 0.0098559752559176077 1 1 1 1 1 1 1 0.0096227048229330075 1 1 0.006588920764638303 1 1 0.0085681729318791405 1 1 1 1 1 1 1 1 1 1 1 1 1 1 1 1 1 1 1 1 1 1 1 1 1 1 1 1 1 1 1 1 1 0.010347094723247444 1 1 1 1 1 1 0.0094306697890656245 1 1 0.0097362912616500551 1 1 1 1 1 1 1 1 1 1 1 1 1 1 1 1 1 0.0064764778688317431 1 1 1 1 0.010217062837183735 1 1 1 0.0061663997668485702 1 1 1 1 0.011984149450096505 1 1 1 1 1 1 1 1 1 1 1 1 1 1 1 1 0.0095673799480968311 1 0.0074399677025888088 1 1 1 1 1 1 0.0087176702737322004 1 1 0.0099936885272475587 1 1 1 1 1 0.0098599918631731166 1 1 1 1 1 1 1 1 1 1 1 1 0.0096167814933099897 1 1 1 1 1 1 1 1 1 1 0.0090450572751536607 1 1 1 1 1 1 1 1 1 1 1 1 1 1 1 1 0.0086489414612083062 1 1 0.010217143363800859 1 1 1 0.010066293051507431 1 1 1 1 0.0088100054901779114 1 1 1 1 1 1 1 1 1 1 1 1 0.010046554816771715 1 1 0.0095834626361401762 1 0.006796293688253973 1 1 1 1 0.0099934305668366499 1 1 1 1 0.011833993070960603 0.0079335062797184931 1 1 0.010983485749575023 1 1 1 0.008451856392111854 1 0.010480470108868014 1 1 0.0081113866948234609 1 1 1 1 0.010055746819407043 1 0.0074373452101753456 1 1 0.010015487185194519 1 1 1 1 1 1 1 1 1 1 1 0.0056417540176567638 1 1 1 1 1 0.010005571400458805 1 1 0.0096079102033956327 1 1 1 0.0058274643774595524 1 1 1 1 1 1 1 0.010156675194456472 1 1 0.0095215354342638395 0.0093211844458090266 1 1 1 1 1 1 1 1 0.0095649391967044198 1 1 1 1 1 1 1 1 0.0089441111987651374 1 1 1 1 1 1 1 1 1 1 1 1 1 1 1 1 1 1 1 1 1 1 1 1 1 1 1 1 1 1 1 1 1 1 1 1 1 1 1 1 1 1 1 1 1 1 1 1 1 1 1 1 1 1 1 1 1 1 1 1 1 1 1 1 0.0072511001888496867 0.0100403746608256 1 1 1 1 1 0.010906819810134 1 1 1 1 1 1 0.01048078535433945 0.010089252900933602 1 1 1 1 1 1 0.010136585242661113 1 0.010048878240108 1 1 1 1 1 1 1 1 1 1 0.009852999525539443 1 1 1 0.006995489135565869 1 1 1 1 1 1 1 1 1 1 1 1 1 0.0090896458463836614 0.0076396230778165777 1 1 1 1 0.010068969101550038 0.0041985253020565662 1 1 1 1 1 1 1 1 1 1 1 1 0.012025697395602495 1 1 1 1 1 1 1 1 1 0.0098155700413299143 1 1 1 0.0050227188394371455 1 1 0.009816748640201118 0.0089409618124784759 1 1 1 1 1 0.00071944914324319339 1 1 1 1 1 1 1 1 1 1 1 1 1 1 1 1 1 1 1 1 1 1 0.0096480531613183027 1 1 1 1 1 1 1 0.00032734016458944512 1 1 1 1 1 1 1 1 1 1 1 1 1 1 1 1 1 1 1 1 1 1 1 1 1 1 1 0.0021213046987831382 1 1 1 1 1 1 1 1 0.0088652561177501015 1 1 1 1 1 1 1 1 1 1 1 1 1 1 1 1 1 1 1 1 1 1 1 1 1 1 0.0080391608870595647 1 1 0.0073216410371089446 0.010070408041296688 1 1 1 1 1 1 1 0.0098102327306318175 1 1 1 0.0099621482588930846 1 1 1 1 0.0098546750319468534 1 1 1 1 1 1 1 1 1 1 1 1 1 1 1 1 1 1 1 1 1 0.012162490691552938 1 1 0.010248656707933911 1 1 1 1 1 1 1 1 0.012193192622591748 0.010450630189773828 1 1 0.012236783243209551 1 1 1 1 1 0.0080542112797353169 1 1 0.0099936507671427414 1 1 1 1 0.010141773162775302 1 1 1 1 1 1 1 1 1 1 1 1 1 1 1 0.0096032153849250103 1 1 1 1 1 0.0098482054572591599 1 1 1 0.005042629874661541 1 1 1 1 0.009847916679747503 0.0053502977098603679 1 0.0096634867210774154 1 1 1 1 0.0054221492906893513 1 1 0.0068933954054591472 1 1 1 1 0.0070091615529587863 1 1 1 1 1 1 1 1 1 0.0099537087766345417 1 1 0.010020282800998585 1 1 1 1 0.0094221876125650667 1 0.0096048714489536113 1 1 1 1 1 0.0091526173038021259 1 1 1 1 1 1 1 1 1 1 1 1 1 1 1 1 1 1 1 1 1 1 1 1 1 1 1 1 1 1 0.0074866680660552734 1 1 1 1 1 1 1 1 1 1 1 1 0.0089253900144226784 1 1 1 1 1 1 1 1 1 1 0.0099979928643694135 1 1 1 1 0.00479826774542382 1 1 1 1 1 1 1 1 0.0099479939457268358 1 1 0.0047386246797538169 1 1 1 0.01082800424270784 1 1 1 0.003718979671363168 1 0.010652555164924769 1 1 1 1 1 1 0.010347673720536691 1 1 1 1 1 1 1 1 1 1 1 1 1 1 1 1 1 1 1 1 1 1 1 1 1 1 1 1 1 1 1 0.010943546678480461 1 1 1 1 1 0.0079904720923518954 1 1 0.0099509550724195695 1 1 1 1 1 1 1 0.0079923204197346349 1 1 1 0.0099999878139604686 1 1 1 1 0.011533862122544534 1 1 1 1 1 1 1 1 1 1 1 0.010216349737168165 0.0081982623686379045 1 0.010004220549183146 1 1 0.0086686185856664957 0.010078968001001037 1 1 1 1 1 1 1 1 0.010072609385781842 1 1 1 1 1 1 1 1 1 1 1 1 1 1 1 1 0.0061238798605123329 1 1 1 1 1 1 0.010021540337311218 1 1 1 1 1 0.0088924384021465634 1 0.010410950035718066 0.0099453624468176308 1 1 1 0.0086168509483883684 1 1 1 1 1 1 1 1 1 1 1 1 1 0.0062636643426274624 1 1 1 0.0068243507210440195 1 0.0099978603411432429 1 1 1 1 1 1 1 1 1 1 1 1 1 1 1 1 1 1 1 1 1 1 1 1 0.009417147652581245 1 1 0.0092468747348487465 1 1 1 0.0079554081126669944 0.010003172178879952 1 1 1 1 1 1 0.0082199422150657613 1 0.0099739365580234444 1 1 1 1 1 1 0.0083412909256319577 1 1 0.0098039821377436404 1 1 1 1 1 1 1 1 1 1 1 0.0072955218395354612 1 1 0.0078616377652559466 1 1 0.0092217839154522547 1 1 1 1 1 0.0098683997831954893 1 1 1 0.0099399359878385805 1 1 1 1 1 1 1 1 1 1 1 1 1 1 1 1 0.009005534401950694 0.0095165881546363691 1 1 1 1 1 1 0.0098322578509714483 0.0096630671252189368 1 1 1 1 1 1 1 1 1 1 1 1 1 1 1 1 0.0097126060168927289 1 1 1 1 1 1 1 1 1 1 1 1 1 0.0099994155209619778 1 1 1 1 1 1 0.0098057450673805484 1 1 1 1 1 0.010686990418809928 1 1 1 1 1 1 1 1 1 1 1 1 1 1 1 1 1 1 1 1 1 0.010084229266284788 1 1 0.010328193140236891 1 1 0.01000714417439706 1 1 1 1 0.0099984959017013816 1 1 1 1 1 1 1 1 1 1 1 1 1 1 1 1 1 1 1 0.0099727744594622133 1 0.0099641261867665365 1 1 1 1 1 1 0.010008923886841336 1 1 1 1 1 1 0.010166188721105758 1 1 0.0097514993122619995 1 1 1 1 1 1 1 1 1 1 1 1 1 1 1 1 1 1 1 1 1 1 0.0087464156985705699 1 1 0.0095991149034089368 1 1 0.0093696027320629809 1 1 1 1 1 1 1 0.0087100352164478558 1 1 1 1 0.0087154758550148231 1 1 1 0.0099239449370681007 1 1 1 1 1 1 1 1 1 1 1 1 1 1 1 1 1 1 1 1 1 1 1 1 1 1 1 1 1 1 0.010004667972724118 1 1 0.010000372409791458 1 1 1 1 1 1 1 1 1 0.010119174404251162 1 1 1 0.010115796542620265 1 1 0.010030379474678474 0.010306125163856907 1 1 1 1 1 1 1 1 1 1 1 1 1 1 1 1 1 1 1 1 1 1 0.0099084013066788462 1 1 1 1 1 1 1 1 1 1 1 1 1 1 1 0.009686084859497698 1 1 1 0.0099683999096387109 1 0.0099169135178972974 0.0094742502629707771 1 0.0093736394872877236 1 0.010294089598388251 0.010938429561547862 1 1 1 1 1 1 1 0.010018396713321307 1 1 1 1 1 1 0.0095686998930539675 1 1 1 1 1 0.0097335819796116503 1 1 1 1 1 1 1 1 1 1 1 1 1 1 1 1 0.0098141899484664036 0.0091339095438898905 1 1 0.0085052258568357308 1 1 1 1 1 1 1 1 0.0098770165939188401 1 1 0.010021641955517021 1 0.010370236348094513 1 1 1 1 1 0.0087240378900042981 1 1 1 1 1 1 1 1 1 0.010186866340066004 1 1 1 1 1 1 1 1 1 1 0.010273257828305619 1 1 1 1 1 1 1 1 1 1 1 1 1 1 1 1 1 1 1 1 1 1 1 1 1 1 1 1 1 1 1 1 1 1 1 1 1 0.0099960041980831429 1 1 0.010067306211102307 1 1 1 1 1 1 1 1 0.010230161104833439 1 1 1 1 1 1 1 1 1 1 1 1 1 1 1 1 1 1 1 1 1 0.0099884433342445709 1 1 0.0097718289873479879 1 1 0.010221680876702787 1 1 1 1 1 1 1 1 1 1 1 1 1 1 1 1 1 1 1 1 1 1 1 1 1 1 0.0075043869991280434 1 1 0.0075988717892201216 1 1 0.0077934325105163092 1 1 1 1 0.0098094447667320065 1 1 1 1 0.0099146205211929923 1 1 1 1 1 1 1 1 1 1 1 1 1 1 1 0.0099525408113541464 1 1 1 1 0.0074602590530461598 1 1 0.010382147642598611 1 1 0.0080317803578081118 1 0.0079196565082468532 1 1 1 1 1 1 1 1 1 1 0.010237523980580731 1 1 1 1 1 1 1 1 1 1 1 1 1 1 1 0.0096089231885259606 1 1 1 1 1 1 1 1 1 1 1 0.009877663622423186 1 1 1 1 0.0099713546466867267 1 1 0.0099667872681846997 1 1 1 1 1 1 0.0078013126695649993 1 1 0.0077091062259198638 0.010428999476769334 1 1 1 1 1 1 1 1 1 1 1 1 0.010084154782471277 1 1 1 1 1 1 1 1 1 1 1 1 1 1 1 0.0098381015638711981 1 1 1 1 1 0.0080592022553463254 1 1 0.010257937092904132 1 1 1 1 1 1 1 1 1 1 1 1 1 1 1 1 1 0.010063086327700692 1 1 0.0091193249953843078 1 1 1 0.0096977158203927667 1 1 1 1 0.010168201001420379 1 1 1 1 1 1 1 1 1 1 1 1 1 1 1 1 1 1 1 1 1 1 1 0.0095118492090316697 1 1 1 1 1 1 1 1 0.009524777756042796 1 1 1 1 0.0098425121624608619 1 1 0.0097796665773522522 1 0.0094033183347207727 1 1 1 1 1 1 1 1 1 1 1 1 1 1 1 1 1 1 1 1 1 1 1 0.0097724948171992159 1 1 1 1 1 1 0.0097219919714842829 1 1 1 0.0096778148051108025 1 1 1 1 1 1 1 1 1 1 1 1 1 0.0099304811773729337 1 1 1 1 1 0.0098195655414378396 1 1 1 1 0.0093359840132307102 1 1 0.010831826827121633 1 1 0.0091775962295202063 1 1 1 0.010505703810891031 1 1 1 1 1 1 1 1 1 1 1 1 0.0099794206680048504 1 1 1 1 1 1 1 0.010002137721013446 1 0.011140410377094057 1 1 1 1 1 1 1 1 1 1 1 1 1 1 1 1 1 1 1 1 1 1 1 1 1 1 1 1 1 1 1 1 1 1 1 1 0.0099458487459383807 1 1 1 1 1 1 1 1 1 1 1 1 1 1 1 1 1 1 1 1 1 1 1 1 1 1 1 1 1 1 1 1 1 0.0090466958475490383 1 1 1 1 0.010192049381447715 1 0.010650197847032649 1 1 1 0.0076075280839163597 1 1 1 1 0.0068336040849041914 1 1 1 1 1 1 1 1 1 1 1 1 1 1 0.0090827287649997493 1 1 1 1 0.0078440412431222181 1 1 0.0074137686377180097 1 1 1 0.0099252831313954813 1 1 1 1 1 1 1 1 1 1 1 1 1 1 0.0096788451809960725 1 0.0096796392461882437 1 1 1 1 1 1 1 1 1 0.0091377978776163993 0.0099054239560876153 1 0.010096083318514953 0.0076441440790073036 1 1 1 1 1 0.0099224232035408436 1 1 1 1 0.0070654776119383964 1 1 1 1 1 1 1 0.0099517378535563545 1 1 0.010134029821272816 1 0.0068139843656004513 1 1 1 1 1 1 1 1 1 1 1 1 1 1 1 1 1 1 1 1 1 1 1 1 1 1 1 1 1 1 1 1 1 1 1 1 0.0079698760089880263 1 0.0098200996457936222 0.0090360123167780131 0.0099906478920722738 1 1 1 0.010093437975101826 1 0.0068006332746100313 1 1 1 1 1 1 1 1 0.0099863691085605635 1 1 0.010049841621519198 1 1 1 1 1 1 1 1 1 1 0.0099959372987563078 1 1 0.0097468968972267995 1 1 1 0.0098694363117966116 1 1 1 1 1 1 1 1 1 1 0.0099176960222773364 1 1 1 1 0.0099574518985701722 1 1 1 1 1 1 0.010156422848198943 0.0072210044969116798 1 1 1 1 0.0078800931995024592 1 1 0.0065948756062480622 0.01002898423126624 1 1 1 1 1 1 1 1 1 1 0.0099751440895863609 1 1 0.0093725545834669743 1 0.0099927832524108161 1 0.0087363455837546518 1 1 1 1 1 1 0.00991778096562837 1 1 1 1 1 1 1 1 1 1 1 1 1 1 1 1 1 1 1 1 1 1 1 0.0099473724372954649 1 1 1 1 0.0095886718697167483 1 1 1 1 1 0.0097495280625426381 1 1 1 1 1 1 1 1 1 1 1 1 1 1 1 1 1 1 1 1 1 1 1 0.0081246618987227785 1 1 0.009617080183084584 1 1 1 0.0095797885878369984 0.0084946389516341002 1 1 0.01000065345104126 1 1 0.0096321815302388772 1 1 1 1 1 1 1 1 1 1 1 0.0083413170132464933 1 1 1 1 0.010576573169619668 1 0.0099706130447614998 1 1 1 1 1 1 1 1 0.0099438544084223101 0.0092491365465389511 0.0093964263537806847 1 1 1 1 1 1 1 1 0.0093484180846327251 1 1 1 0.0083182806656280535 1 1 1 1 0.0099924911673156865 1 1 1 0.0088120789254036332 1 1 1 1 1 1 1 1 1 1 1 1 1 0.0095786256328778546 1 1 1 1 1 1 0.010111055047967735 1 1 0.0091327202796511932 1 1 1 1 0.010063584322067387 1 1 1 1 1 1 1 1 1 0.0080522041992393961 1 1 1 0.0096110106380755851 1 0.0091545939558626728 1 1 1 1 0.0098666871205332352 1 1 1 0.0099193146832377739 1 1 1 1 1 1 1 1 1 1 1 1 1 1 1 1 1 1 1 1 1 1 1 1 1 1 1 1 1 1 1 1 1 1 1 1 1 1 0.0074772228086497066 1 1 1 1 1 1 1 0.0079061568938488206 1 1 0.0091023461887280843 1 1 0.0072814019355666622 1 0.010155539340306469 1 1 1 1 1 1 1 1 1 0.0075543326649203622 1 1 1 1 1 0.0075875595303576421 1 1 1 1 1 1 1 1 0.0076429375518788471 1 0.0077344529729355665 0.0078981252854036614 1 1 1 1 1 1 0.009839839983220737 1 1 1 1 0.0095016714478731307 1 1 1 0.0071275261222957711 1 1 1 1 1 0.0068328719439759798 1 1 1 1 1 1 1 1 1 1 1 1 0.0097614860669600918 1 1 1 1 1 1 1 1 1 1 1 1 1 1 0.0081328824697266718 1 1 1 0.0083981297673616714 1 1 1 1 1 1 1 1 1 1 1 1 0.0086724161224852759 1 1 1 1 0.0094040749067098202 1 1 1 0.0097862539925364402 1 1 1 1 1 1 0.0094650369148210293 1 0.0094620501297452125 1 1 1 1 1 1 1 1 1 1 1 1 1 1 1 1 1 1 1 1 1 1 1 1 1 1 1 1 1 1 1 0.0099958086174490712 1 1 1 0.0099916696738496513 1 1 1 0.008390848355157866 1 1 1 1 1 1 1 0.0099787400034827244 1 1 1 1 1 1 1 1 1 1 1 1 1 0.0093327383671123858 1 0.0088753022457032961 1 1 1 0.0083373455048978643 1 1 1 1 1 1 1 0.0088474485045789836 0.010790205292909923 1 0.0094328120633786101 1 0.0084130179287392037 1 1 1 1 0.009257884872613269 1 1 0.010160826923497859 1 0.0095384328016536023 1 1 1 1 1 1 1 1 0.0091315015090928965 0.010157035390475556 1 1 0.010002621001721701 1 0.0090807888455996886 1 1 1 1 1 1 0.010041571003631572 1 1 1 1 1 1 0.0098157436620565017 1 1 1 1 1 1 1 0.0100844131821493 1 1 1 1 0.0093924442551344394 1 1 1 0.011754964639039458 0.0076352000966839785 1 1 1 1 1 1 1 1 0.010005063325192597 1 0.010043459463409269 1 1 1 1 0.0076778309572371828 1 1 1 0.0089511752772675288 1 0.0092921772078386738 1 0.0084706614123609865 1 1 0.0099992938239221243 1 1 0.0098383732943742638 1 1 1 1 1 1 1 1 1 1 1 1 1 1 1 1 1 1 1 1 1 1 1 0.010119731508243763 1 0.0093677195551668899 1 0.0069585493012610921 1 1 1 1 0.007661710165946186 0.0090331029416199256 1 1 1 1 1 1 1 1 0.0098815444713435709 0.0103341671119346 1 1 1 1 1 1 1 1 1 1 1 0.0099044540358076763 1 1 0.0087575799505002008 1 1 1 1 1 1 1 1 1 1 1 1 1 1 1 1 1 1 1 0.0093860440445435074 1 1 1 1 1 1 1 1 1 1 1 1 1 1 1 1 1 1 1 1 1 0.0099363735217426006 1 1 1 1 0.010273054678652643 1 1 0.0092582220141744533 1 1 0.009207999769998464 1 1 1 1 1 1 0.0098077608810990188 0.010066231553087633 1 1 1 1 1 1 1 1 1 1 1 1 1 1 1 1 0.0086030534886096469 1 1 0.010849297948028688 1 1 1 0.0097989578447457565 0.009694836541321512 1 1 1 1 0.01000257645055791 1 1 1 1 1 0.0099314241247271898 1 1 1 1 1 1 1 1 1 1 1 1 1 1 1 1 1 1 1 1 1 1 1 1 1 0.010495656051175264 1 1 1 1 0.0099162510895591718 0.0083892573663200704 1 1 1 1 1 1 1 1 1 1 1 1 1 1 1 1 1 1 1 1 1 1 1 1 0.0099276729833095313 1 1 0.0097570469681444189 1 1 1 1 1 1 1 1 1 1 1 1 1 1 1 1 0.0097548041791305426 1 1 0.0096071531485274267 1 1 1 1 1 1 0.0094791305343712336 1 1 1 1 0.0099317497367788759 1 1 1 0.010000724564285243 1 1 0.010119553050040114 1 1 1 1 1 0.0099616263321484506 1 0.0090223534752646127 0.0098850695823006086 1 1 1 1 1 1 1 1 1 1 1 0.0090121599675013347 1 1 1 0.0086107675017699711 1 0.010522898709372633 1 1 1 1 0.0092758524033629674 1 1 1 1 1 1 1 1 1 1 1 0.0096287392475432661 0.0078612779591768073 1 1 0.0085149560362999515 1 1 0.0075651122534190485 1 0.010110715422417149 1 1 1 1 0.006147707609438639 1 1 1 1 1 1 1 1 1 0.0091534216607345609 1 1 1 1 1 1 0.0088748217737068986 1 1 0.0070844487406454236 1 1 0.0092232899718485382 1 0.0081506741770698624 1 1 1 0.0076132523503058928 1 1 1 1 1 1 1 1 1 1 1 1 1 1 1 1 1 0.009640834622571726 1 1 0.0098198331550599458 1 1 1 1 1 1 1 1 1 1 1 0.009938064028329233 1 0.0098847451090605092 1 1 0.010004864192065283 1 1 1 0.010003539020289763 1 1 0.0098672642326312048 0.010074525593263722 0.009487557611814525 0.0098307299300096126 1 1 1 0.0097082524871819568 0.0098355479449552235 1 1 1 1 1 1 0.0071953264877534368 1 1 1 1 1 1 1 1 0.0080671675070213156 1 1 1 1 1 1 1 1 1 1 0.010063191411279459 1 0.0090897590447641154 1 0.0093244339645106832 1 0.0098473409810714892 1 0.0095697820385092103 1 1 1 0.010576483140598754 1 1 1 1 1 1 0.0098828420302919384 1 1 1 1 1 0.0099863158204672696 1 1 1 1 1 1 0.0076043624493556498 1 1 1 1 1 1 0.0096898201060828214 1 1 1 0.010105350501957294 0.0086851583715258501 1 1 0.0089634184435931179 1 0.0093203911637673893 1 1 1 1 1 1 0.010161581983859497 1 1 1 1 1 1 1 1 1 1 1 1 1 1 1 1 1 1 1 1 1 1 1 1 1 1 1 1 1 1 1 1 1 1 1 1 0.0091497014548557968 1 1 1 1 1 1 1 1 1 1 1 1 1 1 1 1 1 1 1 1 1 1 1 1 1 1 1 1 1 1 1 1 1 1 1 1 1 1 1 1 1 1 1 1 1 1 0.0085186555326059437 1 1 1 1 1 1 1 1 1 1 1 1 1 1 1 1 1 1 1 1 1 1 1 1 1 1 1 1 1 1 1 1 1 1 1 1 1 1 1 1 1 1 1 1 1 1 1 1 1 1 1 1 1 1 1 1 1 1 1 1 1 1 1 1 1 1 1 1 1 1 1 1 1 1 1 1 1 1 1 1 1 1 1 1 1 1 1 1 1 1 1 1 1 1 1 1 1 1 1 1 1 1 1 1 1 1 1 1 1 1 1 1 1 1 1 1 1 1 1 1 1 1 1 1 1 1 1 1 0.0080593493243215058 1 1 1 1 1 1 1 1 1 1 1 1 1 1 1 1 1 1 1 1 1 1 1 1 1 1 1 1 1 1 1 1 0.0097715992445523443 1 1 1 1 1 1 1 1 1 0.009983030821686634 1 1 1 1 1 1 1 0.0098890526045701706 1 1 1 1 1 1 0.0097254404205064458 1 1 0.009969471654049088 1 1 1 1 1 1 1 1 1 1 1 0.0099507993028628283 1 1 1 1 1 1 1 1 0.010025168681143545 1 1 1 0.0098908296751040875 0.0098382424690568356 1 0.010013671197926705 1 1 1 1 1 0.0099934723960738332 1 0.0097954969437176014 1 1 0.0099267162119882381 1 1 1 1 1 1 1 1 1 1 1 1 1 1 1 1 1 1 1 1 1 0.009428642903461789 1 1 1 1 0.010125406453352134 0.010137231249950416 1 1 1 1 1 1 1 1 1 0.010045721564701926 1 1 1 1 1 1 1 1 1 1 1 1 1 1 1 1 1 1 1 0.01001462623737044 1 1 1 1 0.0097344725223188176 1 1 1 0.010124839401384065 0.0099971606220367135 1 0.010120168339829053 1 1 1 1 1 1 1 1 0.0093085262889237852 1 1 1 1 1 1 1 1 1 1 1 1 1 1 1 1 1 1 1 1 1 0.010549069261809915 1 1 1 0.008904532453592337 1 0.0097007037491346829 1 1 0.010018189685155807 1 1 1 1 1 1 1 1 1 1 1 1 1 1 1 0.0098754029343815358 1 1 1 1 1 1 1 0.0098652452861912251 1 1 1 1 1 1 1 1 1 1 1 1 1 0.0065941136006411657 1 1 1 1 1 1 0.0094092399131403964 1 1 1 1 0.0087633111273525844 1 1 1 0.010245431133211106 1 1 1 1 1 1 1 1 1 1 0.0082426219834713637 1 1 0.0099983533586319139 1 1 0.0097198751287298265 0.0088014614696513681 1 0.010682641722561866 1 1 0.01132662883165933 1 1 1 1 1 1 1 1 1 1 1 1 1 0.0088526281515102744 1 1 1 1 1 1 1 1 1 0.009390335993038618 1 1 1 1 0.0076063000218933099 1 1 1 1 1 1 1 1 1 1 0.0048585617687140498 1 1 1 0.0058250944647393757 1 1 1 1 1 1 0.0078197391265010432 1 1 1 1 1 1 1 1 1 1 1 1 0.010681655900289539 1 1 1 1 1 1 0.010356980789771581 1 1 1 1 1 1 1 1 1 1 1 0.009549474671964266 1 1 1 1 1 0.0087928845763928856 0.0099337121519665773 1 1 1 1 1 1 1 0.010152753076176279 0.0087397503487961457 1 1 0.0094857611370824518 1 1 0.010426357956943258 1 1 1 1 0.0097803590892010517 1 1 0.010031185675397219 1 1 1 1 1 1 1 1 1 1 1 1 0.009037906205737533 1 1 0.012170342239719701 1 1 0.01126411354283486 1 0.010990900984066233 1 0.0082906166691490112 1 1 1 1 1 1 1 1 1 0.0081884208346931359 1 1 1 1 0.0076021970473836194 1 1 0.01205825856365858 1 1 0.0076086298275856081 1 1 1 1 1 0.0092039273806031 1 1 1 1 1 0.010310351006731965 0.010741211279976945 1 0.004805714594234586 1 1 1 1 0.0061944894222580454 0.0099952040189309026 0.0098731010594083797 1 1 1 1 1 1 0.0056198411640535854 0.0041067726697191914 1 0.0097491002973594046 1 1 1 1 1 1 0.0093427165131418476 1 1 1 1 0.0086126691113714779 1 0.0097127251342777159 1 1 1 1 0.0093699259085695038 1 0.0099912441384572455 1 1 1 1 0.0085674039949259484 1 1 1 1 1 1 1 1 1 1 1 1 1 1 0.0075925681102225881 1 1 1 1 1 1 1 1 1 0.0099345675061298915 1 1 1 1 1 1 1 1 1 1 0.0091608927820624516 1 1 1 1 1 1 1 1 0.0070430319032073717 0.0072694581075561544 1 1 1 1 0.0098087157470722729 1 1 1 0.0047616617114212105 1 1 0.0093570605826620579 1 1 1 1 0.0040973903832993101 1 1 1 1 1 1 1 1 1 1 1 0.00949106725896731 1 1 1 1 0.0096194244242560102 1 1 0.0099617890584139147 1 1 1 1 1 1 1 1 1 1 1 1 0.0098590557652725522 1 1 1 1 1 1 1 1 1 0.0099662368320551538 1 1 1 1 1 1 0.010022945352531384 1 1 0.0098174410443065303 1 1 0.010390532330499701 1 1 1 1 1 1 1 1 1 1 0.011010131780992107 1 1 1 1 1 1 1 1 1 1 1 1 1 1 1 1 1 1 1 1 0.0099494759923420169 1 1 1 1 1 1 1 0.010063881137873239 1 1 1 1 1 0.0099371823372807182 1 0.0099877063449387033 1 1 1 1 1 1 1 1 1 1 1 1 1 1 1 1 1 1 0.0079157212971882607 0.0067505095308099568 1 1 1 1 0.0099039042618312284 1 0.0093213835950645835 1 0.0073423999076078043 1 1 0.0099981125313249111 1 0.011904309529222926 1 1 1 0.01066620768254844 1 1 1 1 1 1 1 1 1 1 1 1 1 1 1 1 1 1 1 1 1 1 1 0.0092570812444833801 1 1 1 1 1 0.010005208708631176 1 0.0080485775124005503 1 1 1 1 1 1 1 1 0.0092928996557183809 1 1 1 1 1 1 0.0099272701001876205 1 1 1 0.0099270934576813526 1 1 1 1 1 1 1 0.010014992878826788 1 0.010059490620232644 1 1 0.0082516499510404771 1 1 1 1 1 1 1 1 1 1 0.0093304717408541279 1 1 1 1 1 1 1 1 0.0098314440381019486 1 1 1 1 1 0.0095962549203887446 1 1 1 1 1 1 1 0.0071123517091704006 0.0095514995347192998 0.0094371519829406659 1 1 0.007558837000821033 1 1 1 1 1 1 1 1 1 1 1 1 1 0.0062699342274186217 1 1 1 1 1 1 0.0098660645751183183 1 1 1 1 1 1 1 1 1 1 1 1 0.010123007677107904 1 1 1 1 1 1 0.0081353767652685531 1 1 1 0.0083807608676161622 0.0087892918665533701 1 1 1 1 1 0.0056573732477331658 1 0.010027551788458483 0.0089890914080874747 1 0.0098772051825553094 1 1 1 1 0.010416066814931353 1 1 1 0.010573641628617585 0.0099953849182880354 1 0.007050777368345933 0.011024835489152507 1 1 1 1 1 1 1 1 1 1 1 1 1 1 1 0.010038106751822942 1 1 1 1 0.0099963076601537627 1 1 1 1 0.009998287106584923 1 0.0085971491736713777 1 0.010170229903073105 0.0088956884634454111 0.0092014699030492034 1 1 0.009198381334963774 0.0084917488990189083 1 1 1 1 1 1 1 1 0.0094192260990534019 1 1 1 1 1 1 1 1 1 1 1 1 1 1 1 1 1 1 1 0.0095187306695315981 1 1 0.0098352884082096425 1 1 0.009455852050307129 1 1 0.010154655758724384 1 1 1 1 0.0077811221083157883 1 1 1 1 0.0095230256378233645 1 0.0098026117072918736 1 1 1 1 1 1 1 1 1 1 1 1 1 1 1 1 1 1 1 1 1 0.0089044594664009317 1 1 1 0.0094161784678073908 0.010004059439145438 1 1 1 1 1 1 1 1 1 0.0092841297154945945 1 1 1 0.0097487152108439445 1 1 1 1 1 1 0.010430790468275414 1 1 1 1 1 1 1 1 1 1 0.010123730231149177 1 0.0099940382585305809 1 1 0.0099952053191370016 1 1 1 0.0099675534981588133 1 1 1 1 1 1 1 1 0.0099729005872976478 1 1 1 1 1 0.0071691743202921959 1 1 0.0074193462288964489 1 1 1 1 1 1 0.009889756300992137 1 1 0.0095034544938527674 1 1 1 1 0.0095024678088545325 1 1 0.0099710880626985767 1 1 1 1 1 1 1 1 0.0089704041665229356 0.0086728525563774597 1 1 1 1 0.0095888292460597612 1 0.0086241393683995082 1 1 1 1 1 1 1 1 1 1 1 1 1 1 1 1 1 0.0094007806332060927 1 1 0.0084817016653931862 1 1 1 1 1 1 0.0093330272498174348 1 1 0.0084086740951497922 1 1 1 1 1 0.0095122679244426783 1 1 1 0.0095035072781628569 1 1 0.0099573824786346223 1 1 1 0.0096125456575787086 1 1 1 0.0066702307347910935 0.0067428268270930854 1 1 1 1 1 1 1 1 0.0094852873671291589 0.0086790789806885094 0.0094805248781056513 1 1 1 0.0097925490055371864 1 0.0099913832387885718 0.0099431872663121416 1 1 0.0087822514460837182 1 1 1 1 1 1 1 1 1 0.007723276992141306 1 0.0085823802495932616 1 1 1 1 0.009868394717795553 1 1 1 1 0.0099590906813202141 1 0.0097693092749638229 1 1 1 1 0.0077720523397545897 1 1 1 1 1 1 1 1 1 1 1 1 1 1 1 1 1 0.0057544817019848041 1 1 1 1 1 0.010003096452351623 1 0.0092416656289917541 1 1 1 1 0.010122301252339682 1 1 1 1 1 1 1 1 1 1 0.0099832282022189953 1 1 1 1 1 1 0.0089071877646289908 0.009559478793920868 1 1 1 1 1 1 1 1 1 1 1 1 0.0088743017510671211 1 1 0.0099524846703705622 1 1 1 1 1 1 1 1 1 0.010001097676751017 0.0088335037222195094 1 1 1 1 1 1 1 1 0.0086338487403696158 1 1 0.0087584264760373585 0.0097311835296479774 1 0.0088408513984546272 0.0092463306654452654 1 1 1 0.0087193423332767549 0.0094345283565018725 0.0085789172560671919 1 1 1 1 1 0.0095543311065154138 1 1 1 1 1 0.0089677740496456569 1 1 0.0099589598718045208 1 1 1 1 0.0089636729582826258 1 1 1 1 1 0.0093762861639166591 1 0.0099761538149462491 1 0.009449428349372322 1 1 1 0.0080204298371448525 1 1 1 1 1 1 1 0.010074612735521389 1 1 1 1 0.010001381908862617 1 1 1 1 1 1 1 1 1 1 1 1 1 0.0065818368962046875 1 1 1 1 1 1 0.0087751540550183218 1 0.0063747487470044457 1 1 1 1 1 1 1 1 1 1 1 1 1 1 1 1 1 1 1 1 1 1 1 1 1 1 1 1 1 1 0.010335839853419897 1 1 0.010949682423901411 1 1 1 1 1 0.0089166802949268709 0.0077967447744247027 1 1 1 0.0082867236682723049 1 1 1 1 1 1 1 1 1 1 1 0.0099786428761029587 1 1 0.0079463759949083106 0.0072662324176377292 1 1 0.0075292489380631485 0.0082232648333030699 1 1 0.009839591026823559 0.0070752977684856088 1 1 1 1 1 1 1 1 1 1 1 1 1 1 1 1 1 1 1 0.010337917832785731 1 0.010086578646302032 1 1 1 1 1 1 1 1 1 1 1 1 1 1 1 1 1 1 1 1 1 1 1 1 1 1 0.0089423758943748734 1 1 1 1 1 1 0.0098476854694236823 1 1 1 0.0095807923037643586 1 1 1 1 1 0.0098426964687695108 1 1 0.0096446772855337086 1 1 1 1 1 1 1 0.0080425451007661367 1 0.006879052744765534 1 1 1 1 1 1 1 1 1 1 1 1 1 1 1 1 1 1 0.0095004165446938536 1 1 0.0063736605988990629 1 1 1 1 0.0101253135877282 1 1 0.0099043675428841377 1 0.0095608620905457704 1 1 1 1 0.0095992557002305759 1 1 1 1 1 1 1 1 1 1 1 1 1 1 1 1 1 1 1 1 1 0.0098997013846175638 1 1 1 1 1 1 1 1 0.0098951742929918353 1 1 0.0097504910151415651 1 1 1 1 1 1 1 1 1 1 1 1 1 1 1 1 1 1 1 1 1 0.0087018211675340702 1 1 1 1 1 1 1 1 1 1 1 1 1 1 1 1 1 1 1 1 1 1 1 1 1 1 1 1 1 1 1 1 1 1 1 1 1 1 1 1 1 1 1 1 1 0.010020503022550937 1 1 1 1 1 1 1 1 1 1 1 1 1 1 1 0.0099987226985595624 1 1 1 1 1 1 1 1 1 0.0098967213279732187 1 1 1 1 1 1 1 1 0.0097977000140312184 1 1 1 1 1 1 1 1 1 1 1 0.0098317542142700685 1 1 1 1 1 1 1 1 0.0092079794987139935 1 1 1 1 1 1 1 1 0.0097520399078408274 1 1 1 1 1 0.0090827064184756147 0.0099946585371023921 1 1 1 1 1 1 1 1 1 1 1 1 1 1 0.0085834925928955849 1 1 1 0.0099817885140063393 1 1 0.0093236515396130214 1 1 1 0.0099744717519424063 1 0.009560529672136284 1 0.0092486621628016675 0.0098917398942094999 1 1 1 0.0086150540408622637 1 1 1 1 1 1 1 1 1 1 0.008676452051257718 1 1 0.0086541147670220874 1 1 1 1 1 1 1 1 1 1 1 1 1 0.0079512711476000964 1 1 1 1 1 1 1 1 1 0.0092956776982298685 1 0.0087217278406628608 1 1 1 1 1 1 1 0.00801505793099095 1 1 1 1 1 0.0086178753842547362 1 0.0089235085671398387 0.010066580320232211 1 0.0086121309065620866 1 1 1 0.010003260421285748 1 1 1 1 1 1 1 1 1 1 0.010000481419242636 1 1 1 0.010100073867746799 1 1 1 0.010000774173782957 1 1 1 1 1 0.008946601527427326 0.0069756268420948335 0.0086986583668820366 0.0087025988211854415 1 1 1 1 1 0.009060641258374743 0.0081428661056473124 1 1 1 0.009228162924005863 1 1 1 1 1 1 1 1 1 0.0090252957125618368 1 1 1 1 1 1 0.0094816745746974015 1 1 1 1 1 0.0095789945048857794 1 1 1 1 1 1 1 1 1 1 1 1 1 1 1 1 1 1 1 1 1 1 1 1 1 1 1 1 1 0.0095772838589229282 1 1 1 1 1 1 1 1 1 1 1 1 1 0.0098162975701330292 1 1 1 1 1 1 1 1 1 1 1 1 1 1 1 1 1 1 1 1 1 1 0.0089153687561790013 1 0.0099522694511252081 1 1 0.0096902211367673307 1 1 1 1 1 1 0.0095897756692671088 1 1 1 1 1 1 1 1 0.009317441362964609 0.010007633816751887 1 1 0.0087756272880595444 1 0.0090695595062004475 0.0097747828541281216 1 1 0.0085968530865383076 1 1 1 1 1 1 1 1 0.009281071941604959 1 1 1 1 1 1 1 0.0097827118725051197 1 1 1 1 1 1 1 1 1 1 1 0.0098314795007720304 1 1 1 1 1 1 1 1 1 0.0099456725147763127 1 1 0.010099214666733383 0.010375395194418185 1 1 1 1 1 0.0097752479587437501 0.0065871215182198607 1 1 1 1 1 1 1 1 0.010305665475147326 1 1 1 1 1 1 1 1 1 1 1 1 1 1 1 0.0069796611234574741 1 1 0.0090012597609721752 1 0.0099984878446393449 1 1 0.0092834326110539829 1 1 1 1 0.0096588862805783906 1 0.0082587894837114519 0.0092938020931681853 1 0.0084652791340197354 0.0083522084525760598 1 0.0095156490155548952 1 1 1 1 1 1 1 1 1 1 0.010053129342629771 1 0.0068104626939318085 1 1 1 1 0.01002241557797115 1 0.009863029157731653 1 1 1 1 1 1 1 1 1 0.0070878858127906078 1 1 1 0.0099950294862083469 1 1 1 1 1 1 1 1 1 1 1 1 0.0097729299973410271 1 1 1 1 1 1 1 1 1 1 0.0095417495502750794 1 1 1 1 1 1 1 1 1 1 1 1 1 1 1 1 1 1 1 1 1 1 1 0.0097688195529340525 1 1 1 0.0099289486527021215 1 1 1 1 1 1 1 1 0.0097972793362802613 0.0099852315085005895 1 1 1 1 1 1 1 0.0086057587272491427 1 1 1 1 1 1 1 1 1 1 1 1 1 1 1 1 1 1 1 1 1 1 1 1 1 1 1 1 1 1 1 0.0094857583334510796 1 1 1 1 1 1 0.0082401907128148294 1 1 1 1 1 1 1 1 1 1 1 1 1 1 1 1 1 1 1 1 1 1 0.0083526255182567767 0.0099766596790341593 1 1 0.0087851780378273205 1 1 1 1 1 1 1 1 0.0091376266354922103 1 1 1 1 1 1 1 1 1 1 1 1 0.0097053552108985024 1 1 1 1 1 1 1 1 1 1 1 1 1 0.0089509580257967833 1 1 1 0.0085839574785022566 1 1 1 1 1 1 1 1 1 0.0099580537365231807 0.0066453658854054281 1 1 1 0.0085525143169916888 0.0081884373765481987 1 1 1 1 1 1 1 0.0089305375516371324 1 1 1 1 0.0095044146909316115 1 1 0.0093933427892302739 1 1 1 1 1 1 1 1 1 1 1 1 1 1 0.0095963004176739929 1 1 1 1 1 1 1 1 1 1 1 1 1 1 1 1 1 1 1 1 1 1 1 1 1 0.0096977254326408024 1 1 0.0095769971118423326 1 1 1 1 1 1 1 1 1 0.0088255636388268558 1 0.0093370436318448106 1 1 1 1 1 1 1 1 1 1 1 1 1 0.0088372408922787506 0.0093683070456207114 1 1 1 1 1 0.0099639943297694291 1 1 1 1 1 1 1 1 1 0.0093233445338902939 0.0088287474499097428 1 1 1 1 1 0.0102545671028553 0.0079031642332878724 1 0.0074584267308828323 1 1 1 1 1 1 1 1 1 1 1 1 1 1 0.0092404685021386778 1 1 1 1 1 0.0094413143006033227 1 1 1 1 1 0.0099581965376537782 1 1 1 0.0083302451520798383 1 1 1 1 1 1 0.0096770929460066445 1 1 1 1 1 1 1 0.0096310806728761439 1 1 1 1 0.008950128237754644 0.009007691762111537 1 1 1 1 0.0099724562660072329 0.0031365150774120328 1 1 1 0.0028732292175993497 1 1 1 1 1 1 1 1 0.0027211553910112892 1 1 1 1 1 1 1 1 1 1 1 1 1 1 1 1 1 1 1 1 1 1 0.0087988095117674248 1 1 1 1 0.0097411775178930324 1 1 0.0093238992057936444 1 1 1 1 0.0096357752748953522 1 1 1 1 1 1 0.0092598146339072599 1 1 1 1 1 1 1 1 1 1 1 1 0.010109517020092662 1 1 1 1 1 1 1 1 1 1 1 1 1 1 1 1 1 0.0083941722841365911 1 1 1 1 0.0084851201622759536 1 1 1 1 1 1 1 1 1 1 1 1 1 1 1 1 1 1 1 0.008610434893302224 1 0.0092330877364805199 1 1 1 1 1 0.0093784077753536824 1 1 1 0.0097335863045094825 1 1 1 1 1 1 1 1 1 1 1 1 1 1 1 1 1 1 1 1 1 0.009986376816445118 1 1 1 1 1 1 1 1 1 0.0098872597373937058 0.0095684169442196328 1 0.01000132870931047 1 1 0.010306011761120747 1 1 1 1 1 1 1 1 1 1 1 1 1 1 1 1 1 1 1 1 1 0.0098443941324766714 1 1 1 1 1 0.0082371845365966524 1 1 1 0.008099714263926576 1 1 1 1 1 1 1 1 1 0.0084692520277714865 1 1 1 1 0.010077562172281462 0.0099697498955965205 0.010574865894521161 1 1 1 1 1 1 1 1 1 1 1 1 1 1 1 1 1 0.009226028319924879 1 1 0.0096231942757271944 1 1 1 1 1 1 1 1 0.011388522425941161 1 1 0.0097869250840058441 1 1 1 1 1 1 1 1 1 1 1 1 1 1 1 1 1 1 1 1 1 1 1 1 1 0.0098435915996719081 1 0.0094873426163142559 1 1 1 1 0.0092295520041901918 1 1 0.0097138746196270311 1 1 1 1 1 1 1 0.009346198833992788 1 1 1 0.0078088680163371305 1 1 1 1 1 1 1 1 1 1 0.0089589109979403385 1 1 1 1 1 1 1 1 1 1 1 1 1 1 1 1 1 1 1 1 1 1 1 1 1 1 1 1 1 1 1 1 1 1 1 1 1 1 1 1 1 1 1 1 1 1 1 1 1 1 1 1 1 1 1 1 1 1 1 1 1 1 1 1 1 1 1 1 1 1 1 1 1 1 1 1 1 1 0.0092290410982350714 1 0.0090717122174155153 1 1 1 1 0.0096926435466435906 1 1 1 1 1 1 1 1 1 1 1 1 1 1 1 1 1 1 1 1 1 1 1 1 1 1 1 1 1 1 1 1 1 0.0084493333472128382 1 1 1 1 1 1 1 0.0086888716954900795 1 1 1 0.0099482556967463599 1 1 1 1 1 1 1 1 0.0095353146658240344 
</DataArray>
</CellData>
</Piece>
</UnstructuredGrid>
</VTKFile>
