<?xml version="1.0"?>
<VTKFile type="UnstructuredGrid" version="0.1" byte_order="LittleEndian">
<UnstructuredGrid>
<Piece NumberOfPoints="30881" NumberOfCells="10862">
<Points>
<DataArray type="Float64" NumberOfComponents="3" format="ascii">
-0.49999999999999828 -0.48677703703187492 0 -0.5 -0.5 0 -0.48129281494584059 -0.49338851851593718 0 -0.5 -0.5 0 -0.48129281494584059 -0.49338851851593718 0 -0.46258562989168328 -0.5 0 -0.49999999999999828 -0.48677703703187492 0 -0.48129281494584059 -0.49338851851593718 0 -0.49999999999999828 -0.48677703703187492 0 -0.4824545428279598 -0.47451624516148783 0 -0.48129281494584059 -0.49338851851593718 0 -0.49999999999999828 -0.48677703703187492 0 -0.4824545428279598 -0.47451624516148783 0 -0.5 -0.46599539173150673 0 -0.4824545428279598 -0.47451624516148783 0 -0.46853075243710779 -0.48354990242643758 0 -0.46411508256092049 -0.46598235294430129 0 -0.4824545428279598 -0.47451624516148783 0 -0.48129281494584059 -0.49338851851593718 0 -0.46853075243710779 -0.48354990242643758 0 -0.48129281494584059 -0.49338851851593718 0 -0.46258562989168328 -0.5 0 -0.48129281494584059 -0.49338851851593718 0 -0.46258562989168328 -0.5 0 -0.46853075243710779 -0.48354990242643758 0 -0.46258562989168328 -0.5 0 -0.46853075243710779 -0.48354990242643758 0 -0.45147378687733691 -0.48362213557840178 0 -0.46853075243710779 -0.48354990242643758 0 -0.45147378687733691 -0.48362213557840178 0 -0.46411508256092049 -0.46598235294430129 0 -0.4457251648104853 -0.47020164095208389 0 -0.45147378687733691 -0.48362213557840178 0 -0.46411508256092049 -0.46598235294430129 0 -0.4457251648104853 -0.47020164095208389 0 -0.45147378687733691 -0.48362213557840178 0 -0.43513446131126993 -0.48199891714758791 0 -0.45147378687733691 -0.48362213557840178 0 -0.43275163025255442 -0.5 0 -0.43513446131126993 -0.48199891714758791 0 -0.46258562989168328 -0.5 0 -0.45147378687733691 -0.48362213557840178 0 -0.43275163025255442 -0.5 0 -0.4467190029717853 -0.45478934699519452 0 -0.4422915115958943 -0.43555510214664611 0 -0.43246707723660932 -0.44794326854796312 0 -0.4457251648104853 -0.47020164095208389 0 -0.4467190029717853 -0.45478934699519452 0 -0.46411508256092049 -0.46598235294430129 0 -0.4457251648104853 -0.47020164095208389 0 -0.4467190029717853 -0.45478934699519452 0 -0.43016578207734568 -0.46313500011938619 0 -0.4467190029717853 -0.45478934699519452 0 -0.46411508256092049 -0.46598235294430129 0 -0.47114575579794699 -0.4403844242888923 0 -0.4467190029717853 -0.45478934699519452 0 -0.47114575579794699 -0.4403844242888923 0 -0.4422915115958943 -0.43555510214664611 0 -0.47114575579794699 -0.4403844242888923 0 -0.4422915115958943 -0.43555510214664611 0 -0.46411508256092049 -0.46598235294430129 0 -0.47114575579794699 -0.4403844242888923 0 -0.48354307623736548 -0.45841843211146538 0 -0.4824545428279598 -0.47451624516148783 0 -0.46411508256092049 -0.46598235294430129 0 -0.48354307623736548 -0.45841843211146538 0 -0.4824545428279598 -0.47451624516148783 0 -0.48354307623736548 -0.45841843211146538 0 -0.5 -0.46599539173150673 0 -0.48354307623736548 -0.45841843211146538 0 -0.5 -0.46599539173150673 0 -0.49999999999999972 -0.44521374643113848 0 -0.47114575579794699 -0.4403844242888923 0 -0.49999999999999972 -0.44521374643113848 0 -0.47114575579794699 -0.4403844242888923 0 -0.49999999999999972 -0.44521374643113848 0 -0.48704432221743971 -0.42935617662229603 0 -0.47114575579794699 -0.4403844242888923 0 -0.48354307623736548 -0.45841843211146538 0 -0.49999999999999972 -0.44521374643113848 0 -0.49999999999999972 -0.44521374643113848 0 -0.48704432221743971 -0.42935617662229603 0 -0.5 -0.41591957503128979 0 -0.48704432221743971 -0.42935617662229603 0 -0.5 -0.41591957503128979 0 -0.47703153307181151 -0.41590696073786332 0 -0.5 -0.41591957503128979 0 -0.47703153307181151 -0.41590696073786332 0 -0.48817838912021821 -0.4022119694541284 0 -0.47114575579794699 -0.4403844242888923 0 -0.48704432221743971 -0.42935617662229603 0 -0.47703153307181151 -0.41590696073786332 0 -0.5 -0.38662540363144121 0 -0.47568202340906118 -0.39039593841591919 0 -0.4947615751445838 -0.37332156409002909 0 -0.47568202340906118 -0.39039593841591919 0 -0.4947615751445838 -0.37332156409002909 0 -0.5 -0.38662540363144121 0 -0.48817838912021821 -0.4022119694541284 0 -0.47568202340906118 -0.39039593841591919 0 -0.5 -0.41591957503128979 0 -0.5 -0.38662540363144121 0 -0.48817838912021821 -0.4022119694541284 0 -0.47703153307181151 -0.41590696073786332 0 -0.48817838912021821 -0.4022119694541284 0 -0.47568202340906118 -0.39039593841591919 0 -0.47703153307181151 -0.41590696073786332 0 -0.47568202340906118 -0.39039593841591919 0 -0.45660247167353862 -0.40747031274180939 0 -0.47568202340906118 -0.39039593841591919 0 -0.48030931097003587 -0.37191064435083931 0 -0.46669490250066459 -0.37481721741951951 0 -0.47568202340906118 -0.39039593841591919 0 -0.4947615751445838 -0.37332156409002909 0 -0.48030931097003587 -0.37191064435083931 0 -0.45332061783919553 -0.38729481725706361 0 -0.46669490250066459 -0.37481721741951951 0 -0.45095991715087752 -0.36968037302039969 0 -0.47568202340906118 -0.39039593841591919 0 -0.45332061783919553 -0.38729481725706361 0 -0.46669490250066459 -0.37481721741951951 0 -0.47568202340906118 -0.39039593841591919 0 -0.45660247167353862 -0.40747031274180939 0 -0.47568202340906118 -0.39039593841591919 0 -0.45332061783919553 -0.38729481725706361 0 -0.45660247167353862 -0.40747031274180939 0 -0.44332653075004852 -0.401690115615219 0 -0.44646247228389868 -0.41654464256061052 0 -0.42870657106664078 -0.39987574649354879 0 -0.45332061783919553 -0.38729481725706361 0 -0.44332653075004852 -0.401690115615219 0 -0.43479631603355468 -0.39077639303142497 0 -0.45332061783919553 -0.38729481725706361 0 -0.44332653075004852 -0.401690115615219 0 -0.45660247167353862 -0.40747031274180939 0 -0.45332061783919553 -0.38729481725706361 0 -0.43421362475025049 -0.37527491429266319 0 -0.43479631603355468 -0.39077639303142497 0 -0.45332061783919553 -0.38729481725706361 0 -0.43421362475025049 -0.37527491429266319 0 -0.45095991715087752 -0.36968037302039969 0 -0.47114575579794699 -0.4403844242888923 0 -0.45663439814062529 -0.42533932462455271 0 -0.4422915115958943 -0.43555510214664611 0 -0.47114575579794699 -0.4403844242888923 0 -0.47703153307181151 -0.41590696073786332 0 -0.45663439814062529 -0.42533932462455271 0 -0.45663439814062529 -0.42533932462455271 0 -0.45660247167353862 -0.40747031274180939 0 -0.44646247228389868 -0.41654464256061052 0 -0.47703153307181151 -0.41590696073786332 0 -0.45663439814062529 -0.42533932462455271 0 -0.45660247167353862 -0.40747031274180939 0 -0.44332653075004852 -0.401690115615219 0 -0.45660247167353862 -0.40747031274180939 0 -0.44646247228389868 -0.41654464256061052 0 -0.45660247167353862 -0.40747031274180939 0 -0.44646247228389868 -0.41654464256061052 0 -0.44646247228389868 -0.41654464256061052 0 -0.4375229199380159 -0.42454468706769971 0 -0.45663439814062529 -0.42533932462455271 0 -0.4375229199380159 -0.42454468706769971 0 -0.4422915115958943 -0.43555510214664611 0 -0.45663439814062529 -0.42533932462455271 0 -0.44646247228389868 -0.41654464256061052 0 -0.4375229199380159 -0.42454468706769971 0 -0.4375229199380159 -0.42454468706769971 0 -0.4422915115958943 -0.43555510214664611 0 -0.43077617074680319 -0.43406335077952207 0 -0.43077617074680319 -0.43406335077952207 0 -0.42550232634077589 -0.42345940056268039 0 -0.41950844772475421 -0.43888456563633732 0 -0.4375229199380159 -0.42454468706769971 0 -0.43077617074680319 -0.43406335077952207 0 -0.42550232634077589 -0.42345940056268039 0 -0.44646247228389868 -0.41654464256061052 0 -0.41657232816672918 -0.41306671883907142 0 -0.42870657106664078 -0.39987574649354879 0 -0.44646247228389868 -0.41654464256061052 0 -0.4375229199380159 -0.42454468706769971 0 -0.42550232634077589 -0.42345940056268039 0 -0.44646247228389868 -0.41654464256061052 0 -0.42550232634077589 -0.42345940056268039 0 -0.41657232816672918 -0.41306671883907142 0 -0.44646247228389868 -0.41654464256061052 0 -0.41657232816672918 -0.41306671883907142 0 -0.42550232634077589 -0.42345940056268039 0 -0.41657232816672918 -0.41306671883907142 0 -0.41333489101611293 -0.42699700567040988 0 -0.41657232816672918 -0.41306671883907142 0 -0.41333489101611293 -0.42699700567040988 0 -0.39893236021425188 -0.42931692235905211 0 -0.41333489101611293 -0.42699700567040988 0 -0.39893236021425188 -0.42931692235905211 0 -0.41950844772475421 -0.43888456563633732 0 -0.42550232634077589 -0.42345940056268039 0 -0.41333489101611293 -0.42699700567040988 0 -0.41950844772475421 -0.43888456563633732 0 -0.43421362475025049 -0.37527491429266319 0 -0.42478231784314502 -0.38643128255249681 0 -0.41656514696884139 -0.37636588688318029 0 -0.43421362475025049 -0.37527491429266319 0 -0.42478231784314502 -0.38643128255249681 0 -0.43479631603355468 -0.39077639303142497 0 -0.42478231784314502 -0.38643128255249681 0 -0.43479631603355468 -0.39077639303142497 0 -0.42870657106664078 -0.39987574649354879 0 -0.44332653075004852 -0.401690115615219 0 -0.43479631603355468 -0.39077639303142497 0 -0.42870657106664078 -0.39987574649354879 0 -0.41657232816672918 -0.41306671883907142 0 -0.40962993039643741 -0.3898634720616666 0 -0.3946356370269814 -0.39577424904278191 0 -0.42478231784314502 -0.38643128255249681 0 -0.42870657106664078 -0.39987574649354879 0 -0.40962993039643741 -0.3898634720616666 0 -0.41657232816672918 -0.41306671883907142 0 -0.42870657106664078 -0.39987574649354879 0 -0.40962993039643741 -0.3898634720616666 0 -0.42478231784314502 -0.38643128255249681 0 -0.40962993039643741 -0.3898634720616666 0 -0.41656514696884139 -0.37636588688318029 0 -0.40962993039643741 -0.3898634720616666 0 -0.41656514696884139 -0.37636588688318029 0 -0.40465459864295228 -0.37650109000307358 0 -0.39431275766669582 -0.38061373190328529 0 -0.40465459864295228 -0.37650109000307358 0 -0.3968495855878465 -0.36923685638487008 0 -0.40962993039643741 -0.3898634720616666 0 -0.39431275766669582 -0.38061373190328529 0 -0.40465459864295228 -0.37650109000307358 0 -0.40962993039643741 -0.3898634720616666 0 -0.39431275766669582 -0.38061373190328529 0 -0.3946356370269814 -0.39577424904278191 0 -0.3946356370269814 -0.39577424904278191 0 -0.38704143117499401 -0.40999023144455299 0 -0.37464038230528551 -0.396492613407532 0 -0.3946356370269814 -0.39577424904278191 0 -0.37522403377147279 -0.38060127254172499 0 -0.37464038230528551 -0.396492613407532 0 -0.39431275766669582 -0.38061373190328529 0 -0.3946356370269814 -0.39577424904278191 0 -0.37522403377147279 -0.38060127254172499 0 -0.39431275766669582 -0.38061373190328529 0 -0.37522403377147279 -0.38060127254172499 0 -0.38569326772338258 -0.37053454129240582 0 -0.41657232816672918 -0.41306671883907142 0 -0.39893236021425188 -0.42931692235905211 0 -0.38704143117499401 -0.40999023144455299 0 -0.41657232816672918 -0.41306671883907142 0 -0.3946356370269814 -0.39577424904278191 0 -0.38704143117499401 -0.40999023144455299 0 -0.41657232816672918 -0.41306671883907142 0 -0.38704143117499401 -0.40999023144455299 0 -0.38704143117499401 -0.40999023144455299 0 -0.38131756488089769 -0.42670085612339947 0 -0.36377437909963828 -0.41972983174959272 0 -0.38131756488089769 -0.42670085612339947 0 -0.38339996822118783 -0.44368928783448319 0 -0.36866352395763108 -0.4313760290561211 0 -0.39893236021425188 -0.42931692235905211 0 -0.38131756488089769 -0.42670085612339947 0 -0.38339996822118783 -0.44368928783448319 0 -0.39893236021425188 -0.42931692235905211 0 -0.38704143117499401 -0.40999023144455299 0 -0.38131756488089769 -0.42670085612339947 0 -0.38339996822118783 -0.44368928783448319 0 -0.40446438048225181 -0.45117017211807442 0 -0.3895931593355052 -0.46351353191466821 0 -0.39893236021425188 -0.42931692235905211 0 -0.38339996822118783 -0.44368928783448319 0 -0.40446438048225181 -0.45117017211807442 0 -0.40446438048225181 -0.45117017211807442 0 -0.3895931593355052 -0.46351353191466821 0 -0.40280611050484572 -0.47090640128894168 0 -0.38339996822118783 -0.44368928783448319 0 -0.3895931593355052 -0.46351353191466821 0 -0.37415472949075129 -0.45946062715310632 0 -0.3895931593355052 -0.46351353191466821 0 -0.38039451612360919 -0.47713749807852829 0 -0.37415472949075129 -0.45946062715310632 0 -0.38039451612360919 -0.47713749807852829 0 -0.39198476482648659 -0.49312537606366408 0 -0.39366244928105898 -0.47747566409097131 0 -0.3895931593355052 -0.46351353191466821 0 -0.38039451612360919 -0.47713749807852829 0 -0.39366244928105898 -0.47747566409097131 0 -0.39198476482648659 -0.49312537606366408 0 -0.37055643484088358 -0.49425936316784103 0 -0.39198476482648659 -0.49312537606366408 0 -0.40291763061342539 -0.5 0 -0.37308363097429631 -0.50000000000000244 0 -0.39198476482648659 -0.49312537606366408 0 -0.37055643484088358 -0.49425936316784103 0 -0.37308363097429631 -0.50000000000000244 0 -0.38039451612360919 -0.47713749807852829 0 -0.39198476482648659 -0.49312537606366408 0 -0.37055643484088358 -0.49425936316784103 0 -0.39198476482648659 -0.49312537606366408 0 -0.41341309481208982 -0.49199138895948757 0 -0.39198476482648659 -0.49312537606366408 0 -0.39366244928105898 -0.47747566409097131 0 -0.40353369561484831 -0.48269551310905429 0 -0.39198476482648659 -0.49312537606366408 0 -0.40291763061342539 -0.5 0 -0.41341309481208982 -0.49199138895948757 0 -0.39198476482648659 -0.49312537606366408 0 -0.40353369561484831 -0.48269551310905429 0 -0.41341309481208982 -0.49199138895948757 0 -0.3895931593355052 -0.46351353191466821 0 -0.39366244928105898 -0.47747566409097131 0 -0.40280611050484572 -0.47090640128894168 0 -0.39366244928105898 -0.47747566409097131 0 -0.40353369561484831 -0.48269551310905429 0 -0.40280611050484572 -0.47090640128894168 0 -0.40280611050484572 -0.47090640128894168 0 -0.41792735015940108 -0.47619959015896091 0 -0.41524515795200517 -0.46243146669528151 0 -0.40353369561484831 -0.48269551310905429 0 -0.41792735015940108 -0.47619959015896091 0 -0.41341309481208982 -0.49199138895948757 0 -0.40353369561484831 -0.48269551310905429 0 -0.40280611050484572 -0.47090640128894168 0 -0.41792735015940108 -0.47619959015896091 0 -0.41792735015940108 -0.47619959015896091 0 -0.41341309481208982 -0.49199138895948757 0 -0.42480663413382869 -0.48754747406650911 0 -0.40291763061342539 -0.5 0 -0.41341309481208982 -0.49199138895948757 0 -0.43275163025255442 -0.5 0 -0.41341309481208982 -0.49199138895948757 0 -0.42480663413382869 -0.48754747406650911 0 -0.43275163025255442 -0.5 0 -0.42480663413382869 -0.48754747406650911 0 -0.43275163025255442 -0.5 0 -0.43513446131126993 -0.48199891714758791 0 -0.4457251648104853 -0.47020164095208389 0 -0.43513446131126993 -0.48199891714758791 0 -0.43016578207734568 -0.46313500011938619 0 -0.41792735015940108 -0.47619959015896091 0 -0.43513446131126993 -0.48199891714758791 0 -0.43016578207734568 -0.46313500011938619 0 -0.41792735015940108 -0.47619959015896091 0 -0.42480663413382869 -0.48754747406650911 0 -0.43513446131126993 -0.48199891714758791 0 -0.4467190029717853 -0.45478934699519452 0 -0.43016578207734568 -0.46313500011938619 0 -0.43246707723660932 -0.44794326854796312 0 -0.43016578207734568 -0.46313500011938619 0 -0.42051073979218989 -0.45215097324273301 0 -0.41524515795200517 -0.46243146669528151 0 -0.43016578207734568 -0.46313500011938619 0 -0.43246707723660932 -0.44794326854796312 0 -0.42051073979218989 -0.45215097324273301 0 -0.4422915115958943 -0.43555510214664611 0 -0.43077617074680319 -0.43406335077952207 0 -0.43246707723660932 -0.44794326854796312 0 -0.43077617074680319 -0.43406335077952207 0 -0.43246707723660932 -0.44794326854796312 0 -0.41950844772475421 -0.43888456563633732 0 -0.43246707723660932 -0.44794326854796312 0 -0.42051073979218989 -0.45215097324273301 0 -0.41950844772475421 -0.43888456563633732 0 -0.39893236021425188 -0.42931692235905211 0 -0.40446438048225181 -0.45117017211807442 0 -0.41950844772475421 -0.43888456563633732 0 -0.40446438048225181 -0.45117017211807442 0 -0.42051073979218989 -0.45215097324273301 0 -0.41950844772475421 -0.43888456563633732 0 -0.40446438048225181 -0.45117017211807442 0 -0.42051073979218989 -0.45215097324273301 0 -0.41524515795200517 -0.46243146669528151 0 -0.40446438048225181 -0.45117017211807442 0 -0.40280611050484572 -0.47090640128894168 0 -0.41524515795200517 -0.46243146669528151 0 -0.41792735015940108 -0.47619959015896091 0 -0.43016578207734568 -0.46313500011938619 0 -0.41524515795200517 -0.46243146669528151 0 -0.45018232007011222 -0.256765034028549 0 -0.429874989515865 -0.26165756953837482 0 -0.43598079583492633 -0.24721882136819351 0 -0.45018232007011222 -0.256765034028549 0 -0.43765198640052377 -0.27443700488157741 0 -0.429874989515865 -0.26165756953837482 0 -0.45018232007011222 -0.256765034028549 0 -0.43598079583492633 -0.24721882136819351 0 -0.45139902778349827 -0.24711062934306771 0 -0.45018232007011222 -0.256765034028549 0 -0.43765198640052377 -0.27443700488157741 0 -0.46196722525855399 -0.27174391220054139 0 -0.43765198640052377 -0.27443700488157741 0 -0.46196722525855399 -0.27174391220054139 0 -0.4476129789611048 -0.29283803371489903 0 -0.46196722525855399 -0.27174391220054139 0 -0.48050148842732221 -0.25523221810557922 0 -0.46267023581878858 -0.24817136713935201 0 -0.45018232007011222 -0.256765034028549 0 -0.46196722525855399 -0.27174391220054139 0 -0.46267023581878858 -0.24817136713935201 0 -0.45018232007011222 -0.256765034028549 0 -0.46267023581878858 -0.24817136713935201 0 -0.45139902778349827 -0.24711062934306771 0 -0.48050148842732221 -0.25523221810557922 0 -0.5 -0.26944871803204617 0 -0.5 -0.2401545466321974 0 -0.48050148842732221 -0.25523221810557922 0 -0.5 -0.26944871803204617 0 -0.48245797385404121 -0.28063059353633901 0 -0.46196722525855399 -0.27174391220054139 0 -0.48050148842732221 -0.25523221810557922 0 -0.48245797385404121 -0.28063059353633901 0 -0.46196722525855399 -0.27174391220054139 0 -0.48245797385404121 -0.28063059353633901 0 -0.46937090116945868 -0.29821258941183898 0 -0.48245797385404121 -0.28063059353633901 0 -0.5 -0.29874288943189498 0 -0.46937090116945868 -0.29821258941183898 0 -0.5 -0.26944871803204617 0 -0.48245797385404121 -0.28063059353633901 0 -0.5 -0.29874288943189498 0 -0.5 -0.29874288943189498 0 -0.46937090116945868 -0.29821258941183898 0 -0.47623524987602139 -0.32201367690444971 0 -0.46937090116945868 -0.29821258941183898 0 -0.4476129789611048 -0.29283803371489903 0 -0.45018982867155483 -0.32180400573951162 0 -0.46196722525855399 -0.27174391220054139 0 -0.46937090116945868 -0.29821258941183898 0 -0.4476129789611048 -0.29283803371489903 0 -0.43765198640052377 -0.27443700488157741 0 -0.4476129789611048 -0.29283803371489903 0 -0.43236213870239748 -0.29002705800971151 0 -0.4476129789611048 -0.29283803371489903 0 -0.45018982867155483 -0.32180400573951162 0 -0.4314578060398388 -0.3048790663939604 0 -0.45018982867155483 -0.32180400573951162 0 -0.4314578060398388 -0.3048790663939604 0 -0.45018982867155483 -0.32180400573951162 0 -0.46157657978994598 -0.34139555482026068 0 -0.43521386225128428 -0.33802231259611382 0 -0.46157657978994598 -0.34139555482026068 0 -0.43521386225128428 -0.33802231259611382 0 -0.45018982867155483 -0.32180400573951162 0 -0.46157657978994598 -0.34139555482026068 0 -0.47623524987602139 -0.32201367690444971 0 -0.46937090116945868 -0.29821258941183898 0 -0.45018982867155483 -0.32180400573951162 0 -0.47623524987602139 -0.32201367690444971 0 -0.5 -0.29874288943189498 0 -0.47623524987602139 -0.32201367690444971 0 -0.5 -0.32803706083174372 0 -0.47623524987602139 -0.32201367690444971 0 -0.5 -0.32803706083174372 0 -0.48561656391384522 -0.34384835974822991 0 -0.5 -0.32803706083174372 0 -0.5 -0.35733123223159241 0 -0.48561656391384522 -0.34384835974822991 0 -0.46157657978994598 -0.34139555482026068 0 -0.47623524987602139 -0.32201367690444971 0 -0.48561656391384522 -0.34384835974822991 0 -0.46157657978994598 -0.34139555482026068 0 -0.47568148196104371 -0.35852722048879659 0 -0.48561656391384522 -0.34384835974822991 0 -0.47568148196104371 -0.35852722048879659 0 -0.48561656391384522 -0.34384835974822991 0 -0.48768886795130861 -0.36141736908419309 0 -0.5 -0.35733123223159241 0 -0.48561656391384522 -0.34384835974822991 0 -0.48768886795130861 -0.36141736908419309 0 -0.5 -0.35733123223159241 0 -0.4947615751445838 -0.37332156409002909 0 -0.48768886795130861 -0.36141736908419309 0 -0.5 -0.38662540363144121 0 -0.5 -0.35733123223159241 0 -0.4947615751445838 -0.37332156409002909 0 -0.4947615751445838 -0.37332156409002909 0 -0.48768886795130861 -0.36141736908419309 0 -0.48030931097003587 -0.37191064435083931 0 -0.47568148196104371 -0.35852722048879659 0 -0.48030931097003587 -0.37191064435083931 0 -0.46669490250066459 -0.37481721741951951 0 -0.47568148196104371 -0.35852722048879659 0 -0.48768886795130861 -0.36141736908419309 0 -0.48030931097003587 -0.37191064435083931 0 -0.46669490250066459 -0.37481721741951951 0 -0.45985290530711531 -0.35919053618658509 0 -0.45095991715087752 -0.36968037302039969 0 -0.47568148196104371 -0.35852722048879659 0 -0.46669490250066459 -0.37481721741951951 0 -0.45985290530711531 -0.35919053618658509 0 -0.46157657978994598 -0.34139555482026068 0 -0.47568148196104371 -0.35852722048879659 0 -0.45985290530711531 -0.35919053618658509 0 -0.46157657978994598 -0.34139555482026068 0 -0.45985290530711531 -0.35919053618658509 0 -0.44091292170358748 -0.35617636658334351 0 -0.46157657978994598 -0.34139555482026068 0 -0.44091292170358748 -0.35617636658334351 0 -0.43521386225128428 -0.33802231259611382 0 -0.43421362475025049 -0.37527491429266319 0 -0.44091292170358748 -0.35617636658334351 0 -0.45095991715087752 -0.36968037302039969 0 -0.45985290530711531 -0.35919053618658509 0 -0.44091292170358748 -0.35617636658334351 0 -0.45095991715087752 -0.36968037302039969 0 -0.43421362475025049 -0.37527491429266319 0 -0.41656514696884139 -0.37636588688318029 0 -0.42218579342164808 -0.36334977441807748 0 -0.43421362475025049 -0.37527491429266319 0 -0.44091292170358748 -0.35617636658334351 0 -0.42218579342164808 -0.36334977441807748 0 -0.44091292170358748 -0.35617636658334351 0 -0.42218579342164808 -0.36334977441807748 0 -0.42066840753926321 -0.34864312644900147 0 -0.44091292170358748 -0.35617636658334351 0 -0.42066840753926321 -0.34864312644900147 0 -0.43521386225128428 -0.33802231259611382 0 -0.42218579342164808 -0.36334977441807748 0 -0.42066840753926321 -0.34864312644900147 0 -0.40690054455725883 -0.35815659477868023 0 -0.40690054455725883 -0.35815659477868023 0 -0.40885114471262263 -0.334649070371968 0 -0.42066840753926321 -0.34864312644900147 0 -0.40690054455725883 -0.35815659477868023 0 -0.40885114471262263 -0.334649070371968 0 -0.42218579342164808 -0.36334977441807748 0 -0.40690054455725883 -0.35815659477868023 0 -0.40625971269279348 -0.36587953617857771 0 -0.40690054455725883 -0.35815659477868023 0 -0.40625971269279348 -0.36587953617857771 0 -0.41656514696884139 -0.37636588688318029 0 -0.42218579342164808 -0.36334977441807748 0 -0.40625971269279348 -0.36587953617857771 0 -0.42218579342164808 -0.36334977441807748 0 -0.40690054455725883 -0.35815659477868023 0 -0.41656514696884139 -0.37636588688318029 0 -0.40465459864295228 -0.37650109000307358 0 -0.40625971269279348 -0.36587953617857771 0 -0.40465459864295228 -0.37650109000307358 0 -0.40625971269279348 -0.36587953617857771 0 -0.3968495855878465 -0.36923685638487008 0 -0.40690054455725883 -0.35815659477868023 0 -0.40029228617445223 -0.36350286704594809 0 -0.3911593018599101 -0.36073848084166482 0 -0.40625971269279348 -0.36587953617857771 0 -0.40029228617445223 -0.36350286704594809 0 -0.3968495855878465 -0.36923685638487008 0 -0.40690054455725883 -0.35815659477868023 0 -0.40625971269279348 -0.36587953617857771 0 -0.40029228617445223 -0.36350286704594809 0 -0.3911593018599101 -0.36073848084166482 0 -0.3968495855878465 -0.36923685638487008 0 -0.38569326772338258 -0.37053454129240582 0 -0.40029228617445223 -0.36350286704594809 0 -0.3911593018599101 -0.36073848084166482 0 -0.3968495855878465 -0.36923685638487008 0 -0.39431275766669582 -0.38061373190328529 0 -0.3968495855878465 -0.36923685638487008 0 -0.38569326772338258 -0.37053454129240582 0 -0.3911593018599101 -0.36073848084166482 0 -0.38569326772338258 -0.37053454129240582 0 -0.37568472164775779 -0.36524225821647011 0 -0.37522403377147279 -0.38060127254172499 0 -0.38569326772338258 -0.37053454129240582 0 -0.37568472164775779 -0.36524225821647011 0 -0.3911593018599101 -0.36073848084166482 0 -0.37568472164775779 -0.36524225821647011 0 -0.38024887903539811 -0.3491016629308506 0 -0.40690054455725883 -0.35815659477868023 0 -0.3911593018599101 -0.36073848084166482 0 -0.38024887903539811 -0.3491016629308506 0 -0.40690054455725883 -0.35815659477868023 0 -0.38024887903539811 -0.3491016629308506 0 -0.39533213247953691 -0.34338662223350158 0 -0.40690054455725883 -0.35815659477868023 0 -0.39533213247953691 -0.34338662223350158 0 -0.40885114471262263 -0.334649070371968 0 -0.40690054455725883 -0.35815659477868023 0 -0.38024887903539811 -0.3491016629308506 0 -0.39533213247953691 -0.34338662223350158 0 -0.38532796161286798 -0.33163916085250739 0 -0.40885114471262263 -0.334649070371968 0 -0.38532796161286798 -0.33163916085250739 0 -0.40885114471262263 -0.334649070371968 0 -0.38024887903539811 -0.3491016629308506 0 -0.39533213247953691 -0.34338662223350158 0 -0.38532796161286798 -0.33163916085250739 0 -0.38024887903539811 -0.3491016629308506 0 -0.38532796161286798 -0.33163916085250739 0 -0.37024470816872912 -0.33735420154985679 0 -0.38532796161286798 -0.33163916085250739 0 -0.37601492727600683 -0.3197696392392384 0 -0.39293033406270472 -0.31505081143976649 0 -0.37601492727600683 -0.3197696392392384 0 -0.39293033406270472 -0.31505081143976649 0 -0.37651642550459341 -0.307078797330949 0 -0.38532796161286798 -0.33163916085250739 0 -0.39293033406270472 -0.31505081143976649 0 -0.40885114471262263 -0.334649070371968 0 -0.39293033406270472 -0.31505081143976649 0 -0.40885114471262263 -0.334649070371968 0 -0.41078846406037228 -0.3113015987101887 0 -0.40885114471262263 -0.334649070371968 0 -0.42554877913925399 -0.3223331804902434 0 -0.41078846406037228 -0.3113015987101887 0 -0.40885114471262263 -0.334649070371968 0 -0.41078846406037228 -0.3113015987101887 0 -0.42066840753926321 -0.34864312644900147 0 -0.40885114471262263 -0.334649070371968 0 -0.43521386225128428 -0.33802231259611382 0 -0.40885114471262263 -0.334649070371968 0 -0.43521386225128428 -0.33802231259611382 0 -0.40885114471262263 -0.334649070371968 0 -0.43521386225128428 -0.33802231259611382 0 -0.42554877913925399 -0.3223331804902434 0 -0.42554877913925399 -0.3223331804902434 0 -0.4314578060398388 -0.3048790663939604 0 -0.41078846406037228 -0.3113015987101887 0 -0.45018982867155483 -0.32180400573951162 0 -0.43521386225128428 -0.33802231259611382 0 -0.42554877913925399 -0.3223331804902434 0 -0.45018982867155483 -0.32180400573951162 0 -0.42554877913925399 -0.3223331804902434 0 -0.4314578060398388 -0.3048790663939604 0 -0.4476129789611048 -0.29283803371489903 0 -0.4314578060398388 -0.3048790663939604 0 -0.43236213870239748 -0.29002705800971151 0 -0.4314578060398388 -0.3048790663939604 0 -0.43236213870239748 -0.29002705800971151 0 -0.41272578340812272 -0.2879541270484095 0 -0.4314578060398388 -0.3048790663939604 0 -0.41272578340812272 -0.2879541270484095 0 -0.43765198640052377 -0.27443700488157741 0 -0.43236213870239748 -0.29002705800971151 0 -0.41272578340812272 -0.2879541270484095 0 -0.4314578060398388 -0.3048790663939604 0 -0.41272578340812272 -0.2879541270484095 0 -0.41078846406037228 -0.3113015987101887 0 -0.41272578340812272 -0.2879541270484095 0 -0.41078846406037228 -0.3113015987101887 0 -0.41272578340812272 -0.2879541270484095 0 -0.41078846406037228 -0.3113015987101887 0 -0.39233272698174793 -0.29435547039456872 0 -0.39293033406270472 -0.31505081143976649 0 -0.41078846406037228 -0.3113015987101887 0 -0.39233272698174793 -0.29435547039456872 0 -0.39293033406270472 -0.31505081143976649 0 -0.37651642550459341 -0.307078797330949 0 -0.39233272698174793 -0.29435547039456872 0 -0.39233272698174793 -0.29435547039456872 0 -0.39278725088820249 -0.26993907014966689 0 -0.37040839911066209 -0.28171057629616708 0 -0.37651642550459341 -0.307078797330949 0 -0.39233272698174793 -0.29435547039456872 0 -0.37040839911066209 -0.28171057629616708 0 -0.41272578340812272 -0.2879541270484095 0 -0.39233272698174793 -0.29435547039456872 0 -0.39278725088820249 -0.26993907014966689 0 -0.41272578340812272 -0.2879541270484095 0 -0.39278725088820249 -0.26993907014966689 0 -0.39278725088820249 -0.26993907014966689 0 -0.37040839911066209 -0.28171057629616708 0 -0.39278725088820249 -0.26993907014966689 0 -0.37533687834285862 -0.25417213976024849 0 -0.37040839911066209 -0.28171057629616708 0 -0.39278725088820249 -0.26993907014966689 0 -0.37533687834285862 -0.25417213976024849 0 -0.39826986996263802 -0.25360934065352753 0 -0.39278725088820249 -0.26993907014966689 0 -0.37533687834285862 -0.25417213976024849 0 -0.39278725088820249 -0.26993907014966689 0 -0.39826986996263802 -0.25360934065352753 0 -0.41519883225968468 -0.25815034790020708 0 -0.39278725088820249 -0.26993907014966689 0 -0.41519883225968468 -0.25815034790020708 0 -0.39826986996263802 -0.25360934065352753 0 -0.41519883225968468 -0.25815034790020708 0 -0.41615383063077721 -0.2466412503256647 0 -0.41519883225968468 -0.25815034790020708 0 -0.41615383063077721 -0.2466412503256647 0 -0.41272578340812272 -0.2879541270484095 0 -0.41519883225968468 -0.25815034790020708 0 -0.41272578340812272 -0.2879541270484095 0 -0.41519883225968468 -0.25815034790020708 0 -0.429874989515865 -0.26165756953837482 0 -0.41272578340812272 -0.2879541270484095 0 -0.39278725088820249 -0.26993907014966689 0 -0.41519883225968468 -0.25815034790020708 0 -0.43765198640052377 -0.27443700488157741 0 -0.41272578340812272 -0.2879541270484095 0 -0.429874989515865 -0.26165756953837482 0 -0.41519883225968468 -0.25815034790020708 0 -0.43598079583492633 -0.24721882136819351 0 -0.41519883225968468 -0.25815034790020708 0 -0.429874989515865 -0.26165756953837482 0 -0.43598079583492633 -0.24721882136819351 0 -0.41519883225968468 -0.25815034790020708 0 -0.43598079583492633 -0.24721882136819351 0 -0.41615383063077721 -0.2466412503256647 0 -0.31968345090478489 -0.25798973640781447 0 -0.33623326073948312 -0.25365348176558788 0 -0.32213598881581812 -0.2442700999577708 0 -0.31968345090478489 -0.25798973640781447 0 -0.31319680135340772 -0.27337899374224139 0 -0.30564385326437488 -0.26015983685037081 0 -0.31968345090478489 -0.25798973640781447 0 -0.31319680135340772 -0.27337899374224139 0 -0.33256675641106698 -0.27199424518209242 0 -0.31319680135340772 -0.27337899374224139 0 -0.33256675641106698 -0.27199424518209242 0 -0.3219330120753135 -0.28752383142540722 0 -0.33256675641106698 -0.27199424518209242 0 -0.33623326073948312 -0.25365348176558788 0 -0.35329637777243872 -0.26495799818728782 0 -0.31968345090478489 -0.25798973640781447 0 -0.33256675641106698 -0.27199424518209242 0 -0.33623326073948312 -0.25365348176558788 0 -0.33623326073948312 -0.25365348176558788 0 -0.35329637777243872 -0.26495799818728782 0 -0.35305879752332059 -0.24486073726717009 0 -0.37533687834285862 -0.25417213976024849 0 -0.35329637777243872 -0.26495799818728782 0 -0.35305879752332059 -0.24486073726717009 0 -0.37533687834285862 -0.25417213976024849 0 -0.35329637777243872 -0.26495799818728782 0 -0.37040839911066209 -0.28171057629616708 0 -0.35329637777243872 -0.26495799818728782 0 -0.34802954733312141 -0.29348208244266671 0 -0.37040839911066209 -0.28171057629616708 0 -0.33256675641106698 -0.27199424518209242 0 -0.35329637777243872 -0.26495799818728782 0 -0.34802954733312141 -0.29348208244266671 0 -0.34802954733312141 -0.29348208244266671 0 -0.37040839911066209 -0.28171057629616708 0 -0.37651642550459341 -0.307078797330949 0 -0.37040839911066209 -0.28171057629616708 0 -0.36249180620921062 -0.30132401124355712 0 -0.34802954733312141 -0.29348208244266671 0 -0.37040839911066209 -0.28171057629616708 0 -0.36249180620921062 -0.30132401124355712 0 -0.37651642550459341 -0.307078797330949 0 -0.36249180620921062 -0.30132401124355712 0 -0.36514172279026702 -0.314674684486903 0 -0.36249180620921062 -0.30132401124355712 0 -0.35217384865543538 -0.31302074178168637 0 -0.36514172279026702 -0.314674684486903 0 -0.34802954733312141 -0.29348208244266671 0 -0.33894022777705518 -0.31261958861733652 0 -0.35217384865543538 -0.31302074178168637 0 -0.34802954733312141 -0.29348208244266671 0 -0.36249180620921062 -0.30132401124355712 0 -0.35217384865543538 -0.31302074178168637 0 -0.34802954733312141 -0.29348208244266671 0 -0.32565069555558063 -0.30525358858916618 0 -0.33894022777705518 -0.31261958861733652 0 -0.34802954733312141 -0.29348208244266671 0 -0.32565069555558063 -0.30525358858916618 0 -0.32565069555558063 -0.30525358858916618 0 -0.32940773276489932 -0.31652548782855527 0 -0.33894022777705518 -0.31261958861733652 0 -0.33256675641106698 -0.27199424518209242 0 -0.34802954733312141 -0.29348208244266671 0 -0.3219330120753135 -0.28752383142540722 0 -0.34802954733312141 -0.29348208244266671 0 -0.3219330120753135 -0.28752383142540722 0 -0.32565069555558063 -0.30525358858916618 0 -0.3219330120753135 -0.28752383142540722 0 -0.31228269981280887 -0.29918463989613459 0 -0.30483638085835207 -0.28788342401786787 0 -0.31319680135340772 -0.27337899374224139 0 -0.3219330120753135 -0.28752383142540722 0 -0.30483638085835207 -0.28788342401786787 0 -0.32565069555558063 -0.30525358858916618 0 -0.30327184377803978 -0.31702509473566581 0 -0.31228269981280887 -0.29918463989613459 0 -0.3219330120753135 -0.28752383142540722 0 -0.32565069555558063 -0.30525358858916618 0 -0.31228269981280887 -0.29918463989613459 0 -0.32565069555558063 -0.30525358858916618 0 -0.30327184377803978 -0.31702509473566581 0 -0.31475841231360341 -0.32260943229412947 0 -0.32694554799167658 -0.33099179923519167 0 -0.33828159541335823 -0.32561934181358893 0 -0.32565069555558063 -0.30525358858916618 0 -0.31475841231360341 -0.32260943229412947 0 -0.30327184377803978 -0.31702509473566581 0 -0.31475841231360341 -0.32260943229412947 0 -0.33828159541335823 -0.32561934181358893 0 -0.32940773276489932 -0.31652548782855527 0 -0.32565069555558063 -0.30525358858916618 0 -0.31475841231360341 -0.32260943229412947 0 -0.32940773276489932 -0.31652548782855527 0 -0.31475841231360341 -0.32260943229412947 0 -0.33828159541335823 -0.32561934181358893 0 -0.31475841231360341 -0.32260943229412947 0 -0.31372637242327511 -0.33497634201883658 0 -0.32694554799167658 -0.33099179923519167 0 -0.32694554799167658 -0.33099179923519167 0 -0.32737612656656928 -0.35021722948502532 0 -0.3170311031704231 -0.34491623006635341 0 -0.31372637242327511 -0.33497634201883658 0 -0.32694554799167658 -0.33099179923519167 0 -0.3170311031704231 -0.34491623006635341 0 -0.31372637242327511 -0.33497634201883658 0 -0.3170311031704231 -0.34491623006635341 0 -0.30849554643820359 -0.34481279163420842 0 -0.32694554799167658 -0.33099179923519167 0 -0.33828159541335823 -0.32561934181358893 0 -0.35359721351353718 -0.34004673108302108 0 -0.32694554799167658 -0.33099179923519167 0 -0.35359721351353718 -0.34004673108302108 0 -0.33765025977867152 -0.34480892108230998 0 -0.32694554799167658 -0.33099179923519167 0 -0.35359721351353718 -0.34004673108302108 0 -0.32694554799167658 -0.33099179923519167 0 -0.33765025977867152 -0.34480892108230998 0 -0.32737612656656928 -0.35021722948502532 0 -0.33828159541335823 -0.32561934181358893 0 -0.32940773276489932 -0.31652548782855527 0 -0.33894022777705518 -0.31261958861733652 0 -0.33828159541335823 -0.32561934181358893 0 -0.33894022777705518 -0.31261958861733652 0 -0.35217384865543538 -0.31302074178168637 0 -0.33828159541335823 -0.32561934181358893 0 -0.3618047785131131 -0.32862925133304821 0 -0.33828159541335823 -0.32561934181358893 0 -0.35217384865543538 -0.31302074178168637 0 -0.3618047785131131 -0.32862925133304821 0 -0.38532796161286798 -0.33163916085250739 0 -0.37601492727600683 -0.3197696392392384 0 -0.3618047785131131 -0.32862925133304821 0 -0.35217384865543538 -0.31302074178168637 0 -0.36514172279026702 -0.314674684486903 0 -0.3618047785131131 -0.32862925133304821 0 -0.37601492727600683 -0.3197696392392384 0 -0.36514172279026702 -0.314674684486903 0 -0.3618047785131131 -0.32862925133304821 0 -0.37601492727600683 -0.3197696392392384 0 -0.37651642550459341 -0.307078797330949 0 -0.36514172279026702 -0.314674684486903 0 -0.38532796161286798 -0.33163916085250739 0 -0.37024470816872912 -0.33735420154985679 0 -0.3618047785131131 -0.32862925133304821 0 -0.37024470816872912 -0.33735420154985679 0 -0.3618047785131131 -0.32862925133304821 0 -0.35359721351353718 -0.34004673108302108 0 -0.38532796161286798 -0.33163916085250739 0 -0.3618047785131131 -0.32862925133304821 0 -0.38024887903539811 -0.3491016629308506 0 -0.37024470816872912 -0.33735420154985679 0 -0.35359721351353718 -0.34004673108302108 0 -0.33828159541335823 -0.32561934181358893 0 -0.3618047785131131 -0.32862925133304821 0 -0.35359721351353718 -0.34004673108302108 0 -0.35359721351353718 -0.34004673108302108 0 -0.36247207576052709 -0.35740109745143939 0 -0.34268215104290278 -0.35797992452600158 0 -0.35359721351353718 -0.34004673108302108 0 -0.34268215104290278 -0.35797992452600158 0 -0.33765025977867152 -0.34480892108230998 0 -0.37568472164775779 -0.36524225821647011 0 -0.38024887903539811 -0.3491016629308506 0 -0.36247207576052709 -0.35740109745143939 0 -0.38024887903539811 -0.3491016629308506 0 -0.35359721351353718 -0.34004673108302108 0 -0.36247207576052709 -0.35740109745143939 0 -0.38024887903539811 -0.3491016629308506 0 -0.35359721351353718 -0.34004673108302108 0 -0.37522403377147279 -0.38060127254172499 0 -0.37568472164775779 -0.36524225821647011 0 -0.35964608014779109 -0.37334112637938882 0 -0.37568472164775779 -0.36524225821647011 0 -0.36247207576052709 -0.35740109745143939 0 -0.35964608014779109 -0.37334112637938882 0 -0.36247207576052709 -0.35740109745143939 0 -0.35964608014779109 -0.37334112637938882 0 -0.34268215104290278 -0.35797992452600158 0 -0.35964608014779109 -0.37334112637938882 0 -0.34268215104290278 -0.35797992452600158 0 -0.34254000635277743 -0.38197763020755832 0 -0.34268215104290278 -0.35797992452600158 0 -0.32737612656656928 -0.35021722948502532 0 -0.32270418411731933 -0.37181077970513959 0 -0.34268215104290278 -0.35797992452600158 0 -0.32270418411731933 -0.37181077970513959 0 -0.34254000635277743 -0.38197763020755832 0 -0.34268215104290278 -0.35797992452600158 0 -0.34254000635277743 -0.38197763020755832 0 -0.34268215104290278 -0.35797992452600158 0 -0.33765025977867152 -0.34480892108230998 0 -0.32737612656656928 -0.35021722948502532 0 -0.32737612656656928 -0.35021722948502532 0 -0.31662274924076123 -0.35606216629487569 0 -0.32270418411731933 -0.37181077970513959 0 -0.32737612656656928 -0.35021722948502532 0 -0.3170311031704231 -0.34491623006635341 0 -0.31662274924076123 -0.35606216629487569 0 -0.3170311031704231 -0.34491623006635341 0 -0.31662274924076123 -0.35606216629487569 0 -0.30902027636205309 -0.35243705172998302 0 -0.31662274924076123 -0.35606216629487569 0 -0.32270418411731933 -0.37181077970513959 0 -0.30796050174877349 -0.36016317053514468 0 -0.32270418411731933 -0.37181077970513959 0 -0.29719619905707523 -0.36594012765828582 0 -0.30796050174877349 -0.36016317053514468 0 -0.32270418411731933 -0.37181077970513959 0 -0.29719619905707523 -0.36594012765828582 0 -0.3103864423796594 -0.37828470113645102 0 -0.32270418411731933 -0.37181077970513959 0 -0.29719619905707523 -0.36594012765828582 0 -0.29719619905707523 -0.36594012765828582 0 -0.29943295026653399 -0.35953932364306618 0 -0.30796050174877349 -0.36016317053514468 0 -0.29719619905707523 -0.36594012765828582 0 -0.29584447723995128 -0.37444813956539807 0 -0.3103864423796594 -0.37828470113645102 0 -0.31662274924076123 -0.35606216629487569 0 -0.30796050174877349 -0.36016317053514468 0 -0.30902027636205309 -0.35243705172998302 0 -0.30796050174877349 -0.36016317053514468 0 -0.30902027636205309 -0.35243705172998302 0 -0.30278665144889838 -0.35518957417951802 0 -0.3170311031704231 -0.34491623006635341 0 -0.30902027636205309 -0.35243705172998302 0 -0.30849554643820359 -0.34481279163420842 0 -0.30902027636205309 -0.35243705172998302 0 -0.30849554643820359 -0.34481279163420842 0 -0.30076474035813339 -0.34759465108555682 0 -0.30849554643820359 -0.34481279163420842 0 -0.30076474035813339 -0.34759465108555682 0 -0.30398917998114899 -0.33934800480643368 0 -0.30902027636205309 -0.35243705172998302 0 -0.30076474035813339 -0.34759465108555682 0 -0.30278665144889838 -0.35518957417951802 0 -0.29943295026653399 -0.35953932364306618 0 -0.30796050174877349 -0.36016317053514468 0 -0.30278665144889838 -0.35518957417951802 0 -0.30076474035813339 -0.34759465108555682 0 -0.30278665144889838 -0.35518957417951802 0 -0.29719830368448108 -0.35301728683459582 0 -0.29943295026653399 -0.35953932364306618 0 -0.30278665144889838 -0.35518957417951802 0 -0.29719830368448108 -0.35301728683459582 0 -0.29943295026653399 -0.35953932364306618 0 -0.29719830368448108 -0.35301728683459582 0 -0.29016743694869812 -0.35649807524262711 0 -0.29016743694869812 -0.35649807524262711 0 -0.28284547851944208 -0.35047845284871731 0 -0.27168821399683141 -0.36006947561143121 0 -0.29719830368448108 -0.35301728683459582 0 -0.29016743694869812 -0.35649807524262711 0 -0.2925915294609488 -0.34919256188026188 0 -0.2925915294609488 -0.34919256188026188 0 -0.28611540962297188 -0.3426453659285974 0 -0.29619358151489988 -0.34015641309103278 0 -0.30076474035813339 -0.34759465108555682 0 -0.29719830368448108 -0.35301728683459582 0 -0.2925915294609488 -0.34919256188026188 0 -0.30076474035813339 -0.34759465108555682 0 -0.2925915294609488 -0.34919256188026188 0 -0.29619358151489988 -0.34015641309103278 0 -0.2925915294609488 -0.34919256188026188 0 -0.28284547851944208 -0.35047845284871731 0 -0.28611540962297188 -0.3426453659285974 0 -0.28284547851944208 -0.35047845284871731 0 -0.27676447355633299 -0.3457480812413124 0 -0.28611540962297188 -0.3426453659285974 0 -0.29016743694869812 -0.35649807524262711 0 -0.2925915294609488 -0.34919256188026188 0 -0.28284547851944208 -0.35047845284871731 0 -0.29202770366946113 -0.36668513997228358 0 -0.27168821399683141 -0.36006947561143121 0 -0.28307956849111848 -0.3828068929804474 0 -0.29719619905707523 -0.36594012765828582 0 -0.27168821399683141 -0.36006947561143121 0 -0.29202770366946113 -0.36668513997228358 0 -0.28307956849111848 -0.3828068929804474 0 -0.29202770366946113 -0.36668513997228358 0 -0.29584447723995128 -0.37444813956539807 0 -0.28307956849111848 -0.3828068929804474 0 -0.29719619905707523 -0.36594012765828582 0 -0.29016743694869812 -0.35649807524262711 0 -0.27168821399683141 -0.36006947561143121 0 -0.29719619905707523 -0.36594012765828582 0 -0.29202770366946113 -0.36668513997228358 0 -0.27168821399683141 -0.36006947561143121 0 -0.29719619905707523 -0.36594012765828582 0 -0.29943295026653399 -0.35953932364306618 0 -0.29016743694869812 -0.35649807524262711 0 -0.29719619905707523 -0.36594012765828582 0 -0.29202770366946113 -0.36668513997228358 0 -0.29584447723995128 -0.37444813956539807 0 -0.27168821399683141 -0.36006947561143121 0 -0.28307956849111848 -0.3828068929804474 0 -0.27168821399683141 -0.36006947561143121 0 -0.28307956849111848 -0.3828068929804474 0 -0.26050234447883253 -0.38027693877573482 0 -0.27168821399683141 -0.36006947561143121 0 -0.25721723303835431 -0.36623646057876708 0 -0.26050234447883253 -0.38027693877573482 0 -0.27168821399683141 -0.36006947561143121 0 -0.25721723303835431 -0.36623646057876708 0 -0.24850069890613241 -0.35473287875334369 0 -0.25721723303835431 -0.36623646057876708 0 -0.24817767477162081 -0.36986654917455902 0 -0.24850069890613241 -0.35473287875334369 0 -0.25721723303835431 -0.36623646057876708 0 -0.26050234447883253 -0.38027693877573482 0 -0.24817767477162081 -0.36986654917455902 0 -0.27168821399683141 -0.36006947561143121 0 -0.25445926970156468 -0.34270101061729968 0 -0.24850069890613241 -0.35473287875334369 0 -0.27168821399683141 -0.36006947561143121 0 -0.26120815563270988 -0.3391510272218049 0 -0.25445926970156468 -0.34270101061729968 0 -0.27168821399683141 -0.36006947561143121 0 -0.24850069890613241 -0.35473287875334369 0 -0.27168821399683141 -0.36006947561143121 0 -0.27676447355633299 -0.3457480812413124 0 -0.26120815563270988 -0.3391510272218049 0 -0.27168821399683141 -0.36006947561143121 0 -0.26120815563270988 -0.3391510272218049 0 -0.28284547851944208 -0.35047845284871731 0 -0.27168821399683141 -0.36006947561143121 0 -0.27676447355633299 -0.3457480812413124 0 -0.27676447355633299 -0.3457480812413124 0 -0.27858368134566353 -0.33798527866036399 0 -0.28611540962297188 -0.3426453659285974 0 -0.27676447355633299 -0.3457480812413124 0 -0.27858368134566353 -0.33798527866036399 0 -0.26120815563270988 -0.3391510272218049 0 -0.28089299200049878 -0.32879660088216478 0 -0.26120815563270988 -0.3391510272218049 0 -0.28089299200049878 -0.32879660088216478 0 -0.26120815563270988 -0.3391510272218049 0 -0.26730676106940449 -0.32685643845792262 0 -0.27858368134566353 -0.33798527866036399 0 -0.28089299200049878 -0.32879660088216478 0 -0.26120815563270988 -0.3391510272218049 0 -0.26120815563270988 -0.3391510272218049 0 -0.26057751607960811 -0.32279583566460812 0 -0.26730676106940449 -0.32685643845792262 0 -0.26120815563270988 -0.3391510272218049 0 -0.25273748935779161 -0.32224337373924072 0 -0.26120815563270988 -0.3391510272218049 0 -0.25207330520806498 -0.33378255792528982 0 -0.25273748935779161 -0.32224337373924072 0 -0.26120815563270988 -0.3391510272218049 0 -0.25445926970156468 -0.34270101061729968 0 -0.25207330520806498 -0.33378255792528982 0 -0.25445926970156468 -0.34270101061729968 0 -0.2460450098649074 -0.33743905859998191 0 -0.26120815563270988 -0.3391510272218049 0 -0.25207330520806498 -0.33378255792528982 0 -0.25445926970156468 -0.34270101061729968 0 -0.25273748935779161 -0.32224337373924072 0 -0.26050456352867191 -0.3149367065078193 0 -0.24426682308287331 -0.30533572025667649 0 -0.26120815563270988 -0.3391510272218049 0 -0.25273748935779161 -0.32224337373924072 0 -0.26057751607960811 -0.32279583566460812 0 -0.26057751607960811 -0.32279583566460812 0 -0.26050456352867191 -0.3149367065078193 0 -0.26730676106940449 -0.32685643845792262 0 -0.25273748935779161 -0.32224337373924072 0 -0.26057751607960811 -0.32279583566460812 0 -0.26050456352867191 -0.3149367065078193 0 -0.28089299200049878 -0.32879660088216478 0 -0.26050456352867191 -0.3149367065078193 0 -0.27445713665833338 -0.31633796571173628 0 -0.28089299200049878 -0.32879660088216478 0 -0.26050456352867191 -0.3149367065078193 0 -0.26050456352867191 -0.3149367065078193 0 -0.27445713665833338 -0.31633796571173628 0 -0.26793999894844561 -0.31004618489902153 0 -0.28089299200049878 -0.32879660088216478 0 -0.26050456352867191 -0.3149367065078193 0 -0.26730676106940449 -0.32685643845792262 0 -0.28089299200049878 -0.32879660088216478 0 -0.27445713665833338 -0.31633796571173628 0 -0.28125105682705043 -0.31976055402590231 0 -0.27445713665833338 -0.31633796571173628 0 -0.28252008875028978 -0.31254235777143202 0 -0.28125105682705043 -0.31976055402590231 0 -0.28252008875028978 -0.31254235777143202 0 -0.28823329624350208 -0.31711313423980658 0 -0.29327146190654751 -0.30876504511160502 0 -0.28089299200049878 -0.32879660088216478 0 -0.28823329624350208 -0.31711313423980658 0 -0.30327184377803978 -0.31702509473566581 0 -0.28089299200049878 -0.32879660088216478 0 -0.29457520052377689 -0.33013191680287202 0 -0.30327184377803978 -0.31702509473566581 0 -0.28089299200049878 -0.32879660088216478 0 -0.30327184377803978 -0.31702509473566581 0 -0.28252008875028978 -0.31254235777143202 0 -0.28125105682705043 -0.31976055402590231 0 -0.28823329624350208 -0.31711313423980658 0 -0.28823329624350208 -0.31711313423980658 0 -0.30327184377803978 -0.31702509473566581 0 -0.29327146190654751 -0.30876504511160502 0 -0.28089299200049878 -0.32879660088216478 0 -0.28125105682705043 -0.31976055402590231 0 -0.28823329624350208 -0.31711313423980658 0 -0.28089299200049878 -0.32879660088216478 0 -0.28793737591580382 -0.33358531802794061 0 -0.27858368134566353 -0.33798527866036399 0 -0.28089299200049878 -0.32879660088216478 0 -0.28793737591580382 -0.33358531802794061 0 -0.28089299200049878 -0.32879660088216478 0 -0.28793737591580382 -0.33358531802794061 0 -0.29457520052377689 -0.33013191680287202 0 -0.27858368134566353 -0.33798527866036399 0 -0.28793737591580382 -0.33358531802794061 0 -0.28611540962297188 -0.3426453659285974 0 -0.28793737591580382 -0.33358531802794061 0 -0.28611540962297188 -0.3426453659285974 0 -0.29619358151489988 -0.34015641309103278 0 -0.28793737591580382 -0.33358531802794061 0 -0.29619358151489988 -0.34015641309103278 0 -0.29457520052377689 -0.33013191680287202 0 -0.29619358151489988 -0.34015641309103278 0 -0.29457520052377689 -0.33013191680287202 0 -0.30458020940964259 -0.3310961572775562 0 -0.30076474035813339 -0.34759465108555682 0 -0.29619358151489988 -0.34015641309103278 0 -0.30398917998114899 -0.33934800480643368 0 -0.29619358151489988 -0.34015641309103278 0 -0.30458020940964259 -0.3310961572775562 0 -0.30398917998114899 -0.33934800480643368 0 -0.31372637242327511 -0.33497634201883658 0 -0.30849554643820359 -0.34481279163420842 0 -0.30398917998114899 -0.33934800480643368 0 -0.31475841231360341 -0.32260943229412947 0 -0.31372637242327511 -0.33497634201883658 0 -0.30458020940964259 -0.3310961572775562 0 -0.31372637242327511 -0.33497634201883658 0 -0.30458020940964259 -0.3310961572775562 0 -0.30398917998114899 -0.33934800480643368 0 -0.31475841231360341 -0.32260943229412947 0 -0.30458020940964259 -0.3310961572775562 0 -0.30327184377803978 -0.31702509473566581 0 -0.29457520052377689 -0.33013191680287202 0 -0.30458020940964259 -0.3310961572775562 0 -0.30327184377803978 -0.31702509473566581 0 -0.30327184377803978 -0.31702509473566581 0 -0.30068554560480582 -0.30112982209441241 0 -0.31228269981280887 -0.29918463989613459 0 -0.30327184377803978 -0.31702509473566581 0 -0.30068554560480582 -0.30112982209441241 0 -0.29327146190654751 -0.30876504511160502 0 -0.30068554560480582 -0.30112982209441241 0 -0.30483638085835207 -0.28788342401786787 0 -0.28888361246081401 -0.29493054457851903 0 -0.30068554560480582 -0.30112982209441241 0 -0.31228269981280887 -0.29918463989613459 0 -0.30483638085835207 -0.28788342401786787 0 -0.28888361246081401 -0.29493054457851903 0 -0.28078806465599399 -0.28300047521785149 0 -0.29451735460655398 -0.27472288856989607 0 -0.30483638085835207 -0.28788342401786787 0 -0.28888361246081401 -0.29493054457851903 0 -0.29451735460655398 -0.27472288856989607 0 -0.28888361246081401 -0.29493054457851903 0 -0.28295382644196537 -0.3038897035906043 0 -0.27388309143310768 -0.29511411685975181 0 -0.28888361246081401 -0.29493054457851903 0 -0.28295382644196537 -0.3038897035906043 0 -0.29327146190654751 -0.30876504511160502 0 -0.30068554560480582 -0.30112982209441241 0 -0.28888361246081401 -0.29493054457851903 0 -0.29327146190654751 -0.30876504511160502 0 -0.28252008875028978 -0.31254235777143202 0 -0.28295382644196537 -0.3038897035906043 0 -0.29327146190654751 -0.30876504511160502 0 -0.27445713665833338 -0.31633796571173628 0 -0.28252008875028978 -0.31254235777143202 0 -0.27524002690986649 -0.30828041126704497 0 -0.28252008875028978 -0.31254235777143202 0 -0.28295382644196537 -0.3038897035906043 0 -0.27524002690986649 -0.30828041126704497 0 -0.28295382644196537 -0.3038897035906043 0 -0.27524002690986649 -0.30828041126704497 0 -0.27388309143310768 -0.29511411685975181 0 -0.26808679199009749 -0.30362992927208171 0 -0.26252268864995981 -0.29761987486456531 0 -0.27388309143310768 -0.29511411685975181 0 -0.27524002690986649 -0.30828041126704497 0 -0.26808679199009749 -0.30362992927208171 0 -0.27388309143310768 -0.29511411685975181 0 -0.27445713665833338 -0.31633796571173628 0 -0.27524002690986649 -0.30828041126704497 0 -0.26793999894844561 -0.31004618489902153 0 -0.27524002690986649 -0.30828041126704497 0 -0.26808679199009749 -0.30362992927208171 0 -0.26793999894844561 -0.31004618489902153 0 -0.26808679199009749 -0.30362992927208171 0 -0.26793999894844561 -0.31004618489902153 0 -0.26278193746552841 -0.30551063084933561 0 -0.26050456352867191 -0.3149367065078193 0 -0.25485564421046719 -0.30132045870319019 0 -0.24011613505684479 -0.30107681213347393 0 -0.26050456352867191 -0.3149367065078193 0 -0.24011613505684479 -0.30107681213347393 0 -0.26050456352867191 -0.3149367065078193 0 -0.26278193746552841 -0.30551063084933561 0 -0.25485564421046719 -0.30132045870319019 0 -0.26050456352867191 -0.3149367065078193 0 -0.26793999894844561 -0.31004618489902153 0 -0.26278193746552841 -0.30551063084933561 0 -0.26278193746552841 -0.30551063084933561 0 -0.26252268864995981 -0.29761987486456531 0 -0.25485564421046719 -0.30132045870319019 0 -0.26252268864995981 -0.29761987486456531 0 -0.25485564421046719 -0.30132045870319019 0 -0.2567143935458242 -0.29223768812186002 0 -0.26808679199009749 -0.30362992927208171 0 -0.26278193746552841 -0.30551063084933561 0 -0.26252268864995981 -0.29761987486456531 0 -0.25608276685525683 -0.28295324223861612 0 -0.2567143935458242 -0.29223768812186002 0 -0.24732420154209239 -0.29033586459568173 0 -0.25485564421046719 -0.30132045870319019 0 -0.2567143935458242 -0.29223768812186002 0 -0.24732420154209239 -0.29033586459568173 0 -0.26252268864995981 -0.29761987486456531 0 -0.2567143935458242 -0.29223768812186002 0 -0.26350989061834318 -0.28909490770035701 0 -0.25608276685525683 -0.28295324223861612 0 -0.26350989061834318 -0.28909490770035701 0 -0.26907982973782107 -0.2804670883869903 0 -0.25608276685525683 -0.28295324223861612 0 -0.2567143935458242 -0.29223768812186002 0 -0.26350989061834318 -0.28909490770035701 0 -0.26350989061834318 -0.28909490770035701 0 -0.27388309143310768 -0.29511411685975181 0 -0.26907982973782107 -0.2804670883869903 0 -0.26252268864995981 -0.29761987486456531 0 -0.26350989061834318 -0.28909490770035701 0 -0.27388309143310768 -0.29511411685975181 0 -0.28888361246081401 -0.29493054457851903 0 -0.27388309143310768 -0.29511411685975181 0 -0.28078806465599399 -0.28300047521785149 0 -0.27388309143310768 -0.29511411685975181 0 -0.28078806465599399 -0.28300047521785149 0 -0.26907982973782107 -0.2804670883869903 0 -0.27772768471542669 -0.26767482265106679 0 -0.26907982973782107 -0.2804670883869903 0 -0.25958550566062261 -0.27102626557679149 0 -0.28078806465599399 -0.28300047521785149 0 -0.27772768471542669 -0.26767482265106679 0 -0.26907982973782107 -0.2804670883869903 0 -0.25608276685525683 -0.28295324223861612 0 -0.26907982973782107 -0.2804670883869903 0 -0.25958550566062261 -0.27102626557679149 0 -0.25608276685525683 -0.28295324223861612 0 -0.25958550566062261 -0.27102626557679149 0 -0.2444485511135471 -0.27534046621033159 0 -0.26398002587916253 -0.25656090854441049 0 -0.24465976002352091 -0.25387891845332877 0 -0.25992972331208369 -0.2410680052130979 0 -0.25958550566062261 -0.27102626557679149 0 -0.26398002587916253 -0.25656090854441049 0 -0.24465976002352091 -0.25387891845332877 0 -0.27772768471542669 -0.26767482265106679 0 -0.26398002587916253 -0.25656090854441049 0 -0.27722523139620658 -0.24922189107985179 0 -0.27772768471542669 -0.26767482265106679 0 -0.25958550566062261 -0.27102626557679149 0 -0.26398002587916253 -0.25656090854441049 0 -0.27772768471542669 -0.26767482265106679 0 -0.29131753467172561 -0.25675805269722002 0 -0.27722523139620658 -0.24922189107985179 0 -0.28078806465599399 -0.28300047521785149 0 -0.27772768471542669 -0.26767482265106679 0 -0.29451735460655398 -0.27472288856989607 0 -0.27772768471542669 -0.26767482265106679 0 -0.29131753467172561 -0.25675805269722002 0 -0.29451735460655398 -0.27472288856989607 0 -0.31319680135340772 -0.27337899374224139 0 -0.29451735460655398 -0.27472288856989607 0 -0.30564385326437488 -0.26015983685037081 0 -0.31319680135340772 -0.27337899374224139 0 -0.30483638085835207 -0.28788342401786787 0 -0.29451735460655398 -0.27472288856989607 0 -0.29131753467172561 -0.25675805269722002 0 -0.29451735460655398 -0.27472288856989607 0 -0.30564385326437488 -0.26015983685037081 0 -0.29131753467172561 -0.25675805269722002 0 -0.30564385326437488 -0.26015983685037081 0 -0.30769212114973271 -0.24578220261295139 0 -0.31968345090478489 -0.25798973640781447 0 -0.30564385326437488 -0.26015983685037081 0 -0.30769212114973271 -0.24578220261295139 0 -0.34207866423036198 -0.45986413066326443 0 -0.33141508850449702 -0.45187214799378478 0 -0.32594289259428999 -0.46085836632795257 0 -0.34207866423036198 -0.45986413066326443 0 -0.32594289259428999 -0.46085836632795257 0 -0.33264581849560632 -0.47431014716802089 0 -0.34207866423036198 -0.45986413066326443 0 -0.34225571697252682 -0.42997304157067162 0 -0.34207866423036198 -0.45986413066326443 0 -0.33358626016413989 -0.44229992863572659 0 -0.33141508850449702 -0.45187214799378478 0 -0.34207866423036198 -0.45986413066326443 0 -0.33358626016413989 -0.44229992863572659 0 -0.34225571697252682 -0.42997304157067162 0 -0.33358626016413989 -0.44229992863572659 0 -0.33141508850449702 -0.45187214799378478 0 -0.32300139100864811 -0.44723989508536771 0 -0.33358626016413989 -0.44229992863572659 0 -0.32300139100864811 -0.44723989508536771 0 -0.32413493920603592 -0.43586432580396972 0 -0.32300139100864811 -0.44723989508536771 0 -0.31385630152515048 -0.44199725430357722 0 -0.32413493920603592 -0.43586432580396972 0 -0.32300139100864811 -0.44723989508536771 0 -0.31385630152515048 -0.44199725430357722 0 -0.31044958537109257 -0.45255960714027171 0 -0.32594289259428999 -0.46085836632795257 0 -0.31333683559556219 -0.46686726284272168 0 -0.31044958537109257 -0.45255960714027171 0 -0.32594289259428999 -0.46085836632795257 0 -0.31333683559556219 -0.46686726284272168 0 -0.32224857144892449 -0.47649828689453749 0 -0.32300139100864811 -0.44723989508536771 0 -0.32594289259428999 -0.46085836632795257 0 -0.31044958537109257 -0.45255960714027171 0 -0.33141508850449702 -0.45187214799378478 0 -0.32300139100864811 -0.44723989508536771 0 -0.32594289259428999 -0.46085836632795257 0 -0.31333683559556219 -0.46686726284272168 0 -0.32224857144892449 -0.47649828689453749 0 -0.30503152439861497 -0.48190266549989857 0 -0.32224857144892449 -0.47649828689453749 0 -0.32279626626388608 -0.48781718170045291 0 -0.30503152439861497 -0.48190266549989857 0 -0.32594289259428999 -0.46085836632795257 0 -0.32224857144892449 -0.47649828689453749 0 -0.33264581849560632 -0.47431014716802089 0 -0.32224857144892449 -0.47649828689453749 0 -0.32279626626388608 -0.48781718170045291 0 -0.33105735271625752 -0.4845747321984929 0 -0.32006214434654462 -0.5 0 -0.32279626626388608 -0.48781718170045291 0 -0.30503152439861497 -0.48190266549989857 0 -0.32006214434654462 -0.5 0 -0.32279626626388608 -0.48781718170045291 0 -0.33558173840908911 -0.49611022390933512 0 -0.32006214434654462 -0.5 0 -0.33558173840908911 -0.49611022390933512 0 -0.34657288766042038 -0.5 0 -0.33558173840908911 -0.49611022390933512 0 -0.34190161148819742 -0.48975521975585701 0 -0.35306908662498632 -0.4951847935385878 0 -0.32279626626388608 -0.48781718170045291 0 -0.33558173840908911 -0.49611022390933512 0 -0.33105735271625752 -0.4845747321984929 0 -0.33558173840908911 -0.49611022390933512 0 -0.33105735271625752 -0.4845747321984929 0 -0.34190161148819742 -0.48975521975585701 0 -0.34207866423036198 -0.45986413066326443 0 -0.34190161148819742 -0.48975521975585701 0 -0.34207866423036198 -0.45986413066326443 0 -0.34190161148819742 -0.48975521975585701 0 -0.33264581849560632 -0.47431014716802089 0 -0.33105735271625752 -0.4845747321984929 0 -0.34190161148819742 -0.48975521975585701 0 -0.33264581849560632 -0.47431014716802089 0 -0.32224857144892449 -0.47649828689453749 0 -0.33105735271625752 -0.4845747321984929 0 -0.33264581849560632 -0.47431014716802089 0 -0.34190161148819742 -0.48975521975585701 0 -0.35001641252228072 -0.47142734906239081 0 -0.35328963507943428 -0.48328499015431992 0 -0.34207866423036198 -0.45986413066326443 0 -0.34190161148819742 -0.48975521975585701 0 -0.35001641252228072 -0.47142734906239081 0 -0.35328963507943428 -0.48328499015431992 0 -0.35950950469085041 -0.48638993404071668 0 -0.36112286221809747 -0.47283058930211808 0 -0.35001641252228072 -0.47142734906239081 0 -0.35328963507943428 -0.48328499015431992 0 -0.36112286221809747 -0.47283058930211808 0 -0.33558173840908911 -0.49611022390933512 0 -0.35306908662498632 -0.4951847935385878 0 -0.33558173840908911 -0.49611022390933512 0 -0.34657288766042038 -0.5 0 -0.35306908662498632 -0.4951847935385878 0 -0.34657288766042038 -0.5 0 -0.35306908662498632 -0.4951847935385878 0 -0.37308363097429631 -0.50000000000000244 0 -0.34190161148819742 -0.48975521975585701 0 -0.35328963507943428 -0.48328499015431992 0 -0.35306908662498632 -0.4951847935385878 0 -0.35328963507943428 -0.48328499015431992 0 -0.35306908662498632 -0.4951847935385878 0 -0.35950950469085041 -0.48638993404071668 0 -0.35306908662498632 -0.4951847935385878 0 -0.35950950469085041 -0.48638993404071668 0 -0.37055643484088358 -0.49425936316784103 0 -0.35306908662498632 -0.4951847935385878 0 -0.37055643484088358 -0.49425936316784103 0 -0.35950950469085041 -0.48638993404071668 0 -0.37055643484088358 -0.49425936316784103 0 -0.36112286221809747 -0.47283058930211808 0 -0.35306908662498632 -0.4951847935385878 0 -0.37055643484088358 -0.49425936316784103 0 -0.37308363097429631 -0.50000000000000244 0 -0.37055643484088358 -0.49425936316784103 0 -0.37308363097429631 -0.50000000000000244 0 -0.38039451612360919 -0.47713749807852829 0 -0.37055643484088358 -0.49425936316784103 0 -0.36112286221809747 -0.47283058930211808 0 -0.37055643484088358 -0.49425936316784103 0 -0.36112286221809747 -0.47283058930211808 0 -0.38039451612360919 -0.47713749807852829 0 -0.36112286221809747 -0.47283058930211808 0 -0.37415472949075129 -0.45946062715310632 0 -0.37415472949075129 -0.45946062715310632 0 -0.3629811744391212 -0.45722253899736259 0 -0.36406731613876331 -0.44506275929787698 0 -0.36112286221809747 -0.47283058930211808 0 -0.37415472949075129 -0.45946062715310632 0 -0.3629811744391212 -0.45722253899736259 0 -0.36112286221809747 -0.47283058930211808 0 -0.3629811744391212 -0.45722253899736259 0 -0.35168928959531232 -0.4514018154363949 0 -0.36112286221809747 -0.47283058930211808 0 -0.35168928959531232 -0.4514018154363949 0 -0.35001641252228072 -0.47142734906239081 0 -0.36112286221809747 -0.47283058930211808 0 -0.35168928959531232 -0.4514018154363949 0 -0.34207866423036198 -0.45986413066326443 0 -0.35001641252228072 -0.47142734906239081 0 -0.35168928959531232 -0.4514018154363949 0 -0.35168928959531232 -0.4514018154363949 0 -0.34225571697252682 -0.42997304157067162 0 -0.35168928959531232 -0.4514018154363949 0 -0.36406731613876331 -0.44506275929787698 0 -0.34225571697252682 -0.42997304157067162 0 -0.34207866423036198 -0.45986413066326443 0 -0.35168928959531232 -0.4514018154363949 0 -0.34225571697252682 -0.42997304157067162 0 -0.38339996822118783 -0.44368928783448319 0 -0.36406731613876331 -0.44506275929787698 0 -0.36866352395763108 -0.4313760290561211 0 -0.38339996822118783 -0.44368928783448319 0 -0.37415472949075129 -0.45946062715310632 0 -0.36406731613876331 -0.44506275929787698 0 -0.3629811744391212 -0.45722253899736259 0 -0.35168928959531232 -0.4514018154363949 0 -0.36406731613876331 -0.44506275929787698 0 -0.38131756488089769 -0.42670085612339947 0 -0.36866352395763108 -0.4313760290561211 0 -0.36377437909963828 -0.41972983174959272 0 -0.38704143117499401 -0.40999023144455299 0 -0.3575105341832589 -0.40691374405003478 0 -0.38704143117499401 -0.40999023144455299 0 -0.36377437909963828 -0.41972983174959272 0 -0.3575105341832589 -0.40691374405003478 0 -0.35062038894632092 -0.41624612172537079 0 -0.34239786166265201 -0.40597533588911489 0 -0.34225571697252682 -0.42997304157067162 0 -0.36377437909963828 -0.41972983174959272 0 -0.3575105341832589 -0.40691374405003478 0 -0.35062038894632092 -0.41624612172537079 0 -0.3575105341832589 -0.40691374405003478 0 -0.35062038894632092 -0.41624612172537079 0 -0.34239786166265201 -0.40597533588911489 0 -0.36406731613876331 -0.44506275929787698 0 -0.36866352395763108 -0.4313760290561211 0 -0.34225571697252682 -0.42997304157067162 0 -0.36866352395763108 -0.4313760290561211 0 -0.36377437909963828 -0.41972983174959272 0 -0.34225571697252682 -0.42997304157067162 0 -0.36377437909963828 -0.41972983174959272 0 -0.35062038894632092 -0.41624612172537079 0 -0.34225571697252682 -0.42997304157067162 0 -0.37522403377147279 -0.38060127254172499 0 -0.37464038230528551 -0.396492613407532 0 -0.35879027536972019 -0.3891835699585654 0 -0.37522403377147279 -0.38060127254172499 0 -0.35964608014779109 -0.37334112637938882 0 -0.35879027536972019 -0.3891835699585654 0 -0.38704143117499401 -0.40999023144455299 0 -0.3575105341832589 -0.40691374405003478 0 -0.37464038230528551 -0.396492613407532 0 -0.3575105341832589 -0.40691374405003478 0 -0.37464038230528551 -0.396492613407532 0 -0.35879027536972019 -0.3891835699585654 0 -0.3575105341832589 -0.40691374405003478 0 -0.35030966939210212 -0.39601257002631829 0 -0.35879027536972019 -0.3891835699585654 0 -0.35030966939210212 -0.39601257002631829 0 -0.34254000635277743 -0.38197763020755832 0 -0.34239786166265201 -0.40597533588911489 0 -0.3575105341832589 -0.40691374405003478 0 -0.35030966939210212 -0.39601257002631829 0 -0.34239786166265201 -0.40597533588911489 0 -0.35964608014779109 -0.37334112637938882 0 -0.35879027536972019 -0.3891835699585654 0 -0.34254000635277743 -0.38197763020755832 0 -0.35030966939210212 -0.39601257002631829 0 -0.35879027536972019 -0.3891835699585654 0 -0.34254000635277743 -0.38197763020755832 0 -0.32270418411731933 -0.37181077970513959 0 -0.34254000635277743 -0.38197763020755832 0 -0.32435131947256218 -0.38428518727128619 0 -0.34254000635277743 -0.38197763020755832 0 -0.33211028503505757 -0.39455092735479258 0 -0.32435131947256218 -0.38428518727128619 0 -0.34254000635277743 -0.38197763020755832 0 -0.33211028503505757 -0.39455092735479258 0 -0.34239786166265201 -0.40597533588911489 0 -0.34254000635277743 -0.38197763020755832 0 -0.34239786166265201 -0.40597533588911489 0 -0.33211028503505757 -0.39455092735479258 0 -0.32627218782356721 -0.40254155632103228 0 -0.33325599186729038 -0.40952977136485508 0 -0.33211028503505757 -0.39455092735479258 0 -0.34239786166265201 -0.40597533588911489 0 -0.33325599186729038 -0.40952977136485508 0 -0.32627218782356721 -0.40254155632103228 0 -0.31778611784491262 -0.39429551077659458 0 -0.31836523457261151 -0.40628576827473822 0 -0.31778611784491262 -0.39429551077659458 0 -0.31836523457261151 -0.40628576827473822 0 -0.30856762168503782 -0.40330407176644772 0 -0.33211028503505757 -0.39455092735479258 0 -0.32627218782356721 -0.40254155632103228 0 -0.31778611784491262 -0.39429551077659458 0 -0.33211028503505757 -0.39455092735479258 0 -0.31778611784491262 -0.39429551077659458 0 -0.32435131947256218 -0.38428518727128619 0 -0.31778611784491262 -0.39429551077659458 0 -0.32435131947256218 -0.38428518727128619 0 -0.3103864423796594 -0.37828470113645102 0 -0.32270418411731933 -0.37181077970513959 0 -0.32435131947256218 -0.38428518727128619 0 -0.3103864423796594 -0.37828470113645102 0 -0.34225571697252682 -0.42997304157067162 0 -0.32127707919304882 -0.42450406978857058 0 -0.32413493920603592 -0.43586432580396972 0 -0.33358626016413989 -0.44229992863572659 0 -0.34225571697252682 -0.42997304157067162 0 -0.32413493920603592 -0.43586432580396972 0 -0.34225571697252682 -0.42997304157067162 0 -0.32547848823970138 -0.41505510354763547 0 -0.32127707919304882 -0.42450406978857058 0 -0.34225571697252682 -0.42997304157067162 0 -0.33325599186729038 -0.40952977136485508 0 -0.34239786166265201 -0.40597533588911489 0 -0.34225571697252682 -0.42997304157067162 0 -0.34225571697252682 -0.42997304157067162 0 -0.33325599186729038 -0.40952977136485508 0 -0.32547848823970138 -0.41505510354763547 0 -0.34239786166265201 -0.40597533588911489 0 -0.34225571697252682 -0.42997304157067162 0 -0.33325599186729038 -0.40952977136485508 0 -0.32627218782356721 -0.40254155632103228 0 -0.33325599186729038 -0.40952977136485508 0 -0.32547848823970138 -0.41505510354763547 0 -0.32547848823970138 -0.41505510354763547 0 -0.3149711123139971 -0.41411215899080989 0 -0.32127707919304882 -0.42450406978857058 0 -0.32627218782356721 -0.40254155632103228 0 -0.32547848823970138 -0.41505510354763547 0 -0.31836523457261151 -0.40628576827473822 0 -0.32547848823970138 -0.41505510354763547 0 -0.31836523457261151 -0.40628576827473822 0 -0.3149711123139971 -0.41411215899080989 0 -0.31836523457261151 -0.40628576827473822 0 -0.3149711123139971 -0.41411215899080989 0 -0.30856762168503782 -0.40330407176644772 0 -0.3149711123139971 -0.41411215899080989 0 -0.32127707919304882 -0.42450406978857058 0 -0.31068047406536009 -0.42124040027518911 0 -0.32127707919304882 -0.42450406978857058 0 -0.31073004788055869 -0.43167813375356229 0 -0.31068047406536009 -0.42124040027518911 0 -0.32127707919304882 -0.42450406978857058 0 -0.32413493920603592 -0.43586432580396972 0 -0.31073004788055869 -0.43167813375356229 0 -0.31385630152515048 -0.44199725430357722 0 -0.32413493920603592 -0.43586432580396972 0 -0.31073004788055869 -0.43167813375356229 0 -0.31073004788055869 -0.43167813375356229 0 -0.29829421210859891 -0.43220714453990322 0 -0.30286215921622678 -0.44210958888768459 0 -0.31073004788055869 -0.43167813375356229 0 -0.29829421210859891 -0.43220714453990322 0 -0.30293836312512551 -0.42244552438862548 0 -0.29829421210859891 -0.43220714453990322 0 -0.30293836312512551 -0.42244552438862548 0 -0.29038846928103268 -0.42353273433611682 0 -0.31073004788055869 -0.43167813375356229 0 -0.30293836312512551 -0.42244552438862548 0 -0.31068047406536009 -0.42124040027518911 0 -0.3149711123139971 -0.41411215899080989 0 -0.31068047406536009 -0.42124040027518911 0 -0.30545777612822328 -0.41428354029227837 0 -0.30293836312512551 -0.42244552438862548 0 -0.31068047406536009 -0.42124040027518911 0 -0.30545777612822328 -0.41428354029227837 0 -0.3149711123139971 -0.41411215899080989 0 -0.30545777612822328 -0.41428354029227837 0 -0.30856762168503782 -0.40330407176644772 0 -0.30545777612822328 -0.41428354029227837 0 -0.30856762168503782 -0.40330407176644772 0 -0.30079847364115991 -0.40578130343003371 0 -0.30545777612822328 -0.41428354029227837 0 -0.2987732092282892 -0.41413177709842958 0 -0.30079847364115991 -0.40578130343003371 0 -0.30293836312512551 -0.42244552438862548 0 -0.2987732092282892 -0.41413177709842958 0 -0.29038846928103268 -0.42353273433611682 0 -0.30293836312512551 -0.42244552438862548 0 -0.2987732092282892 -0.41413177709842958 0 -0.30293836312512551 -0.42244552438862548 0 -0.30545777612822328 -0.41428354029227837 0 -0.2987732092282892 -0.41413177709842958 0 -0.30545777612822328 -0.41428354029227837 0 -0.2987732092282892 -0.41413177709842958 0 -0.2987732092282892 -0.41413177709842958 0 -0.29092638885970451 -0.39846933503943821 0 -0.2987732092282892 -0.41413177709842958 0 -0.28243901841779939 -0.41376093348156762 0 -0.29092638885970451 -0.39846933503943821 0 -0.2987732092282892 -0.41413177709842958 0 -0.28243901841779939 -0.41376093348156762 0 -0.29038846928103268 -0.42353273433611682 0 -0.2987732092282892 -0.41413177709842958 0 -0.28243901841779939 -0.41376093348156762 0 -0.28243901841779939 -0.41376093348156762 0 -0.29038846928103268 -0.42353273433611682 0 -0.27500508569675858 -0.42792788340523652 0 -0.29038846928103268 -0.42353273433611682 0 -0.27500508569675858 -0.42792788340523652 0 -0.28620792983366777 -0.44117103379144762 0 -0.29829421210859891 -0.43220714453990322 0 -0.29038846928103268 -0.42353273433611682 0 -0.28620792983366777 -0.44117103379144762 0 -0.31778611784491262 -0.39429551077659458 0 -0.3103864423796594 -0.37828470113645102 0 -0.30424293331838692 -0.39073887816822978 0 -0.29584447723995128 -0.37444813956539807 0 -0.29713407365637251 -0.38186722723828942 0 -0.3103864423796594 -0.37828470113645102 0 -0.29713407365637251 -0.38186722723828942 0 -0.30424293331838692 -0.39073887816822978 0 -0.29406976999373469 -0.38920344929064732 0 -0.29713407365637251 -0.38186722723828942 0 -0.3103864423796594 -0.37828470113645102 0 -0.30424293331838692 -0.39073887816822978 0 -0.29998863005712628 -0.39809616774203599 0 -0.30424293331838692 -0.39073887816822978 0 -0.30856762168503782 -0.40330407176644772 0 -0.29998863005712628 -0.39809616774203599 0 -0.30424293331838692 -0.39073887816822978 0 -0.29406976999373469 -0.38920344929064732 0 -0.31778611784491262 -0.39429551077659458 0 -0.30424293331838692 -0.39073887816822978 0 -0.30856762168503782 -0.40330407176644772 0 -0.29998863005712628 -0.39809616774203599 0 -0.30079847364115991 -0.40578130343003371 0 -0.29092638885970451 -0.39846933503943821 0 -0.29998863005712628 -0.39809616774203599 0 -0.30856762168503782 -0.40330407176644772 0 -0.30079847364115991 -0.40578130343003371 0 -0.2987732092282892 -0.41413177709842958 0 -0.30079847364115991 -0.40578130343003371 0 -0.29092638885970451 -0.39846933503943821 0 -0.29092638885970451 -0.39846933503943821 0 -0.28307956849111848 -0.3828068929804474 0 -0.29092638885970451 -0.39846933503943821 0 -0.28307956849111848 -0.3828068929804474 0 -0.27459219804921331 -0.39809849142257658 0 -0.28243901841779939 -0.41376093348156762 0 -0.29092638885970451 -0.39846933503943821 0 -0.27459219804921331 -0.39809849142257658 0 -0.29998863005712628 -0.39809616774203599 0 -0.29092638885970451 -0.39846933503943821 0 -0.29406976999373469 -0.38920344929064732 0 -0.29092638885970451 -0.39846933503943821 0 -0.29406976999373469 -0.38920344929064732 0 -0.28307956849111848 -0.3828068929804474 0 -0.29713407365637251 -0.38186722723828942 0 -0.29406976999373469 -0.38920344929064732 0 -0.28307956849111848 -0.3828068929804474 0 -0.29584447723995128 -0.37444813956539807 0 -0.29713407365637251 -0.38186722723828942 0 -0.28307956849111848 -0.3828068929804474 0 -0.28307956849111848 -0.3828068929804474 0 -0.27459219804921331 -0.39809849142257658 0 -0.26050234447883253 -0.38027693877573482 0 -0.28307956849111848 -0.3828068929804474 0 -0.27459219804921331 -0.39809849142257658 0 -0.27459219804921331 -0.39809849142257658 0 -0.26610482760730952 -0.4133900898647066 0 -0.27459219804921331 -0.39809849142257658 0 -0.26088670843651829 -0.40068536336094251 0 -0.26610482760730952 -0.4133900898647066 0 -0.26088670843651829 -0.40068536336094251 0 -0.26050234447883253 -0.38027693877573482 0 -0.2487824818667288 -0.3954643368039899 0 -0.27459219804921331 -0.39809849142257658 0 -0.26088670843651829 -0.40068536336094251 0 -0.26050234447883253 -0.38027693877573482 0 -0.26088670843651829 -0.40068536336094251 0 -0.24694430377570939 -0.41295507854145541 0 -0.2487824818667288 -0.3954643368039899 0 -0.27500508569675858 -0.42792788340523652 0 -0.25298523514652932 -0.43702750984159111 0 -0.27028712802556781 -0.44002206955302048 0 -0.27500508569675858 -0.42792788340523652 0 -0.27028712802556781 -0.44002206955302048 0 -0.28620792983366777 -0.44117103379144762 0 -0.28243901841779939 -0.41376093348156762 0 -0.27500508569675858 -0.42792788340523652 0 -0.26610482760730952 -0.4133900898647066 0 -0.28243901841779939 -0.41376093348156762 0 -0.27459219804921331 -0.39809849142257658 0 -0.26610482760730952 -0.4133900898647066 0 -0.28243901841779939 -0.41376093348156762 0 -0.26610482760730952 -0.4133900898647066 0 -0.26610482760730952 -0.4133900898647066 0 -0.24694430377570939 -0.41295507854145541 0 -0.26610482760730952 -0.4133900898647066 0 -0.25298523514652932 -0.43702750984159111 0 -0.24694430377570939 -0.41295507854145541 0 -0.26088670843651829 -0.40068536336094251 0 -0.26610482760730952 -0.4133900898647066 0 -0.24694430377570939 -0.41295507854145541 0 -0.27500508569675858 -0.42792788340523652 0 -0.26610482760730952 -0.4133900898647066 0 -0.25298523514652932 -0.43702750984159111 0 -0.26610482760730952 -0.4133900898647066 0 -0.25298523514652932 -0.43702750984159111 0 -0.25298523514652932 -0.43702750984159111 0 -0.25823473398406083 -0.46259190486934387 0 -0.27139768853026319 -0.45350369328431828 0 -0.25298523514652932 -0.43702750984159111 0 -0.27139768853026319 -0.45350369328431828 0 -0.27028712802556781 -0.44002206955302048 0 -0.25298523514652932 -0.43702750984159111 0 -0.25823473398406083 -0.46259190486934387 0 -0.2398656426857485 -0.46066492981847512 0 -0.27139768853026319 -0.45350369328431828 0 -0.28665438526504589 -0.45880473289459528 0 -0.27499686831673542 -0.4693274569635677 0 -0.25823473398406083 -0.46259190486934387 0 -0.27139768853026319 -0.45350369328431828 0 -0.27499686831673542 -0.4693274569635677 0 -0.27139768853026319 -0.45350369328431828 0 -0.27028712802556781 -0.44002206955302048 0 -0.28620792983366777 -0.44117103379144762 0 -0.28620792983366777 -0.44117103379144762 0 -0.29665932401628559 -0.4519210782245337 0 -0.28665438526504589 -0.45880473289459528 0 -0.28620792983366777 -0.44117103379144762 0 -0.29665932401628559 -0.4519210782245337 0 -0.30286215921622678 -0.44210958888768459 0 -0.27139768853026319 -0.45350369328431828 0 -0.28620792983366777 -0.44117103379144762 0 -0.28665438526504589 -0.45880473289459528 0 -0.29829421210859891 -0.43220714453990322 0 -0.28620792983366777 -0.44117103379144762 0 -0.30286215921622678 -0.44210958888768459 0 -0.28665438526504589 -0.45880473289459528 0 -0.28928475434474438 -0.47221518125428918 0 -0.27499686831673542 -0.4693274569635677 0 -0.28665438526504589 -0.45880473289459528 0 -0.30029558254474148 -0.46389675841394568 0 -0.28928475434474438 -0.47221518125428918 0 -0.29665932401628559 -0.4519210782245337 0 -0.28665438526504589 -0.45880473289459528 0 -0.30029558254474148 -0.46389675841394568 0 -0.29665932401628559 -0.4519210782245337 0 -0.30029558254474148 -0.46389675841394568 0 -0.31044958537109257 -0.45255960714027171 0 -0.31333683559556219 -0.46686726284272168 0 -0.30029558254474148 -0.46389675841394568 0 -0.31044958537109257 -0.45255960714027171 0 -0.31385630152515048 -0.44199725430357722 0 -0.31044958537109257 -0.45255960714027171 0 -0.30286215921622678 -0.44210958888768459 0 -0.31385630152515048 -0.44199725430357722 0 -0.31073004788055869 -0.43167813375356229 0 -0.30286215921622678 -0.44210958888768459 0 -0.29665932401628559 -0.4519210782245337 0 -0.31044958537109257 -0.45255960714027171 0 -0.30286215921622678 -0.44210958888768459 0 -0.32006214434654462 -0.5 0 -0.30503152439861497 -0.48190266549989857 0 -0.29355140103266869 -0.5 0 -0.30029558254474148 -0.46389675841394568 0 -0.30503152439861497 -0.48190266549989857 0 -0.28928475434474438 -0.47221518125428918 0 -0.31333683559556219 -0.46686726284272168 0 -0.30029558254474148 -0.46389675841394568 0 -0.30503152439861497 -0.48190266549989857 0 -0.30503152439861497 -0.48190266549989857 0 -0.28928475434474438 -0.47221518125428918 0 -0.27944541119858413 -0.48714429249943858 0 -0.30503152439861497 -0.48190266549989857 0 -0.29355140103266869 -0.5 0 -0.27944541119858413 -0.48714429249943858 0 -0.26704065771879287 -0.5 0 -0.27944541119858413 -0.48714429249943858 0 -0.26377894750559139 -0.4817410620592058 0 -0.29355140103266869 -0.5 0 -0.26704065771879287 -0.5 0 -0.27944541119858413 -0.48714429249943858 0 -0.27944541119858413 -0.48714429249943858 0 -0.27499686831673542 -0.4693274569635677 0 -0.26377894750559139 -0.4817410620592058 0 -0.28928475434474438 -0.47221518125428918 0 -0.27944541119858413 -0.48714429249943858 0 -0.27499686831673542 -0.4693274569635677 0 -0.25823473398406083 -0.46259190486934387 0 -0.27499686831673542 -0.4693274569635677 0 -0.26377894750559139 -0.4817410620592058 0 -0.25823473398406083 -0.46259190486934387 0 -0.26377894750559139 -0.4817410620592058 0 -0.24769273461092009 -0.47775775457152359 0 -0.26704065771879287 -0.5 0 -0.26377894750559139 -0.4817410620592058 0 -0.24052991440491719 -0.5 0 -0.26377894750559139 -0.4817410620592058 0 -0.24052991440491719 -0.5 0 -0.24769273461092009 -0.47775775457152359 0 -0.24052991440491719 -0.5 0 -0.24769273461092009 -0.47775775457152359 0 -0.2238647917587385 -0.47868470982513422 0 -0.24769273461092009 -0.47775775457152359 0 -0.2238647917587385 -0.47868470982513422 0 -0.2253613830811457 -0.45761053917550981 0 -0.24052991440491719 -0.5 0 -0.2238647917587385 -0.47868470982513422 0 -0.2140191710910414 -0.49999999999999972 0 -0.25298523514652932 -0.43702750984159111 0 -0.23591515519085041 -0.44398209369878189 0 -0.2398656426857485 -0.46066492981847512 0 -0.25298523514652932 -0.43702750984159111 0 -0.2398656426857485 -0.46066492981847512 0 -0.25823473398406083 -0.46259190486934387 0 -0.24769273461092009 -0.47775775457152359 0 -0.2398656426857485 -0.46066492981847512 0 -0.24769273461092009 -0.47775775457152359 0 -0.2398656426857485 -0.46066492981847512 0 -0.2253613830811457 -0.45761053917550981 0 -0.24769273461092009 -0.47775775457152359 0 -0.2253613830811457 -0.45761053917550981 0 -0.2238647917587385 -0.47868470982513422 0 -0.2253613830811457 -0.45761053917550981 0 -0.20999779143719291 -0.46083672605530768 0 -0.23591515519085041 -0.44398209369878189 0 -0.2398656426857485 -0.46066492981847512 0 -0.2253613830811457 -0.45761053917550981 0 -0.23591515519085041 -0.44398209369878189 0 -0.2253613830811457 -0.45761053917550981 0 -0.22549954629610269 -0.43500765649169948 0 -0.2253613830811457 -0.45761053917550981 0 -0.20999779143719291 -0.46083672605530768 0 -0.2030300315513712 -0.43746332377949593 0 -0.2253613830811457 -0.45761053917550981 0 -0.2030300315513712 -0.43746332377949593 0 -0.20999779143719291 -0.46083672605530768 0 -0.19715634076338631 -0.4518064782969281 0 -0.2030300315513712 -0.43746332377949593 0 -0.2253613830811457 -0.45761053917550981 0 -0.2030300315513712 -0.43746332377949593 0 -0.22549954629610269 -0.43500765649169948 0 -0.20999779143719291 -0.46083672605530768 0 -0.19715634076338631 -0.4518064782969281 0 -0.2055877559272139 -0.47590323914846377 0 -0.19715634076338631 -0.4518064782969281 0 -0.2055877559272139 -0.47590323914846377 0 -0.19179305986328829 -0.46711759196808689 0 -0.19715634076338631 -0.4518064782969281 0 -0.2055877559272139 -0.47590323914846377 0 -0.19179305986328829 -0.46711759196808689 0 -0.19715634076338631 -0.4518064782969281 0 -0.184822707974968 -0.45592422963236362 0 -0.19715634076338631 -0.4518064782969281 0 -0.2030300315513712 -0.43746332377949593 0 -0.18872492559955881 -0.42770971744539221 0 -0.19715634076338631 -0.4518064782969281 0 -0.18872492559955881 -0.42770971744539221 0 -0.19715634076338631 -0.4518064782969281 0 -0.1870173619903012 -0.44414077979923022 0 -0.18872492559955881 -0.42770971744539221 0 -0.19715634076338631 -0.4518064782969281 0 -0.184822707974968 -0.45592422963236362 0 -0.1870173619903012 -0.44414077979923022 0 -0.2140191710910414 -0.49999999999999972 0 -0.2055877559272139 -0.47590323914846377 0 -0.2140191710910414 -0.49999999999999972 0 -0.2055877559272139 -0.47590323914846377 0 -0.1915741566131953 -0.48274482478870012 0 -0.2238647917587385 -0.47868470982513422 0 -0.2140191710910414 -0.49999999999999972 0 -0.2055877559272139 -0.47590323914846377 0 -0.2238647917587385 -0.47868470982513422 0 -0.20999779143719291 -0.46083672605530768 0 -0.2055877559272139 -0.47590323914846377 0 -0.19179305986328829 -0.46711759196808689 0 -0.2055877559272139 -0.47590323914846377 0 -0.1915741566131953 -0.48274482478870012 0 -0.19179305986328829 -0.46711759196808689 0 -0.1915741566131953 -0.48274482478870012 0 -0.17982433803767831 -0.46920918797397909 0 -0.2140191710910414 -0.49999999999999972 0 -0.1915741566131953 -0.48274482478870012 0 -0.1841956238768391 -0.5 0 -0.1915741566131953 -0.48274482478870012 0 -0.1841956238768391 -0.5 0 -0.17247084166804699 -0.48396500267038112 0 -0.1841956238768391 -0.5 0 -0.17247084166804699 -0.48396500267038112 0 -0.15437207666263669 -0.50000000000000022 0 -0.15669106487963419 -0.47716915445828201 0 -0.17247084166804699 -0.48396500267038112 0 -0.15437207666263669 -0.50000000000000022 0 -0.15669106487963419 -0.47716915445828201 0 -0.17247084166804699 -0.48396500267038112 0 -0.1680230602922401 -0.4683158249620154 0 -0.17247084166804699 -0.48396500267038112 0 -0.17982433803767831 -0.46920918797397909 0 -0.1680230602922401 -0.4683158249620154 0 -0.1915741566131953 -0.48274482478870012 0 -0.17247084166804699 -0.48396500267038112 0 -0.17982433803767831 -0.46920918797397909 0 -0.19179305986328829 -0.46711759196808689 0 -0.17982433803767831 -0.46920918797397909 0 -0.184822707974968 -0.45592422963236362 0 -0.17982433803767831 -0.46920918797397909 0 -0.184822707974968 -0.45592422963236362 0 -0.17211900377920919 -0.45689747079087062 0 -0.17982433803767831 -0.46920918797397909 0 -0.17211900377920919 -0.45689747079087062 0 -0.1680230602922401 -0.4683158249620154 0 -0.1870173619903012 -0.44414077979923022 0 -0.17843006300647921 -0.44542980211747812 0 -0.1823118302108766 -0.43680876328769058 0 -0.184822707974968 -0.45592422963236362 0 -0.1870173619903012 -0.44414077979923022 0 -0.17843006300647921 -0.44542980211747812 0 -0.17211900377920919 -0.45689747079087062 0 -0.17843006300647921 -0.44542980211747812 0 -0.16919262628862339 -0.44362555979768409 0 -0.184822707974968 -0.45592422963236362 0 -0.17211900377920919 -0.45689747079087062 0 -0.17843006300647921 -0.44542980211747812 0 -0.17843006300647921 -0.44542980211747812 0 -0.16919262628862339 -0.44362555979768409 0 -0.17507497024716731 -0.42995475378866199 0 -0.1590100530966318 -0.45433830891656402 0 -0.148881704538534 -0.44296791951084241 0 -0.1613290413136293 -0.43150746337484569 0 -0.1590100530966318 -0.45433830891656402 0 -0.1613290413136293 -0.43150746337484569 0 -0.16919262628862339 -0.44362555979768409 0 -0.1590100530966318 -0.45433830891656402 0 -0.1613290413136293 -0.43150746337484569 0 -0.17211900377920919 -0.45689747079087062 0 -0.16919262628862339 -0.44362555979768409 0 -0.1590100530966318 -0.45433830891656402 0 -0.15669106487963419 -0.47716915445828201 0 -0.1680230602922401 -0.4683158249620154 0 -0.1590100530966318 -0.45433830891656402 0 -0.15669106487963419 -0.47716915445828201 0 -0.1590100530966318 -0.45433830891656402 0 -0.17211900377920919 -0.45689747079087062 0 -0.1680230602922401 -0.4683158249620154 0 -0.1590100530966318 -0.45433830891656402 0 -0.15669106487963419 -0.47716915445828201 0 -0.1590100530966318 -0.45433830891656402 0 -0.1472923250818238 -0.46077477567243558 0 -0.1590100530966318 -0.45433830891656402 0 -0.1472923250818238 -0.46077477567243558 0 -0.148881704538534 -0.44296791951084241 0 -0.1472923250818238 -0.46077477567243558 0 -0.148881704538534 -0.44296791951084241 0 -0.13194602454298601 -0.43962244526902572 0 -0.13194602454298601 -0.43962244526902572 0 -0.13077987840644981 -0.46069854066347632 0 -0.11615585050415531 -0.45102464773050138 0 -0.1472923250818238 -0.46077477567243558 0 -0.13194602454298601 -0.43962244526902572 0 -0.1472923250818238 -0.46077477567243558 0 -0.13077987840644981 -0.46069854066347632 0 -0.13742439756140509 -0.48004162281001828 0 -0.1472923250818238 -0.46077477567243558 0 -0.13194602454298601 -0.43962244526902572 0 -0.13077987840644981 -0.46069854066347632 0 -0.13742439756140509 -0.48004162281001828 0 -0.12108079434187891 -0.47202921183540031 0 -0.1206292342060253 -0.48641385964910883 0 -0.13077987840644981 -0.46069854066347632 0 -0.13742439756140509 -0.48004162281001828 0 -0.12108079434187891 -0.47202921183540031 0 -0.13742439756140509 -0.48004162281001828 0 -0.131118449396015 -0.5 0 -0.1206292342060253 -0.48641385964910883 0 -0.15669106487963419 -0.47716915445828201 0 -0.13742439756140509 -0.48004162281001828 0 -0.15437207666263669 -0.50000000000000022 0 -0.15669106487963419 -0.47716915445828201 0 -0.15437207666263669 -0.50000000000000022 0 -0.13742439756140509 -0.48004162281001828 0 -0.131118449396015 -0.5 0 -0.15437207666263669 -0.50000000000000022 0 -0.15669106487963419 -0.47716915445828201 0 -0.1472923250818238 -0.46077477567243558 0 -0.13742439756140509 -0.48004162281001828 0 -0.13678826443221431 -0.39755243580027871 0 -0.14931675495270949 -0.41057852288770358 0 -0.15761740849691311 -0.38818340141201402 0 -0.1369224961495438 -0.38192389563367207 0 -0.13678826443221431 -0.39755243580027871 0 -0.15761740849691311 -0.38818340141201402 0 -0.1369224961495438 -0.38192389563367207 0 -0.15761740849691311 -0.38818340141201402 0 -0.148308101659717 -0.36695316985008092 0 -0.1369224961495438 -0.38192389563367207 0 -0.12526638733901391 -0.39147447277512609 0 -0.13678826443221431 -0.39755243580027871 0 -0.1369224961495438 -0.38192389563367207 0 -0.1303219987982592 -0.3665496015062627 0 -0.12201267174342199 -0.37938718301114999 0 -0.1369224961495438 -0.38192389563367207 0 -0.12526638733901391 -0.39147447277512609 0 -0.12201267174342199 -0.37938718301114999 0 -0.12526638733901391 -0.39147447277512609 0 -0.13678826443221431 -0.39755243580027871 0 -0.12592730430259419 -0.40432488328170318 0 -0.13678826443221431 -0.39755243580027871 0 -0.12592730430259419 -0.40432488328170318 0 -0.1345256340888337 -0.41538851269275129 0 -0.13678826443221431 -0.39755243580027871 0 -0.1345256340888337 -0.41538851269275129 0 -0.14931675495270949 -0.41057852288770358 0 -0.12592730430259419 -0.40432488328170318 0 -0.1345256340888337 -0.41538851269275129 0 -0.1165997240041481 -0.41847011486561592 0 -0.13194602454298601 -0.43962244526902572 0 -0.1345256340888337 -0.41538851269275129 0 -0.14483107865759889 -0.42859660432134139 0 -0.13194602454298601 -0.43962244526902572 0 -0.1345256340888337 -0.41538851269275129 0 -0.1165997240041481 -0.41847011486561592 0 -0.148881704538534 -0.44296791951084241 0 -0.14483107865759889 -0.42859660432134139 0 -0.1613290413136293 -0.43150746337484569 0 -0.148881704538534 -0.44296791951084241 0 -0.13194602454298601 -0.43962244526902572 0 -0.14483107865759889 -0.42859660432134139 0 -0.14483107865759889 -0.42859660432134139 0 -0.14931675495270949 -0.41057852288770358 0 -0.1613290413136293 -0.43150746337484569 0 -0.1345256340888337 -0.41538851269275129 0 -0.14483107865759889 -0.42859660432134139 0 -0.14931675495270949 -0.41057852288770358 0 -0.16364802953062679 -0.40867661783312748 0 -0.1613290413136293 -0.43150746337484569 0 -0.14931675495270949 -0.41057852288770358 0 -0.16364802953062679 -0.40867661783312748 0 -0.1613290413136293 -0.43150746337484569 0 -0.16364802953062679 -0.40867661783312748 0 -0.1613290413136293 -0.43150746337484569 0 -0.17507497024716731 -0.42995475378866199 0 -0.16919262628862339 -0.44362555979768409 0 -0.1613290413136293 -0.43150746337484569 0 -0.17507497024716731 -0.42995475378866199 0 -0.1870173619903012 -0.44414077979923022 0 -0.1823118302108766 -0.43680876328769058 0 -0.18872492559955881 -0.42770971744539221 0 -0.17843006300647921 -0.44542980211747812 0 -0.17507497024716731 -0.42995475378866199 0 -0.1823118302108766 -0.43680876328769058 0 -0.17507497024716731 -0.42995475378866199 0 -0.1806986800215967 -0.4173161083834821 0 -0.18872492559955881 -0.42770971744539221 0 -0.17507497024716731 -0.42995475378866199 0 -0.1823118302108766 -0.43680876328769058 0 -0.18872492559955881 -0.42770971744539221 0 -0.1806986800215967 -0.4173161083834821 0 -0.18228064084688081 -0.39610998094782668 0 -0.19209360216251761 -0.40824625574224149 0 -0.16364802953062679 -0.40867661783312748 0 -0.17507497024716731 -0.42995475378866199 0 -0.1806986800215967 -0.4173161083834821 0 -0.16364802953062679 -0.40867661783312748 0 -0.1806986800215967 -0.4173161083834821 0 -0.18228064084688081 -0.39610998094782668 0 -0.16364802953062679 -0.40867661783312748 0 -0.18228064084688081 -0.39610998094782668 0 -0.15761740849691311 -0.38818340141201402 0 -0.14931675495270949 -0.41057852288770358 0 -0.16364802953062679 -0.40867661783312748 0 -0.15761740849691311 -0.38818340141201402 0 -0.15761740849691311 -0.38818340141201402 0 -0.183603859264966 -0.3766054584014627 0 -0.1661931572416451 -0.36889933283976362 0 -0.18228064084688081 -0.39610998094782668 0 -0.15761740849691311 -0.38818340141201402 0 -0.183603859264966 -0.3766054584014627 0 -0.18228064084688081 -0.39610998094782668 0 -0.183603859264966 -0.3766054584014627 0 -0.20216487974800659 -0.3829991661375407 0 -0.18228064084688081 -0.39610998094782668 0 -0.20343785588976751 -0.39944649130885712 0 -0.19209360216251761 -0.40824625574224149 0 -0.18228064084688081 -0.39610998094782668 0 -0.20216487974800659 -0.3829991661375407 0 -0.20343785588976751 -0.39944649130885712 0 -0.20343785588976751 -0.39944649130885712 0 -0.21350444502423929 -0.40864471589815532 0 -0.22035180610084079 -0.39356726900625483 0 -0.20216487974800659 -0.3829991661375407 0 -0.20343785588976751 -0.39944649130885712 0 -0.22035180610084079 -0.39356726900625483 0 -0.20216487974800659 -0.3829991661375407 0 -0.22035180610084079 -0.39356726900625483 0 -0.219169022554425 -0.37113875127287832 0 -0.1806986800215967 -0.4173161083834821 0 -0.2030300315513712 -0.43746332377949593 0 -0.18872492559955881 -0.42770971744539221 0 -0.1806986800215967 -0.4173161083834821 0 -0.2030300315513712 -0.43746332377949593 0 -0.2030300315513712 -0.43746332377949593 0 -0.19369636752838881 -0.41903658901391427 0 -0.2031687955665597 -0.42354741618771741 0 -0.1806986800215967 -0.4173161083834821 0 -0.2030300315513712 -0.43746332377949593 0 -0.19369636752838881 -0.41903658901391427 0 -0.19369636752838881 -0.41903658901391427 0 -0.20299923128825029 -0.41376529568937459 0 -0.2031687955665597 -0.42354741618771741 0 -0.1806986800215967 -0.4173161083834821 0 -0.19369636752838881 -0.41903658901391427 0 -0.19209360216251761 -0.40824625574224149 0 -0.19369636752838881 -0.41903658901391427 0 -0.19209360216251761 -0.40824625574224149 0 -0.20299923128825029 -0.41376529568937459 0 -0.20343785588976751 -0.39944649130885712 0 -0.19209360216251761 -0.40824625574224149 0 -0.20299923128825029 -0.41376529568937459 0 -0.20343785588976751 -0.39944649130885712 0 -0.20299923128825029 -0.41376529568937459 0 -0.21350444502423929 -0.40864471589815532 0 -0.21350444502423929 -0.40864471589815532 0 -0.21294955189822859 -0.42392445626808489 0 -0.2277837799441092 -0.41252006721820539 0 -0.20299923128825029 -0.41376529568937459 0 -0.2031687955665597 -0.42354741618771741 0 -0.21294955189822859 -0.42392445626808489 0 -0.20299923128825029 -0.41376529568937459 0 -0.21350444502423929 -0.40864471589815532 0 -0.21294955189822859 -0.42392445626808489 0 -0.2030300315513712 -0.43746332377949593 0 -0.21294955189822859 -0.42392445626808489 0 -0.22549954629610269 -0.43500765649169948 0 -0.2030300315513712 -0.43746332377949593 0 -0.2031687955665597 -0.42354741618771741 0 -0.21294955189822859 -0.42392445626808489 0 -0.23591515519085041 -0.44398209369878189 0 -0.22549954629610269 -0.43500765649169948 0 -0.23735783041644329 -0.42609093398936743 0 -0.22549954629610269 -0.43500765649169948 0 -0.2277837799441092 -0.41252006721820539 0 -0.23735783041644329 -0.42609093398936743 0 -0.21294955189822859 -0.42392445626808489 0 -0.22549954629610269 -0.43500765649169948 0 -0.2277837799441092 -0.41252006721820539 0 -0.2277837799441092 -0.41252006721820539 0 -0.24694430377570939 -0.41295507854145541 0 -0.2277837799441092 -0.41252006721820539 0 -0.24694430377570939 -0.41295507854145541 0 -0.23735783041644329 -0.42609093398936743 0 -0.2277837799441092 -0.41252006721820539 0 -0.24694430377570939 -0.41295507854145541 0 -0.2359891007147569 -0.39914414181493052 0 -0.25298523514652932 -0.43702750984159111 0 -0.24694430377570939 -0.41295507854145541 0 -0.23735783041644329 -0.42609093398936743 0 -0.25298523514652932 -0.43702750984159111 0 -0.23591515519085041 -0.44398209369878189 0 -0.23735783041644329 -0.42609093398936743 0 -0.22035180610084079 -0.39356726900625483 0 -0.23802591309349369 -0.38358476956933441 0 -0.219169022554425 -0.37113875127287832 0 -0.22035180610084079 -0.39356726900625483 0 -0.2359891007147569 -0.39914414181493052 0 -0.23802591309349369 -0.38358476956933441 0 -0.21350444502423929 -0.40864471589815532 0 -0.2277837799441092 -0.41252006721820539 0 -0.22035180610084079 -0.39356726900625483 0 -0.2277837799441092 -0.41252006721820539 0 -0.22035180610084079 -0.39356726900625483 0 -0.2359891007147569 -0.39914414181493052 0 -0.2359891007147569 -0.39914414181493052 0 -0.2487824818667288 -0.3954643368039899 0 -0.23802591309349369 -0.38358476956933441 0 -0.24694430377570939 -0.41295507854145541 0 -0.2359891007147569 -0.39914414181493052 0 -0.2487824818667288 -0.3954643368039899 0 -0.26050234447883253 -0.38027693877573482 0 -0.2487824818667288 -0.3954643368039899 0 -0.23802591309349369 -0.38358476956933441 0 -0.26050234447883253 -0.38027693877573482 0 -0.23802591309349369 -0.38358476956933441 0 -0.24817767477162081 -0.36986654917455902 0 -0.23802591309349369 -0.38358476956933441 0 -0.24817767477162081 -0.36986654917455902 0 -0.23583729862822109 -0.36574384613307409 0 -0.24817767477162081 -0.36986654917455902 0 -0.23583729862822109 -0.36574384613307409 0 -0.24850069890613241 -0.35473287875334369 0 -0.23583729862822109 -0.36574384613307409 0 -0.219169022554425 -0.37113875127287832 0 -0.22531318381543361 -0.34939628189525529 0 -0.23802591309349369 -0.38358476956933441 0 -0.23583729862822109 -0.36574384613307409 0 -0.219169022554425 -0.37113875127287832 0 -0.22531318381543361 -0.34939628189525529 0 -0.24850069890613241 -0.35473287875334369 0 -0.24219101746094579 -0.34438554910399921 0 -0.23583729862822109 -0.36574384613307409 0 -0.22531318381543361 -0.34939628189525529 0 -0.24850069890613241 -0.35473287875334369 0 -0.22531318381543361 -0.34939628189525529 0 -0.24850069890613241 -0.35473287875334369 0 -0.25445926970156468 -0.34270101061729968 0 -0.24850069890613241 -0.35473287875334369 0 -0.24219101746094579 -0.34438554910399921 0 -0.25445926970156468 -0.34270101061729968 0 -0.24219101746094579 -0.34438554910399921 0 -0.2460450098649074 -0.33743905859998191 0 -0.25207330520806498 -0.33378255792528982 0 -0.2460450098649074 -0.33743905859998191 0 -0.24306356592407591 -0.32787829483024122 0 -0.2348359590034956 -0.33686915078515089 0 -0.24306356592407591 -0.32787829483024122 0 -0.23163603200856511 -0.32708080208212859 0 -0.2460450098649074 -0.33743905859998191 0 -0.2348359590034956 -0.33686915078515089 0 -0.24306356592407591 -0.32787829483024122 0 -0.24219101746094579 -0.34438554910399921 0 -0.2460450098649074 -0.33743905859998191 0 -0.2348359590034956 -0.33686915078515089 0 -0.25273748935779161 -0.32224337373924072 0 -0.24326482791746179 -0.31394285089519419 0 -0.24426682308287331 -0.30533572025667649 0 -0.25273748935779161 -0.32224337373924072 0 -0.24426682308287331 -0.30533572025667649 0 -0.25273748935779161 -0.32224337373924072 0 -0.24326482791746179 -0.31394285089519419 0 -0.2440208243134171 -0.32058552998791068 0 -0.25273748935779161 -0.32224337373924072 0 -0.24306356592407591 -0.32787829483024122 0 -0.2440208243134171 -0.32058552998791068 0 -0.25207330520806498 -0.33378255792528982 0 -0.25273748935779161 -0.32224337373924072 0 -0.24306356592407591 -0.32787829483024122 0 -0.24306356592407591 -0.32787829483024122 0 -0.2440208243134171 -0.32058552998791068 0 -0.23701741405433899 -0.31827760048696663 0 -0.24306356592407591 -0.32787829483024122 0 -0.23701741405433899 -0.31827760048696663 0 -0.23163603200856511 -0.32708080208212859 0 -0.24326482791746179 -0.31394285089519419 0 -0.23701741405433899 -0.31827760048696663 0 -0.2384772558931193 -0.30928307653082621 0 -0.24326482791746179 -0.31394285089519419 0 -0.2440208243134171 -0.32058552998791068 0 -0.23701741405433899 -0.31827760048696663 0 -0.22244826701882919 -0.32070202864358233 0 -0.22802593536356699 -0.30882837184141948 0 -0.21110805984082151 -0.30983785689108939 0 -0.23701741405433899 -0.31827760048696663 0 -0.22244826701882919 -0.32070202864358233 0 -0.22802593536356699 -0.30882837184141948 0 -0.23701741405433899 -0.31827760048696663 0 -0.23163603200856511 -0.32708080208212859 0 -0.22244826701882919 -0.32070202864358233 0 -0.23163603200856511 -0.32708080208212859 0 -0.22244826701882919 -0.32070202864358233 0 -0.22079431421521131 -0.33353493235345111 0 -0.22531318381543361 -0.34939628189525529 0 -0.2348359590034956 -0.33686915078515089 0 -0.22079431421521131 -0.33353493235345111 0 -0.22531318381543361 -0.34939628189525529 0 -0.24219101746094579 -0.34438554910399921 0 -0.2348359590034956 -0.33686915078515089 0 -0.2348359590034956 -0.33686915078515089 0 -0.23163603200856511 -0.32708080208212859 0 -0.22079431421521131 -0.33353493235345111 0 -0.22079431421521131 -0.33353493235345111 0 -0.20839645480677241 -0.32403064402179738 0 -0.20212566872473489 -0.34405968503716688 0 -0.22531318381543361 -0.34939628189525529 0 -0.22079431421521131 -0.33353493235345111 0 -0.20212566872473489 -0.34405968503716688 0 -0.22244826701882919 -0.32070202864358233 0 -0.20839645480677241 -0.32403064402179738 0 -0.21110805984082151 -0.30983785689108939 0 -0.22244826701882919 -0.32070202864358233 0 -0.22079431421521131 -0.33353493235345111 0 -0.20839645480677241 -0.32403064402179738 0 -0.20839645480677241 -0.32403064402179738 0 -0.19575919956014079 -0.31702437624003538 0 -0.21110805984082151 -0.30983785689108939 0 -0.20839645480677241 -0.32403064402179738 0 -0.19575919956014079 -0.31702437624003538 0 -0.19562896033857519 -0.33020038185646122 0 -0.19575919956014079 -0.31702437624003538 0 -0.19562896033857519 -0.33020038185646122 0 -0.18477851095256179 -0.32477614194451959 0 -0.20212566872473489 -0.34405968503716688 0 -0.1789381536340362 -0.33872308817907848 0 -0.19562896033857519 -0.33020038185646122 0 -0.20212566872473489 -0.34405968503716688 0 -0.1789381536340362 -0.33872308817907848 0 -0.20839645480677241 -0.32403064402179738 0 -0.19562896033857519 -0.33020038185646122 0 -0.20212566872473489 -0.34405968503716688 0 -0.20212566872473489 -0.34405968503716688 0 -0.2037839996862793 -0.36234410805543599 0 -0.1863350517553729 -0.35962674217565882 0 -0.20212566872473489 -0.34405968503716688 0 -0.1863350517553729 -0.35962674217565882 0 -0.1789381536340362 -0.33872308817907848 0 -0.183603859264966 -0.3766054584014627 0 -0.20216487974800659 -0.3829991661375407 0 -0.2037839996862793 -0.36234410805543599 0 -0.183603859264966 -0.3766054584014627 0 -0.2037839996862793 -0.36234410805543599 0 -0.1863350517553729 -0.35962674217565882 0 -0.219169022554425 -0.37113875127287832 0 -0.22531318381543361 -0.34939628189525529 0 -0.2037839996862793 -0.36234410805543599 0 -0.20216487974800659 -0.3829991661375407 0 -0.219169022554425 -0.37113875127287832 0 -0.2037839996862793 -0.36234410805543599 0 -0.22531318381543361 -0.34939628189525529 0 -0.20212566872473489 -0.34405968503716688 0 -0.2037839996862793 -0.36234410805543599 0 -0.22531318381543361 -0.34939628189525529 0 -0.20212566872473489 -0.34405968503716688 0 -0.24465976002352091 -0.25387891845332877 0 -0.23199225124923151 -0.26692477658714647 0 -0.21854221021918649 -0.25236034283526498 0 -0.23199225124923151 -0.26692477658714647 0 -0.21864709985809599 -0.27150291036173302 0 -0.21854221021918649 -0.25236034283526498 0 -0.24465976002352091 -0.25387891845332877 0 -0.2444485511135471 -0.27534046621033159 0 -0.23199225124923151 -0.26692477658714647 0 -0.25958550566062261 -0.27102626557679149 0 -0.24465976002352091 -0.25387891845332877 0 -0.2444485511135471 -0.27534046621033159 0 -0.2444485511135471 -0.27534046621033159 0 -0.23199225124923151 -0.26692477658714647 0 -0.23366363503180709 -0.28154124507507411 0 -0.2197277065850177 -0.2872169177591285 0 -0.23366363503180709 -0.28154124507507411 0 -0.21864709985809599 -0.27150291036173302 0 -0.23199225124923151 -0.26692477658714647 0 -0.23366363503180709 -0.28154124507507411 0 -0.21864709985809599 -0.27150291036173302 0 -0.2197277065850177 -0.2872169177591285 0 -0.23366363503180709 -0.28154124507507411 0 -0.24011613505684479 -0.30107681213347393 0 -0.2197277065850177 -0.2872169177591285 0 -0.24011613505684479 -0.30107681213347393 0 -0.2197277065850177 -0.2872169177591285 0 -0.24011613505684479 -0.30107681213347393 0 -0.2201073871300871 -0.30044142834658671 0 -0.2444485511135471 -0.27534046621033159 0 -0.23366363503180709 -0.28154124507507411 0 -0.24732420154209239 -0.29033586459568173 0 -0.23366363503180709 -0.28154124507507411 0 -0.24732420154209239 -0.29033586459568173 0 -0.24011613505684479 -0.30107681213347393 0 -0.25608276685525683 -0.28295324223861612 0 -0.2444485511135471 -0.27534046621033159 0 -0.24732420154209239 -0.29033586459568173 0 -0.26050456352867191 -0.3149367065078193 0 -0.24011613505684479 -0.30107681213347393 0 -0.24426682308287331 -0.30533572025667649 0 -0.25485564421046719 -0.30132045870319019 0 -0.24732420154209239 -0.29033586459568173 0 -0.24011613505684479 -0.30107681213347393 0 -0.24011613505684479 -0.30107681213347393 0 -0.2384772558931193 -0.30928307653082621 0 -0.22802593536356699 -0.30882837184141948 0 -0.24326482791746179 -0.31394285089519419 0 -0.24426682308287331 -0.30533572025667649 0 -0.2384772558931193 -0.30928307653082621 0 -0.24011613505684479 -0.30107681213347393 0 -0.24426682308287331 -0.30533572025667649 0 -0.2384772558931193 -0.30928307653082621 0 -0.23701741405433899 -0.31827760048696663 0 -0.2384772558931193 -0.30928307653082621 0 -0.22802593536356699 -0.30882837184141948 0 -0.22802593536356699 -0.30882837184141948 0 -0.2201073871300871 -0.30044142834658671 0 -0.21110805984082151 -0.30983785689108939 0 -0.24011613505684479 -0.30107681213347393 0 -0.22802593536356699 -0.30882837184141948 0 -0.2201073871300871 -0.30044142834658671 0 -0.2201073871300871 -0.30044142834658671 0 -0.21110805984082151 -0.30983785689108939 0 -0.20155909880418441 -0.29524718310782239 0 -0.21110805984082151 -0.30983785689108939 0 -0.2000775247532616 -0.30687463122530689 0 -0.20155909880418441 -0.29524718310782239 0 -0.19575919956014079 -0.31702437624003538 0 -0.21110805984082151 -0.30983785689108939 0 -0.2000775247532616 -0.30687463122530689 0 -0.18961770926909149 -0.30481471110084102 0 -0.20155909880418441 -0.29524718310782239 0 -0.1798976030385912 -0.29461474791537873 0 -0.19575919956014079 -0.31702437624003538 0 -0.2000775247532616 -0.30687463122530689 0 -0.18961770926909149 -0.30481471110084102 0 -0.19575919956014079 -0.31702437624003538 0 -0.18961770926909149 -0.30481471110084102 0 -0.1803928959391416 -0.31521744924658562 0 -0.2000775247532616 -0.30687463122530689 0 -0.18961770926909149 -0.30481471110084102 0 -0.20155909880418441 -0.29524718310782239 0 -0.19933927811319041 -0.27335702338478318 0 -0.1798976030385912 -0.29461474791537873 0 -0.20155909880418441 -0.29524718310782239 0 -0.19933927811319041 -0.27335702338478318 0 -0.1798976030385912 -0.29461474791537873 0 -0.2197277065850177 -0.2872169177591285 0 -0.20155909880418441 -0.29524718310782239 0 -0.19933927811319041 -0.27335702338478318 0 -0.2197277065850177 -0.2872169177591285 0 -0.2201073871300871 -0.30044142834658671 0 -0.20155909880418441 -0.29524718310782239 0 -0.21864709985809599 -0.27150291036173302 0 -0.19933927811319041 -0.27335702338478318 0 -0.21854221021918649 -0.25236034283526498 0 -0.2197277065850177 -0.2872169177591285 0 -0.21864709985809599 -0.27150291036173302 0 -0.19933927811319041 -0.27335702338478318 0 -0.2197277065850177 -0.2872169177591285 0 -0.19933927811319041 -0.27335702338478318 0 -0.19672455084482071 -0.27157955221738023 0 -0.19563648814007639 -0.2627950405098789 0 -0.1773613401945949 -0.28300380337564962 0 -0.19672455084482071 -0.27157955221738023 0 -0.19933927811319041 -0.27335702338478318 0 -0.1773613401945949 -0.28300380337564962 0 -0.19672455084482071 -0.27157955221738023 0 -0.19933927811319041 -0.27335702338478318 0 -0.19563648814007639 -0.2627950405098789 0 -0.19672455084482071 -0.27157955221738023 0 -0.19933927811319041 -0.27335702338478318 0 -0.19933927811319041 -0.27335702338478318 0 -0.19563648814007639 -0.2627950405098789 0 -0.2024770003035091 -0.25628481747185139 0 -0.19563648814007639 -0.2627950405098789 0 -0.19160736129165659 -0.25262396586623759 0 -0.18182513936558051 -0.25739227955256888 0 -0.19563648814007639 -0.2627950405098789 0 -0.19160736129165659 -0.25262396586623759 0 -0.2024770003035091 -0.25628481747185139 0 -0.19160736129165659 -0.25262396586623759 0 -0.2024770003035091 -0.25628481747185139 0 -0.19988453840298659 -0.24176205441804 0 -0.19933927811319041 -0.27335702338478318 0 -0.2024770003035091 -0.25628481747185139 0 -0.21854221021918649 -0.25236034283526498 0 -0.2024770003035091 -0.25628481747185139 0 -0.21854221021918649 -0.25236034283526498 0 -0.19988453840298659 -0.24176205441804 0 -0.19933927811319041 -0.27335702338478318 0 -0.21854221021918649 -0.25236034283526498 0 -0.16270034237907721 -0.26451024010365409 0 -0.1689202540561075 -0.25519621835756329 0 -0.15263230708737521 -0.24356194903458239 0 -0.16270034237907721 -0.26451024010365409 0 -0.15585924966824549 -0.27338725763800159 0 -0.15263230708737521 -0.24356194903458239 0 -0.16270034237907721 -0.26451024010365409 0 -0.1689202540561075 -0.25519621835756329 0 -0.17291740387759841 -0.2648938158906885 0 -0.1689202540561075 -0.25519621835756329 0 -0.18182513936558051 -0.25739227955256888 0 -0.1745260775709061 -0.24562280720632229 0 -0.19160736129165659 -0.25262396586623759 0 -0.18182513936558051 -0.25739227955256888 0 -0.1745260775709061 -0.24562280720632229 0 -0.19563648814007639 -0.2627950405098789 0 -0.18182513936558051 -0.25739227955256888 0 -0.18269465011250469 -0.26841637399603913 0 -0.1689202540561075 -0.25519621835756329 0 -0.18182513936558051 -0.25739227955256888 0 -0.17291740387759841 -0.2648938158906885 0 -0.18182513936558051 -0.25739227955256888 0 -0.17291740387759841 -0.2648938158906885 0 -0.18269465011250469 -0.26841637399603913 0 -0.19563648814007639 -0.2627950405098789 0 -0.18269465011250469 -0.26841637399603913 0 -0.1773613401945949 -0.28300380337564962 0 -0.17291740387759841 -0.2648938158906885 0 -0.17526212336935321 -0.27297056277525461 0 -0.1680750992927145 -0.27556825783864097 0 -0.19563648814007639 -0.2627950405098789 0 -0.1773613401945949 -0.28300380337564962 0 -0.17291740387759841 -0.2648938158906885 0 -0.17526212336935321 -0.27297056277525461 0 -0.18269465011250469 -0.26841637399603913 0 -0.17526212336935321 -0.27297056277525461 0 -0.18269465011250469 -0.26841637399603913 0 -0.1773613401945949 -0.28300380337564962 0 -0.17526212336935321 -0.27297056277525461 0 -0.1680750992927145 -0.27556825783864097 0 -0.1773613401945949 -0.28300380337564962 0 -0.1680750992927145 -0.27556825783864097 0 -0.1682011228878135 -0.28257539269247411 0 -0.1773613401945949 -0.28300380337564962 0 -0.1680750992927145 -0.27556825783864097 0 -0.1622412594804854 -0.28273310688964581 0 -0.1682011228878135 -0.28257539269247411 0 -0.16270034237907721 -0.26451024010365409 0 -0.17291740387759841 -0.2648938158906885 0 -0.1680750992927145 -0.27556825783864097 0 -0.16270034237907721 -0.26451024010365409 0 -0.1680750992927145 -0.27556825783864097 0 -0.16179622859894191 -0.27503335760685149 0 -0.16270034237907721 -0.26451024010365409 0 -0.16179622859894191 -0.27503335760685149 0 -0.15585924966824549 -0.27338725763800159 0 -0.16179622859894191 -0.27503335760685149 0 -0.1622412594804854 -0.28273310688964581 0 -0.15585924966824549 -0.27338725763800159 0 -0.1680750992927145 -0.27556825783864097 0 -0.16179622859894191 -0.27503335760685149 0 -0.1622412594804854 -0.28273310688964581 0 -0.1622412594804854 -0.28273310688964581 0 -0.16512679258345911 -0.28899640266596011 0 -0.15908619224911419 -0.30321256624142101 0 -0.1622412594804854 -0.28273310688964581 0 -0.15908619224911419 -0.30321256624142101 0 -0.15585924966824549 -0.27338725763800159 0 -0.15908619224911419 -0.30321256624142101 0 -0.15585924966824549 -0.27338725763800159 0 -0.16512679258345911 -0.28899640266596011 0 -0.1773613401945949 -0.28300380337564962 0 -0.15908619224911419 -0.30321256624142101 0 -0.1773613401945949 -0.28300380337564962 0 -0.15908619224911419 -0.30321256624142101 0 -0.16512679258345911 -0.28899640266596011 0 -0.1682011228878135 -0.28257539269247411 0 -0.1773613401945949 -0.28300380337564962 0 -0.1622412594804854 -0.28273310688964581 0 -0.16512679258345911 -0.28899640266596011 0 -0.1682011228878135 -0.28257539269247411 0 -0.1773613401945949 -0.28300380337564962 0 -0.1798976030385912 -0.29461474791537873 0 -0.15908619224911419 -0.30321256624142101 0 -0.19933927811319041 -0.27335702338478318 0 -0.1773613401945949 -0.28300380337564962 0 -0.1798976030385912 -0.29461474791537873 0 -0.1798976030385912 -0.29461474791537873 0 -0.17759103405270391 -0.30762984517719472 0 -0.16045592796399111 -0.3158724724459735 0 -0.18961770926909149 -0.30481471110084102 0 -0.1798976030385912 -0.29461474791537873 0 -0.17759103405270391 -0.30762984517719472 0 -0.18961770926909149 -0.30481471110084102 0 -0.17759103405270391 -0.30762984517719472 0 -0.1803928959391416 -0.31521744924658562 0 -0.1798976030385912 -0.29461474791537873 0 -0.16045592796399111 -0.3158724724459735 0 -0.1798976030385912 -0.29461474791537873 0 -0.15908619224911419 -0.30321256624142101 0 -0.16045592796399111 -0.3158724724459735 0 -0.15908619224911419 -0.30321256624142101 0 -0.16045592796399111 -0.3158724724459735 0 -0.1471380549162328 -0.30532142906175452 0 -0.14032160831301491 -0.30752887986621158 0 -0.14130665940473261 -0.32287327510069419 0 -0.15908619224911419 -0.30321256624142101 0 -0.1471380549162328 -0.30532142906175452 0 -0.14130665940473261 -0.32287327510069419 0 -0.15908619224911419 -0.30321256624142101 0 -0.1471380549162328 -0.30532142906175452 0 -0.1510678287434867 -0.29559461902651829 0 -0.14390798587081549 -0.29739780507392732 0 -0.1471380549162328 -0.30532142906175452 0 -0.1510678287434867 -0.29559461902651829 0 -0.14390798587081549 -0.29739780507392732 0 -0.1471380549162328 -0.30532142906175452 0 -0.14032160831301491 -0.30752887986621158 0 -0.14032160831301491 -0.30752887986621158 0 -0.13439128381467691 -0.29991683468539793 0 -0.13033731665847181 -0.31286393971371201 0 -0.13439128381467691 -0.29991683468539793 0 -0.13033731665847181 -0.31286393971371201 0 -0.12304085188452731 -0.29931348820209958 0 -0.14390798587081549 -0.29739780507392732 0 -0.14032160831301491 -0.30752887986621158 0 -0.13439128381467691 -0.29991683468539793 0 -0.14390798587081549 -0.29739780507392732 0 -0.13439128381467691 -0.29991683468539793 0 -0.14011095662501261 -0.28947786809128212 0 -0.13439128381467691 -0.29991683468539793 0 -0.14011095662501261 -0.28947786809128212 0 -0.12994370463312691 -0.28995419054763111 0 -0.13439128381467691 -0.29991683468539793 0 -0.12994370463312691 -0.28995419054763111 0 -0.12304085188452731 -0.29931348820209958 0 -0.12994370463312691 -0.28995419054763111 0 -0.13687965345326569 -0.27993872332247433 0 -0.1257911728949061 -0.280427018304516 0 -0.12994370463312691 -0.28995419054763111 0 -0.1257911728949061 -0.280427018304516 0 -0.1194571486541455 -0.28746452468861589 0 -0.14011095662501261 -0.28947786809128212 0 -0.12994370463312691 -0.28995419054763111 0 -0.13687965345326569 -0.27993872332247433 0 -0.15908619224911419 -0.30321256624142101 0 -0.15162645984294551 -0.28670064183700439 0 -0.15585924966824549 -0.27338725763800159 0 -0.14011095662501261 -0.28947786809128212 0 -0.1458827091329962 -0.28225219708249882 0 -0.13687965345326569 -0.27993872332247433 0 -0.15908619224911419 -0.30321256624142101 0 -0.1510678287434867 -0.29559461902651829 0 -0.15162645984294551 -0.28670064183700439 0 -0.1458827091329962 -0.28225219708249882 0 -0.1468811506158991 -0.28912565090950809 0 -0.15162645984294551 -0.28670064183700439 0 -0.14011095662501261 -0.28947786809128212 0 -0.1458827091329962 -0.28225219708249882 0 -0.1468811506158991 -0.28912565090950809 0 -0.14390798587081549 -0.29739780507392732 0 -0.1468811506158991 -0.28912565090950809 0 -0.1510678287434867 -0.29559461902651829 0 -0.14390798587081549 -0.29739780507392732 0 -0.14011095662501261 -0.28947786809128212 0 -0.1468811506158991 -0.28912565090950809 0 -0.1468811506158991 -0.28912565090950809 0 -0.1510678287434867 -0.29559461902651829 0 -0.15162645984294551 -0.28670064183700439 0 -0.1458827091329962 -0.28225219708249882 0 -0.15162645984294551 -0.28670064183700439 0 -0.15098162864793119 -0.27663156012407891 0 -0.15162645984294551 -0.28670064183700439 0 -0.15098162864793119 -0.27663156012407891 0 -0.15585924966824549 -0.27338725763800159 0 -0.15098162864793119 -0.27663156012407891 0 -0.1522527558101047 -0.27366235468835692 0 -0.14903370440966179 -0.27344637702894548 0 -0.15098162864793119 -0.27663156012407891 0 -0.1522527558101047 -0.27366235468835692 0 -0.15585924966824549 -0.27338725763800159 0 -0.14903370440966179 -0.27344637702894548 0 -0.1531364405145805 -0.27118422396240138 0 -0.14385763015454139 -0.26954128824380802 0 -0.1522527558101047 -0.27366235468835692 0 -0.15585924966824549 -0.27338725763800159 0 -0.1531364405145805 -0.27118422396240138 0 -0.1522527558101047 -0.27366235468835692 0 -0.14903370440966179 -0.27344637702894548 0 -0.1531364405145805 -0.27118422396240138 0 -0.14903370440966179 -0.27344637702894548 0 -0.14385763015454139 -0.26954128824380802 0 -0.1442805510697899 -0.27562940435382949 0 -0.14385763015454139 -0.26954128824380802 0 -0.1442805510697899 -0.27562940435382949 0 -0.13835653564694769 -0.27242798417408381 0 -0.1458827091329962 -0.28225219708249882 0 -0.1442805510697899 -0.27562940435382949 0 -0.13687965345326569 -0.27993872332247433 0 -0.15098162864793119 -0.27663156012407891 0 -0.14903370440966179 -0.27344637702894548 0 -0.1442805510697899 -0.27562940435382949 0 -0.1458827091329962 -0.28225219708249882 0 -0.15098162864793119 -0.27663156012407891 0 -0.1442805510697899 -0.27562940435382949 0 -0.13687965345326569 -0.27993872332247433 0 -0.12970248462840331 -0.2717774759070859 0 -0.13835653564694769 -0.27242798417408381 0 -0.1442805510697899 -0.27562940435382949 0 -0.13687965345326569 -0.27993872332247433 0 -0.13835653564694769 -0.27242798417408381 0 -0.13687965345326569 -0.27993872332247433 0 -0.1257911728949061 -0.280427018304516 0 -0.12970248462840331 -0.2717774759070859 0 -0.12970248462840331 -0.2717774759070859 0 -0.13570208279224111 -0.26528350045903498 0 -0.12855037573501921 -0.26115248962005239 0 -0.14385763015454139 -0.26954128824380802 0 -0.13835653564694769 -0.27242798417408381 0 -0.13570208279224111 -0.26528350045903498 0 -0.12970248462840331 -0.2717774759070859 0 -0.13835653564694769 -0.27242798417408381 0 -0.13570208279224111 -0.26528350045903498 0 -0.13570208279224111 -0.26528350045903498 0 -0.12855037573501921 -0.26115248962005239 0 -0.1377523016625678 -0.25581657194563601 0 -0.14385763015454139 -0.26954128824380802 0 -0.13570208279224111 -0.26528350045903498 0 -0.1377523016625678 -0.25581657194563601 0 -0.12855037573501921 -0.26115248962005239 0 -0.1377523016625678 -0.25581657194563601 0 -0.1223681628105569 -0.24044891992886891 0 -0.1531364405145805 -0.27118422396240138 0 -0.1377523016625678 -0.25581657194563601 0 -0.15263230708737521 -0.24356194903458239 0 -0.15585924966824549 -0.27338725763800159 0 -0.1531364405145805 -0.27118422396240138 0 -0.15263230708737521 -0.24356194903458239 0 -0.15585924966824549 -0.27338725763800159 0 -0.15263230708737521 -0.24356194903458239 0 -0.1531364405145805 -0.27118422396240138 0 -0.1377523016625678 -0.25581657194563601 0 -0.1531364405145805 -0.27118422396240138 0 -0.14385763015454139 -0.26954128824380802 0 -0.1377523016625678 -0.25581657194563601 0 -0.1661931572416451 -0.36889933283976362 0 -0.1633245426028184 -0.34238590264286861 0 -0.15433175674287769 -0.35458729317269139 0 -0.1661931572416451 -0.36889933283976362 0 -0.1633245426028184 -0.34238590264286861 0 -0.1661931572416451 -0.36889933283976362 0 -0.17388048196752651 -0.3522733272046466 0 -0.1633245426028184 -0.34238590264286861 0 -0.1661931572416451 -0.36889933283976362 0 -0.15433175674287769 -0.35458729317269139 0 -0.148308101659717 -0.36695316985008092 0 -0.15761740849691311 -0.38818340141201402 0 -0.1661931572416451 -0.36889933283976362 0 -0.148308101659717 -0.36695316985008092 0 -0.183603859264966 -0.3766054584014627 0 -0.1661931572416451 -0.36889933283976362 0 -0.1863350517553729 -0.35962674217565882 0 -0.1661931572416451 -0.36889933283976362 0 -0.1863350517553729 -0.35962674217565882 0 -0.17388048196752651 -0.3522733272046466 0 -0.1863350517553729 -0.35962674217565882 0 -0.17388048196752651 -0.3522733272046466 0 -0.1789381536340362 -0.33872308817907848 0 -0.17388048196752651 -0.3522733272046466 0 -0.1789381536340362 -0.33872308817907848 0 -0.1633245426028184 -0.34238590264286861 0 -0.19562896033857519 -0.33020038185646122 0 -0.1789381536340362 -0.33872308817907848 0 -0.18477851095256179 -0.32477614194451959 0 -0.1789381536340362 -0.33872308817907848 0 -0.18477851095256179 -0.32477614194451959 0 -0.1735479853981102 -0.32728394705986258 0 -0.1789381536340362 -0.33872308817907848 0 -0.1735479853981102 -0.32728394705986258 0 -0.1633245426028184 -0.34238590264286861 0 -0.17759103405270391 -0.30762984517719472 0 -0.1803928959391416 -0.31521744924658562 0 -0.16045592796399111 -0.3158724724459735 0 -0.19575919956014079 -0.31702437624003538 0 -0.1803928959391416 -0.31521744924658562 0 -0.18477851095256179 -0.32477614194451959 0 -0.1803928959391416 -0.31521744924658562 0 -0.18477851095256179 -0.32477614194451959 0 -0.1735479853981102 -0.32728394705986258 0 -0.1803928959391416 -0.31521744924658562 0 -0.1735479853981102 -0.32728394705986258 0 -0.16045592796399111 -0.3158724724459735 0 -0.1735479853981102 -0.32728394705986258 0 -0.16045592796399111 -0.3158724724459735 0 -0.1633245426028184 -0.34238590264286861 0 -0.16045592796399111 -0.3158724724459735 0 -0.1633245426028184 -0.34238590264286861 0 -0.1476770575246594 -0.3298450188736391 0 -0.16045592796399111 -0.3158724724459735 0 -0.1633245426028184 -0.34238590264286861 0 -0.1633245426028184 -0.34238590264286861 0 -0.15030263560259111 -0.34285112818916452 0 -0.1476770575246594 -0.3298450188736391 0 -0.1476770575246594 -0.3298450188736391 0 -0.14130665940473261 -0.32287327510069419 0 -0.13989838249203351 -0.33226752099114382 0 -0.1476770575246594 -0.3298450188736391 0 -0.14096893258994439 -0.33934882548262568 0 -0.13989838249203351 -0.33226752099114382 0 -0.15030263560259111 -0.34285112818916452 0 -0.1476770575246594 -0.3298450188736391 0 -0.14096893258994439 -0.33934882548262568 0 -0.15908619224911419 -0.30321256624142101 0 -0.14130665940473261 -0.32287327510069419 0 -0.16045592796399111 -0.3158724724459735 0 -0.1476770575246594 -0.3298450188736391 0 -0.14130665940473261 -0.32287327510069419 0 -0.15908619224911419 -0.30321256624142101 0 -0.16045592796399111 -0.3158724724459735 0 -0.14130665940473261 -0.32287327510069419 0 -0.16045592796399111 -0.3158724724459735 0 -0.1476770575246594 -0.3298450188736391 0 -0.14130665940473261 -0.32287327510069419 0 -0.12766342535057629 -0.32481504462803062 0 -0.13033731665847181 -0.31286393971371201 0 -0.14032160831301491 -0.30752887986621158 0 -0.14130665940473261 -0.32287327510069419 0 -0.13033731665847181 -0.31286393971371201 0 -0.14130665940473261 -0.32287327510069419 0 -0.12766342535057629 -0.32481504462803062 0 -0.12902917457320359 -0.33644978787578289 0 -0.12766342535057629 -0.32481504462803062 0 -0.12902917457320359 -0.33644978787578289 0 -0.123033176677132 -0.34308019655903149 0 -0.14096893258994439 -0.33934882548262568 0 -0.12902917457320359 -0.33644978787578289 0 -0.13366226850604379 -0.34759248760944123 0 -0.14096893258994439 -0.33934882548262568 0 -0.13989838249203351 -0.33226752099114382 0 -0.12902917457320359 -0.33644978787578289 0 -0.14130665940473261 -0.32287327510069419 0 -0.12902917457320359 -0.33644978787578289 0 -0.14130665940473261 -0.32287327510069419 0 -0.13989838249203351 -0.33226752099114382 0 -0.12902917457320359 -0.33644978787578289 0 -0.12902917457320359 -0.33644978787578289 0 -0.123033176677132 -0.34308019655903149 0 -0.12902917457320359 -0.33644978787578289 0 -0.13366226850604379 -0.34759248760944123 0 -0.123033176677132 -0.34308019655903149 0 -0.13366226850604379 -0.34759248760944123 0 -0.1303219987982592 -0.3665496015062627 0 -0.123033176677132 -0.34308019655903149 0 -0.1303219987982592 -0.3665496015062627 0 -0.123033176677132 -0.34308019655903149 0 -0.13366226850604379 -0.34759248760944123 0 -0.1435303466076166 -0.35184693234157938 0 -0.1303219987982592 -0.3665496015062627 0 -0.14096893258994439 -0.33934882548262568 0 -0.13366226850604379 -0.34759248760944123 0 -0.1435303466076166 -0.35184693234157938 0 -0.15030263560259111 -0.34285112818916452 0 -0.14096893258994439 -0.33934882548262568 0 -0.1435303466076166 -0.35184693234157938 0 -0.1435303466076166 -0.35184693234157938 0 -0.15433175674287769 -0.35458729317269139 0 -0.148308101659717 -0.36695316985008092 0 -0.1633245426028184 -0.34238590264286861 0 -0.15030263560259111 -0.34285112818916452 0 -0.15433175674287769 -0.35458729317269139 0 -0.15030263560259111 -0.34285112818916452 0 -0.1435303466076166 -0.35184693234157938 0 -0.15433175674287769 -0.35458729317269139 0 -0.1435303466076166 -0.35184693234157938 0 -0.148308101659717 -0.36695316985008092 0 -0.1303219987982592 -0.3665496015062627 0 -0.1369224961495438 -0.38192389563367207 0 -0.148308101659717 -0.36695316985008092 0 -0.1303219987982592 -0.3665496015062627 0 -0.1303219987982592 -0.3665496015062627 0 -0.1159926709000937 -0.36685414663024191 0 -0.11895596668836859 -0.34683008488337108 0 -0.1303219987982592 -0.3665496015062627 0 -0.1159926709000937 -0.36685414663024191 0 -0.12201267174342199 -0.37938718301114999 0 -0.1024060606807759 -0.36205135125861898 0 -0.1016559479587178 -0.38500202459504551 0 -0.1159926709000937 -0.36685414663024191 0 -0.1024060606807759 -0.36205135125861898 0 -0.1094440337948836 -0.37923577087639421 0 -0.1024060606807759 -0.36205135125861898 0 -0.1016559479587178 -0.38500202459504551 0 -0.095426438310298192 -0.37780241062099151 0 -0.1024060606807759 -0.36205135125861898 0 -0.090139611558562177 -0.37333304007799939 0 -0.095426438310298192 -0.37780241062099151 0 -0.1024060606807759 -0.36205135125861898 0 -0.093943439343664059 -0.36410026383479388 0 -0.090139611558562177 -0.37333304007799939 0 -0.1024060606807759 -0.36205135125861898 0 -0.093943439343664059 -0.36410026383479388 0 -0.095626283443773746 -0.35612124291623848 0 -0.1024060606807759 -0.36205135125861898 0 -0.090139611558562177 -0.37333304007799939 0 -0.1024060606807759 -0.36205135125861898 0 -0.1029439411344124 -0.34559419992324319 0 -0.1024060606807759 -0.36205135125861898 0 -0.1029439411344124 -0.34559419992324319 0 -0.11895596668836859 -0.34683008488337108 0 -0.1024060606807759 -0.36205135125861898 0 -0.095626283443773746 -0.35612124291623848 0 -0.1029439411344124 -0.34559419992324319 0 -0.095626283443773746 -0.35612124291623848 0 -0.1029439411344124 -0.34559419992324319 0 -0.093212578299404075 -0.34130700998995739 0 -0.1159926709000937 -0.36685414663024191 0 -0.1024060606807759 -0.36205135125861898 0 -0.11895596668836859 -0.34683008488337108 0 -0.1024060606807759 -0.36205135125861898 0 -0.11895596668836859 -0.34683008488337108 0 -0.1303219987982592 -0.3665496015062627 0 -0.11895596668836859 -0.34683008488337108 0 -0.123033176677132 -0.34308019655903149 0 -0.1029439411344124 -0.34559419992324319 0 -0.11895596668836859 -0.34683008488337108 0 -0.123033176677132 -0.34308019655903149 0 -0.11895596668836859 -0.34683008488337108 0 -0.123033176677132 -0.34308019655903149 0 -0.1029439411344124 -0.34559419992324319 0 -0.1137910684918501 -0.33520612369310882 0 -0.123033176677132 -0.34308019655903149 0 -0.123033176677132 -0.34308019655903149 0 -0.1159692764993048 -0.31568518943543378 0 -0.1137910684918501 -0.33520612369310882 0 -0.123033176677132 -0.34308019655903149 0 -0.1159692764993048 -0.31568518943543378 0 -0.12766342535057629 -0.32481504462803062 0 -0.123033176677132 -0.34308019655903149 0 -0.1159692764993048 -0.31568518943543378 0 -0.1137910684918501 -0.33520612369310882 0 -0.1159692764993048 -0.31568518943543378 0 -0.1034818215880495 -0.3291370485878673 0 -0.12766342535057629 -0.32481504462803062 0 -0.13033731665847181 -0.31286393971371201 0 -0.1159692764993048 -0.31568518943543378 0 -0.1159692764993048 -0.31568518943543378 0 -0.10079975883819629 -0.31506063040533638 0 -0.1034818215880495 -0.3291370485878673 0 -0.10079975883819629 -0.31506063040533638 0 -0.093212578299404075 -0.34130700998995739 0 -0.10079975883819629 -0.31506063040533638 0 -0.093212578299404075 -0.34130700998995739 0 -0.087373844159168004 -0.3291061545470132 0 -0.10079975883819629 -0.31506063040533638 0 -0.1034818215880495 -0.3291370485878673 0 -0.093212578299404075 -0.34130700998995739 0 -0.1029439411344124 -0.34559419992324319 0 -0.1034818215880495 -0.3291370485878673 0 -0.1029439411344124 -0.34559419992324319 0 -0.1034818215880495 -0.3291370485878673 0 -0.093212578299404075 -0.34130700998995739 0 -0.1029439411344124 -0.34559419992324319 0 -0.1137910684918501 -0.33520612369310882 0 -0.1034818215880495 -0.3291370485878673 0 -0.093212578299404075 -0.34130700998995739 0 -0.087373844159168004 -0.3291061545470132 0 -0.080908772255243899 -0.33898270124258217 0 -0.087373844159168004 -0.3291061545470132 0 -0.080908772255243899 -0.33898270124258217 0 -0.077490532230771417 -0.32991328235931511 0 -0.093212578299404075 -0.34130700998995739 0 -0.080908772255243899 -0.33898270124258217 0 -0.080378844364046895 -0.35001101873094542 0 -0.10079975883819629 -0.31506063040533638 0 -0.085305929108392881 -0.31951846990187233 0 -0.091873739319295072 -0.31122357941036211 0 -0.10079975883819629 -0.31506063040533638 0 -0.087373844159168004 -0.3291061545470132 0 -0.085305929108392881 -0.31951846990187233 0 -0.085305929108392881 -0.31951846990187233 0 -0.076805788315873161 -0.32077910918615782 0 -0.077490532230771417 -0.32991328235931511 0 -0.087373844159168004 -0.3291061545470132 0 -0.085305929108392881 -0.31951846990187233 0 -0.077490532230771417 -0.32991328235931511 0 -0.085305929108392881 -0.31951846990187233 0 -0.076805788315873161 -0.32077910918615782 0 -0.078544889372492196 -0.31002595631180607 0 -0.085305929108392881 -0.31951846990187233 0 -0.091873739319295072 -0.31122357941036211 0 -0.078544889372492196 -0.31002595631180607 0 -0.066882954587322394 -0.32486941793266988 0 -0.078544889372492196 -0.31002595631180607 0 -0.05424539878688571 -0.319762651601179 0 -0.078544889372492196 -0.31002595631180607 0 -0.05424539878688571 -0.319762651601179 0 -0.076805788315873161 -0.32077910918615782 0 -0.066882954587322394 -0.32486941793266988 0 -0.078544889372492196 -0.31002595631180607 0 -0.076805788315873161 -0.32077910918615782 0 -0.066882954587322394 -0.32486941793266988 0 -0.077490532230771417 -0.32991328235931511 0 -0.066882954587322394 -0.32486941793266988 0 -0.070160141916437824 -0.34098238217286791 0 -0.054527031800802053 -0.34042178362413461 0 -0.066882954587322394 -0.32486941793266988 0 -0.077490532230771417 -0.32991328235931511 0 -0.070160141916437824 -0.34098238217286791 0 -0.080908772255243899 -0.33898270124258217 0 -0.077490532230771417 -0.32991328235931511 0 -0.070160141916437824 -0.34098238217286791 0 -0.080908772255243899 -0.33898270124258217 0 -0.070160141916437824 -0.34098238217286791 0 -0.080378844364046895 -0.35001101873094542 0 -0.070160141916437824 -0.34098238217286791 0 -0.066522813126512412 -0.35680227137673098 0 -0.054527031800802053 -0.34042178362413461 0 -0.070160141916437824 -0.34098238217286791 0 -0.066522813126512412 -0.35680227137673098 0 -0.080378844364046895 -0.35001101873094542 0 -0.066522813126512412 -0.35680227137673098 0 -0.076582500297099523 -0.36039923154202719 0 -0.080378844364046895 -0.35001101873094542 0 -0.066522813126512412 -0.35680227137673098 0 -0.073802945937226916 -0.36723024648585417 0 -0.058387822440418388 -0.36975607908058028 0 -0.073802945937226916 -0.36723024648585417 0 -0.058387822440418388 -0.36975607908058028 0 -0.08170780991661282 -0.38109255286014232 0 -0.066522813126512412 -0.35680227137673098 0 -0.073802945937226916 -0.36723024648585417 0 -0.076582500297099523 -0.36039923154202719 0 -0.073802945937226916 -0.36723024648585417 0 -0.076582500297099523 -0.36039923154202719 0 -0.085625397760611066 -0.36755338957457828 0 -0.085625397760611066 -0.36755338957457828 0 -0.087954911787112483 -0.37534235041220648 0 -0.08170780991661282 -0.38109255286014232 0 -0.073802945937226916 -0.36723024648585417 0 -0.085625397760611066 -0.36755338957457828 0 -0.08170780991661282 -0.38109255286014232 0 -0.085625397760611066 -0.36755338957457828 0 -0.08170780991661282 -0.38109255286014232 0 -0.093943439343664059 -0.36410026383479388 0 -0.085625397760611066 -0.36755338957457828 0 -0.090139611558562177 -0.37333304007799939 0 -0.093943439343664059 -0.36410026383479388 0 -0.090139611558562177 -0.37333304007799939 0 -0.085625397760611066 -0.36755338957457828 0 -0.090139611558562177 -0.37333304007799939 0 -0.087954911787112483 -0.37534235041220648 0 -0.085625397760611066 -0.36755338957457828 0 -0.087954911787112483 -0.37534235041220648 0 -0.090139611558562177 -0.37333304007799939 0 -0.087954911787112483 -0.37534235041220648 0 -0.093943439343664059 -0.36410026383479388 0 -0.095626283443773746 -0.35612124291623848 0 -0.085625397760611066 -0.36755338957457828 0 -0.093212578299404075 -0.34130700998995739 0 -0.085625397760611066 -0.36755338957457828 0 -0.076582500297099523 -0.36039923154202719 0 -0.085625397760611066 -0.36755338957457828 0 -0.080378844364046895 -0.35001101873094542 0 -0.093212578299404075 -0.34130700998995739 0 -0.085625397760611066 -0.36755338957457828 0 -0.080378844364046895 -0.35001101873094542 0 -0.085625397760611066 -0.36755338957457828 0 -0.080378844364046895 -0.35001101873094542 0 -0.095626283443773746 -0.35612124291623848 0 -0.093212578299404075 -0.34130700998995739 0 -0.085625397760611066 -0.36755338957457828 0 -0.10474757541744149 -0.26087495970427582 0 -0.090174700483665673 -0.26498018187443112 0 -0.1005321994236209 -0.2431127607729493 0 -0.10474757541744149 -0.26087495970427582 0 -0.11757885349586771 -0.25701660664448461 0 -0.1005321994236209 -0.2431127607729493 0 -0.12855037573501921 -0.26115248962005239 0 -0.11757885349586771 -0.25701660664448461 0 -0.1127895441811773 -0.27358429336009982 0 -0.12855037573501921 -0.26115248962005239 0 -0.11757885349586771 -0.25701660664448461 0 -0.1223681628105569 -0.24044891992886891 0 -0.10474757541744149 -0.26087495970427582 0 -0.11757885349586771 -0.25701660664448461 0 -0.1127895441811773 -0.27358429336009982 0 -0.11757885349586771 -0.25701660664448461 0 -0.1127895441811773 -0.27358429336009982 0 -0.1257911728949061 -0.280427018304516 0 -0.12970248462840331 -0.2717774759070859 0 -0.1127895441811773 -0.27358429336009982 0 -0.12855037573501921 -0.26115248962005239 0 -0.1127895441811773 -0.27358429336009982 0 -0.12970248462840331 -0.2717774759070859 0 -0.12855037573501921 -0.26115248962005239 0 -0.1127895441811773 -0.27358429336009982 0 -0.1257911728949061 -0.280427018304516 0 -0.1127895441811773 -0.27358429336009982 0 -0.1194571486541455 -0.28746452468861589 0 -0.1127895441811773 -0.27358429336009982 0 -0.1083869393769897 -0.28881425082071571 0 -0.1127895441811773 -0.27358429336009982 0 -0.093274829049746905 -0.28897707944045958 0 -0.090174700483665673 -0.26498018187443112 0 -0.10474757541744149 -0.26087495970427582 0 -0.1127895441811773 -0.27358429336009982 0 -0.090174700483665673 -0.26498018187443112 0 -0.1127895441811773 -0.27358429336009982 0 -0.1067008731150054 -0.28283902414649681 0 -0.093274829049746905 -0.28897707944045958 0 -0.1127895441811773 -0.27358429336009982 0 -0.093274829049746905 -0.28897707944045958 0 -0.1083869393769897 -0.28881425082071571 0 -0.102844379958099 -0.30028926102243358 0 -0.093274829049746905 -0.28897707944045958 0 -0.1127895441811773 -0.27358429336009982 0 -0.1083869393769897 -0.28881425082071571 0 -0.1067008731150054 -0.28283902414649681 0 -0.1083869393769897 -0.28881425082071571 0 -0.1067008731150054 -0.28283902414649681 0 -0.1083869393769897 -0.28881425082071571 0 -0.1067008731150054 -0.28283902414649681 0 -0.093274829049746905 -0.28897707944045958 0 -0.1127895441811773 -0.27358429336009982 0 -0.1083869393769897 -0.28881425082071571 0 -0.1194571486541455 -0.28746452468861589 0 -0.12994370463312691 -0.28995419054763111 0 -0.1194571486541455 -0.28746452468861589 0 -0.12304085188452731 -0.29931348820209958 0 -0.1083869393769897 -0.28881425082071571 0 -0.1194571486541455 -0.28746452468861589 0 -0.12304085188452731 -0.29931348820209958 0 -0.1159692764993048 -0.31568518943543378 0 -0.1083869393769897 -0.28881425082071571 0 -0.12304085188452731 -0.29931348820209958 0 -0.1159692764993048 -0.31568518943543378 0 -0.1083869393769897 -0.28881425082071571 0 -0.13033731665847181 -0.31286393971371201 0 -0.1159692764993048 -0.31568518943543378 0 -0.12304085188452731 -0.29931348820209958 0 -0.1159692764993048 -0.31568518943543378 0 -0.10079975883819629 -0.31506063040533638 0 -0.1083869393769897 -0.28881425082071571 0 -0.10079975883819629 -0.31506063040533638 0 -0.1083869393769897 -0.28881425082071571 0 -0.10079975883819629 -0.31506063040533638 0 -0.1083869393769897 -0.28881425082071571 0 -0.102844379958099 -0.30028926102243358 0 -0.10079975883819629 -0.31506063040533638 0 -0.102844379958099 -0.30028926102243358 0 -0.091873739319295072 -0.31122357941036211 0 -0.078544889372492196 -0.31002595631180607 0 -0.073760113918316481 -0.30436986552081963 0 -0.093274829049746905 -0.28897707944045958 0 -0.102844379958099 -0.30028926102243358 0 -0.078544889372492196 -0.31002595631180607 0 -0.093274829049746905 -0.28897707944045958 0 -0.102844379958099 -0.30028926102243358 0 -0.091873739319295072 -0.31122357941036211 0 -0.078544889372492196 -0.31002595631180607 0 -0.102844379958099 -0.30028926102243358 0 -0.078544889372492196 -0.31002595631180607 0 -0.078544889372492196 -0.31002595631180607 0 -0.073760113918316481 -0.30436986552081963 0 -0.05424539878688571 -0.319762651601179 0 -0.073760113918316481 -0.30436986552081963 0 -0.05424539878688571 -0.319762651601179 0 -0.073760113918316481 -0.30436986552081963 0 -0.071188273097670243 -0.28513602236808322 0 -0.055748641784298267 -0.30178875706485681 0 -0.073760113918316481 -0.30436986552081963 0 -0.071188273097670243 -0.28513602236808322 0 -0.093274829049746905 -0.28897707944045958 0 -0.073760113918316481 -0.30436986552081963 0 -0.093274829049746905 -0.28897707944045958 0 -0.071188273097670243 -0.28513602236808322 0 -0.093274829049746905 -0.28897707944045958 0 -0.090174700483665673 -0.26498018187443112 0 -0.071188273097670243 -0.28513602236808322 0 -0.063484538676239377 -0.26413124226689111 0 -0.090174700483665673 -0.26498018187443112 0 -0.063484538676239377 -0.26413124226689111 0 -0.076282262678724011 -0.24169347649274159 0 -0.063484538676239377 -0.26413124226689111 0 -0.090174700483665673 -0.26498018187443112 0 -0.076282262678724011 -0.24169347649274159 0 -0.036942597034766073 -0.27265489088473938 0 -0.050686814673754729 -0.28656900804104057 0 -0.0185119813334658 -0.28327625011988139 0 -0.038581934025118947 -0.25114857380685968 0 -0.038334603868346327 -0.2604973367990705 0 -0.03064478186574425 -0.25326356670072259 0 -0.038334603868346327 -0.2604973367990705 0 -0.029413390480137139 -0.26518294325465769 0 -0.03064478186574425 -0.25326356670072259 0 -0.038334603868346327 -0.2604973367990705 0 -0.046517308340487992 -0.25474718453952289 0 -0.048289188575406587 -0.26955092917192058 0 -0.038581934025118947 -0.25114857380685968 0 -0.038334603868346327 -0.2604973367990705 0 -0.046517308340487992 -0.25474718453952289 0 -0.063484538676239377 -0.26413124226689111 0 -0.046517308340487992 -0.25474718453952289 0 -0.0567919256119837 -0.24387644547435741 0 -0.063484538676239377 -0.26413124226689111 0 -0.046517308340487992 -0.25474718453952289 0 -0.048289188575406587 -0.26955092917192058 0 -0.063484538676239377 -0.26413124226689111 0 -0.050686814673754729 -0.28656900804104057 0 -0.071188273097670243 -0.28513602236808322 0 -0.063484538676239377 -0.26413124226689111 0 -0.050686814673754729 -0.28656900804104057 0 -0.063484538676239377 -0.26413124226689111 0 -0.048289188575406587 -0.26955092917192058 0 -0.050686814673754729 -0.28656900804104057 0 -0.048289188575406587 -0.26955092917192058 0 -0.036942597034766073 -0.27265489088473938 0 -0.050686814673754729 -0.28656900804104057 0 -0.038334603868346327 -0.2604973367990705 0 -0.048289188575406587 -0.26955092917192058 0 -0.036942597034766073 -0.27265489088473938 0 -0.038334603868346327 -0.2604973367990705 0 -0.036942597034766073 -0.27265489088473938 0 -0.029413390480137139 -0.26518294325465769 0 -0.050686814673754729 -0.28656900804104057 0 -0.037889090671270123 -0.30900677381518998 0 -0.0185119813334658 -0.28327625011988139 0 -0.071188273097670243 -0.28513602236808322 0 -0.050686814673754729 -0.28656900804104057 0 -0.055748641784298267 -0.30178875706485681 0 -0.073760113918316481 -0.30436986552081963 0 -0.055748641784298267 -0.30178875706485681 0 -0.05424539878688571 -0.319762651601179 0 -0.055748641784298267 -0.30178875706485681 0 -0.037889090671270123 -0.30900677381518998 0 -0.05424539878688571 -0.319762651601179 0 -0.050686814673754729 -0.28656900804104057 0 -0.055748641784298267 -0.30178875706485681 0 -0.037889090671270123 -0.30900677381518998 0 -0.050686814673754729 -0.28656900804104057 0 -0.037889090671270123 -0.30900677381518998 0 -0.037889090671270123 -0.30900677381518998 0 -0.014390974368570029 -0.31032982847088841 0 -0.0185119813334658 -0.28327625011988139 0 -0.014390974368570029 -0.31032982847088841 0 0.001904989571353899 -0.32214434476741449 0 0.0019518825097332619 -0.30029273945570772 0 -0.014390974368570029 -0.31032982847088841 0 -0.0185119813334658 -0.28327625011988139 0 0.0019518825097332619 -0.30029273945570772 0 -0.0185119813334658 -0.28327625011988139 0 -0.0020851015340006161 -0.28052611142458661 0 0.0019518825097332619 -0.30029273945570772 0 -0.014390974368570029 -0.31032982847088841 0 -0.0185119813334658 -0.28327625011988139 0 -0.036942597034766073 -0.27265489088473938 0 -0.0185119813334658 -0.28327625011988139 0 -0.029413390480137139 -0.26518294325465769 0 -0.0185119813334658 -0.28327625011988139 0 -0.02263298829836323 -0.25622267176887481 0 -0.029413390480137139 -0.26518294325465769 0 -0.0185119813334658 -0.28327625011988139 0 -0.02263298829836323 -0.25622267176887481 0 -0.0185119813334658 -0.28327625011988139 0 -0.0093077836028632385 -0.27105033158696179 0 -0.02263298829836323 -0.25622267176887481 0 -0.0185119813334658 -0.28327625011988139 0 -0.0020851015340006161 -0.28052611142458661 0 -0.0093077836028632385 -0.27105033158696179 0 -0.0020851015340006161 -0.28052611142458661 0 -0.0093077836028632385 -0.27105033158696179 0 0.0055944649301708496 -0.26664830233551728 0 -0.014059514610042069 -0.25416210053859828 0 -0.02263298829836323 -0.25622267176887481 0 0.0055944649301708496 -0.26664830233551728 0 -0.0093077836028632385 -0.27105033158696179 0 -0.02263298829836323 -0.25622267176887481 0 0.0055944649301708496 -0.26664830233551728 0 -0.02263298829836323 -0.25622267176887481 0 0.0055944649301708496 -0.26664830233551728 0 -0.014059514610042069 -0.25416210053859828 0 -0.0080727856436109482 -0.2481099565327444 0 0.0055944649301708496 -0.26664830233551728 0 -0.014059514610042069 -0.25416210053859828 0 -0.01887874476148543 -0.24814250919209771 0 -0.0080727856436109482 -0.2481099565327444 0 -0.014059514610042069 -0.25416210053859828 0 -0.02263298829836323 -0.25622267176887481 0 -0.02285766608625657 -0.25474770747244752 0 -0.014059514610042069 -0.25416210053859828 0 -0.02285766608625657 -0.25474770747244752 0 -0.01887874476148543 -0.24814250919209771 0 -0.02285766608625657 -0.25474770747244752 0 -0.026067501294639708 -0.24850247980592871 0 -0.01887874476148543 -0.24814250919209771 0 -0.02263298829836323 -0.25622267176887481 0 -0.02285766608625657 -0.25474770747244752 0 -0.02263298829836323 -0.25622267176887481 0 -0.029413390480137139 -0.26518294325465769 0 -0.03064478186574425 -0.25326356670072259 0 -0.02263298829836323 -0.25622267176887481 0 -0.03064478186574425 -0.25326356670072259 0 -0.02263298829836323 -0.25622267176887481 0 -0.02285766608625657 -0.25474770747244752 0 -0.03064478186574425 -0.25326356670072259 0 -0.02285766608625657 -0.25474770747244752 0 -0.03064478186574425 -0.25326356670072259 0 -0.026067501294639708 -0.24850247980592871 0 -0.040780788735907937 -0.34809370153295588 0 -0.035070660285960877 -0.35841379707961513 0 -0.051335308585544609 -0.35442186843706669 0 -0.040780788735907937 -0.34809370153295588 0 -0.033802973987086503 -0.33588719504380232 0 -0.029167969020145641 -0.35132386348016093 0 -0.040780788735907937 -0.34809370153295588 0 -0.035070660285960877 -0.35841379707961513 0 -0.029167969020145641 -0.35132386348016093 0 -0.035070660285960877 -0.35841379707961513 0 -0.040000350022935588 -0.37213681664196291 0 -0.021437446366364531 -0.36359117576668931 0 -0.035070660285960877 -0.35841379707961513 0 -0.058387822440418388 -0.36975607908058028 0 -0.035070660285960877 -0.35841379707961513 0 -0.040000350022935588 -0.37213681664196291 0 -0.058387822440418388 -0.36975607908058028 0 -0.040000350022935588 -0.37213681664196291 0 -0.058387822440418388 -0.36975607908058028 0 -0.058563253679506787 -0.38068245751723601 0 -0.035070660285960877 -0.35841379707961513 0 -0.058387822440418388 -0.36975607908058028 0 -0.051335308585544609 -0.35442186843706669 0 -0.066522813126512412 -0.35680227137673098 0 -0.058387822440418388 -0.36975607908058028 0 -0.051335308585544609 -0.35442186843706669 0 -0.066522813126512412 -0.35680227137673098 0 -0.051335308585544609 -0.35442186843706669 0 -0.054527031800802053 -0.34042178362413461 0 -0.040780788735907937 -0.34809370153295588 0 -0.051335308585544609 -0.35442186843706669 0 -0.054527031800802053 -0.34042178362413461 0 -0.066882954587322394 -0.32486941793266988 0 -0.054527031800802053 -0.34042178362413461 0 -0.05424539878688571 -0.319762651601179 0 -0.054527031800802053 -0.34042178362413461 0 -0.05424539878688571 -0.319762651601179 0 -0.033802973987086503 -0.33588719504380232 0 -0.05424539878688571 -0.319762651601179 0 -0.039668382727836717 -0.32560359559526031 0 -0.05424539878688571 -0.319762651601179 0 -0.033802973987086503 -0.33588719504380232 0 -0.037889090671270123 -0.30900677381518998 0 -0.025091366668787349 -0.3314445395893405 0 -0.05424539878688571 -0.319762651601179 0 -0.039668382727836717 -0.32560359559526031 0 -0.033802973987086503 -0.33588719504380232 0 -0.037889090671270123 -0.30900677381518998 0 -0.05424539878688571 -0.319762651601179 0 -0.039668382727836717 -0.32560359559526031 0 -0.037889090671270123 -0.30900677381518998 0 -0.039668382727836717 -0.32560359559526031 0 -0.025091366668787349 -0.3314445395893405 0 -0.040780788735907937 -0.34809370153295588 0 -0.054527031800802053 -0.34042178362413461 0 -0.033802973987086503 -0.33588719504380232 0 -0.039668382727836717 -0.32560359559526031 0 -0.025091366668787349 -0.3314445395893405 0 -0.039668382727836717 -0.32560359559526031 0 -0.033802973987086503 -0.33588719504380232 0 -0.025091366668787349 -0.3314445395893405 0 -0.025091366668787349 -0.3314445395893405 0 -0.01336054918728761 -0.35201173848642592 0 -0.033802973987086503 -0.33588719504380232 0 -0.025091366668787349 -0.3314445395893405 0 -0.01336054918728761 -0.35201173848642592 0 -0.025091366668787349 -0.3314445395893405 0 -0.01532372128421448 -0.33535839064186268 0 -0.01336054918728761 -0.35201173848642592 0 -0.025091366668787349 -0.3314445395893405 0 -0.022734703789933738 -0.32728556430890232 0 -0.01532372128421448 -0.33535839064186268 0 -0.025091366668787349 -0.3314445395893405 0 -0.01532372128421448 -0.33535839064186268 0 -0.022734703789933738 -0.32728556430890232 0 -0.01532372128421448 -0.33535839064186268 0 -0.037889090671270123 -0.30900677381518998 0 -0.014390974368570029 -0.31032982847088841 0 -0.022734703789933738 -0.32728556430890232 0 -0.037889090671270123 -0.30900677381518998 0 -0.025091366668787349 -0.3314445395893405 0 -0.022734703789933738 -0.32728556430890232 0 -0.014390974368570029 -0.31032982847088841 0 -0.022734703789933738 -0.32728556430890232 0 -0.01532372128421448 -0.33535839064186268 0 -0.014390974368570029 -0.31032982847088841 0 -0.010269967403673339 -0.33738340682189533 0 -0.014390974368570029 -0.31032982847088841 0 -0.010269967403673339 -0.33738340682189533 0 -0.01532372128421448 -0.33535839064186268 0 -0.014390974368570029 -0.31032982847088841 0 -0.010269967403673339 -0.33738340682189533 0 0.001904989571353899 -0.32214434476741449 0 -0.010269967403673339 -0.33738340682189533 0 -0.0096343958099064687 -0.34155580596031437 0 0.0075807645751098419 -0.34453611388615663 0 -0.010269967403673339 -0.33738340682189533 0 0.0075807645751098419 -0.34453611388615663 0 -0.0096343958099064687 -0.34155580596031437 0 -0.01532372128421448 -0.33535839064186268 0 -0.01336054918728761 -0.35201173848642592 0 -0.010269967403673339 -0.33738340682189533 0 -0.0096343958099064687 -0.34155580596031437 0 -0.010269967403673339 -0.33738340682189533 0 -0.0096343958099064687 -0.34155580596031437 0 -0.01532372128421448 -0.33535839064186268 0 -0.0096343958099064687 -0.34155580596031437 0 -0.01532372128421448 -0.33535839064186268 0 -0.010269967403673339 -0.33738340682189533 0 -0.01532372128421448 -0.33535839064186268 0 -0.010269967403673339 -0.33738340682189533 0 0.0034794820758208261 -0.33361449123698089 0 0.001904989571353899 -0.32214434476741449 0 -0.0096343958099064687 -0.34155580596031437 0 -0.0070150904897389628 -0.35875101633193152 0 -0.0096343958099064687 -0.34155580596031437 0 -0.0070150904897389628 -0.35875101633193152 0 -0.01336054918728761 -0.35201173848642592 0 -0.0096343958099064687 -0.34155580596031437 0 -0.0070150904897389628 -0.35875101633193152 0 0.0099352179383349771 -0.36287309999936251 0 -0.033802973987086503 -0.33588719504380232 0 -0.01336054918728761 -0.35201173848642592 0 -0.029167969020145641 -0.35132386348016093 0 -0.01336054918728761 -0.35201173848642592 0 -0.029167969020145641 -0.35132386348016093 0 -0.021437446366364531 -0.36359117576668931 0 -0.033802973987086503 -0.33588719504380232 0 -0.01336054918728761 -0.35201173848642592 0 -0.035070660285960877 -0.35841379707961513 0 -0.029167969020145641 -0.35132386348016093 0 -0.021437446366364531 -0.36359117576668931 0 -0.040000350022935588 -0.37213681664196291 0 -0.021437446366364531 -0.36359117576668931 0 -0.02618172091304426 -0.37743656618445498 0 -0.021437446366364531 -0.36359117576668931 0 -0.002178803782163227 -0.37161627006544062 0 -0.02618172091304426 -0.37743656618445498 0 -0.040000350022935588 -0.37213681664196291 0 -0.021437446366364531 -0.36359117576668931 0 -0.01336054918728761 -0.35201173848642592 0 -0.021437446366364531 -0.36359117576668931 0 -0.002178803782163227 -0.37161627006544062 0 -0.01336054918728761 -0.35201173848642592 0 -0.002178803782163227 -0.37161627006544062 0 -0.0070150904897389628 -0.35875101633193152 0 -0.01336054918728761 -0.35201173848642592 0 -0.002178803782163227 -0.37161627006544062 0 -0.002178803782163227 -0.37161627006544062 0 -0.026336278995230201 -0.38905167830789189 0 -0.002178803782163227 -0.37161627006544062 0 -0.0066930742226519926 -0.39143820132839208 0 -0.026336278995230201 -0.38905167830789189 0 -0.0066930742226519926 -0.39143820132839208 0 -0.001728596279610697 -0.40597762003102339 0 -0.017737199096442072 -0.40073047040120602 0 -0.0066930742226519926 -0.39143820132839208 0 -0.017737199096442072 -0.40073047040120602 0 -0.026336278995230201 -0.38905167830789189 0 -0.017737199096442072 -0.40073047040120602 0 -0.026336278995230201 -0.38905167830789189 0 -0.033287388117186109 -0.40399871831440642 0 -0.002178803782163227 -0.37161627006544062 0 -0.026336278995230201 -0.38905167830789189 0 -0.02618172091304426 -0.37743656618445498 0 -0.026336278995230201 -0.38905167830789189 0 -0.02618172091304426 -0.37743656618445498 0 -0.033482850758781962 -0.383939184607547 0 -0.02618172091304426 -0.37743656618445498 0 -0.042372487296275553 -0.37905951185084519 0 -0.033482850758781962 -0.383939184607547 0 -0.02618172091304426 -0.37743656618445498 0 -0.042372487296275553 -0.37905951185084519 0 -0.040000350022935588 -0.37213681664196291 0 -0.02618172091304426 -0.37743656618445498 0 -0.042372487296275553 -0.37905951185084519 0 -0.042372487296275553 -0.37905951185084519 0 -0.039040915830577852 -0.39020898208699611 0 -0.049048127186911553 -0.38756594990863991 0 -0.042372487296275553 -0.37905951185084519 0 -0.039040915830577852 -0.39020898208699611 0 -0.033482850758781962 -0.383939184607547 0 -0.026336278995230201 -0.38905167830789189 0 -0.039040915830577852 -0.39020898208699611 0 -0.033482850758781962 -0.383939184607547 0 -0.026336278995230201 -0.38905167830789189 0 -0.050493754208297943 -0.40648708655034188 0 -0.039040915830577852 -0.39020898208699611 0 -0.048181286987745188 -0.3967611761759377 0 -0.050493754208297943 -0.40648708655034188 0 -0.026336278995230201 -0.38905167830789189 0 -0.039040915830577852 -0.39020898208699611 0 -0.050493754208297943 -0.40648708655034188 0 -0.026336278995230201 -0.38905167830789189 0 -0.033287388117186109 -0.40399871831440642 0 -0.050493754208297943 -0.40648708655034188 0 -0.039040915830577852 -0.39020898208699611 0 -0.048181286987745188 -0.3967611761759377 0 -0.049048127186911553 -0.38756594990863991 0 -0.048181286987745188 -0.3967611761759377 0 -0.055512870853615448 -0.39455951290216967 0 -0.049048127186911553 -0.38756594990863991 0 -0.055512870853615448 -0.39455951290216967 0 -0.052509649903146327 -0.40794203844841681 0 -0.074281153156084773 -0.38791836881244668 0 -0.048181286987745188 -0.3967611761759377 0 -0.055512870853615448 -0.39455951290216967 0 -0.050493754208297943 -0.40648708655034188 0 -0.055512870853615448 -0.39455951290216967 0 -0.052509649903146327 -0.40794203844841681 0 -0.050493754208297943 -0.40648708655034188 0 -0.048181286987745188 -0.3967611761759377 0 -0.050493754208297943 -0.40648708655034188 0 -0.040000350022935588 -0.37213681664196291 0 -0.042372487296275553 -0.37905951185084519 0 -0.058563253679506787 -0.38068245751723601 0 -0.042372487296275553 -0.37905951185084519 0 -0.058563253679506787 -0.38068245751723601 0 -0.040000350022935588 -0.37213681664196291 0 -0.058563253679506787 -0.38068245751723601 0 -0.042372487296275553 -0.37905951185084519 0 -0.058563253679506787 -0.38068245751723601 0 -0.049048127186911553 -0.38756594990863991 0 -0.055512870853615448 -0.39455951290216967 0 -0.058563253679506787 -0.38068245751723601 0 -0.049048127186911553 -0.38756594990863991 0 -0.055571169944573007 -0.4278419796903028 0 -0.060002998013559863 -0.44648162232419802 0 -0.069408814394604765 -0.42365151461769918 0 -0.055571169944573007 -0.4278419796903028 0 -0.060002998013559863 -0.44648162232419802 0 -0.055571169944573007 -0.4278419796903028 0 -0.04142135733128624 -0.43391233418184683 0 -0.048623679129421588 -0.44273110985945369 0 -0.055571169944573007 -0.4278419796903028 0 -0.059775586818595829 -0.41787661413097049 0 -0.069408814394604765 -0.42365151461769918 0 -0.055571169944573007 -0.4278419796903028 0 -0.059775586818595829 -0.41787661413097049 0 -0.052509649903146327 -0.40794203844841681 0 -0.055571169944573007 -0.4278419796903028 0 -0.052509649903146327 -0.40794203844841681 0 -0.038621424185474637 -0.4207153063468223 0 -0.055571169944573007 -0.4278419796903028 0 -0.052509649903146327 -0.40794203844841681 0 -0.052509649903146327 -0.40794203844841681 0 -0.070248957975066639 -0.42074520084202788 0 -0.059775586818595829 -0.41787661413097049 0 -0.052509649903146327 -0.40794203844841681 0 -0.070248957975066639 -0.42074520084202788 0 -0.052509649903146327 -0.40794203844841681 0 -0.050493754208297943 -0.40648708655034188 0 -0.041470954428671609 -0.41006675355118111 0 -0.052509649903146327 -0.40794203844841681 0 -0.050493754208297943 -0.40648708655034188 0 -0.052509649903146327 -0.40794203844841681 0 -0.038621424185474637 -0.4207153063468223 0 -0.033287388117186109 -0.40399871831440642 0 -0.050493754208297943 -0.40648708655034188 0 -0.041470954428671609 -0.41006675355118111 0 -0.052509649903146327 -0.40794203844841681 0 -0.041470954428671609 -0.41006675355118111 0 -0.038621424185474637 -0.4207153063468223 0 -0.033287388117186109 -0.40399871831440642 0 -0.041470954428671609 -0.41006675355118111 0 -0.027792962261932352 -0.41547375898907968 0 -0.041470954428671609 -0.41006675355118111 0 -0.038621424185474637 -0.4207153063468223 0 -0.027792962261932352 -0.41547375898907968 0 -0.055571169944573007 -0.4278419796903028 0 -0.038621424185474637 -0.4207153063468223 0 -0.04142135733128624 -0.43391233418184683 0 -0.038621424185474637 -0.4207153063468223 0 -0.026103506495360269 -0.43222827563723731 0 -0.038621424185474637 -0.4207153063468223 0 -0.04142135733128624 -0.43391233418184683 0 -0.026103506495360269 -0.43222827563723731 0 -0.04142135733128624 -0.43391233418184683 0 -0.026103506495360269 -0.43222827563723731 0 -0.035662081446574762 -0.44437129177822371 0 -0.026103506495360269 -0.43222827563723731 0 -0.027792962261932352 -0.41547375898907968 0 -0.009537301248459449 -0.42510302968362512 0 -0.026103506495360269 -0.43222827563723731 0 -0.009537301248459449 -0.42510302968362512 0 -0.019709463090837601 -0.44530454005801179 0 -0.038621424185474637 -0.4207153063468223 0 -0.026103506495360269 -0.43222827563723731 0 -0.027792962261932352 -0.41547375898907968 0 -0.017737199096442072 -0.40073047040120602 0 -0.027792962261932352 -0.41547375898907968 0 -0.009537301248459449 -0.42510302968362512 0 -0.017737199096442072 -0.40073047040120602 0 -0.033287388117186109 -0.40399871831440642 0 -0.027792962261932352 -0.41547375898907968 0 -0.001728596279610697 -0.40597762003102339 0 -0.017737199096442072 -0.40073047040120602 0 -0.009537301248459449 -0.42510302968362512 0 -0.017737199096442072 -0.40073047040120602 0 -0.009537301248459449 -0.42510302968362512 0 -0.001728596279610697 -0.40597762003102339 0 -0.009537301248459449 -0.42510302968362512 0 0.0082246319185010179 -0.41465428951275207 0 -0.009537301248459449 -0.42510302968362512 0 -0.0013374034004768371 -0.44947558896604423 0 -0.009537301248459449 -0.42510302968362512 0 -0.0013374034004768371 -0.44947558896604423 0 0.01039378864355619 -0.42848339288335913 0 -0.009537301248459449 -0.42510302968362512 0 -0.0013374034004768371 -0.44947558896604423 0 -0.019709463090837601 -0.44530454005801179 0 -0.0013374034004768371 -0.44947558896604423 0 -0.014612752260004851 -0.46155177919014362 0 -0.019709463090837601 -0.44530454005801179 0 -0.0013374034004768371 -0.44947558896604423 0 -0.014612752260004851 -0.46155177919014362 0 0.0068624944475057766 -0.47384814824846327 0 -0.014612752260004851 -0.46155177919014362 0 -0.028521420705905499 -0.4674310816654948 0 -0.030789477839635839 -0.45543267362212791 0 -0.014612752260004851 -0.46155177919014362 0 -0.030789477839635839 -0.45543267362212791 0 -0.019709463090837601 -0.44530454005801179 0 -0.030789477839635839 -0.45543267362212791 0 -0.019709463090837601 -0.44530454005801179 0 -0.035662081446574762 -0.44437129177822371 0 -0.026103506495360269 -0.43222827563723731 0 -0.019709463090837601 -0.44530454005801179 0 -0.035662081446574762 -0.44437129177822371 0 -0.015217900669161011 -0.5 0 -0.01418124297067914 -0.47781864258071971 0 0.0024053695883212941 -0.48891336768777249 0 -0.01418124297067914 -0.47781864258071971 0 0.0068624944475057766 -0.47384814824846327 0 0.0024053695883212941 -0.48891336768777249 0 -0.014612752260004851 -0.46155177919014362 0 -0.01418124297067914 -0.47781864258071971 0 0.0068624944475057766 -0.47384814824846327 0 -0.014612752260004851 -0.46155177919014362 0 -0.028521420705905499 -0.4674310816654948 0 -0.01418124297067914 -0.47781864258071971 0 -0.028521420705905499 -0.4674310816654948 0 -0.01418124297067914 -0.47781864258071971 0 -0.027752274071966478 -0.47742461628286209 0 -0.015217900669161011 -0.5 0 -0.027752274071966478 -0.47742461628286209 0 -0.038171784631523778 -0.48284131767108018 0 -0.015217900669161011 -0.5 0 -0.01418124297067914 -0.47781864258071971 0 -0.027752274071966478 -0.47742461628286209 0 -0.015217900669161011 -0.5 0 -0.043972809743024373 -0.5 0 -0.038171784631523778 -0.48284131767108018 0 -0.043972809743024373 -0.5 0 -0.038171784631523778 -0.48284131767108018 0 -0.049841179956411519 -0.48183723669954598 0 -0.038171784631523778 -0.48284131767108018 0 -0.048675315621036823 -0.47094071089761919 0 -0.038171784631523778 -0.48284131767108018 0 -0.048675315621036823 -0.47094071089761919 0 -0.049841179956411519 -0.48183723669954598 0 -0.027752274071966478 -0.47742461628286209 0 -0.038171784631523778 -0.48284131767108018 0 -0.038764373548703768 -0.47063519779216179 0 -0.028521420705905499 -0.4674310816654948 0 -0.027752274071966478 -0.47742461628286209 0 -0.038764373548703768 -0.47063519779216179 0 -0.038764373548703768 -0.47063519779216179 0 -0.048675315621036823 -0.47094071089761919 0 -0.045335619097383061 -0.46570514195792412 0 -0.038171784631523778 -0.48284131767108018 0 -0.038764373548703768 -0.47063519779216179 0 -0.048675315621036823 -0.47094071089761919 0 -0.048675315621036823 -0.47094071089761919 0 -0.055120034750126161 -0.47128965669693351 0 -0.049841179956411519 -0.48183723669954598 0 -0.048675315621036823 -0.47094071089761919 0 -0.055120034750126161 -0.47128965669693351 0 -0.057384894248553399 -0.46524593439390849 0 -0.055120034750126161 -0.47128965669693351 0 -0.059149819292987238 -0.47777467248794547 0 -0.064422500494955764 -0.4650694252783244 0 -0.059149819292987238 -0.47777467248794547 0 -0.049841179956411519 -0.48183723669954598 0 -0.058853327493046781 -0.48842932436532971 0 -0.055120034750126161 -0.47128965669693351 0 -0.059149819292987238 -0.47777467248794547 0 -0.049841179956411519 -0.48183723669954598 0 -0.059149819292987238 -0.47777467248794547 0 -0.058853327493046781 -0.48842932436532971 0 -0.068575109655922298 -0.48253471263916042 0 -0.043972809743024373 -0.5 0 -0.058853327493046781 -0.48842932436532971 0 -0.072727718816887776 -0.49999999999999672 0 -0.043972809743024373 -0.5 0 -0.049841179956411519 -0.48183723669954598 0 -0.058853327493046781 -0.48842932436532971 0 -0.045123684251444827 -0.45223268167437758 0 -0.035662081446574762 -0.44437129177822371 0 -0.048623679129421588 -0.44273110985945369 0 -0.04142135733128624 -0.43391233418184683 0 -0.035662081446574762 -0.44437129177822371 0 -0.048623679129421588 -0.44273110985945369 0 -0.030789477839635839 -0.45543267362212791 0 -0.045123684251444827 -0.45223268167437758 0 -0.035662081446574762 -0.44437129177822371 0 -0.030789477839635839 -0.45543267362212791 0 -0.045123684251444827 -0.45223268167437758 0 -0.04007978340352341 -0.46172459869688548 0 -0.028521420705905499 -0.4674310816654948 0 -0.030789477839635839 -0.45543267362212791 0 -0.04007978340352341 -0.46172459869688548 0 -0.028521420705905499 -0.4674310816654948 0 -0.038764373548703768 -0.47063519779216179 0 -0.04007978340352341 -0.46172459869688548 0 -0.038764373548703768 -0.47063519779216179 0 -0.04007978340352341 -0.46172459869688548 0 -0.045335619097383061 -0.46570514195792412 0 -0.04007978340352341 -0.46172459869688548 0 -0.045335619097383061 -0.46570514195792412 0 -0.047248161051959649 -0.4591011094540644 0 -0.045123684251444827 -0.45223268167437758 0 -0.04007978340352341 -0.46172459869688548 0 -0.047248161051959649 -0.4591011094540644 0 -0.045123684251444827 -0.45223268167437758 0 -0.050581796861615229 -0.45333412325219669 0 -0.047248161051959649 -0.4591011094540644 0 -0.050581796861615229 -0.45333412325219669 0 -0.047248161051959649 -0.4591011094540644 0 -0.051910461861691633 -0.46612409294888979 0 -0.051910461861691633 -0.46612409294888979 0 -0.05917884661055 -0.4590401041241583 0 -0.060002998013559863 -0.44648162232419802 0 -0.051910461861691633 -0.46612409294888979 0 -0.060002998013559863 -0.44648162232419802 0 -0.050581796861615229 -0.45333412325219669 0 -0.051910461861691633 -0.46612409294888979 0 -0.060002998013559863 -0.44648162232419802 0 -0.048675315621036823 -0.47094071089761919 0 -0.05917884661055 -0.4590401041241583 0 -0.048675315621036823 -0.47094071089761919 0 -0.051910461861691633 -0.46612409294888979 0 -0.05917884661055 -0.4590401041241583 0 -0.048675315621036823 -0.47094071089761919 0 -0.045335619097383061 -0.46570514195792412 0 -0.051910461861691633 -0.46612409294888979 0 -0.045335619097383061 -0.46570514195792412 0 -0.047248161051959649 -0.4591011094540644 0 -0.051910461861691633 -0.46612409294888979 0 -0.055120034750126161 -0.47128965669693351 0 -0.057384894248553399 -0.46524593439390849 0 -0.064422500494955764 -0.4650694252783244 0 -0.048675315621036823 -0.47094071089761919 0 -0.057384894248553399 -0.46524593439390849 0 -0.05917884661055 -0.4590401041241583 0 -0.057384894248553399 -0.46524593439390849 0 -0.05917884661055 -0.4590401041241583 0 -0.059237257045792073 -0.46090013765886428 0 -0.064422500494955764 -0.4650694252783244 0 -0.057384894248553399 -0.46524593439390849 0 -0.059237257045792073 -0.46090013765886428 0 -0.064422500494955764 -0.4650694252783244 0 -0.057384894248553399 -0.46524593439390849 0 -0.059237257045792073 -0.46090013765886428 0 -0.05917884661055 -0.4590401041241583 0 -0.059237257045792073 -0.46090013765886428 0 -0.062180371227510647 -0.45563934639583059 0 -0.064422500494955764 -0.4650694252783244 0 -0.059237257045792073 -0.46090013765886428 0 -0.05917884661055 -0.4590401041241583 0 -0.062180371227510647 -0.45563934639583059 0 -0.05917884661055 -0.4590401041241583 0 -0.062180371227510647 -0.45563934639583059 0 -0.05917884661055 -0.4590401041241583 0 -0.061269440441321127 -0.45180810022505591 0 -0.05917884661055 -0.4590401041241583 0 -0.062180371227510647 -0.45563934639583059 0 -0.061269440441321127 -0.45180810022505591 0 -0.062180371227510647 -0.45563934639583059 0 -0.061269440441321127 -0.45180810022505591 0 -0.055571169944573007 -0.4278419796903028 0 -0.060002998013559863 -0.44648162232419802 0 -0.048623679129421588 -0.44273110985945369 0 -0.05917884661055 -0.4590401041241583 0 -0.061269440441321127 -0.45180810022505591 0 -0.060002998013559863 -0.44648162232419802 0 -0.061269440441321127 -0.45180810022505591 0 -0.060002998013559863 -0.44648162232419802 0 -0.050581796861615229 -0.45333412325219669 0 -0.060002998013559863 -0.44648162232419802 0 -0.048623679129421588 -0.44273110985945369 0 -0.045123684251444827 -0.45223268167437758 0 -0.050581796861615229 -0.45333412325219669 0 -0.048623679129421588 -0.44273110985945369 0 -0.061269440441321127 -0.45180810022505591 0 -0.069408814394604765 -0.42365151461769918 0 -0.062180371227510647 -0.45563934639583059 0 -0.061269440441321127 -0.45180810022505591 0 -0.077098496045509793 -0.43873696019506903 0 -0.062180371227510647 -0.45563934639583059 0 -0.077098496045509793 -0.43873696019506903 0 -0.073769461018799692 -0.45951707792468061 0 -0.061269440441321127 -0.45180810022505591 0 -0.077098496045509793 -0.43873696019506903 0 -0.069408814394604765 -0.42365151461769918 0 -0.061269440441321127 -0.45180810022505591 0 -0.060002998013559863 -0.44648162232419802 0 -0.069408814394604765 -0.42365151461769918 0 -0.062180371227510647 -0.45563934639583059 0 -0.077098496045509793 -0.43873696019506903 0 -0.062180371227510647 -0.45563934639583059 0 -0.064422500494955764 -0.4650694252783244 0 -0.062180371227510647 -0.45563934639583059 0 -0.064422500494955764 -0.4650694252783244 0 -0.073769461018799692 -0.45951707792468061 0 -0.084521355142842869 -0.45759592347480388 0 -0.086143661312174283 -0.48253471263916248 0 -0.099165393688022629 -0.46120376842987459 0 -0.073769461018799692 -0.45951707792468061 0 -0.084521355142842869 -0.45759592347480388 0 -0.086143661312174283 -0.48253471263916248 0 -0.084521355142842869 -0.45759592347480388 0 -0.089624247433654214 -0.44685599598904568 0 -0.099165393688022629 -0.46120376842987459 0 -0.077098496045509793 -0.43873696019506903 0 -0.084521355142842869 -0.45759592347480388 0 -0.089624247433654214 -0.44685599598904568 0 -0.077098496045509793 -0.43873696019506903 0 -0.073769461018799692 -0.45951707792468061 0 -0.084521355142842869 -0.45759592347480388 0 -0.089624247433654214 -0.44685599598904568 0 -0.099878095611554862 -0.4393977270813314 0 -0.089545628933694749 -0.43673796215895883 0 -0.077098496045509793 -0.43873696019506903 0 -0.089624247433654214 -0.44685599598904568 0 -0.089545628933694749 -0.43673796215895883 0 -0.072727718816887776 -0.49999999999999672 0 -0.068575109655922298 -0.48253471263916042 0 -0.058853327493046781 -0.48842932436532971 0 -0.072727718816887776 -0.49999999999999672 0 -0.068575109655922298 -0.48253471263916042 0 -0.072727718816887776 -0.49999999999999672 0 -0.068575109655922298 -0.48253471263916042 0 -0.086143661312174283 -0.48253471263916248 0 -0.064422500494955764 -0.4650694252783244 0 -0.068575109655922298 -0.48253471263916042 0 -0.059149819292987238 -0.47777467248794547 0 -0.064422500494955764 -0.4650694252783244 0 -0.068575109655922298 -0.48253471263916042 0 -0.064422500494955764 -0.4650694252783244 0 -0.073769461018799692 -0.45951707792468061 0 -0.086143661312174283 -0.48253471263916248 0 -0.064422500494955764 -0.4650694252783244 0 -0.068575109655922298 -0.48253471263916042 0 -0.086143661312174283 -0.48253471263916248 0 -0.064422500494955764 -0.4650694252783244 0 -0.086143661312174283 -0.48253471263916248 0 -0.072727718816887776 -0.49999999999999672 0 -0.086143661312174283 -0.48253471263916248 0 -0.090296270473140428 -0.5 0 -0.086143661312174283 -0.48253471263916248 0 -0.090296270473140428 -0.5 0 -0.10786482212939311 -0.50000000000000011 0 -0.086143661312174283 -0.48253471263916248 0 -0.10786482212939311 -0.50000000000000011 0 -0.086143661312174283 -0.48253471263916248 0 -0.10786482212939311 -0.50000000000000011 0 -0.1056577076014347 -0.47999846360012538 0 -0.086143661312174283 -0.48253471263916248 0 -0.1056577076014347 -0.47999846360012538 0 -0.099165393688022629 -0.46120376842987459 0 -0.1056577076014347 -0.47999846360012538 0 -0.12108079434187891 -0.47202921183540031 0 -0.099165393688022629 -0.46120376842987459 0 -0.1056577076014347 -0.47999846360012538 0 -0.12108079434187891 -0.47202921183540031 0 -0.1206292342060253 -0.48641385964910883 0 -0.131118449396015 -0.5 0 -0.10786482212939311 -0.50000000000000011 0 -0.1206292342060253 -0.48641385964910883 0 -0.10786482212939311 -0.50000000000000011 0 -0.1056577076014347 -0.47999846360012538 0 -0.1206292342060253 -0.48641385964910883 0 -0.099878095611554862 -0.4393977270813314 0 -0.099165393688022629 -0.46120376842987459 0 -0.099878095611554862 -0.4393977270813314 0 -0.099165393688022629 -0.46120376842987459 0 -0.11615585050415531 -0.45102464773050138 0 -0.089624247433654214 -0.44685599598904568 0 -0.099878095611554862 -0.4393977270813314 0 -0.099165393688022629 -0.46120376842987459 0 -0.12108079434187891 -0.47202921183540031 0 -0.099165393688022629 -0.46120376842987459 0 -0.11615585050415531 -0.45102464773050138 0 -0.13077987840644981 -0.46069854066347632 0 -0.12108079434187891 -0.47202921183540031 0 -0.11615585050415531 -0.45102464773050138 0 -0.13194602454298601 -0.43962244526902572 0 -0.11615585050415531 -0.45102464773050138 0 -0.1129403580353462 -0.43280081863281078 0 -0.099878095611554862 -0.4393977270813314 0 -0.11615585050415531 -0.45102464773050138 0 -0.1129403580353462 -0.43280081863281078 0 -0.13194602454298601 -0.43962244526902572 0 -0.1165997240041481 -0.41847011486561592 0 -0.13194602454298601 -0.43962244526902572 0 -0.1129403580353462 -0.43280081863281078 0 -0.1165997240041481 -0.41847011486561592 0 -0.1129403580353462 -0.43280081863281078 0 -0.1079125428112538 -0.41892639524425412 0 -0.1165997240041481 -0.41847011486561592 0 -0.099878095611554862 -0.4393977270813314 0 -0.100590797535087 -0.41759168573278821 0 -0.092016620863508841 -0.4218345739943074 0 -0.099878095611554862 -0.4393977270813314 0 -0.089545628933694749 -0.43673796215895883 0 -0.092016620863508841 -0.4218345739943074 0 -0.099878095611554862 -0.4393977270813314 0 -0.1129403580353462 -0.43280081863281078 0 -0.10283731640903 -0.42510314405888588 0 -0.099878095611554862 -0.4393977270813314 0 -0.100590797535087 -0.41759168573278821 0 -0.099878095611554862 -0.4393977270813314 0 -0.10283731640903 -0.42510314405888588 0 -0.100590797535087 -0.41759168573278821 0 -0.1129403580353462 -0.43280081863281078 0 -0.10283731640903 -0.42510314405888588 0 -0.1079125428112538 -0.41892639524425412 0 -0.100590797535087 -0.41759168573278821 0 -0.1012534234653099 -0.39731778446220639 0 -0.1165997240041481 -0.41847011486561592 0 -0.1012534234653099 -0.39731778446220639 0 -0.100590797535087 -0.41759168573278821 0 -0.094499944748829334 -0.39722631626938482 0 -0.088610052547492879 -0.41006814396079783 0 -0.100590797535087 -0.41759168573278821 0 -0.1079125428112538 -0.41892639524425412 0 -0.1012534234653099 -0.39731778446220639 0 -0.100590797535087 -0.41759168573278821 0 -0.094499944748829334 -0.39722631626938482 0 -0.1079125428112538 -0.41892639524425412 0 -0.1165997240041481 -0.41847011486561592 0 -0.1012534234653099 -0.39731778446220639 0 -0.10283731640903 -0.42510314405888588 0 -0.100590797535087 -0.41759168573278821 0 -0.1079125428112538 -0.41892639524425412 0 -0.10283731640903 -0.42510314405888588 0 -0.100590797535087 -0.41759168573278821 0 -0.12592730430259419 -0.40432488328170318 0 -0.1165997240041481 -0.41847011486561592 0 -0.1152538145686829 -0.39895411709426332 0 -0.1165997240041481 -0.41847011486561592 0 -0.1152538145686829 -0.39895411709426332 0 -0.1012534234653099 -0.39731778446220639 0 -0.12526638733901391 -0.39147447277512609 0 -0.12592730430259419 -0.40432488328170318 0 -0.1152538145686829 -0.39895411709426332 0 -0.12526638733901391 -0.39147447277512609 0 -0.1152538145686829 -0.39895411709426332 0 -0.1147112201852714 -0.38836266809632891 0 -0.1152538145686829 -0.39895411709426332 0 -0.1147112201852714 -0.38836266809632891 0 -0.1077648281157602 -0.39377477908459929 0 -0.12526638733901391 -0.39147447277512609 0 -0.12201267174342199 -0.37938718301114999 0 -0.1147112201852714 -0.38836266809632891 0 -0.1147112201852714 -0.38836266809632891 0 -0.1094440337948836 -0.37923577087639421 0 -0.1073228884697877 -0.3875649225559597 0 -0.1147112201852714 -0.38836266809632891 0 -0.1073228884697877 -0.3875649225559597 0 -0.1077648281157602 -0.39377477908459929 0 -0.12201267174342199 -0.37938718301114999 0 -0.1147112201852714 -0.38836266809632891 0 -0.1094440337948836 -0.37923577087639421 0 -0.1159926709000937 -0.36685414663024191 0 -0.12201267174342199 -0.37938718301114999 0 -0.1094440337948836 -0.37923577087639421 0 -0.1024060606807759 -0.36205135125861898 0 -0.1094440337948836 -0.37923577087639421 0 -0.1016559479587178 -0.38500202459504551 0 -0.1094440337948836 -0.37923577087639421 0 -0.1016559479587178 -0.38500202459504551 0 -0.1073228884697877 -0.3875649225559597 0 -0.1016559479587178 -0.38500202459504551 0 -0.1014693111655476 -0.390712419775258 0 -0.1016559479587178 -0.38500202459504551 0 -0.1073228884697877 -0.3875649225559597 0 -0.1014693111655476 -0.390712419775258 0 -0.1016559479587178 -0.38500202459504551 0 -0.091585827134305964 -0.3839926061052007 0 -0.1016559479587178 -0.38500202459504551 0 -0.1014693111655476 -0.390712419775258 0 -0.093729726096669103 -0.3869476153003294 0 -0.1016559479587178 -0.38500202459504551 0 -0.091585827134305964 -0.3839926061052007 0 -0.093729726096669103 -0.3869476153003294 0 -0.1014693111655476 -0.390712419775258 0 -0.093729726096669103 -0.3869476153003294 0 -0.1016559479587178 -0.38500202459504551 0 -0.095426438310298192 -0.37780241062099151 0 -0.091585827134305964 -0.3839926061052007 0 -0.100590797535087 -0.41759168573278821 0 -0.1012534234653099 -0.39731778446220639 0 -0.099487365185966847 -0.39952233119993291 0 -0.100590797535087 -0.41759168573278821 0 -0.094499944748829334 -0.39722631626938482 0 -0.099487365185966847 -0.39952233119993291 0 -0.1152538145686829 -0.39895411709426332 0 -0.1077648281157602 -0.39377477908459929 0 -0.1012534234653099 -0.39731778446220639 0 -0.1073228884697877 -0.3875649225559597 0 -0.1077648281157602 -0.39377477908459929 0 -0.1014693111655476 -0.390712419775258 0 -0.1077648281157602 -0.39377477908459929 0 -0.1012534234653099 -0.39731778446220639 0 -0.1014693111655476 -0.390712419775258 0 -0.1077648281157602 -0.39377477908459929 0 -0.1014693111655476 -0.390712419775258 0 -0.1012534234653099 -0.39731778446220639 0 -0.094499944748829334 -0.39722631626938482 0 -0.099487365185966847 -0.39952233119993291 0 -0.1012534234653099 -0.39731778446220639 0 -0.094499944748829334 -0.39722631626938482 0 -0.093729726096669103 -0.3869476153003294 0 -0.1012534234653099 -0.39731778446220639 0 -0.1014693111655476 -0.390712419775258 0 -0.093729726096669103 -0.3869476153003294 0 -0.1012534234653099 -0.39731778446220639 0 -0.093729726096669103 -0.3869476153003294 0 -0.1012534234653099 -0.39731778446220639 0 -0.1014693111655476 -0.390712419775258 0 -0.094499944748829334 -0.39722631626938482 0 -0.099487365185966847 -0.39952233119993291 0 -0.094499944748829334 -0.39722631626938482 0 -0.085553154766675646 -0.40134027138503481 0 -0.088610052547492879 -0.41006814396079783 0 -0.094499944748829334 -0.39722631626938482 0 -0.082560309743270749 -0.39172977139542609 0 -0.085553154766675646 -0.40134027138503481 0 -0.094499944748829334 -0.39722631626938482 0 -0.082560309743270749 -0.39172977139542609 0 -0.091033556626635648 -0.38563610430902873 0 -0.094499944748829334 -0.39722631626938482 0 -0.082560309743270749 -0.39172977139542609 0 -0.094499944748829334 -0.39722631626938482 0 -0.091033556626635648 -0.38563610430902873 0 -0.082560309743270749 -0.39172977139542609 0 -0.079097438192195432 -0.39013559964190198 0 -0.074673198083630793 -0.40544040024196493 0 -0.082560309743270749 -0.39172977139542609 0 -0.079097438192195432 -0.39013559964190198 0 -0.082560309743270749 -0.39172977139542609 0 -0.076542312027108539 -0.406336853914531 0 -0.082560309743270749 -0.39172977139542609 0 -0.085553154766675646 -0.40134027138503481 0 -0.076542312027108539 -0.406336853914531 0 -0.085553154766675646 -0.40134027138503481 0 -0.076542312027108539 -0.406336853914531 0 -0.088610052547492879 -0.41006814396079783 0 -0.090139611558562177 -0.37333304007799939 0 -0.088525620654428705 -0.37725057202694517 0 -0.088525620654428705 -0.37725057202694517 0 -0.087954911787112483 -0.37534235041220648 0 -0.08170780991661282 -0.38109255286014232 0 -0.090139611558562177 -0.37333304007799939 0 -0.088525620654428705 -0.37725057202694517 0 -0.087954911787112483 -0.37534235041220648 0 -0.088525620654428705 -0.37725057202694517 0 -0.087954911787112483 -0.37534235041220648 0 -0.090139611558562177 -0.37333304007799939 0 -0.095426438310298192 -0.37780241062099151 0 -0.088525620654428705 -0.37725057202694517 0 -0.088525620654428705 -0.37725057202694517 0 -0.091585827134305964 -0.3839926061052007 0 -0.095426438310298192 -0.37780241062099151 0 -0.088525620654428705 -0.37725057202694517 0 -0.091585827134305964 -0.3839926061052007 0 -0.088525620654428705 -0.37725057202694517 0 -0.086634605294488312 -0.38349630075200858 0 -0.088525620654428705 -0.37725057202694517 0 -0.086634605294488312 -0.38349630075200858 0 -0.091585827134305964 -0.3839926061052007 0 -0.082560309743270749 -0.39172977139542609 0 -0.086634605294488312 -0.38349630075200858 0 -0.091033556626635648 -0.38563610430902873 0 -0.094499944748829334 -0.39722631626938482 0 -0.091033556626635648 -0.38563610430902873 0 -0.093729726096669103 -0.3869476153003294 0 -0.086634605294488312 -0.38349630075200858 0 -0.091585827134305964 -0.3839926061052007 0 -0.086634605294488312 -0.38349630075200858 0 -0.091033556626635648 -0.38563610430902873 0 -0.086634605294488312 -0.38349630075200858 0 -0.091585827134305964 -0.3839926061052007 0 -0.091033556626635648 -0.38563610430902873 0 -0.091585827134305964 -0.3839926061052007 0 -0.091033556626635648 -0.38563610430902873 0 -0.093729726096669103 -0.3869476153003294 0 -0.091033556626635648 -0.38563610430902873 0 -0.093729726096669103 -0.3869476153003294 0 -0.091585827134305964 -0.3839926061052007 0 -0.093729726096669103 -0.3869476153003294 0 -0.091585827134305964 -0.3839926061052007 0 -0.091033556626635648 -0.38563610430902873 0 -0.082560309743270749 -0.39172977139542609 0 -0.086634605294488312 -0.38349630075200858 0 -0.082560309743270749 -0.39172977139542609 0 -0.086634605294488312 -0.38349630075200858 0 -0.081174899406055781 -0.38294902548401538 0 -0.082560309743270749 -0.39172977139542609 0 -0.079097438192195432 -0.39013559964190198 0 -0.081174899406055781 -0.38294902548401538 0 -0.079097438192195432 -0.39013559964190198 0 -0.081174899406055781 -0.38294902548401538 0 -0.074281153156084773 -0.38791836881244668 0 -0.079097438192195432 -0.39013559964190198 0 -0.081174899406055781 -0.38294902548401538 0 -0.086634605294488312 -0.38349630075200858 0 -0.081174899406055781 -0.38294902548401538 0 -0.088525620654428705 -0.37725057202694517 0 -0.086634605294488312 -0.38349630075200858 0 -0.08170780991661282 -0.38109255286014232 0 -0.086634605294488312 -0.38349630075200858 0 -0.081174899406055781 -0.38294902548401538 0 -0.08170780991661282 -0.38109255286014232 0 -0.086634605294488312 -0.38349630075200858 0 -0.08170780991661282 -0.38109255286014232 0 -0.081174899406055781 -0.38294902548401538 0 -0.08170780991661282 -0.38109255286014232 0 -0.087954911787112483 -0.37534235041220648 0 -0.08170780991661282 -0.38109255286014232 0 -0.055512870853615448 -0.39455951290216967 0 -0.058563253679506787 -0.38068245751723601 0 -0.074281153156084773 -0.38791836881244668 0 -0.058563253679506787 -0.38068245751723601 0 -0.074281153156084773 -0.38791836881244668 0 -0.058387822440418388 -0.36975607908058028 0 -0.08170780991661282 -0.38109255286014232 0 -0.058387822440418388 -0.36975607908058028 0 -0.081174899406055781 -0.38294902548401538 0 -0.08170780991661282 -0.38109255286014232 0 -0.058563253679506787 -0.38068245751723601 0 -0.081174899406055781 -0.38294902548401538 0 -0.074281153156084773 -0.38791836881244668 0 -0.058563253679506787 -0.38068245751723601 0 -0.081174899406055781 -0.38294902548401538 0 -0.058387822440418388 -0.36975607908058028 0 -0.058563253679506787 -0.38068245751723601 0 -0.081174899406055781 -0.38294902548401538 0 -0.081174899406055781 -0.38294902548401538 0 -0.074281153156084773 -0.38791836881244668 0 -0.079097438192195432 -0.39013559964190198 0 -0.074281153156084773 -0.38791836881244668 0 -0.079097438192195432 -0.39013559964190198 0 -0.074281153156084773 -0.38791836881244668 0 -0.074673198083630793 -0.40544040024196493 0 -0.052509649903146327 -0.40794203844841681 0 -0.074281153156084773 -0.38791836881244668 0 -0.052509649903146327 -0.40794203844841681 0 -0.074281153156084773 -0.38791836881244668 0 -0.074673198083630793 -0.40544040024196493 0 -0.082560309743270749 -0.39172977139542609 0 -0.074673198083630793 -0.40544040024196493 0 -0.076542312027108539 -0.406336853914531 0 -0.079097438192195432 -0.39013559964190198 0 -0.074673198083630793 -0.40544040024196493 0 -0.052509649903146327 -0.40794203844841681 0 -0.074673198083630793 -0.40544040024196493 0 -0.070248957975066639 -0.42074520084202788 0 -0.076542312027108539 -0.406336853914531 0 -0.070248957975066639 -0.42074520084202788 0 -0.074673198083630793 -0.40544040024196493 0 -0.070248957975066639 -0.42074520084202788 0 -0.074673198083630793 -0.40544040024196493 0 -0.076542312027108539 -0.406336853914531 0 -0.070248957975066639 -0.42074520084202788 0 -0.070248957975066639 -0.42074520084202788 0 -0.077246521605040669 -0.42579562012280953 0 -0.078194253298280558 -0.41865647959270891 0 -0.076542312027108539 -0.406336853914531 0 -0.070248957975066639 -0.42074520084202788 0 -0.078194253298280558 -0.41865647959270891 0 -0.059775586818595829 -0.41787661413097049 0 -0.070248957975066639 -0.42074520084202788 0 -0.069408814394604765 -0.42365151461769918 0 -0.060002998013559863 -0.44648162232419802 0 -0.069408814394604765 -0.42365151461769918 0 -0.070248957975066639 -0.42074520084202788 0 -0.069408814394604765 -0.42365151461769918 0 -0.077098496045509793 -0.43873696019506903 0 -0.069408814394604765 -0.42365151461769918 0 -0.077246521605040669 -0.42579562012280953 0 -0.070248957975066639 -0.42074520084202788 0 -0.069408814394604765 -0.42365151461769918 0 -0.077246521605040669 -0.42579562012280953 0 -0.070248957975066639 -0.42074520084202788 0 -0.077246521605040669 -0.42579562012280953 0 -0.077246521605040669 -0.42579562012280953 0 -0.082943237868067593 -0.4239856173255338 0 -0.078194253298280558 -0.41865647959270891 0 -0.077098496045509793 -0.43873696019506903 0 -0.082943237868067593 -0.4239856173255338 0 -0.092016620863508841 -0.4218345739943074 0 -0.077098496045509793 -0.43873696019506903 0 -0.089545628933694749 -0.43673796215895883 0 -0.092016620863508841 -0.4218345739943074 0 -0.077098496045509793 -0.43873696019506903 0 -0.092016620863508841 -0.4218345739943074 0 -0.077098496045509793 -0.43873696019506903 0 -0.077246521605040669 -0.42579562012280953 0 -0.082943237868067593 -0.4239856173255338 0 -0.100590797535087 -0.41759168573278821 0 -0.092016620863508841 -0.4218345739943074 0 -0.088610052547492879 -0.41006814396079783 0 -0.082943237868067593 -0.4239856173255338 0 -0.092016620863508841 -0.4218345739943074 0 -0.083714880680240453 -0.41622037016703428 0 -0.092016620863508841 -0.4218345739943074 0 -0.088610052547492879 -0.41006814396079783 0 -0.083714880680240453 -0.41622037016703428 0 -0.076542312027108539 -0.406336853914531 0 -0.088610052547492879 -0.41006814396079783 0 -0.083714880680240453 -0.41622037016703428 0 -0.076542312027108539 -0.406336853914531 0 -0.078194253298280558 -0.41865647959270891 0 -0.083714880680240453 -0.41622037016703428 0 -0.082943237868067593 -0.4239856173255338 0 -0.078194253298280558 -0.41865647959270891 0 -0.083714880680240453 -0.41622037016703428 0 -0.081808777729522386 -0.083143660930833002 0 -0.073985000225153141 -0.099795971436559522 0 -0.085935801107842547 -0.09579043756499836 0 -0.081808777729522386 -0.083143660930833002 0 -0.085935801107842547 -0.09579043756499836 0 -0.094306078709463503 -0.087148618235937392 0 -0.081808777729522386 -0.083143660930833002 0 -0.094306078709463503 -0.087148618235937392 0 -0.095869533599057435 -0.074719864200214883 0 -0.081808777729522386 -0.083143660930833002 0 -0.087640100333796281 -0.066301869750421821 0 -0.076351800502585221 -0.068318825045574613 0 -0.081808777729522386 -0.083143660930833002 0 -0.087640100333796281 -0.066301869750421821 0 -0.095869533599057435 -0.074719864200214883 0 -0.087640100333796281 -0.066301869750421821 0 -0.095869533599057435 -0.074719864200214883 0 -0.097041901727127691 -0.062312633498474219 0 -0.087640100333796281 -0.066301869750421821 0 -0.076351800502585221 -0.068318825045574613 0 -0.079773765115028039 -0.057914828426178573 0 -0.081808777729522386 -0.083143660930833002 0 -0.076351800502585221 -0.068318825045574613 0 -0.068001603171865072 -0.074911341683796137 0 -0.068001603171865072 -0.074911341683796137 0 -0.065822825648978775 -0.060485584973140792 0 -0.05753372126900759 -0.073422836261521005 0 -0.076351800502585221 -0.068318825045574613 0 -0.068001603171865072 -0.074911341683796137 0 -0.065822825648978775 -0.060485584973140792 0 -0.068001603171865072 -0.074911341683796137 0 -0.066670257350634976 -0.085780572793309681 0 -0.05753372126900759 -0.073422836261521005 0 -0.081808777729522386 -0.083143660930833002 0 -0.066670257350634976 -0.085780572793309681 0 -0.073985000225153141 -0.099795971436559522 0 -0.081808777729522386 -0.083143660930833002 0 -0.068001603171865072 -0.074911341683796137 0 -0.066670257350634976 -0.085780572793309681 0 -0.066670257350634976 -0.085780572793309681 0 -0.073985000225153141 -0.099795971436559522 0 -0.05982498813170789 -0.10249801488187529 0 -0.073985000225153141 -0.099795971436559522 0 -0.065415314349395459 -0.11473522154729129 0 -0.05982498813170789 -0.10249801488187529 0 -0.073985000225153141 -0.099795971436559522 0 -0.065415314349395459 -0.11473522154729129 0 -0.07727601190464152 -0.1134926659633375 0 -0.065415314349395459 -0.11473522154729129 0 -0.060446148579459319 -0.1303024678998376 0 -0.071674103496310607 -0.1250344835198243 0 -0.07727601190464152 -0.1134926659633375 0 -0.082994471061899833 -0.1234246307735777 0 -0.071674103496310607 -0.1250344835198243 0 -0.065415314349395459 -0.11473522154729129 0 -0.07727601190464152 -0.1134926659633375 0 -0.071674103496310607 -0.1250344835198243 0 -0.07727601190464152 -0.1134926659633375 0 -0.082994471061899833 -0.1234246307735777 0 -0.08680817640523622 -0.1078855820033275 0 -0.082994471061899833 -0.1234246307735777 0 -0.08680817640523622 -0.1078855820033275 0 -0.095277368860953449 -0.1178446661751102 0 -0.082994471061899833 -0.1234246307735777 0 -0.095277368860953449 -0.1178446661751102 0 -0.095971306836852913 -0.13086642389395989 0 -0.085935801107842547 -0.09579043756499836 0 -0.08680817640523622 -0.1078855820033275 0 -0.1020424425883536 -0.1015565670732166 0 -0.073985000225153141 -0.099795971436559522 0 -0.085935801107842547 -0.09579043756499836 0 -0.08680817640523622 -0.1078855820033275 0 -0.073985000225153141 -0.099795971436559522 0 -0.07727601190464152 -0.1134926659633375 0 -0.08680817640523622 -0.1078855820033275 0 -0.085935801107842547 -0.09579043756499836 0 -0.1020424425883536 -0.1015565670732166 0 -0.094306078709463503 -0.087148618235937392 0 -0.08680817640523622 -0.1078855820033275 0 -0.1020424425883536 -0.1015565670732166 0 -0.095277368860953449 -0.1178446661751102 0 -0.1020424425883536 -0.1015565670732166 0 -0.095277368860953449 -0.1178446661751102 0 -0.1085913382140784 -0.11903379143832921 0 -0.095277368860953449 -0.1178446661751102 0 -0.1085913382140784 -0.11903379143832921 0 -0.095971306836852913 -0.13086642389395989 0 -0.1085913382140784 -0.11903379143832921 0 -0.11893842975153809 -0.10446969177473921 0 -0.12736410167423581 -0.1213878944680517 0 -0.1020424425883536 -0.1015565670732166 0 -0.11893842975153809 -0.10446969177473921 0 -0.1189291253072135 -0.086669643832799348 0 -0.1020424425883536 -0.1015565670732166 0 -0.1085913382140784 -0.11903379143832921 0 -0.11893842975153809 -0.10446969177473921 0 -0.1189291253072135 -0.086669643832799348 0 -0.1056068239719813 -0.08097964138995771 0 -0.1139735316209595 -0.069866863539540053 0 -0.1020424425883536 -0.1015565670732166 0 -0.1189291253072135 -0.086669643832799348 0 -0.1056068239719813 -0.08097964138995771 0 -0.1020424425883536 -0.1015565670732166 0 -0.1056068239719813 -0.08097964138995771 0 -0.094306078709463503 -0.087148618235937392 0 -0.1056068239719813 -0.08097964138995771 0 -0.094306078709463503 -0.087148618235937392 0 -0.095869533599057435 -0.074719864200214883 0 -0.095869533599057435 -0.074719864200214883 0 -0.1039382096783972 -0.069282752438140638 0 -0.097041901727127691 -0.062312633498474219 0 -0.1056068239719813 -0.08097964138995771 0 -0.1039382096783972 -0.069282752438140638 0 -0.1139735316209595 -0.069866863539540053 0 -0.1056068239719813 -0.08097964138995771 0 -0.095869533599057435 -0.074719864200214883 0 -0.1039382096783972 -0.069282752438140638 0 -0.1039382096783972 -0.069282752438140638 0 -0.097041901727127691 -0.062312633498474219 0 -0.1071992574728602 -0.058534759562516372 0 -0.1039382096783972 -0.069282752438140638 0 -0.1139735316209595 -0.069866863539540053 0 -0.1071992574728602 -0.058534759562516372 0 -0.1189291253072135 -0.086669643832799348 0 -0.1139735316209595 -0.069866863539540053 0 -0.12930964035960699 -0.069761515268982097 0 -0.1139735316209595 -0.069866863539540053 0 -0.1161384697585349 -0.056806249932135858 0 -0.12930964035960699 -0.069761515268982097 0 -0.1161384697585349 -0.056806249932135858 0 -0.1208541397454049 -0.045822468476665427 0 -0.12930964035960699 -0.069761515268982097 0 -0.1248214427799455 -0.0491876577223027 0 -0.1208541397454049 -0.045822468476665427 0 -0.12930964035960699 -0.069761515268982097 0 -0.1161384697585349 -0.056806249932135858 0 -0.10991932193075039 -0.048940588969216672 0 -0.1071992574728602 -0.058534759562516372 0 -0.1139735316209595 -0.069866863539540053 0 -0.1161384697585349 -0.056806249932135858 0 -0.1071992574728602 -0.058534759562516372 0 -0.1161384697585349 -0.056806249932135858 0 -0.10991932193075039 -0.048940588969216672 0 -0.1149357203506014 -0.047989794102068162 0 -0.1161384697585349 -0.056806249932135858 0 -0.1149357203506014 -0.047989794102068162 0 -0.1208541397454049 -0.045822468476665427 0 -0.1248214427799455 -0.0491876577223027 0 -0.1208541397454049 -0.045822468476665427 0 -0.1246368416492639 -0.024787675353444869 0 -0.1128309499677153 -0.040389869030254703 0 -0.10841128816168021 -0.033720593740292633 0 -0.11239863913120279 -0.021883421684348751 0 -0.1208541397454049 -0.045822468476665427 0 -0.11239863913120279 -0.021883421684348751 0 -0.1208541397454049 -0.045822468476665427 0 -0.1128309499677153 -0.040389869030254703 0 -0.11239863913120279 -0.021883421684348751 0 -0.1248214427799455 -0.0491876577223027 0 -0.1246368416492639 -0.024787675353444869 0 -0.1149357203506014 -0.047989794102068162 0 -0.1208541397454049 -0.045822468476665427 0 -0.1128309499677153 -0.040389869030254703 0 -0.10991932193075039 -0.048940588969216672 0 -0.1149357203506014 -0.047989794102068162 0 -0.1128309499677153 -0.040389869030254703 0 -0.10991932193075039 -0.048940588969216672 0 -0.1128309499677153 -0.040389869030254703 0 -0.1049963107845597 -0.040407454994133042 0 -0.10991932193075039 -0.048940588969216672 0 -0.1049963107845597 -0.040407454994133042 0 -0.1002598709818909 -0.049694841596422852 0 -0.1049963107845597 -0.040407454994133042 0 -0.10841128816168021 -0.033720593740292633 0 -0.1012581714839781 -0.029848849592015819 0 -0.1128309499677153 -0.040389869030254703 0 -0.1049963107845597 -0.040407454994133042 0 -0.10841128816168021 -0.033720593740292633 0 -0.097298262181343159 -0.039849987036595598 0 -0.1012581714839781 -0.029848849592015819 0 -0.091929659262116575 -0.033133953101480262 0 -0.1049963107845597 -0.040407454994133042 0 -0.097298262181343159 -0.039849987036595598 0 -0.1012581714839781 -0.029848849592015819 0 -0.1049963107845597 -0.040407454994133042 0 -0.097298262181343159 -0.039849987036595598 0 -0.1002598709818909 -0.049694841596422852 0 -0.097298262181343159 -0.039849987036595598 0 -0.1002598709818909 -0.049694841596422852 0 -0.087030839425688053 -0.044306376809862227 0 -0.1002598709818909 -0.049694841596422852 0 -0.097041901727127691 -0.062312633498474219 0 -0.1071992574728602 -0.058534759562516372 0 -0.1002598709818909 -0.049694841596422852 0 -0.097041901727127691 -0.062312633498474219 0 -0.090164156554830718 -0.055563028782557922 0 -0.10991932193075039 -0.048940588969216672 0 -0.1002598709818909 -0.049694841596422852 0 -0.1071992574728602 -0.058534759562516372 0 -0.1244522405185825 -0.00038769298458709092 0 -0.11239863913120279 -0.021883421684348751 0 -0.10394313851700079 0.0020556251079679459 0 -0.1244522405185825 -0.00038769298458709092 0 -0.1246368416492639 -0.024787675353444869 0 -0.1244522405185825 -0.00038769298458709092 0 -0.11239863913120279 -0.021883421684348751 0 -0.1246368416492639 -0.024787675353444869 0 -0.1208541397454049 -0.045822468476665427 0 -0.11239863913120279 -0.021883421684348751 0 -0.1246368416492639 -0.024787675353444869 0 -0.10841128816168021 -0.033720593740292633 0 -0.11239863913120279 -0.021883421684348751 0 -0.1012581714839781 -0.029848849592015819 0 -0.1012581714839781 -0.029848849592015819 0 -0.090677970328949406 -0.022917020247476879 0 -0.091929659262116575 -0.033133953101480262 0 -0.1012581714839781 -0.029848849592015819 0 -0.1001126671493681 -0.016491083843961009 0 -0.090677970328949406 -0.022917020247476879 0 -0.1001126671493681 -0.016491083843961009 0 -0.092285416285709382 -0.0098617528039315269 0 -0.090677970328949406 -0.022917020247476879 0 -0.11239863913120279 -0.021883421684348751 0 -0.1012581714839781 -0.029848849592015819 0 -0.1001126671493681 -0.016491083843961009 0 -0.1001126671493681 -0.016491083843961009 0 -0.092285416285709382 -0.0098617528039315269 0 -0.10394313851700079 0.0020556251079679459 0 -0.11239863913120279 -0.021883421684348751 0 -0.1001126671493681 -0.016491083843961009 0 -0.10394313851700079 0.0020556251079679459 0 -0.092285416285709382 -0.0098617528039315269 0 -0.10394313851700079 0.0020556251079679459 0 -0.085958893623968774 0.001514634656162053 0 -0.11239863913120279 -0.021883421684348751 0 -0.10394313851700079 0.0020556251079679459 0 -0.092285416285709382 -0.0098617528039315269 0 -0.077949881484559239 -0.01307625006729682 0 -0.085958893623968774 0.001514634656162053 0 -0.092285416285709382 -0.0098617528039315269 0 -0.090677970328949406 -0.022917020247476879 0 -0.077949881484559239 -0.01307625006729682 0 -0.090677970328949406 -0.022917020247476879 0 -0.073841780976804383 -0.025706854857452392 0 -0.077949881484559239 -0.01307625006729682 0 -0.090677970328949406 -0.022917020247476879 0 -0.073841780976804383 -0.025706854857452392 0 -0.082102255714859004 -0.034759692131612618 0 -0.090677970328949406 -0.022917020247476879 0 -0.091929659262116575 -0.033133953101480262 0 -0.082102255714859004 -0.034759692131612618 0 -0.073841780976804383 -0.025706854857452392 0 -0.077949881484559239 -0.01307625006729682 0 -0.060674527584339763 -0.015412449877807689 0 -0.073841780976804383 -0.025706854857452392 0 -0.060674527584339763 -0.015412449877807689 0 -0.060703590497751453 -0.03101491529774986 0 -0.077949881484559239 -0.01307625006729682 0 -0.085958893623968774 0.001514634656162053 0 -0.065648076432031049 0.00090955339710942099 0 -0.077949881484559239 -0.01307625006729682 0 -0.060674527584339763 -0.015412449877807689 0 -0.065648076432031049 0.00090955339710942099 0 -0.079773765115028039 -0.057914828426178573 0 -0.087030839425688053 -0.044306376809862227 0 -0.074827122987446398 -0.047817820925290022 0 -0.079773765115028039 -0.057914828426178573 0 -0.090164156554830718 -0.055563028782557922 0 -0.087030839425688053 -0.044306376809862227 0 -0.087640100333796281 -0.066301869750421821 0 -0.079773765115028039 -0.057914828426178573 0 -0.090164156554830718 -0.055563028782557922 0 -0.087640100333796281 -0.066301869750421821 0 -0.097041901727127691 -0.062312633498474219 0 -0.090164156554830718 -0.055563028782557922 0 -0.1002598709818909 -0.049694841596422852 0 -0.090164156554830718 -0.055563028782557922 0 -0.087030839425688053 -0.044306376809862227 0 -0.097298262181343159 -0.039849987036595598 0 -0.087030839425688053 -0.044306376809862227 0 -0.091929659262116575 -0.033133953101480262 0 -0.087030839425688053 -0.044306376809862227 0 -0.091929659262116575 -0.033133953101480262 0 -0.082102255714859004 -0.034759692131612618 0 -0.087030839425688053 -0.044306376809862227 0 -0.082102255714859004 -0.034759692131612618 0 -0.074827122987446398 -0.047817820925290022 0 -0.082102255714859004 -0.034759692131612618 0 -0.070942460250367517 -0.03706080152277047 0 -0.074827122987446398 -0.047817820925290022 0 -0.073841780976804383 -0.025706854857452392 0 -0.082102255714859004 -0.034759692131612618 0 -0.070942460250367517 -0.03706080152277047 0 -0.073841780976804383 -0.025706854857452392 0 -0.070942460250367517 -0.03706080152277047 0 -0.060703590497751453 -0.03101491529774986 0 -0.070942460250367517 -0.03706080152277047 0 -0.061850736208416378 -0.044087883634974623 0 -0.060703590497751453 -0.03101491529774986 0 -0.070942460250367517 -0.03706080152277047 0 -0.074827122987446398 -0.047817820925290022 0 -0.061850736208416378 -0.044087883634974623 0 -0.074827122987446398 -0.047817820925290022 0 -0.065822825648978775 -0.060485584973140792 0 -0.061850736208416378 -0.044087883634974623 0 -0.079773765115028039 -0.057914828426178573 0 -0.074827122987446398 -0.047817820925290022 0 -0.065822825648978775 -0.060485584973140792 0 -0.076351800502585221 -0.068318825045574613 0 -0.079773765115028039 -0.057914828426178573 0 -0.065822825648978775 -0.060485584973140792 0 -0.065822825648978775 -0.060485584973140792 0 -0.051906109188989122 -0.051634581827710108 0 -0.055146373663134192 -0.063188587977351315 0 -0.065822825648978775 -0.060485584973140792 0 -0.051906109188989122 -0.051634581827710108 0 -0.061850736208416378 -0.044087883634974623 0 -0.051906109188989122 -0.051634581827710108 0 -0.044968642856814678 -0.064628327886466996 0 -0.055146373663134192 -0.063188587977351315 0 -0.061850736208416378 -0.044087883634974623 0 -0.048286593140243993 -0.039377229684959138 0 -0.060703590497751453 -0.03101491529774986 0 -0.051906109188989122 -0.051634581827710108 0 -0.061850736208416378 -0.044087883634974623 0 -0.048286593140243993 -0.039377229684959138 0 -0.048286593140243993 -0.039377229684959138 0 -0.039642814346724391 -0.052475069278980747 0 -0.030584103036016622 -0.035608219704199993 0 -0.039642814346724391 -0.052475069278980747 0 -0.024435088609687641 -0.049746151716912712 0 -0.030584103036016622 -0.035608219704199993 0 -0.048286593140243993 -0.039377229684959138 0 -0.044331283213942488 -0.020119990811347448 0 -0.030584103036016622 -0.035608219704199993 0 -0.039642814346724391 -0.052475069278980747 0 -0.03034189778213453 -0.060014988360291517 0 -0.024435088609687641 -0.049746151716912712 0 -0.039642814346724391 -0.052475069278980747 0 -0.03034189778213453 -0.060014988360291517 0 -0.044968642856814678 -0.064628327886466996 0 -0.051906109188989122 -0.051634581827710108 0 -0.039642814346724391 -0.052475069278980747 0 -0.044968642856814678 -0.064628327886466996 0 -0.051906109188989122 -0.051634581827710108 0 -0.048286593140243993 -0.039377229684959138 0 -0.039642814346724391 -0.052475069278980747 0 -0.060674527584339763 -0.015412449877807689 0 -0.044331283213942488 -0.020119990811347448 0 -0.045118160941850949 -0.00049033847668307538 0 -0.060674527584339763 -0.015412449877807689 0 -0.045118160941850949 -0.00049033847668307538 0 -0.065648076432031049 0.00090955339710942099 0 -0.048286593140243993 -0.039377229684959138 0 -0.060703590497751453 -0.03101491529774986 0 -0.044331283213942488 -0.020119990811347448 0 -0.060674527584339763 -0.015412449877807689 0 -0.060703590497751453 -0.03101491529774986 0 -0.044331283213942488 -0.020119990811347448 0 -0.044331283213942488 -0.020119990811347448 0 -0.027025641752002061 -0.0079319500279313396 0 -0.030584103036016622 -0.035608219704199993 0 -0.044331283213942488 -0.020119990811347448 0 -0.045118160941850949 -0.00049033847668307538 0 -0.027025641752002061 -0.0079319500279313396 0 -0.027025641752002061 -0.0079319500279313396 0 -0.0118242871531395 -0.020545428430059291 0 -0.0091716063734174208 -0.003332990253060792 0 -0.027025641752002061 -0.0079319500279313396 0 -0.0091716063734174208 -0.003332990253060792 0 -0.01566814095190756 0.010235570601176981 0 -0.027025641752002061 -0.0079319500279313396 0 -0.0118242871531395 -0.020545428430059291 0 -0.030584103036016622 -0.035608219704199993 0 -0.0118242871531395 -0.020545428430059291 0 -0.030584103036016622 -0.035608219704199993 0 -0.0118242871531395 -0.020545428430059291 0 0.006935528729737548 -0.0054826371559186567 0 0.0027408304473846411 -0.028176541972939319 0 -0.0118242871531395 -0.020545428430059291 0 -0.01026660782967455 -0.041229232136501717 0 0.0027408304473846411 -0.028176541972939319 0 -0.0118242871531395 -0.020545428430059291 0 -0.0091716063734174208 -0.003332990253060792 0 0.006935528729737548 -0.0054826371559186567 0 -0.0118242871531395 -0.020545428430059291 0 0.006935528729737548 -0.0054826371559186567 0 -0.024435088609687641 -0.049746151716912712 0 -0.01026660782967455 -0.041229232136501717 0 -0.01499476028908407 -0.06055090283160456 0 -0.03034189778213453 -0.060014988360291517 0 -0.01499476028908407 -0.06055090283160456 0 -0.03034189778213453 -0.060014988360291517 0 -0.024435088609687641 -0.049746151716912712 0 -0.01499476028908407 -0.06055090283160456 0 -0.024435088609687641 -0.049746151716912712 0 -0.030584103036016622 -0.035608219704199993 0 -0.01026660782967455 -0.041229232136501717 0 -0.0118242871531395 -0.020545428430059291 0 -0.030584103036016622 -0.035608219704199993 0 -0.01026660782967455 -0.041229232136501717 0 -0.01026660782967455 -0.041229232136501717 0 0.0096258971738255473 -0.043108802377643002 0 0.00035237720396625368 -0.061086817302918282 0 -0.01026660782967455 -0.041229232136501717 0 -0.01499476028908407 -0.06055090283160456 0 0.00035237720396625368 -0.061086817302918282 0 -0.01499476028908407 -0.06055090283160456 0 0.00035237720396625368 -0.061086817302918282 0 -0.011408129540087309 -0.083886203777590068 0 0.0065051428120863272 -0.082127796022149757 0 0.00035237720396625368 -0.061086817302918282 0 -0.011408129540087309 -0.083886203777590068 0 0.00035237720396625368 -0.061086817302918282 0 -0.01499476028908407 -0.06055090283160456 0 -0.011408129540087309 -0.083886203777590068 0 0.00035237720396625368 -0.061086817302918282 0 -0.011408129540087309 -0.083886203777590068 0 0.001856719827670471 -0.098182337095309047 0 0.0065051428120863272 -0.082127796022149757 0 -0.011408129540087309 -0.083886203777590068 0 -0.03053113156520738 -0.089911417014305078 0 -0.02316863628414112 -0.10668559025226169 0 -0.011408129540087309 -0.083886203777590068 0 -0.03053113156520738 -0.089911417014305078 0 -0.026049830403481512 -0.075342802050597457 0 -0.01499476028908407 -0.06055090283160456 0 -0.011408129540087309 -0.083886203777590068 0 -0.026049830403481512 -0.075342802050597457 0 -0.03034189778213453 -0.060014988360291517 0 -0.01499476028908407 -0.06055090283160456 0 -0.026049830403481512 -0.075342802050597457 0 -0.03034189778213453 -0.060014988360291517 0 -0.026049830403481512 -0.075342802050597457 0 -0.041349905228919973 -0.078428718904655664 0 -0.03034189778213453 -0.060014988360291517 0 -0.044968642856814678 -0.064628327886466996 0 -0.041349905228919973 -0.078428718904655664 0 -0.03053113156520738 -0.089911417014305078 0 -0.026049830403481512 -0.075342802050597457 0 -0.041349905228919973 -0.078428718904655664 0 -0.03053113156520738 -0.089911417014305078 0 -0.041349905228919973 -0.078428718904655664 0 -0.047432501145458397 -0.097370211357339573 0 -0.041349905228919973 -0.078428718904655664 0 -0.053879666709155317 -0.08598560359304859 0 -0.05753372126900759 -0.073422836261521005 0 -0.041349905228919973 -0.078428718904655664 0 -0.053879666709155317 -0.08598560359304859 0 -0.047432501145458397 -0.097370211357339573 0 -0.066670257350634976 -0.085780572793309681 0 -0.053879666709155317 -0.08598560359304859 0 -0.05982498813170789 -0.10249801488187529 0 -0.066670257350634976 -0.085780572793309681 0 -0.053879666709155317 -0.08598560359304859 0 -0.05753372126900759 -0.073422836261521005 0 -0.044968642856814678 -0.064628327886466996 0 -0.041349905228919973 -0.078428718904655664 0 -0.05753372126900759 -0.073422836261521005 0 -0.065822825648978775 -0.060485584973140792 0 -0.05753372126900759 -0.073422836261521005 0 -0.055146373663134192 -0.063188587977351315 0 -0.044968642856814678 -0.064628327886466996 0 -0.05753372126900759 -0.073422836261521005 0 -0.055146373663134192 -0.063188587977351315 0 -0.065415314349395459 -0.11473522154729129 0 -0.048239208743362072 -0.1165718691901324 0 -0.05982498813170789 -0.10249801488187529 0 -0.065415314349395459 -0.11473522154729129 0 -0.048239208743362072 -0.1165718691901324 0 -0.060446148579459319 -0.1303024678998376 0 -0.048239208743362072 -0.1165718691901324 0 -0.05982498813170789 -0.10249801488187529 0 -0.047432501145458397 -0.097370211357339573 0 -0.053879666709155317 -0.08598560359304859 0 -0.05982498813170789 -0.10249801488187529 0 -0.047432501145458397 -0.097370211357339573 0 -0.048239208743362072 -0.1165718691901324 0 -0.047432501145458397 -0.097370211357339573 0 -0.02316863628414112 -0.10668559025226169 0 -0.03053113156520738 -0.089911417014305078 0 -0.047432501145458397 -0.097370211357339573 0 -0.02316863628414112 -0.10668559025226169 0 -0.048239208743362072 -0.1165718691901324 0 -0.02316863628414112 -0.10668559025226169 0 -0.029948833034415319 -0.13246817914486481 0 -0.02316863628414112 -0.10668559025226169 0 -0.01250087523651249 -0.12826546419306251 0 -0.029948833034415319 -0.13246817914486481 0 -0.011408129540087309 -0.083886203777590068 0 -0.02316863628414112 -0.10668559025226169 0 -0.02316863628414112 -0.10668559025226169 0 0.0015243557028834459 -0.11711868301268021 0 0.001856719827670471 -0.098182337095309047 0 -0.011408129540087309 -0.083886203777590068 0 -0.02316863628414112 -0.10668559025226169 0 0.001856719827670471 -0.098182337095309047 0 -0.02316863628414112 -0.10668559025226169 0 -0.01250087523651249 -0.12826546419306251 0 0.0015243557028834459 -0.11711868301268021 0 -0.01250087523651249 -0.12826546419306251 0 -0.013317386200938249 -0.14799664519887931 0 0.0088678229424013627 -0.13941235935176011 0 -0.01250087523651249 -0.12826546419306251 0 0.0088678229424013627 -0.13941235935176011 0 0.0015243557028834459 -0.11711868301268021 0 -0.01250087523651249 -0.12826546419306251 0 -0.029948833034415319 -0.13246817914486481 0 -0.013317386200938249 -0.14799664519887931 0 -0.013317386200938249 -0.14799664519887931 0 -0.035502595344277812 -0.15658093104599841 0 -0.029948833034415319 -0.13246817914486481 0 -0.013317386200938249 -0.14799664519887931 0 -0.035502595344277812 -0.15658093104599841 0 -0.013317386200938249 -0.14799664519887931 0 0.0088678229424013627 -0.13941235935176011 0 -0.013317386200938249 -0.14799664519887931 0 0.0027310736070901482 -0.15493719994590471 0 0.0088678229424013627 -0.13941235935176011 0 -0.013317386200938249 -0.14799664519887931 0 -0.0013673002328405961 -0.1767093328090546 0 0.0027310736070901482 -0.15493719994590471 0 -0.013317386200938249 -0.14799664519887931 0 -0.0013673002328405961 -0.1767093328090546 0 -0.029934926785222919 -0.1776443960910804 0 -0.0013673002328405961 -0.1767093328090546 0 -0.0217915143334447 -0.19785215020996011 0 -0.0013673002328405961 -0.1767093328090546 0 -0.029934926785222919 -0.1776443960910804 0 -0.0217915143334447 -0.19785215020996011 0 -0.013317386200938249 -0.14799664519887931 0 -0.029934926785222919 -0.1776443960910804 0 -0.035502595344277812 -0.15658093104599841 0 -0.035502595344277812 -0.15658093104599841 0 -0.057687804487617317 -0.16516521689311761 0 -0.029934926785222919 -0.1776443960910804 0 -0.035502595344277812 -0.15658093104599841 0 -0.057687804487617317 -0.16516521689311761 0 -0.029934926785222919 -0.1776443960910804 0 -0.048583433801033478 -0.18728911877980611 0 -0.034676635542126917 -0.191298641696723 0 -0.029934926785222919 -0.1776443960910804 0 -0.048583433801033478 -0.18728911877980611 0 -0.057687804487617317 -0.16516521689311761 0 -0.048583433801033478 -0.18728911877980611 0 -0.057687804487617317 -0.16516521689311761 0 -0.063770138428779252 -0.18079669395549949 0 -0.035502595344277812 -0.15658093104599841 0 -0.057687804487617317 -0.16516521689311761 0 -0.06059931965736505 -0.14742373122833671 0 -0.035502595344277812 -0.15658093104599841 0 -0.06059931965736505 -0.14742373122833671 0 -0.046947221071775923 -0.13666943570183401 0 -0.048239208743362072 -0.1165718691901324 0 -0.046947221071775923 -0.13666943570183401 0 -0.060446148579459319 -0.1303024678998376 0 -0.06059931965736505 -0.14742373122833671 0 -0.046947221071775923 -0.13666943570183401 0 -0.060446148579459319 -0.1303024678998376 0 -0.048239208743362072 -0.1165718691901324 0 -0.029948833034415319 -0.13246817914486481 0 -0.046947221071775923 -0.13666943570183401 0 -0.029948833034415319 -0.13246817914486481 0 -0.035502595344277812 -0.15658093104599841 0 -0.046947221071775923 -0.13666943570183401 0 -0.03064478186574425 -0.25326356670072259 0 -0.026067501294639708 -0.24850247980592871 0 -0.033387688564450117 -0.24425465961654741 0 -0.026067501294639708 -0.24850247980592871 0 -0.02456862519526215 -0.24210395604782819 0 -0.033387688564450117 -0.24425465961654741 0 -0.02974340118516787 -0.23585106297766359 0 -0.02456862519526215 -0.24210395604782819 0 -0.02062871475200042 -0.2320366992723622 0 -0.02974340118516787 -0.23585106297766359 0 -0.02456862519526215 -0.24210395604782819 0 -0.033387688564450117 -0.24425465961654741 0 -0.02456862519526215 -0.24210395604782819 0 -0.01660477195623393 -0.2403164687020414 0 -0.02062871475200042 -0.2320366992723622 0 -0.02456862519526215 -0.24210395604782819 0 -0.01660477195623393 -0.2403164687020414 0 -0.01887874476148543 -0.24814250919209771 0 -0.026067501294639708 -0.24850247980592871 0 -0.02456862519526215 -0.24210395604782819 0 -0.01887874476148543 -0.24814250919209771 0 -0.01660477195623393 -0.2403164687020414 0 -0.01887874476148543 -0.24814250919209771 0 -0.0080727856436109482 -0.2481099565327444 0 -0.0080727856436109482 -0.2481099565327444 0 -0.0084819670471955304 -0.2367225590632196 0 0.0055632338660241776 -0.24332209518663511 0 -0.01660477195623393 -0.2403164687020414 0 -0.0084819670471955304 -0.2367225590632196 0 -0.02062871475200042 -0.2320366992723622 0 -0.01660477195623393 -0.2403164687020414 0 -0.0080727856436109482 -0.2481099565327444 0 -0.0084819670471955304 -0.2367225590632196 0 -0.0084819670471955304 -0.2367225590632196 0 -0.0075276580997289226 -0.21896018305478171 0 0.0032521440618358652 -0.23009641691855939 0 -0.0084819670471955304 -0.2367225590632196 0 -0.0075276580997289226 -0.21896018305478171 0 -0.02062871475200042 -0.2320366992723622 0 -0.0075276580997289226 -0.21896018305478171 0 -0.02062871475200042 -0.2320366992723622 0 -0.024832472176938718 -0.21885173135413241 0 -0.02974340118516787 -0.23585106297766359 0 -0.02062871475200042 -0.2320366992723622 0 -0.031998745265470661 -0.22641465662269231 0 -0.02062871475200042 -0.2320366992723622 0 -0.024832472176938718 -0.21885173135413241 0 -0.031998745265470661 -0.22641465662269231 0 -0.0075276580997289226 -0.21896018305478171 0 -0.024832472176938718 -0.21885173135413241 0 -0.0217915143334447 -0.19785215020996011 0 -0.024832472176938718 -0.21885173135413241 0 -0.0217915143334447 -0.19785215020996011 0 -0.042215728434048867 -0.21899496761086559 0 -0.0075276580997289226 -0.21896018305478171 0 -0.0217915143334447 -0.19785215020996011 0 0.003555539334036632 -0.19934620758084881 0 -0.0013673002328405961 -0.1767093328090546 0 -0.0217915143334447 -0.19785215020996011 0 0.003555539334036632 -0.19934620758084881 0 -0.029934926785222919 -0.1776443960910804 0 -0.0217915143334447 -0.19785215020996011 0 -0.034676635542126917 -0.191298641696723 0 -0.0217915143334447 -0.19785215020996011 0 -0.034676635542126917 -0.191298641696723 0 -0.04224094911505525 -0.20168175555289891 0 -0.048583433801033478 -0.18728911877980611 0 -0.034676635542126917 -0.191298641696723 0 -0.04224094911505525 -0.20168175555289891 0 -0.048583433801033478 -0.18728911877980611 0 -0.058327232484387218 -0.2013044317948425 0 -0.063770138428779252 -0.18079669395549949 0 -0.048583433801033478 -0.18728911877980611 0 -0.04224094911505525 -0.20168175555289891 0 -0.058327232484387218 -0.2013044317948425 0 -0.058327232484387218 -0.2013044317948425 0 -0.04785115009529034 -0.21335122322519601 0 -0.065984069430329237 -0.21594808513783789 0 -0.04224094911505525 -0.20168175555289891 0 -0.058327232484387218 -0.2013044317948425 0 -0.04785115009529034 -0.21335122322519601 0 -0.04785115009529034 -0.21335122322519601 0 -0.065984069430329237 -0.21594808513783789 0 -0.04785115009529034 -0.21335122322519601 0 -0.050089297127046031 -0.22131182591420251 0 -0.065984069430329237 -0.21594808513783789 0 -0.0217915143334447 -0.19785215020996011 0 -0.042215728434048867 -0.21899496761086559 0 -0.0217915143334447 -0.19785215020996011 0 -0.04224094911505525 -0.20168175555289891 0 -0.042215728434048867 -0.21899496761086559 0 -0.04224094911505525 -0.20168175555289891 0 -0.04785115009529034 -0.21335122322519601 0 -0.042215728434048867 -0.21899496761086559 0 -0.04785115009529034 -0.21335122322519601 0 -0.042215728434048867 -0.21899496761086559 0 -0.050089297127046031 -0.22131182591420251 0 -0.024832472176938718 -0.21885173135413241 0 -0.031998745265470661 -0.22641465662269231 0 -0.042215728434048867 -0.21899496761086559 0 -0.031998745265470661 -0.22641465662269231 0 -0.042215728434048867 -0.21899496761086559 0 -0.041320068815934301 -0.22639292378782619 0 -0.031998745265470661 -0.22641465662269231 0 -0.041320068815934301 -0.22639292378782619 0 -0.038133232148655979 -0.23444534332888789 0 -0.02974340118516787 -0.23585106297766359 0 -0.031998745265470661 -0.22641465662269231 0 -0.038133232148655979 -0.23444534332888789 0 -0.041320068815934301 -0.22639292378782619 0 -0.052151212760384272 -0.22988480121754831 0 -0.038133232148655979 -0.23444534332888789 0 -0.042215728434048867 -0.21899496761086559 0 -0.041320068815934301 -0.22639292378782619 0 -0.050089297127046031 -0.22131182591420251 0 -0.041320068815934301 -0.22639292378782619 0 -0.050089297127046031 -0.22131182591420251 0 -0.052151212760384272 -0.22988480121754831 0 -0.0567919256119837 -0.24387644547435741 0 -0.065984069430329237 -0.21594808513783789 0 -0.050089297127046031 -0.22131182591420251 0 -0.052151212760384272 -0.22988480121754831 0 -0.065984069430329237 -0.21594808513783789 0 -0.052151212760384272 -0.22988480121754831 0 -0.0567919256119837 -0.24387644547435741 0 -0.065984069430329237 -0.21594808513783789 0 -0.052151212760384272 -0.22988480121754831 0 -0.0567919256119837 -0.24387644547435741 0 -0.045207486351244337 -0.24272005325013779 0 -0.046517308340487992 -0.25474718453952289 0 -0.0567919256119837 -0.24387644547435741 0 -0.045207486351244337 -0.24272005325013779 0 -0.038581934025118947 -0.25114857380685968 0 -0.046517308340487992 -0.25474718453952289 0 -0.045207486351244337 -0.24272005325013779 0 -0.052151212760384272 -0.22988480121754831 0 -0.045207486351244337 -0.24272005325013779 0 -0.038133232148655979 -0.23444534332888789 0 -0.02974340118516787 -0.23585106297766359 0 -0.038133232148655979 -0.23444534332888789 0 -0.033387688564450117 -0.24425465961654741 0 -0.045207486351244337 -0.24272005325013779 0 -0.038133232148655979 -0.23444534332888789 0 -0.033387688564450117 -0.24425465961654741 0 -0.038581934025118947 -0.25114857380685968 0 -0.03064478186574425 -0.25326356670072259 0 -0.033387688564450117 -0.24425465961654741 0 -0.038581934025118947 -0.25114857380685968 0 -0.045207486351244337 -0.24272005325013779 0 -0.033387688564450117 -0.24425465961654741 0 -0.076282262678724011 -0.24169347649274159 0 -0.094544528280961701 -0.23130979592197831 0 -0.1005321994236209 -0.2431127607729493 0 -0.090174700483665673 -0.26498018187443112 0 -0.076282262678724011 -0.24169347649274159 0 -0.1005321994236209 -0.2431127607729493 0 -0.063484538676239377 -0.26413124226689111 0 -0.0567919256119837 -0.24387644547435741 0 -0.076282262678724011 -0.24169347649274159 0 -0.0567919256119837 -0.24387644547435741 0 -0.076282262678724011 -0.24169347649274159 0 -0.076216545617433393 -0.2267874217425101 0 -0.0567919256119837 -0.24387644547435741 0 -0.076216545617433393 -0.2267874217425101 0 -0.065984069430329237 -0.21594808513783789 0 -0.076216545617433393 -0.2267874217425101 0 -0.089079986681209755 -0.21925571071859279 0 -0.065984069430329237 -0.21594808513783789 0 -0.076282262678724011 -0.24169347649274159 0 -0.076216545617433393 -0.2267874217425101 0 -0.089079986681209755 -0.21925571071859279 0 -0.076282262678724011 -0.24169347649274159 0 -0.089079986681209755 -0.21925571071859279 0 -0.076282262678724011 -0.24169347649274159 0 -0.089079986681209755 -0.21925571071859279 0 -0.094544528280961701 -0.23130979592197831 0 -0.089079986681209755 -0.21925571071859279 0 -0.087982693832912948 -0.20610030108417279 0 -0.065984069430329237 -0.21594808513783789 0 -0.089079986681209755 -0.21925571071859279 0 -0.091681034097487346 -0.21469539259619891 0 -0.087982693832912948 -0.20610030108417279 0 -0.089079986681209755 -0.21925571071859279 0 -0.091681034097487346 -0.21469539259619891 0 -0.089079986681209755 -0.21925571071859279 0 -0.065984069430329237 -0.21594808513783789 0 -0.058327232484387218 -0.2013044317948425 0 -0.065984069430329237 -0.21594808513783789 0 -0.072928541530643487 -0.1948487939390374 0 -0.065984069430329237 -0.21594808513783789 0 -0.072928541530643487 -0.1948487939390374 0 -0.087982693832912948 -0.20610030108417279 0 -0.065984069430329237 -0.21594808513783789 0 -0.072928541530643487 -0.1948487939390374 0 -0.058327232484387218 -0.2013044317948425 0 -0.072928541530643487 -0.1948487939390374 0 -0.063770138428779252 -0.18079669395549949 0 -0.087982693832912948 -0.20610030108417279 0 -0.072928541530643487 -0.1948487939390374 0 -0.088647710124579282 -0.1895137930351245 0 -0.087982693832912948 -0.20610030108417279 0 -0.088647710124579282 -0.1895137930351245 0 -0.098413722631135098 -0.19641739989264009 0 -0.088647710124579282 -0.1895137930351245 0 -0.098413722631135098 -0.19641739989264009 0 -0.1039428787252024 -0.18306303235069041 0 -0.087982693832912948 -0.20610030108417279 0 -0.098413722631135098 -0.19641739989264009 0 -0.1018219586260966 -0.2062222809526808 0 -0.098413722631135098 -0.19641739989264009 0 -0.10967337184688419 -0.19718759204053191 0 -0.1018219586260966 -0.2062222809526808 0 -0.098413722631135098 -0.19641739989264009 0 -0.10967337184688419 -0.19718759204053191 0 -0.1039428787252024 -0.18306303235069041 0 -0.1039428787252024 -0.18306303235069041 0 -0.1280127438194481 -0.19237656196114411 0 -0.10967337184688419 -0.19718759204053191 0 -0.1178174188303993 -0.20556040013348681 0 -0.1280127438194481 -0.19237656196114411 0 -0.10967337184688419 -0.19718759204053191 0 -0.1039428787252024 -0.18306303235069041 0 -0.1280127438194481 -0.19237656196114411 0 -0.10967337184688419 -0.19718759204053191 0 -0.10961342770230489 -0.21003706569406461 0 -0.1178174188303993 -0.20556040013348681 0 -0.1178174188303993 -0.20556040013348681 0 -0.1109550451866443 -0.21888036136960631 0 -0.13246178853905299 -0.20873151589840269 0 -0.1109550451866443 -0.21888036136960631 0 -0.13246178853905299 -0.20873151589840269 0 -0.1109550451866443 -0.21888036136960631 0 -0.12407830270498089 -0.22426790937284519 0 -0.13246178853905299 -0.20873151589840269 0 -0.10961342770230489 -0.21003706569406461 0 -0.1178174188303993 -0.20556040013348681 0 -0.1109550451866443 -0.21888036136960631 0 -0.10961342770230489 -0.21003706569406461 0 -0.103172625086798 -0.22127395363072039 0 -0.1109550451866443 -0.21888036136960631 0 -0.10961342770230489 -0.21003706569406461 0 -0.1018219586260966 -0.2062222809526808 0 -0.103172625086798 -0.22127395363072039 0 -0.10967337184688419 -0.19718759204053191 0 -0.10961342770230489 -0.21003706569406461 0 -0.1018219586260966 -0.2062222809526808 0 -0.091681034097487346 -0.21469539259619891 0 -0.087982693832912948 -0.20610030108417279 0 -0.103172625086798 -0.22127395363072039 0 -0.089079986681209755 -0.21925571071859279 0 -0.091681034097487346 -0.21469539259619891 0 -0.103172625086798 -0.22127395363072039 0 -0.087982693832912948 -0.20610030108417279 0 -0.103172625086798 -0.22127395363072039 0 -0.087982693832912948 -0.20610030108417279 0 -0.1018219586260966 -0.2062222809526808 0 -0.103172625086798 -0.22127395363072039 0 -0.094544528280961701 -0.23130979592197831 0 -0.103172625086798 -0.22127395363072039 0 -0.1005321994236209 -0.2431127607729493 0 -0.089079986681209755 -0.21925571071859279 0 -0.103172625086798 -0.22127395363072039 0 -0.089079986681209755 -0.21925571071859279 0 -0.094544528280961701 -0.23130979592197831 0 -0.103172625086798 -0.22127395363072039 0 -0.103172625086798 -0.22127395363072039 0 -0.1223681628105569 -0.24044891992886891 0 -0.103172625086798 -0.22127395363072039 0 -0.12407830270498089 -0.22426790937284519 0 -0.1238233973506119 -0.23541481827178831 0 -0.103172625086798 -0.22127395363072039 0 -0.1223681628105569 -0.24044891992886891 0 -0.1238233973506119 -0.23541481827178831 0 -0.103172625086798 -0.22127395363072039 0 -0.12407830270498089 -0.22426790937284519 0 -0.103172625086798 -0.22127395363072039 0 -0.1109550451866443 -0.21888036136960631 0 -0.12407830270498089 -0.22426790937284519 0 -0.11757885349586771 -0.25701660664448461 0 -0.1223681628105569 -0.24044891992886891 0 -0.1005321994236209 -0.2431127607729493 0 -0.11757885349586771 -0.25701660664448461 0 -0.1223681628105569 -0.24044891992886891 0 -0.1223681628105569 -0.24044891992886891 0 -0.1238233973506119 -0.23541481827178831 0 -0.103172625086798 -0.22127395363072039 0 -0.1223681628105569 -0.24044891992886891 0 -0.1005321994236209 -0.2431127607729493 0 -0.088441251280713618 -0.1477167476767523 0 -0.085474651021334253 -0.13655174303235951 0 -0.077236065216807342 -0.1460130695171887 0 -0.088441251280713618 -0.1477167476767523 0 -0.077236065216807342 -0.1460130695171887 0 -0.072985053953480025 -0.15595005707556001 0 -0.088441251280713618 -0.1477167476767523 0 -0.093538562727787294 -0.15940564464812701 0 -0.098894310772838973 -0.14952020789867901 0 -0.088441251280713618 -0.1477167476767523 0 -0.085474651021334253 -0.13655174303235951 0 -0.095252038160572317 -0.1406191133899993 0 -0.085474651021334253 -0.13655174303235951 0 -0.095971306836852913 -0.13086642389395989 0 -0.095252038160572317 -0.1406191133899993 0 -0.082994471061899833 -0.1234246307735777 0 -0.085474651021334253 -0.13655174303235951 0 -0.095971306836852913 -0.13086642389395989 0 -0.082994471061899833 -0.1234246307735777 0 -0.085474651021334253 -0.13655174303235951 0 -0.073596501371478315 -0.1364787996572045 0 -0.085474651021334253 -0.13655174303235951 0 -0.073596501371478315 -0.1364787996572045 0 -0.077236065216807342 -0.1460130695171887 0 -0.06059931965736505 -0.14742373122833671 0 -0.060446148579459319 -0.1303024678998376 0 -0.073596501371478315 -0.1364787996572045 0 -0.082994471061899833 -0.1234246307735777 0 -0.073596501371478315 -0.1364787996572045 0 -0.071674103496310607 -0.1250344835198243 0 -0.060446148579459319 -0.1303024678998376 0 -0.073596501371478315 -0.1364787996572045 0 -0.071674103496310607 -0.1250344835198243 0 -0.06059931965736505 -0.14742373122833671 0 -0.073596501371478315 -0.1364787996572045 0 -0.077236065216807342 -0.1460130695171887 0 -0.057687804487617317 -0.16516521689311761 0 -0.06059931965736505 -0.14742373122833671 0 -0.072985053953480025 -0.15595005707556001 0 -0.06059931965736505 -0.14742373122833671 0 -0.077236065216807342 -0.1460130695171887 0 -0.072985053953480025 -0.15595005707556001 0 -0.057687804487617317 -0.16516521689311761 0 -0.079873013630956835 -0.17374950274023659 0 -0.057687804487617317 -0.16516521689311761 0 -0.072985053953480025 -0.15595005707556001 0 -0.079873013630956835 -0.17374950274023659 0 -0.072928541530643487 -0.1948487939390374 0 -0.079873013630956835 -0.17374950274023659 0 -0.057687804487617317 -0.16516521689311761 0 -0.063770138428779252 -0.18079669395549949 0 -0.079873013630956835 -0.17374950274023659 0 -0.072928541530643487 -0.1948487939390374 0 -0.063770138428779252 -0.18079669395549949 0 -0.079873013630956835 -0.17374950274023659 0 -0.072928541530643487 -0.1948487939390374 0 -0.088647710124579282 -0.1895137930351245 0 -0.079873013630956835 -0.17374950274023659 0 -0.079873013630956835 -0.17374950274023659 0 -0.1039428787252024 -0.18306303235069041 0 -0.088647710124579282 -0.1895137930351245 0 -0.079873013630956835 -0.17374950274023659 0 -0.1039428787252024 -0.18306303235069041 0 -0.088441251280713618 -0.1477167476767523 0 -0.079873013630956835 -0.17374950274023659 0 -0.079873013630956835 -0.17374950274023659 0 -0.093538562727787294 -0.15940564464812701 0 -0.098088850166783578 -0.16700629557107341 0 -0.088441251280713618 -0.1477167476767523 0 -0.079873013630956835 -0.17374950274023659 0 -0.093538562727787294 -0.15940564464812701 0 -0.088441251280713618 -0.1477167476767523 0 -0.072985053953480025 -0.15595005707556001 0 -0.079873013630956835 -0.17374950274023659 0 -0.093538562727787294 -0.15940564464812701 0 -0.098088850166783578 -0.16700629557107341 0 -0.1023953877876435 -0.15903546935389351 0 -0.098088850166783578 -0.16700629557107341 0 -0.1039428787252024 -0.18306303235069041 0 -0.1119878388851908 -0.16231915977259129 0 -0.098088850166783578 -0.16700629557107341 0 -0.1023953877876435 -0.15903546935389351 0 -0.1119878388851908 -0.16231915977259129 0 -0.079873013630956835 -0.17374950274023659 0 -0.098088850166783578 -0.16700629557107341 0 -0.1039428787252024 -0.18306303235069041 0 -0.1039428787252024 -0.18306303235069041 0 -0.11859204859796291 -0.17560578940816099 0 -0.1119878388851908 -0.16231915977259129 0 -0.1039428787252024 -0.18306303235069041 0 -0.11859204859796291 -0.17560578940816099 0 -0.1280127438194481 -0.19237656196114411 0 -0.1023953877876435 -0.15903546935389351 0 -0.1119878388851908 -0.16231915977259129 0 -0.1169630623746598 -0.14907522687480429 0 -0.11859204859796291 -0.17560578940816099 0 -0.1119878388851908 -0.16231915977259129 0 -0.12588679133122799 -0.1624874708491951 0 -0.1119878388851908 -0.16231915977259129 0 -0.1169630623746598 -0.14907522687480429 0 -0.12588679133122799 -0.1624874708491951 0 -0.1119878388851908 -0.16231915977259129 0 -0.1169630623746598 -0.14907522687480429 0 -0.1023953877876435 -0.15903546935389351 0 -0.1169630623746598 -0.14907522687480429 0 -0.098894310772838973 -0.14952020789867901 0 -0.1169630623746598 -0.14907522687480429 0 -0.098894310772838973 -0.14952020789867901 0 -0.1169630623746598 -0.14907522687480429 0 -0.098894310772838973 -0.14952020789867901 0 -0.1074786708911218 -0.1384404444482458 0 -0.088441251280713618 -0.1477167476767523 0 -0.098894310772838973 -0.14952020789867901 0 -0.095252038160572317 -0.1406191133899993 0 -0.098894310772838973 -0.14952020789867901 0 -0.095252038160572317 -0.1406191133899993 0 -0.1074786708911218 -0.1384404444482458 0 -0.093538562727787294 -0.15940564464812701 0 -0.1023953877876435 -0.15903546935389351 0 -0.098894310772838973 -0.14952020789867901 0 -0.1085913382140784 -0.11903379143832921 0 -0.095971306836852913 -0.13086642389395989 0 -0.1074786708911218 -0.1384404444482458 0 -0.095971306836852913 -0.13086642389395989 0 -0.095252038160572317 -0.1406191133899993 0 -0.1074786708911218 -0.1384404444482458 0 -0.1085913382140784 -0.11903379143832921 0 -0.1074786708911218 -0.1384404444482458 0 -0.12736410167423581 -0.1213878944680517 0 -0.1169630623746598 -0.14907522687480429 0 -0.1074786708911218 -0.1384404444482458 0 -0.12736410167423581 -0.1213878944680517 0 -0.1169630623746598 -0.14907522687480429 0 -0.12736410167423581 -0.1213878944680517 0 -0.13746664940214659 -0.13470709103134659 0 -0.12736410167423581 -0.1213878944680517 0 -0.14737054533773081 -0.1208951937003558 0 -0.1169630623746598 -0.14907522687480429 0 -0.13746664940214659 -0.13470709103134659 0 -0.12736410167423581 -0.1213878944680517 0 -0.1569759497016511 -0.14808982533941309 0 -0.14737054533773081 -0.1208951937003558 0 -0.13746664940214659 -0.13470709103134659 0 -0.1569759497016511 -0.14808982533941309 0 -0.14737054533773081 -0.1208951937003558 0 -0.1369695060381555 -0.1485825261071109 0 -0.1526603788815559 -0.1573596194762775 0 -0.1569759497016511 -0.14808982533941309 0 -0.13746664940214659 -0.13470709103134659 0 -0.1369695060381555 -0.1485825261071109 0 -0.1569759497016511 -0.14808982533941309 0 -0.1369695060381555 -0.1485825261071109 0 -0.1569759497016511 -0.14808982533941309 0 -0.1169630623746598 -0.14907522687480429 0 -0.1369695060381555 -0.1485825261071109 0 -0.1169630623746598 -0.14907522687480429 0 -0.1369695060381555 -0.1485825261071109 0 -0.12588679133122799 -0.1624874708491951 0 -0.1169630623746598 -0.14907522687480429 0 -0.13746664940214659 -0.13470709103134659 0 -0.1369695060381555 -0.1485825261071109 0 -0.11859204859796291 -0.17560578940816099 0 -0.12588679133122799 -0.1624874708491951 0 -0.13147554750711021 -0.17522771154146191 0 -0.12588679133122799 -0.1624874708491951 0 -0.13147554750711021 -0.17522771154146191 0 -0.14107140235061469 -0.16358211752318311 0 -0.13147554750711021 -0.17522771154146191 0 -0.14520517551865919 -0.17294749126987599 0 -0.14107140235061469 -0.16358211752318311 0 -0.1369695060381555 -0.1485825261071109 0 -0.12588679133122799 -0.1624874708491951 0 -0.14107140235061469 -0.16358211752318311 0 -0.11859204859796291 -0.17560578940816099 0 -0.13147554750711021 -0.17522771154146191 0 -0.1280127438194481 -0.19237656196114411 0 -0.13147554750711021 -0.17522771154146191 0 -0.1398254013782112 -0.18365029146927231 0 -0.1280127438194481 -0.19237656196114411 0 -0.13147554750711021 -0.17522771154146191 0 -0.1398254013782112 -0.18365029146927231 0 -0.14520517551865919 -0.17294749126987599 0 -0.1398254013782112 -0.18365029146927231 0 -0.14820117369214661 -0.18035874543477601 0 -0.1498687104188495 -0.18767128888863599 0 -0.1398254013782112 -0.18365029146927231 0 -0.14820117369214661 -0.18035874543477601 0 -0.14520517551865919 -0.17294749126987599 0 -0.14820117369214661 -0.18035874543477601 0 -0.14520517551865919 -0.17294749126987599 0 -0.1568216795970071 -0.17538216601134321 0 -0.14820117369214661 -0.18035874543477601 0 -0.15608754076248521 -0.18190001438557629 0 -0.1568216795970071 -0.17538216601134321 0 -0.14520517551865919 -0.17294749126987599 0 -0.15263532751206779 -0.16758471640843459 0 -0.1568216795970071 -0.17538216601134321 0 -0.14820117369214661 -0.18035874543477601 0 -0.15608754076248521 -0.18190001438557629 0 -0.1498687104188495 -0.18767128888863599 0 -0.15608754076248521 -0.18190001438557629 0 -0.1607184616130248 -0.18728683910860641 0 -0.1498687104188495 -0.18767128888863599 0 -0.1369695060381555 -0.1485825261071109 0 -0.14107140235061469 -0.16358211752318311 0 -0.1526603788815559 -0.1573596194762775 0 -0.14520517551865919 -0.17294749126987599 0 -0.14107140235061469 -0.16358211752318311 0 -0.15263532751206779 -0.16758471640843459 0 -0.15263532751206779 -0.16758471640843459 0 -0.1526603788815559 -0.1573596194762775 0 -0.16142564196989831 -0.16655703171874039 0 -0.14107140235061469 -0.16358211752318311 0 -0.15263532751206779 -0.16758471640843459 0 -0.1526603788815559 -0.1573596194762775 0 -0.1526603788815559 -0.1573596194762775 0 -0.16142564196989831 -0.16655703171874039 0 -0.16326087804426159 -0.16588359066980229 0 -0.16326087804426159 -0.16588359066980229 0 -0.1569759497016511 -0.14808982533941309 0 -0.1526603788815559 -0.1573596194762775 0 -0.16326087804426159 -0.16588359066980229 0 -0.1569759497016511 -0.14808982533941309 0 -0.1594122663447772 -0.17133307891758459 0 -0.16142564196989831 -0.16655703171874039 0 -0.16676641630013581 -0.17580840153182001 0 -0.15263532751206779 -0.16758471640843459 0 -0.1594122663447772 -0.17133307891758459 0 -0.16142564196989831 -0.16655703171874039 0 -0.16142564196989831 -0.16655703171874039 0 -0.16326087804426159 -0.16588359066980229 0 -0.16676641630013581 -0.17580840153182001 0 -0.15263532751206779 -0.16758471640843459 0 -0.1594122663447772 -0.17133307891758459 0 -0.1568216795970071 -0.17538216601134321 0 -0.16142564196989831 -0.16655703171874039 0 -0.16326087804426159 -0.16588359066980229 0 -0.16326087804426159 -0.16588359066980229 0 -0.16676641630013581 -0.17580840153182001 0 -0.1783922457352059 -0.17293489930968209 0 -0.16326087804426159 -0.16588359066980229 0 -0.16676641630013581 -0.17580840153182001 0 -0.15608754076248521 -0.18190001438557629 0 -0.1607184616130248 -0.18728683910860641 0 -0.16676641630013581 -0.17580840153182001 0 -0.15608754076248521 -0.18190001438557629 0 -0.1568216795970071 -0.17538216601134321 0 -0.16676641630013581 -0.17580840153182001 0 -0.1594122663447772 -0.17133307891758459 0 -0.1568216795970071 -0.17538216601134321 0 -0.16676641630013581 -0.17580840153182001 0 -0.1607184616130248 -0.18728683910860641 0 -0.16676641630013581 -0.17580840153182001 0 -0.17547527524387041 -0.1884338249559952 0 -0.17547527524387041 -0.1884338249559952 0 -0.1969820185962792 -0.17828497948479149 0 -0.1783922457352059 -0.17293489930968209 0 -0.17547527524387041 -0.1884338249559952 0 -0.1969820185962792 -0.17828497948479149 0 -0.16676641630013581 -0.17580840153182001 0 -0.1783922457352059 -0.17293489930968209 0 -0.17547527524387041 -0.1884338249559952 0 -0.16326087804426159 -0.16588359066980229 0 -0.18947664049148261 -0.1562636999060015 0 -0.16326087804426159 -0.16588359066980229 0 -0.18633417632017751 -0.14736681724080919 0 -0.18947664049148261 -0.1562636999060015 0 -0.16326087804426159 -0.16588359066980229 0 -0.1783922457352059 -0.17293489930968209 0 -0.18947664049148261 -0.1562636999060015 0 -0.18633417632017751 -0.14736681724080919 0 -0.16621773075288121 -0.1295318635244681 0 -0.18400621351090571 -0.1217110611121094 0 -0.16621773075288121 -0.1295318635244681 0 -0.1569759497016511 -0.14808982533941309 0 -0.14737054533773081 -0.1208951937003558 0 -0.18633417632017751 -0.14736681724080919 0 -0.16621773075288121 -0.1295318635244681 0 -0.1569759497016511 -0.14808982533941309 0 -0.18633417632017751 -0.14736681724080919 0 -0.1569759497016511 -0.14808982533941309 0 -0.16326087804426159 -0.16588359066980229 0 -0.18633417632017751 -0.14736681724080919 0 -0.1569759497016511 -0.14808982533941309 0 -0.1377523016625678 -0.25581657194563601 0 -0.15263230708737521 -0.24356194903458239 0 -0.13476861079800859 -0.2391754021203874 0 -0.15263230708737521 -0.24356194903458239 0 -0.13476861079800859 -0.2391754021203874 0 -0.14055595197029169 -0.22979662500526149 0 -0.1377523016625678 -0.25581657194563601 0 -0.1223681628105569 -0.24044891992886891 0 -0.13476861079800859 -0.2391754021203874 0 -0.1377523016625678 -0.25581657194563601 0 -0.1223681628105569 -0.24044891992886891 0 -0.1238233973506119 -0.23541481827178831 0 -0.13476861079800859 -0.2391754021203874 0 -0.13139441447274411 -0.22962184130071481 0 -0.1223681628105569 -0.24044891992886891 0 -0.1238233973506119 -0.23541481827178831 0 -0.13476861079800859 -0.2391754021203874 0 -0.13476861079800859 -0.2391754021203874 0 -0.14055595197029169 -0.22979662500526149 0 -0.13139441447274411 -0.22962184130071481 0 -0.12407830270498089 -0.22426790937284519 0 -0.1238233973506119 -0.23541481827178831 0 -0.13139441447274411 -0.22962184130071481 0 -0.12407830270498089 -0.22426790937284519 0 -0.13139441447274411 -0.22962184130071481 0 -0.13441394179160859 -0.22010184774946731 0 -0.14055595197029169 -0.22979662500526149 0 -0.13139441447274411 -0.22962184130071481 0 -0.13441394179160859 -0.22010184774946731 0 -0.14055595197029169 -0.22979662500526149 0 -0.13441394179160859 -0.22010184774946731 0 -0.14940536450650499 -0.21373664043116339 0 -0.15263230708737521 -0.24356194903458239 0 -0.14940536450650499 -0.21373664043116339 0 -0.15263230708737521 -0.24356194903458239 0 -0.14940536450650499 -0.21373664043116339 0 -0.16621803193972459 -0.22739125443424221 0 -0.15263230708737521 -0.24356194903458239 0 -0.14055595197029169 -0.22979662500526149 0 -0.14940536450650499 -0.21373664043116339 0 -0.14940536450650499 -0.21373664043116339 0 -0.13246178853905299 -0.20873151589840269 0 -0.1539685318914617 -0.1985826704271989 0 -0.13246178853905299 -0.20873151589840269 0 -0.1539685318914617 -0.1985826704271989 0 -0.13441394179160859 -0.22010184774946731 0 -0.14940536450650499 -0.21373664043116339 0 -0.13246178853905299 -0.20873151589840269 0 -0.12407830270498089 -0.22426790937284519 0 -0.13441394179160859 -0.22010184774946731 0 -0.13246178853905299 -0.20873151589840269 0 -0.1178174188303993 -0.20556040013348681 0 -0.13246178853905299 -0.20873151589840269 0 -0.1280127438194481 -0.19237656196114411 0 -0.13246178853905299 -0.20873151589840269 0 -0.1280127438194481 -0.19237656196114411 0 -0.14041115317576749 -0.19424917250638599 0 -0.1398254013782112 -0.18365029146927231 0 -0.1280127438194481 -0.19237656196114411 0 -0.14041115317576749 -0.19424917250638599 0 -0.13246178853905299 -0.20873151589840269 0 -0.14041115317576749 -0.19424917250638599 0 -0.1539685318914617 -0.1985826704271989 0 -0.14041115317576749 -0.19424917250638599 0 -0.1539685318914617 -0.1985826704271989 0 -0.1498687104188495 -0.18767128888863599 0 -0.1398254013782112 -0.18365029146927231 0 -0.14041115317576749 -0.19424917250638599 0 -0.1498687104188495 -0.18767128888863599 0 -0.1607184616130248 -0.18728683910860641 0 -0.1539685318914617 -0.1985826704271989 0 -0.1498687104188495 -0.18767128888863599 0 -0.1607184616130248 -0.18728683910860641 0 -0.1539685318914617 -0.1985826704271989 0 -0.17547527524387041 -0.1884338249559952 0 -0.1539685318914617 -0.1985826704271989 0 -0.17547527524387041 -0.1884338249559952 0 -0.16825702714884239 -0.20885775366498019 0 -0.1539685318914617 -0.1985826704271989 0 -0.17547527524387041 -0.1884338249559952 0 -0.17547527524387041 -0.1884338249559952 0 -0.18277425339256639 -0.2026996383603622 0 -0.16825702714884239 -0.20885775366498019 0 -0.17547527524387041 -0.1884338249559952 0 -0.18277425339256639 -0.2026996383603622 0 -0.1902080517791363 -0.1917922864575213 0 -0.18277425339256639 -0.2026996383603622 0 -0.16825702714884239 -0.20885775366498019 0 -0.18626938338499441 -0.22517712183416291 0 -0.14940536450650499 -0.21373664043116339 0 -0.1539685318914617 -0.1985826704271989 0 -0.16825702714884239 -0.20885775366498019 0 -0.14940536450650499 -0.21373664043116339 0 -0.16825702714884239 -0.20885775366498019 0 -0.16621803193972459 -0.22739125443424221 0 -0.16825702714884239 -0.20885775366498019 0 -0.16621803193972459 -0.22739125443424221 0 -0.18626938338499441 -0.22517712183416291 0 -0.16621803193972459 -0.22739125443424221 0 -0.18626938338499441 -0.22517712183416291 0 -0.1745260775709061 -0.24562280720632229 0 -0.18626938338499441 -0.22517712183416291 0 -0.1745260775709061 -0.24562280720632229 0 -0.19988453840298659 -0.24176205441804 0 -0.18626938338499441 -0.22517712183416291 0 -0.1745260775709061 -0.24562280720632229 0 -0.15263230708737521 -0.24356194903458239 0 -0.16621803193972459 -0.22739125443424221 0 -0.1745260775709061 -0.24562280720632229 0 -0.1689202540561075 -0.25519621835756329 0 -0.15263230708737521 -0.24356194903458239 0 -0.1745260775709061 -0.24562280720632229 0 -0.21854221021918649 -0.25236034283526498 0 -0.19988453840298659 -0.24176205441804 0 -0.21493562756427159 -0.22243862284749449 0 -0.19160736129165659 -0.25262396586623759 0 -0.1745260775709061 -0.24562280720632229 0 -0.19988453840298659 -0.24176205441804 0 -0.18626938338499441 -0.22517712183416291 0 -0.19988453840298659 -0.24176205441804 0 -0.21493562756427159 -0.22243862284749449 0 -0.21493562756427159 -0.22243862284749449 0 -0.19801268919908249 -0.2047314364620034 0 -0.21541309520260529 -0.20113031717637361 0 -0.18626938338499441 -0.22517712183416291 0 -0.19801268919908249 -0.2047314364620034 0 -0.18277425339256639 -0.2026996383603622 0 -0.18626938338499441 -0.22517712183416291 0 -0.19801268919908249 -0.2047314364620034 0 -0.18626938338499441 -0.22517712183416291 0 -0.21493562756427159 -0.22243862284749449 0 -0.19801268919908249 -0.2047314364620034 0 -0.19801268919908249 -0.2047314364620034 0 -0.1902080517791363 -0.1917922864575213 0 -0.20975599501317069 -0.18428575108984399 0 -0.18277425339256639 -0.2026996383603622 0 -0.19801268919908249 -0.2047314364620034 0 -0.1902080517791363 -0.1917922864575213 0 -0.21541309520260529 -0.20113031717637361 0 -0.20975599501317069 -0.18428575108984399 0 -0.229896455205026 -0.18225842567294781 0 -0.19801268919908249 -0.2047314364620034 0 -0.21541309520260529 -0.20113031717637361 0 -0.20975599501317069 -0.18428575108984399 0 -0.19801268919908249 -0.2047314364620034 0 -0.20975599501317069 -0.18428575108984399 0 -0.21541309520260529 -0.20113031717637361 0 -0.23384346774119599 -0.2034651679104556 0 -0.229896455205026 -0.18225842567294781 0 -0.24262172765942899 -0.19089247064050549 0 -0.25644706280453389 -0.1995927939493197 0 -0.25029992488695979 -0.1782534950292988 0 -0.24262172765942899 -0.19089247064050549 0 -0.23384346774119599 -0.2034651679104556 0 -0.25644706280453389 -0.1995927939493197 0 -0.24262172765942899 -0.19089247064050549 0 -0.23384346774119599 -0.2034651679104556 0 -0.229896455205026 -0.18225842567294781 0 -0.23384346774119599 -0.2034651679104556 0 -0.2377451423251814 -0.23136366228574551 0 -0.25674041691710447 -0.22108212323078871 0 -0.23384346774119599 -0.2034651679104556 0 -0.25674041691710447 -0.22108212323078871 0 -0.25644706280453389 -0.1995927939493197 0 -0.21493562756427159 -0.22243862284749449 0 -0.21541309520260529 -0.20113031717637361 0 -0.23384346774119599 -0.2034651679104556 0 -0.21493562756427159 -0.22243862284749449 0 -0.23384346774119599 -0.2034651679104556 0 -0.2377451423251814 -0.23136366228574551 0 -0.24465976002352091 -0.25387891845332877 0 -0.2377451423251814 -0.23136366228574551 0 -0.25992972331208369 -0.2410680052130979 0 -0.24465976002352091 -0.25387891845332877 0 -0.21854221021918649 -0.25236034283526498 0 -0.2377451423251814 -0.23136366228574551 0 -0.21854221021918649 -0.25236034283526498 0 -0.21493562756427159 -0.22243862284749449 0 -0.2377451423251814 -0.23136366228574551 0 -0.21854221021918649 -0.25236034283526498 0 -0.2377451423251814 -0.23136366228574551 0 -0.21569240293870359 -0.1466438091422006 0 -0.18947664049148261 -0.1562636999060015 0 -0.2105647825198341 -0.15627799774793921 0 -0.2105647825198341 -0.15627799774793921 0 -0.22149930082725899 -0.1638400657176845 0 -0.22047208921520459 -0.14652609931143951 0 -0.21569240293870359 -0.1466438091422006 0 -0.2105647825198341 -0.15627799774793921 0 -0.22047208921520459 -0.14652609931143951 0 -0.21569240293870359 -0.1466438091422006 0 -0.22047208921520459 -0.14652609931143951 0 -0.20228853596836749 -0.13187567246267581 0 -0.2244809527826766 -0.1321180186971766 0 -0.2129261089666101 -0.1196792574727195 0 -0.21569240293870359 -0.1466438091422006 0 -0.20228853596836749 -0.13187567246267581 0 -0.2244809527826766 -0.1321180186971766 0 -0.18633417632017751 -0.14736681724080919 0 -0.20228853596836749 -0.13187567246267581 0 -0.18400621351090571 -0.1217110611121094 0 -0.21569240293870359 -0.1466438091422006 0 -0.18947664049148261 -0.1562636999060015 0 -0.18633417632017751 -0.14736681724080919 0 -0.21569240293870359 -0.1466438091422006 0 -0.18947664049148261 -0.1562636999060015 0 -0.18633417632017751 -0.14736681724080919 0 -0.21569240293870359 -0.1466438091422006 0 -0.18633417632017751 -0.14736681724080919 0 -0.21569240293870359 -0.1466438091422006 0 -0.20228853596836749 -0.13187567246267581 0 -0.1783922457352059 -0.17293489930968209 0 -0.18947664049148261 -0.1562636999060015 0 -0.1969820185962792 -0.17828497948479149 0 -0.18947664049148261 -0.1562636999060015 0 -0.1969820185962792 -0.17828497948479149 0 -0.20568347912652049 -0.16811631466237001 0 -0.18947664049148261 -0.1562636999060015 0 -0.20568347912652049 -0.16811631466237001 0 -0.2105647825198341 -0.15627799774793921 0 -0.1902080517791363 -0.1917922864575213 0 -0.1969820185962792 -0.17828497948479149 0 -0.20975599501317069 -0.18428575108984399 0 -0.17547527524387041 -0.1884338249559952 0 -0.1902080517791363 -0.1917922864575213 0 -0.1969820185962792 -0.17828497948479149 0 -0.20975599501317069 -0.18428575108984399 0 -0.22149930082725899 -0.1638400657176845 0 -0.20975599501317069 -0.18428575108984399 0 -0.20568347912652049 -0.16811631466237001 0 -0.22149930082725899 -0.1638400657176845 0 -0.1969820185962792 -0.17828497948479149 0 -0.20975599501317069 -0.18428575108984399 0 -0.20568347912652049 -0.16811631466237001 0 -0.20568347912652049 -0.16811631466237001 0 -0.2105647825198341 -0.15627799774793921 0 -0.22149930082725899 -0.1638400657176845 0 -0.22149930082725899 -0.1638400657176845 0 -0.2402834514435094 -0.1667894474332684 0 -0.2341322288468432 -0.15422277024092529 0 -0.22149930082725899 -0.1638400657176845 0 -0.229896455205026 -0.18225842567294781 0 -0.2402834514435094 -0.1667894474332684 0 -0.20975599501317069 -0.18428575108984399 0 -0.22149930082725899 -0.1638400657176845 0 -0.229896455205026 -0.18225842567294781 0 -0.229896455205026 -0.18225842567294781 0 -0.2402834514435094 -0.1667894474332684 0 -0.25029992488695979 -0.1782534950292988 0 -0.24262172765942899 -0.19089247064050549 0 -0.229896455205026 -0.18225842567294781 0 -0.25029992488695979 -0.1782534950292988 0 -0.2402834514435094 -0.1667894474332684 0 -0.25029992488695979 -0.1782534950292988 0 -0.25761979100978533 -0.16665415002795461 0 -0.2402834514435094 -0.1667894474332684 0 -0.24825300788518309 -0.1555077779107997 0 -0.25761979100978533 -0.16665415002795461 0 -0.2402834514435094 -0.1667894474332684 0 -0.24825300788518309 -0.1555077779107997 0 -0.2341322288468432 -0.15422277024092529 0 -0.24825300788518309 -0.1555077779107997 0 -0.2405789555143194 -0.1375116727892334 0 -0.25601133851015478 -0.1487044986697981 0 -0.24825300788518309 -0.1555077779107997 0 -0.2341322288468432 -0.15422277024092529 0 -0.2405789555143194 -0.1375116727892334 0 -0.21569240293870359 -0.1466438091422006 0 -0.22047208921520459 -0.14652609931143951 0 -0.2405789555143194 -0.1375116727892334 0 -0.22149930082725899 -0.1638400657176845 0 -0.2341322288468432 -0.15422277024092529 0 -0.22047208921520459 -0.14652609931143951 0 -0.21569240293870359 -0.1466438091422006 0 -0.2405789555143194 -0.1375116727892334 0 -0.2341322288468432 -0.15422277024092529 0 -0.22047208921520459 -0.14652609931143951 0 -0.2405789555143194 -0.1375116727892334 0 -0.21569240293870359 -0.1466438091422006 0 -0.2244809527826766 -0.1321180186971766 0 -0.2405789555143194 -0.1375116727892334 0 -0.2244809527826766 -0.1321180186971766 0 -0.2405789555143194 -0.1375116727892334 0 -0.23651179230599079 -0.1199754775459997 0 -0.2405789555143194 -0.1375116727892334 0 -0.23651179230599079 -0.1199754775459997 0 -0.25054446979338107 -0.12912519928877991 0 -0.23651179230599079 -0.1199754775459997 0 -0.24959534238117709 -0.1078054475449232 0 -0.26009747564537128 -0.1202716976192799 0 -0.23651179230599079 -0.1199754775459997 0 -0.26009747564537128 -0.1202716976192799 0 -0.23651179230599079 -0.1199754775459997 0 -0.26009747564537128 -0.1202716976192799 0 -0.25054446979338107 -0.12912519928877991 0 -0.23651179230599079 -0.1199754775459997 0 -0.24959534238117709 -0.1078054475449232 0 -0.23746734258601571 -0.1067534300414448 0 -0.24098124084432149 -0.095291905336151436 0 -0.23746734258601571 -0.1067534300414448 0 -0.22473934926471251 -0.1042306158888877 0 -0.24959534238117709 -0.1078054475449232 0 -0.24098124084432149 -0.095291905336151436 0 -0.25687551172258971 -0.095275519396915032 0 -0.24959534238117709 -0.1078054475449232 0 -0.24098124084432149 -0.095291905336151436 0 -0.23746734258601571 -0.1067534300414448 0 -0.22473934926471251 -0.1042306158888877 0 -0.22774604229393439 -0.087804120453188278 0 -0.20897213189474381 -0.093424031558921927 0 -0.24098124084432149 -0.095291905336151436 0 -0.22473934926471251 -0.1042306158888877 0 -0.22774604229393439 -0.087804120453188278 0 -0.2244809527826766 -0.1321180186971766 0 -0.23651179230599079 -0.1199754775459997 0 -0.2129261089666101 -0.1196792574727195 0 -0.23651179230599079 -0.1199754775459997 0 -0.2129261089666101 -0.1196792574727195 0 -0.23651179230599079 -0.1199754775459997 0 -0.23746734258601571 -0.1067534300414448 0 -0.22473934926471251 -0.1042306158888877 0 -0.23651179230599079 -0.1199754775459997 0 -0.22473934926471251 -0.1042306158888877 0 -0.2129261089666101 -0.1196792574727195 0 -0.2466384096447127 -0.069214282175018252 0 -0.23144064811545881 -0.071679072189906365 0 -0.24006258296416741 -0.059977364163272567 0 -0.2466384096447127 -0.069214282175018252 0 -0.23867713564867771 -0.0818228939715063 0 -0.25106785873748549 -0.083001848322642804 0 -0.2466384096447127 -0.069214282175018252 0 -0.23867713564867771 -0.0818228939715063 0 -0.23144064811545881 -0.071679072189906365 0 -0.24098124084432149 -0.095291905336151436 0 -0.25106785873748549 -0.083001848322642804 0 -0.25687551172258971 -0.095275519396915032 0 -0.24098124084432149 -0.095291905336151436 0 -0.23867713564867771 -0.0818228939715063 0 -0.25106785873748549 -0.083001848322642804 0 -0.24098124084432149 -0.095291905336151436 0 -0.23867713564867771 -0.0818228939715063 0 -0.22774604229393439 -0.087804120453188278 0 -0.22048160989483939 -0.080833284582646742 0 -0.22774604229393439 -0.087804120453188278 0 -0.23144064811545881 -0.071679072189906365 0 -0.23867713564867771 -0.0818228939715063 0 -0.22774604229393439 -0.087804120453188278 0 -0.23144064811545881 -0.071679072189906365 0 -0.22048160989483939 -0.080833284582646742 0 -0.22774604229393439 -0.087804120453188278 0 -0.20897213189474381 -0.093424031558921927 0 -0.23144064811545881 -0.071679072189906365 0 -0.2137676172752207 -0.070425914128570383 0 -0.21856310265569601 -0.047427796698218422 0 -0.22048160989483939 -0.080833284582646742 0 -0.23144064811545881 -0.071679072189906365 0 -0.2137676172752207 -0.070425914128570383 0 -0.23144064811545881 -0.071679072189906365 0 -0.23092663332862359 -0.057189961691847993 0 -0.24006258296416741 -0.059977364163272567 0 -0.20335705558913081 -0.063140738221072371 0 -0.2137676172752207 -0.070425914128570383 0 -0.20224544779007569 -0.076575791796341275 0 -0.2137676172752207 -0.070425914128570383 0 -0.20897213189474381 -0.093424031558921927 0 -0.20224544779007569 -0.076575791796341275 0 -0.2137676172752207 -0.070425914128570383 0 -0.20897213189474381 -0.093424031558921927 0 -0.22048160989483939 -0.080833284582646742 0 -0.2137676172752207 -0.070425914128570383 0 -0.20897213189474381 -0.093424031558921927 0 -0.20897213189474381 -0.093424031558921927 0 -0.18864483179057751 -0.079783658531738119 0 -0.20224544779007569 -0.076575791796341275 0 -0.20897213189474381 -0.093424031558921927 0 -0.18864483179057751 -0.079783658531738119 0 -0.1843208979706715 -0.098582101900239388 0 -0.20335705558913081 -0.063140738221072371 0 -0.18864483179057751 -0.079783658531738119 0 -0.20224544779007569 -0.076575791796341275 0 -0.20335705558913081 -0.063140738221072371 0 -0.18864483179057751 -0.079783658531738119 0 -0.20335705558913081 -0.063140738221072371 0 -0.18864483179057751 -0.079783658531738119 0 -0.18476368522970901 -0.060313507398174523 0 -0.22473934926471251 -0.1042306158888877 0 -0.2129261089666101 -0.1196792574727195 0 -0.1994025973422491 -0.10829052452779669 0 -0.20228853596836749 -0.13187567246267581 0 -0.2129261089666101 -0.1196792574727195 0 -0.1994025973422491 -0.10829052452779669 0 -0.22473934926471251 -0.1042306158888877 0 -0.20897213189474381 -0.093424031558921927 0 -0.1994025973422491 -0.10829052452779669 0 -0.20897213189474381 -0.093424031558921927 0 -0.1994025973422491 -0.10829052452779669 0 -0.1843208979706715 -0.098582101900239388 0 -0.20228853596836749 -0.13187567246267581 0 -0.1994025973422491 -0.10829052452779669 0 -0.18400621351090571 -0.1217110611121094 0 -0.1994025973422491 -0.10829052452779669 0 -0.18400621351090571 -0.1217110611121094 0 -0.1843208979706715 -0.098582101900239388 0 -0.16621773075288121 -0.1295318635244681 0 -0.18400621351090571 -0.1217110611121094 0 -0.16647442841019139 -0.11035058163789351 0 -0.18400621351090571 -0.1217110611121094 0 -0.16647442841019139 -0.11035058163789351 0 -0.1843208979706715 -0.098582101900239388 0 -0.16621773075288121 -0.1295318635244681 0 -0.16647442841019139 -0.11035058163789351 0 -0.14737054533773081 -0.1208951937003558 0 -0.16647442841019139 -0.11035058163789351 0 -0.16521255597131029 -0.094363556792246006 0 -0.15171862691764881 -0.097019712797942706 0 -0.16647442841019139 -0.11035058163789351 0 -0.16521255597131029 -0.094363556792246006 0 -0.1843208979706715 -0.098582101900239388 0 -0.16521255597131029 -0.094363556792246006 0 -0.1843208979706715 -0.098582101900239388 0 -0.1718657805157274 -0.077566403117392158 0 -0.18864483179057751 -0.079783658531738119 0 -0.1843208979706715 -0.098582101900239388 0 -0.1718657805157274 -0.077566403117392158 0 -0.18864483179057751 -0.079783658531738119 0 -0.1718657805157274 -0.077566403117392158 0 -0.18476368522970901 -0.060313507398174523 0 -0.1718657805157274 -0.077566403117392158 0 -0.16766997596840549 -0.055069670457126463 0 -0.18476368522970901 -0.060313507398174523 0 -0.1718657805157274 -0.077566403117392158 0 -0.1555984100513392 -0.067553704814911478 0 -0.16766997596840549 -0.055069670457126463 0 -0.1718657805157274 -0.077566403117392158 0 -0.15451520526235171 -0.083858215916353424 0 -0.1555984100513392 -0.067553704814911478 0 -0.16521255597131029 -0.094363556792246006 0 -0.1718657805157274 -0.077566403117392158 0 -0.15451520526235171 -0.083858215916353424 0 -0.16521255597131029 -0.094363556792246006 0 -0.15451520526235171 -0.083858215916353424 0 -0.15171862691764881 -0.097019712797942706 0 -0.15451520526235171 -0.083858215916353424 0 -0.14334301715898221 -0.074859018030624863 0 -0.13903100861317999 -0.090330850909877913 0 -0.15451520526235171 -0.083858215916353424 0 -0.13903100861317999 -0.090330850909877913 0 -0.15171862691764881 -0.097019712797942706 0 -0.1377651409738101 -0.093700562061298426 0 -0.13903100861317999 -0.090330850909877913 0 -0.15171862691764881 -0.097019712797942706 0 -0.15451520526235171 -0.083858215916353424 0 -0.1555984100513392 -0.067553704814911478 0 -0.14334301715898221 -0.074859018030624863 0 -0.1555984100513392 -0.067553704814911478 0 -0.14334301715898221 -0.074859018030624863 0 -0.13945189113323761 -0.059806177835795588 0 -0.14334301715898221 -0.074859018030624863 0 -0.12930964035960699 -0.069761515268982097 0 -0.13945189113323761 -0.059806177835795588 0 -0.12930964035960699 -0.069761515268982097 0 -0.1377651409738101 -0.093700562061298426 0 -0.12930964035960699 -0.069761515268982097 0 -0.1377651409738101 -0.093700562061298426 0 -0.13903100861317999 -0.090330850909877913 0 -0.1189291253072135 -0.086669643832799348 0 -0.12930964035960699 -0.069761515268982097 0 -0.1377651409738101 -0.093700562061298426 0 -0.14334301715898221 -0.074859018030624863 0 -0.12930964035960699 -0.069761515268982097 0 -0.13903100861317999 -0.090330850909877913 0 -0.1377651409738101 -0.093700562061298426 0 -0.13903100861317999 -0.090330850909877913 0 -0.11893842975153809 -0.10446969177473921 0 -0.1377651409738101 -0.093700562061298426 0 -0.12736410167423581 -0.1213878944680517 0 -0.1377651409738101 -0.093700562061298426 0 -0.12736410167423581 -0.1213878944680517 0 -0.11893842975153809 -0.10446969177473921 0 -0.1189291253072135 -0.086669643832799348 0 -0.1377651409738101 -0.093700562061298426 0 -0.1377651409738101 -0.093700562061298426 0 -0.12736410167423581 -0.1213878944680517 0 -0.14737054533773081 -0.1208951937003558 0 -0.16647442841019139 -0.11035058163789351 0 -0.14737054533773081 -0.1208951937003558 0 -0.15171862691764881 -0.097019712797942706 0 -0.1377651409738101 -0.093700562061298426 0 -0.14737054533773081 -0.1208951937003558 0 -0.15171862691764881 -0.097019712797942706 0 -0.1377651409738101 -0.093700562061298426 0 -0.14737054533773081 -0.1208951937003558 0 -0.14925834278157041 -0.027771983247297551 0 -0.15381676672243971 -0.0048344028756085976 0 -0.16158573310271521 -0.019122381719964599 0 -0.14925834278157041 -0.027771983247297551 0 -0.15381676672243971 -0.0048344028756085976 0 -0.14925834278157041 -0.027771983247297551 0 -0.13622810944285851 -0.025664644749336048 0 -0.13728148428220571 -0.03631729474545041 0 -0.15381676672243971 -0.0048344028756085976 0 -0.13373576905839379 -0.01378162565115138 0 -0.13796817939809339 -7.5853332940862265e-05 0 -0.14925834278157041 -0.027771983247297551 0 -0.15381676672243971 -0.0048344028756085976 0 -0.13373576905839379 -0.01378162565115138 0 -0.1244522405185825 -0.00038769298458709092 0 -0.1246368416492639 -0.024787675353444869 0 -0.13373576905839379 -0.01378162565115138 0 -0.1244522405185825 -0.00038769298458709092 0 -0.13373576905839379 -0.01378162565115138 0 -0.13796817939809339 -7.5853332940862265e-05 0 -0.1244522405185825 -0.00038769298458709092 0 -0.13373576905839379 -0.01378162565115138 0 -0.1246368416492639 -0.024787675353444869 0 -0.13373576905839379 -0.01378162565115138 0 -0.13622810944285851 -0.025664644749336048 0 -0.14925834278157041 -0.027771983247297551 0 -0.13373576905839379 -0.01378162565115138 0 -0.13622810944285851 -0.025664644749336048 0 -0.1246368416492639 -0.024787675353444869 0 -0.13622810944285851 -0.025664644749336048 0 -0.13728148428220571 -0.03631729474545041 0 -0.1248214427799455 -0.0491876577223027 0 -0.1246368416492639 -0.024787675353444869 0 -0.13067566527459321 -0.039597081228004503 0 -0.1246368416492639 -0.024787675353444869 0 -0.13067566527459321 -0.039597081228004503 0 -0.13728148428220571 -0.03631729474545041 0 -0.1248214427799455 -0.0491876577223027 0 -0.13067566527459321 -0.039597081228004503 0 -0.1359628923869578 -0.048095697090820053 0 -0.13067566527459321 -0.039597081228004503 0 -0.13728148428220571 -0.03631729474545041 0 -0.1359628923869578 -0.048095697090820053 0 -0.13728148428220571 -0.03631729474545041 0 -0.1359628923869578 -0.048095697090820053 0 -0.14767594406259391 -0.049379474087132447 0 -0.1248214427799455 -0.0491876577223027 0 -0.12930964035960699 -0.069761515268982097 0 -0.13945189113323761 -0.059806177835795588 0 -0.1208541397454049 -0.045822468476665427 0 -0.12930964035960699 -0.069761515268982097 0 -0.1248214427799455 -0.0491876577223027 0 -0.1359628923869578 -0.048095697090820053 0 -0.13945189113323761 -0.059806177835795588 0 -0.1555984100513392 -0.067553704814911478 0 -0.13945189113323761 -0.059806177835795588 0 -0.14767594406259391 -0.049379474087132447 0 -0.1359628923869578 -0.048095697090820053 0 -0.13945189113323761 -0.059806177835795588 0 -0.14767594406259391 -0.049379474087132447 0 -0.14925834278157041 -0.027771983247297551 0 -0.14767594406259391 -0.049379474087132447 0 -0.16346190388351911 -0.035477368974388322 0 -0.14925834278157041 -0.027771983247297551 0 -0.13728148428220571 -0.03631729474545041 0 -0.14767594406259391 -0.049379474087132447 0 -0.14767594406259391 -0.049379474087132447 0 -0.16346190388351911 -0.035477368974388322 0 -0.16766997596840549 -0.055069670457126463 0 -0.16346190388351911 -0.035477368974388322 0 -0.16766997596840549 -0.055069670457126463 0 -0.1792130821544009 -0.041655239440509813 0 -0.1555984100513392 -0.067553704814911478 0 -0.14767594406259391 -0.049379474087132447 0 -0.16766997596840549 -0.055069670457126463 0 -0.16766997596840549 -0.055069670457126463 0 -0.18476368522970901 -0.060313507398174523 0 -0.1792130821544009 -0.041655239440509813 0 -0.18476368522970901 -0.060313507398174523 0 -0.1792130821544009 -0.041655239440509813 0 -0.19607578221694649 -0.043845816873478577 0 -0.16346190388351911 -0.035477368974388322 0 -0.1792130821544009 -0.041655239440509813 0 -0.1747539590121796 -0.02148713112583673 0 -0.1792130821544009 -0.041655239440509813 0 -0.1747539590121796 -0.02148713112583673 0 -0.18874747204970219 -0.028974905836781941 0 -0.1747539590121796 -0.02148713112583673 0 -0.18814241231787171 -0.014961103822567131 0 -0.18874747204970219 -0.028974905836781941 0 -0.14925834278157041 -0.027771983247297551 0 -0.16346190388351911 -0.035477368974388322 0 -0.16158573310271521 -0.019122381719964599 0 -0.16346190388351911 -0.035477368974388322 0 -0.1747539590121796 -0.02148713112583673 0 -0.16158573310271521 -0.019122381719964599 0 -0.1747539590121796 -0.02148713112583673 0 -0.16158573310271521 -0.019122381719964599 0 -0.1670666400728934 -0.0075955490013497832 0 -0.15381676672243971 -0.0048344028756085976 0 -0.1670666400728934 -0.0075955490013497832 0 -0.16872927738725291 0.0066655648670224509 0 -0.15381676672243971 -0.0048344028756085976 0 -0.16158573310271521 -0.019122381719964599 0 -0.1670666400728934 -0.0075955490013497832 0 -0.1670666400728934 -0.0075955490013497832 0 -0.1785064095432054 -0.0066611219507198768 0 -0.16872927738725291 0.0066655648670224509 0 -0.1747539590121796 -0.02148713112583673 0 -0.1670666400728934 -0.0075955490013497832 0 -0.1785064095432054 -0.0066611219507198768 0 -0.1747539590121796 -0.02148713112583673 0 -0.1785064095432054 -0.0066611219507198768 0 -0.18814241231787171 -0.014961103822567131 0 -0.1785064095432054 -0.0066611219507198768 0 -0.18814241231787171 -0.014961103822567131 0 -0.193034969706537 0.00064734206737222756 0 -0.20555212454711219 -0.022925237921517471 0 -0.20993853639106591 -0.0035380738047605968 0 -0.193034969706537 0.00064734206737222756 0 -0.18814241231787171 -0.014961103822567131 0 -0.20555212454711219 -0.022925237921517471 0 -0.193034969706537 0.00064734206737222756 0 -0.20555212454711219 -0.022925237921517471 0 -0.193034969706537 0.00064734206737222756 0 -0.20993853639106591 -0.0035380738047605968 0 -0.193034969706537 0.00064734206737222756 0 -0.18814241231787171 -0.014961103822567131 0 -0.18874747204970219 -0.028974905836781941 0 -0.20555212454711219 -0.022925237921517471 0 -0.20555212454711219 -0.022925237921517471 0 -0.21630961893328751 -0.01519709454307171 0 -0.22290571171937651 -0.026601576769118469 0 -0.20993853639106591 -0.0035380738047605968 0 -0.22684210307559549 -0.0077234896768903086 0 -0.21568563774484731 0.0082874278720449449 0 -0.20993853639106591 -0.0035380738047605968 0 -0.21630961893328751 -0.01519709454307171 0 -0.22684210307559549 -0.0077234896768903086 0 -0.20555212454711219 -0.022925237921517471 0 -0.20993853639106591 -0.0035380738047605968 0 -0.21630961893328751 -0.01519709454307171 0 -0.20993853639106591 -0.0035380738047605968 0 -0.22684210307559549 -0.0077234896768903086 0 -0.20335705558913081 -0.063140738221072371 0 -0.18476368522970901 -0.060313507398174523 0 -0.19607578221694649 -0.043845816873478577 0 -0.1792130821544009 -0.041655239440509813 0 -0.18874747204970219 -0.028974905836781941 0 -0.19607578221694649 -0.043845816873478577 0 -0.18874747204970219 -0.028974905836781941 0 -0.20555212454711219 -0.022925237921517471 0 -0.19607578221694649 -0.043845816873478577 0 -0.20555212454711219 -0.022925237921517471 0 -0.21856310265569601 -0.047427796698218422 0 -0.20555212454711219 -0.022925237921517471 0 -0.21856310265569601 -0.047427796698218422 0 -0.21896932036315811 -0.045479663861346789 0 -0.20555212454711219 -0.022925237921517471 0 -0.19607578221694649 -0.043845816873478577 0 -0.21856310265569601 -0.047427796698218422 0 -0.20555212454711219 -0.022925237921517471 0 -0.21896932036315811 -0.045479663861346789 0 -0.22290571171937651 -0.026601576769118469 0 -0.2137676172752207 -0.070425914128570383 0 -0.21856310265569601 -0.047427796698218422 0 -0.20335705558913081 -0.063140738221072371 0 -0.2137676172752207 -0.070425914128570383 0 -0.21856310265569601 -0.047427796698218422 0 -0.20335705558913081 -0.063140738221072371 0 -0.19607578221694649 -0.043845816873478577 0 -0.21856310265569601 -0.047427796698218422 0 -0.20335705558913081 -0.063140738221072371 0 -0.21856310265569601 -0.047427796698218422 0 -0.23144064811545881 -0.071679072189906365 0 -0.21856310265569601 -0.047427796698218422 0 -0.23092663332862359 -0.057189961691847993 0 -0.23144064811545881 -0.071679072189906365 0 -0.21856310265569601 -0.047427796698218422 0 -0.21856310265569601 -0.047427796698218422 0 -0.23092663332862359 -0.057189961691847993 0 -0.22458774444026389 -0.046948698447319907 0 -0.23092663332862359 -0.057189961691847993 0 -0.2320274706224234 -0.04981915803055513 0 -0.23892230415514151 -0.050781370399802413 0 -0.23092663332862359 -0.057189961691847993 0 -0.22458774444026389 -0.046948698447319907 0 -0.2320274706224234 -0.04981915803055513 0 -0.21896932036315811 -0.045479663861346789 0 -0.2306307955349908 -0.032287844280089482 0 -0.22290571171937651 -0.026601576769118469 0 -0.21896932036315811 -0.045479663861346789 0 -0.22290571171937651 -0.026601576769118469 0 -0.22458774444026389 -0.046948698447319907 0 -0.2320274706224234 -0.04981915803055513 0 -0.23529860714157019 -0.041169280456794459 0 -0.22458774444026389 -0.046948698447319907 0 -0.2306307955349908 -0.032287844280089482 0 -0.23529860714157019 -0.041169280456794459 0 -0.22458774444026389 -0.046948698447319907 0 -0.21896932036315811 -0.045479663861346789 0 -0.2306307955349908 -0.032287844280089482 0 -0.21856310265569601 -0.047427796698218422 0 -0.22458774444026389 -0.046948698447319907 0 -0.21896932036315811 -0.045479663861346789 0 -0.21856310265569601 -0.047427796698218422 0 -0.21896932036315811 -0.045479663861346789 0 -0.21896932036315811 -0.045479663861346789 0 -0.2306307955349908 -0.032287844280089482 0 -0.2306307955349908 -0.032287844280089482 0 -0.23529860714157019 -0.041169280456794459 0 -0.241537864008738 -0.030171217790278881 0 -0.24798951326795751 -0.035882587373858313 0 -0.23529860714157019 -0.041169280456794459 0 -0.241537864008738 -0.030171217790278881 0 -0.24798951326795751 -0.035882587373858313 0 -0.24357205858261219 -0.044359355700093257 0 -0.23529860714157019 -0.041169280456794459 0 -0.24798951326795751 -0.035882587373858313 0 -0.24357205858261219 -0.044359355700093257 0 -0.25238491957690051 -0.051022134359787842 0 -0.24357205858261219 -0.044359355700093257 0 -0.23529860714157019 -0.041169280456794459 0 -0.23892230415514151 -0.050781370399802413 0 -0.2466384096447127 -0.069214282175018252 0 -0.24006258296416741 -0.059977364163272567 0 -0.25238491957690051 -0.051022134359787842 0 -0.2320274706224234 -0.04981915803055513 0 -0.23529860714157019 -0.041169280456794459 0 -0.23892230415514151 -0.050781370399802413 0 -0.23892230415514151 -0.050781370399802413 0 -0.24006258296416741 -0.059977364163272567 0 -0.25238491957690051 -0.051022134359787842 0 -0.24357205858261219 -0.044359355700093257 0 -0.23892230415514151 -0.050781370399802413 0 -0.25238491957690051 -0.051022134359787842 0 -0.23092663332862359 -0.057189961691847993 0 -0.23892230415514151 -0.050781370399802413 0 -0.24006258296416741 -0.059977364163272567 0 -0.21630961893328751 -0.01519709454307171 0 -0.22684210307559549 -0.0077234896768903086 0 -0.22290571171937651 -0.026601576769118469 0 -0.22684210307559549 -0.0077234896768903086 0 -0.22290571171937651 -0.026601576769118469 0 -0.23226271327452069 -0.02198020745377605 0 -0.22684210307559549 -0.0077234896768903086 0 -0.22290571171937651 -0.026601576769118469 0 -0.2306307955349908 -0.032287844280089482 0 -0.22290571171937651 -0.026601576769118469 0 -0.23226271327452069 -0.02198020745377605 0 -0.22684210307559549 -0.0077234896768903086 0 -0.23226271327452069 -0.02198020745377605 0 -0.24229227070682269 -0.019096024698831499 0 -0.2306307955349908 -0.032287844280089482 0 -0.241537864008738 -0.030171217790278881 0 -0.24229227070682269 -0.019096024698831499 0 -0.2306307955349908 -0.032287844280089482 0 -0.23226271327452069 -0.02198020745377605 0 -0.24229227070682269 -0.019096024698831499 0 -0.2306307955349908 -0.032287844280089482 0 -0.24229227070682269 -0.019096024698831499 0 -0.24798951326795751 -0.035882587373858313 0 -0.241537864008738 -0.030171217790278881 0 -0.25387676547985721 -0.02452441136234379 0 -0.241537864008738 -0.030171217790278881 0 -0.24229227070682269 -0.019096024698831499 0 -0.25387676547985721 -0.02452441136234379 0 -0.24229227070682269 -0.019096024698831499 0 -0.24826461013585729 -0.013027819984466921 0 -0.25387676547985721 -0.02452441136234379 0 -0.22684210307559549 -0.0077234896768903086 0 -0.24826461013585729 -0.013027819984466921 0 -0.24598119983726671 0.0037338506766126851 0 -0.22684210307559549 -0.0077234896768903086 0 -0.24229227070682269 -0.019096024698831499 0 -0.24826461013585729 -0.013027819984466921 0 -0.22684210307559549 -0.0077234896768903086 0 -0.24826461013585729 -0.013027819984466921 0 -0.24826461013585729 -0.013027819984466921 0 -0.26003022337954462 -0.0038093911555793728 0 -0.24598119983726671 0.0037338506766126851 0 -0.24826461013585729 -0.013027819984466921 0 -0.26003022337954462 -0.0038093911555793728 0 -0.26968711719611937 -0.018332150292041979 0 -0.24826461013585729 -0.013027819984466921 0 -0.26968711719611937 -0.018332150292041979 0 -0.25387676547985721 -0.02452441136234379 0 -0.26968711719611937 -0.018332150292041979 0 -0.26155562347943467 -0.037861138146123199 0 -0.24826461013585729 -0.013027819984466921 0 -0.25387676547985721 -0.02452441136234379 0 -0.26968711719611937 -0.018332150292041979 0 -0.26968711719611937 -0.018332150292041979 0 -0.28953187906397732 -0.034281883787379987 0 -0.27524211720584768 -0.038538427260779863 0 -0.26003022337954462 -0.0038093911555793728 0 -0.26968711719611937 -0.018332150292041979 0 -0.27433688946420332 -0.0007833753365484626 0 -0.26968711719611937 -0.018332150292041979 0 -0.27433688946420332 -0.0007833753365484626 0 -0.28631392786639209 -0.0070506759659385472 0 -0.28631392786639209 -0.0070506759659385472 0 -0.29653674479957171 -0.021015146411400301 0 -0.3025805037907468 -0.0027432771802810229 0 -0.28631392786639209 -0.0070506759659385472 0 -0.3025805037907468 -0.0027432771802810229 0 -0.28842838408131971 0.0076205693905790281 0 -0.27433688946420332 -0.0007833753365484626 0 -0.28631392786639209 -0.0070506759659385472 0 -0.28842838408131971 0.0076205693905790281 0 -0.26968711719611937 -0.018332150292041979 0 -0.28631392786639209 -0.0070506759659385472 0 -0.29653674479957171 -0.021015146411400301 0 -0.26968711719611937 -0.018332150292041979 0 -0.29653674479957171 -0.021015146411400301 0 -0.28953187906397732 -0.034281883787379987 0 -0.29653674479957171 -0.021015146411400301 0 -0.28953187906397732 -0.034281883787379987 0 -0.31718310516035308 -0.038172790333745737 0 -0.29653674479957171 -0.021015146411400301 0 -0.31459326366374579 -0.01532774276474733 0 -0.31718310516035308 -0.038172790333745737 0 -0.29653674479957171 -0.021015146411400301 0 -0.3025805037907468 -0.0027432771802810229 0 -0.31459326366374579 -0.01532774276474733 0 -0.30229462048881822 -0.056161209871372138 0 -0.29850594913894141 -0.055440370537233663 0 -0.30849544073550722 -0.074776909133231664 0 -0.30229462048881822 -0.056161209871372138 0 -0.29366820665513949 -0.048519954280836622 0 -0.31370341578724742 -0.051143824177853653 0 -0.30229462048881822 -0.056161209871372138 0 -0.29850594913894141 -0.055440370537233663 0 -0.29366820665513949 -0.048519954280836622 0 -0.30229462048881822 -0.056161209871372138 0 -0.31629816603535338 -0.060261719535131632 0 -0.30229462048881822 -0.056161209871372138 0 -0.31178497446605258 -0.064623658022855565 0 -0.31629816603535338 -0.060261719535131632 0 -0.30229462048881822 -0.056161209871372138 0 -0.31370341578724742 -0.051143824177853653 0 -0.31629816603535338 -0.060261719535131632 0 -0.29366820665513949 -0.048519954280836622 0 -0.31718310516035308 -0.038172790333745737 0 -0.29366820665513949 -0.048519954280836622 0 -0.31718310516035308 -0.038172790333745737 0 -0.31370341578724742 -0.051143824177853653 0 -0.28953187906397732 -0.034281883787379987 0 -0.29366820665513949 -0.048519954280836622 0 -0.31718310516035308 -0.038172790333745737 0 -0.28953187906397732 -0.034281883787379987 0 -0.29366820665513949 -0.048519954280836622 0 -0.27524211720584768 -0.038538427260779863 0 -0.29366820665513949 -0.048519954280836622 0 -0.27015330814992611 -0.058867118227927437 0 -0.29366820665513949 -0.048519954280836622 0 -0.28660483069534037 -0.061918496488246169 0 -0.27015330814992611 -0.058867118227927437 0 -0.29850594913894141 -0.055440370537233663 0 -0.28660483069534037 -0.061918496488246169 0 -0.29557893925590151 -0.069462416794053169 0 -0.29850594913894141 -0.055440370537233663 0 -0.29366820665513949 -0.048519954280836622 0 -0.28660483069534037 -0.061918496488246169 0 -0.29366820665513949 -0.048519954280836622 0 -0.27015330814992611 -0.058867118227927437 0 -0.27524211720584768 -0.038538427260779863 0 -0.26968711719611937 -0.018332150292041979 0 -0.27524211720584768 -0.038538427260779863 0 -0.26155562347943467 -0.037861138146123199 0 -0.27015330814992611 -0.058867118227927437 0 -0.27524211720584768 -0.038538427260779863 0 -0.26155562347943467 -0.037861138146123199 0 -0.24798951326795751 -0.035882587373858313 0 -0.26155562347943467 -0.037861138146123199 0 -0.25238491957690051 -0.051022134359787842 0 -0.24798951326795751 -0.035882587373858313 0 -0.25387676547985721 -0.02452441136234379 0 -0.26155562347943467 -0.037861138146123199 0 -0.27015330814992611 -0.058867118227927437 0 -0.26155562347943467 -0.037861138146123199 0 -0.25238491957690051 -0.051022134359787842 0 -0.2466384096447127 -0.069214282175018252 0 -0.27015330814992611 -0.058867118227927437 0 -0.25238491957690051 -0.051022134359787842 0 -0.2466384096447127 -0.069214282175018252 0 -0.27015330814992611 -0.058867118227927437 0 -0.26102584033089798 -0.073534373921212107 0 -0.2466384096447127 -0.069214282175018252 0 -0.27015330814992611 -0.058867118227927437 0 -0.2466384096447127 -0.069214282175018252 0 -0.26102584033089798 -0.073534373921212107 0 -0.25106785873748549 -0.083001848322642804 0 -0.25106785873748549 -0.083001848322642804 0 -0.26431637422662529 -0.083961298504163229 0 -0.25687551172258971 -0.095275519396915032 0 -0.26431637422662529 -0.083961298504163229 0 -0.25687551172258971 -0.095275519396915032 0 -0.26922948176741379 -0.094556007429682482 0 -0.26102584033089798 -0.073534373921212107 0 -0.25106785873748549 -0.083001848322642804 0 -0.26431637422662529 -0.083961298504163229 0 -0.26431637422662529 -0.083961298504163229 0 -0.27622487875609619 -0.085738752979791055 0 -0.27411142324960069 -0.07331497732508381 0 -0.26431637422662529 -0.083961298504163229 0 -0.27622487875609619 -0.085738752979791055 0 -0.26922948176741379 -0.094556007429682482 0 -0.27622487875609619 -0.085738752979791055 0 -0.26922948176741379 -0.094556007429682482 0 -0.28208733676033698 -0.099544680508420066 0 -0.27622487875609619 -0.085738752979791055 0 -0.27411142324960069 -0.07331497732508381 0 -0.28634330733871821 -0.075869823829162894 0 -0.28660483069534037 -0.061918496488246169 0 -0.27015330814992611 -0.058867118227927437 0 -0.27411142324960069 -0.07331497732508381 0 -0.27015330814992611 -0.058867118227927437 0 -0.26102584033089798 -0.073534373921212107 0 -0.27411142324960069 -0.07331497732508381 0 -0.26102584033089798 -0.073534373921212107 0 -0.26431637422662529 -0.083961298504163229 0 -0.27411142324960069 -0.07331497732508381 0 -0.24959534238117709 -0.1078054475449232 0 -0.26009747564537128 -0.1202716976192799 0 -0.26511094786836592 -0.1069062435210571 0 -0.24959534238117709 -0.1078054475449232 0 -0.26511094786836592 -0.1069062435210571 0 -0.25687551172258971 -0.095275519396915032 0 -0.26511094786836592 -0.1069062435210571 0 -0.25687551172258971 -0.095275519396915032 0 -0.26922948176741379 -0.094556007429682482 0 -0.26511094786836592 -0.1069062435210571 0 -0.27676276389741278 -0.11052104179975 0 -0.28208733676033698 -0.099544680508420066 0 -0.26511094786836592 -0.1069062435210571 0 -0.26922948176741379 -0.094556007429682482 0 -0.28208733676033698 -0.099544680508420066 0 -0.26511094786836592 -0.1069062435210571 0 -0.28208733676033698 -0.099544680508420066 0 -0.26009747564537128 -0.1202716976192799 0 -0.28368315898475188 -0.1205679176925603 0 -0.26697405985724948 -0.1304210152969853 0 -0.26009747564537128 -0.1202716976192799 0 -0.27676276389741278 -0.11052104179975 0 -0.28368315898475188 -0.1205679176925603 0 -0.26009747564537128 -0.1202716976192799 0 -0.28368315898475188 -0.1205679176925603 0 -0.26009747564537128 -0.1202716976192799 0 -0.26511094786836592 -0.1069062435210571 0 -0.27676276389741278 -0.11052104179975 0 -0.28368315898475188 -0.1205679176925603 0 -0.30807566230962469 -0.12087427087378499 0 -0.28368315898475188 -0.1205679176925603 0 -0.29137344231852969 -0.1063755175941712 0 -0.30807566230962469 -0.12087427087378499 0 -0.27676276389741278 -0.11052104179975 0 -0.28368315898475188 -0.1205679176925603 0 -0.29137344231852969 -0.1063755175941712 0 -0.28368315898475188 -0.1205679176925603 0 -0.29137344231852969 -0.1063755175941712 0 -0.29137344231852969 -0.1063755175941712 0 -0.28208733676033698 -0.099544680508420066 0 -0.29906372565230788 -0.092183117495782341 0 -0.28208733676033698 -0.099544680508420066 0 -0.29906372565230788 -0.092183117495782341 0 -0.27676276389741278 -0.11052104179975 0 -0.29137344231852969 -0.1063755175941712 0 -0.28208733676033698 -0.099544680508420066 0 -0.29137344231852969 -0.1063755175941712 0 -0.29906372565230788 -0.092183117495782341 0 -0.30690970986333499 -0.10413412755240679 0 -0.29906372565230788 -0.092183117495782341 0 -0.31411573014289268 -0.085656035662949492 0 -0.29137344231852969 -0.1063755175941712 0 -0.30690970986333499 -0.10413412755240679 0 -0.29906372565230788 -0.092183117495782341 0 -0.28368315898475188 -0.1205679176925603 0 -0.30807566230962469 -0.12087427087378499 0 -0.30140371581860798 -0.1292511186866305 0 -0.29137344231852969 -0.1063755175941712 0 -0.30690970986333499 -0.10413412755240679 0 -0.30807566230962469 -0.12087427087378499 0 -0.29557893925590151 -0.069462416794053169 0 -0.28634330733871821 -0.075869823829162894 0 -0.29528406594296941 -0.079953964946478426 0 -0.28660483069534037 -0.061918496488246169 0 -0.29557893925590151 -0.069462416794053169 0 -0.28634330733871821 -0.075869823829162894 0 -0.28660483069534037 -0.061918496488246169 0 -0.27411142324960069 -0.07331497732508381 0 -0.28634330733871821 -0.075869823829162894 0 -0.27622487875609619 -0.085738752979791055 0 -0.28634330733871821 -0.075869823829162894 0 -0.28693891673241251 -0.08747755748016231 0 -0.28208733676033698 -0.099544680508420066 0 -0.28693891673241251 -0.08747755748016231 0 -0.29906372565230788 -0.092183117495782341 0 -0.27622487875609619 -0.085738752979791055 0 -0.28208733676033698 -0.099544680508420066 0 -0.28693891673241251 -0.08747755748016231 0 -0.28693891673241251 -0.08747755748016231 0 -0.29528406594296941 -0.079953964946478426 0 -0.29906372565230788 -0.092183117495782341 0 -0.28634330733871821 -0.075869823829162894 0 -0.28693891673241251 -0.08747755748016231 0 -0.29528406594296941 -0.079953964946478426 0 -0.29528406594296941 -0.079953964946478426 0 -0.29906372565230788 -0.092183117495782341 0 -0.30849544073550722 -0.074776909133231664 0 -0.29906372565230788 -0.092183117495782341 0 -0.30849544073550722 -0.074776909133231664 0 -0.29906372565230788 -0.092183117495782341 0 -0.30849544073550722 -0.074776909133231664 0 -0.31411573014289268 -0.085656035662949492 0 -0.29906372565230788 -0.092183117495782341 0 -0.31411573014289268 -0.085656035662949492 0 -0.30849544073550722 -0.074776909133231664 0 -0.31411573014289268 -0.085656035662949492 0 -0.30229462048881822 -0.056161209871372138 0 -0.30849544073550722 -0.074776909133231664 0 -0.31178497446605258 -0.064623658022855565 0 -0.29850594913894141 -0.055440370537233663 0 -0.29557893925590151 -0.069462416794053169 0 -0.30849544073550722 -0.074776909133231664 0 -0.30849544073550722 -0.074776909133231664 0 -0.31286059459191501 -0.066721027791507209 0 -0.29850594913894141 -0.055440370537233663 0 -0.30849544073550722 -0.074776909133231664 0 -0.29557893925590151 -0.069462416794053169 0 -0.29528406594296941 -0.079953964946478426 0 -0.30849544073550722 -0.074776909133231664 0 -0.30849544073550722 -0.074776909133231664 0 -0.31178497446605258 -0.064623658022855565 0 -0.31286059459191501 -0.066721027791507209 0 -0.31178497446605258 -0.064623658022855565 0 -0.31286059459191501 -0.066721027791507209 0 -0.31286059459191501 -0.066721027791507209 0 -0.32103296817657878 -0.082656476452658639 0 -0.31286059459191501 -0.066721027791507209 0 -0.32103296817657878 -0.082656476452658639 0 -0.32352590008436471 -0.062378140209921912 0 -0.31178497446605258 -0.064623658022855565 0 -0.31286059459191501 -0.066721027791507209 0 -0.31629816603535338 -0.060261719535131632 0 -0.30849544073550722 -0.074776909133231664 0 -0.31286059459191501 -0.066721027791507209 0 -0.32103296817657878 -0.082656476452658639 0 -0.31286059459191501 -0.066721027791507209 0 -0.31629816603535338 -0.060261719535131632 0 -0.31286059459191501 -0.066721027791507209 0 -0.31629816603535338 -0.060261719535131632 0 -0.32352590008436471 -0.062378140209921912 0 -0.32103296817657878 -0.082656476452658639 0 -0.33093834944883532 -0.101971145942244 0 -0.30849544073550722 -0.074776909133231664 0 -0.31411573014289268 -0.085656035662949492 0 -0.32103296817657878 -0.082656476452658639 0 -0.31411573014289268 -0.085656035662949492 0 -0.32103296817657878 -0.082656476452658639 0 -0.32329194788869442 -0.1034183298589804 0 -0.31411573014289268 -0.085656035662949492 0 -0.32103296817657878 -0.082656476452658639 0 -0.32103296817657878 -0.082656476452658639 0 -0.33692687914299491 -0.089632102483736459 0 -0.33093834944883532 -0.101971145942244 0 -0.32103296817657878 -0.082656476452658639 0 -0.33692687914299491 -0.089632102483736459 0 -0.3453529791357649 -0.07211045902320197 0 -0.32103296817657878 -0.082656476452658639 0 -0.3453529791357649 -0.07211045902320197 0 -0.32352590008436471 -0.062378140209921912 0 -0.34475717967991132 -0.068595070548471249 0 -0.3453529791357649 -0.07211045902320197 0 -0.32352590008436471 -0.062378140209921912 0 -0.34475717967991132 -0.068595070548471249 0 -0.32352590008436471 -0.062378140209921912 0 -0.32103296817657878 -0.082656476452658639 0 -0.3453529791357649 -0.07211045902320197 0 -0.30807566230962469 -0.12087427087378499 0 -0.32329194788869442 -0.1034183298589804 0 -0.33246816563449738 -0.1211806240550105 0 -0.30807566230962469 -0.12087427087378499 0 -0.33246816563449738 -0.1211806240550105 0 -0.30807566230962469 -0.12087427087378499 0 -0.32007374605487132 -0.12494213909402439 0 -0.33246816563449738 -0.1211806240550105 0 -0.30690970986333499 -0.10413412755240679 0 -0.30807566230962469 -0.12087427087378499 0 -0.32329194788869442 -0.1034183298589804 0 -0.32329194788869442 -0.1034183298589804 0 -0.33246816563449738 -0.1211806240550105 0 -0.32007374605487132 -0.12494213909402439 0 -0.33441303965894859 -0.1249452932850653 0 -0.30690970986333499 -0.10413412755240679 0 -0.31411573014289268 -0.085656035662949492 0 -0.32329194788869442 -0.1034183298589804 0 -0.32103296817657878 -0.082656476452658639 0 -0.32329194788869442 -0.1034183298589804 0 -0.33093834944883532 -0.101971145942244 0 -0.31411573014289268 -0.085656035662949492 0 -0.32329194788869442 -0.1034183298589804 0 -0.32329194788869442 -0.1034183298589804 0 -0.33093834944883532 -0.101971145942244 0 -0.33246816563449738 -0.1211806240550105 0 -0.33692687914299491 -0.089632102483736459 0 -0.33093834944883532 -0.101971145942244 0 -0.35038321981080389 -0.10179032851684799 0 -0.33093834944883532 -0.101971145942244 0 -0.34773438721257438 -0.1121772477149196 0 -0.35038321981080389 -0.10179032851684799 0 -0.33093834944883532 -0.101971145942244 0 -0.3408437307210912 -0.1212858154318297 0 -0.33093834944883532 -0.101971145942244 0 -0.3408437307210912 -0.1212858154318297 0 -0.33246816563449738 -0.1211806240550105 0 -0.33093834944883532 -0.101971145942244 0 -0.3408437307210912 -0.1212858154318297 0 -0.34773438721257438 -0.1121772477149196 0 -0.34272140335036932 -0.124947120862287 0 -0.3408437307210912 -0.1212858154318297 0 -0.33441303965894859 -0.1249452932850653 0 -0.3408437307210912 -0.1212858154318297 0 -0.33246816563449738 -0.1211806240550105 0 -0.34272140335036932 -0.124947120862287 0 -0.33441303965894859 -0.1249452932850653 0 -0.34272140335036932 -0.124947120862287 0 -0.3408437307210912 -0.1212858154318297 0 -0.32007374605487132 -0.12494213909402439 0 -0.33441303965894859 -0.1249452932850653 0 -0.33246816563449738 -0.1211806240550105 0 -0.3408437307210912 -0.1212858154318297 0 -0.33441303965894859 -0.1249452932850653 0 -0.33246816563449738 -0.1211806240550105 0 -0.33441303965894859 -0.1249452932850653 0 -0.33246816563449738 -0.1211806240550105 0 -0.34272140335036932 -0.124947120862287 0 -0.35433435295871402 -0.1214552484327875 0 -0.36893450279197471 -0.1249528869149899 0 -0.34272140335036932 -0.124947120862287 0 -0.36893450279197471 -0.1249528869149899 0 -0.3408437307210912 -0.1212858154318297 0 -0.35433435295871402 -0.1214552484327875 0 -0.3408437307210912 -0.1212858154318297 0 -0.35433435295871402 -0.1214552484327875 0 -0.34773438721257438 -0.1121772477149196 0 -0.34272140335036932 -0.124947120862287 0 -0.3408437307210912 -0.1212858154318297 0 -0.35433435295871402 -0.1214552484327875 0 -0.35433435295871402 -0.1214552484327875 0 -0.34773438721257438 -0.1121772477149196 0 -0.3623387343604032 -0.1125517513480446 0 -0.34773438721257438 -0.1121772477149196 0 -0.35038321981080389 -0.10179032851684799 0 -0.3623387343604032 -0.1125517513480446 0 -0.37380044498630338 -0.100392191664622 0 -0.3623387343604032 -0.1125517513480446 0 -0.3789649235099295 -0.11270856972454819 0 -0.35038321981080389 -0.10179032851684799 0 -0.37380044498630338 -0.100392191664622 0 -0.36747037526515469 -0.088210616938563927 0 -0.35038321981080389 -0.10179032851684799 0 -0.37380044498630338 -0.100392191664622 0 -0.3623387343604032 -0.1125517513480446 0 -0.3623387343604032 -0.1125517513480446 0 -0.36893450279197471 -0.1249528869149899 0 -0.3789649235099295 -0.11270856972454819 0 -0.35433435295871402 -0.1214552484327875 0 -0.3623387343604032 -0.1125517513480446 0 -0.36893450279197471 -0.1249528869149899 0 -0.34995192587724822 -0.070116192960804249 0 -0.35645509357982358 -0.081628608772215283 0 -0.36843110820579178 -0.075527255856609146 0 -0.34995192587724822 -0.070116192960804249 0 -0.36608399240098949 -0.063120758007335118 0 -0.35494834161021771 -0.06194377696909157 0 -0.34995192587724822 -0.070116192960804249 0 -0.36843110820579178 -0.075527255856609146 0 -0.34995192587724822 -0.070116192960804249 0 -0.36608399240098949 -0.063120758007335118 0 -0.34995192587724822 -0.070116192960804249 0 -0.34475717967991132 -0.068595070548471249 0 -0.35494834161021771 -0.06194377696909157 0 -0.34995192587724822 -0.070116192960804249 0 -0.34475717967991132 -0.068595070548471249 0 -0.34995192587724822 -0.070116192960804249 0 -0.34475717967991132 -0.068595070548471249 0 -0.3453529791357649 -0.07211045902320197 0 -0.34995192587724822 -0.070116192960804249 0 -0.3453529791357649 -0.07211045902320197 0 -0.34995192587724822 -0.070116192960804249 0 -0.3453529791357649 -0.07211045902320197 0 -0.35645509357982358 -0.081628608772215283 0 -0.34475717967991132 -0.068595070548471249 0 -0.3453529791357649 -0.07211045902320197 0 -0.35038321981080389 -0.10179032851684799 0 -0.35645509357982358 -0.081628608772215283 0 -0.36747037526515469 -0.088210616938563927 0 -0.35038321981080389 -0.10179032851684799 0 -0.3453529791357649 -0.07211045902320197 0 -0.35645509357982358 -0.081628608772215283 0 -0.33692687914299491 -0.089632102483736459 0 -0.35038321981080389 -0.10179032851684799 0 -0.3453529791357649 -0.07211045902320197 0 -0.35038321981080389 -0.10179032851684799 0 -0.3453529791357649 -0.07211045902320197 0 -0.36747037526515469 -0.088210616938563927 0 -0.36843110820579178 -0.075527255856609146 0 -0.38691029053433551 -0.080938318752413793 0 -0.35645509357982358 -0.081628608772215283 0 -0.36747037526515469 -0.088210616938563927 0 -0.36843110820579178 -0.075527255856609146 0 -0.34995192587724822 -0.070116192960804249 0 -0.36843110820579178 -0.075527255856609146 0 -0.36608399240098949 -0.063120758007335118 0 -0.36843110820579178 -0.075527255856609146 0 -0.36608399240098949 -0.063120758007335118 0 -0.37978412082390189 -0.068029865631836883 0 -0.36608399240098949 -0.063120758007335118 0 -0.37085155020467431 -0.050438611479832557 0 -0.38221605892473098 -0.056125323053866277 0 -0.36608399240098949 -0.063120758007335118 0 -0.38221605892473098 -0.056125323053866277 0 -0.37085155020467431 -0.050438611479832557 0 -0.36177701350261748 -0.054750595911384127 0 -0.36329546327126672 -0.041142767418341691 0 -0.36608399240098949 -0.063120758007335118 0 -0.36177701350261748 -0.054750595911384127 0 -0.35494834161021771 -0.06194377696909157 0 -0.36608399240098949 -0.063120758007335118 0 -0.37085155020467431 -0.050438611479832557 0 -0.36177701350261748 -0.054750595911384127 0 -0.36177701350261748 -0.054750595911384127 0 -0.35494834161021771 -0.06194377696909157 0 -0.35217159659032232 -0.05313626741746251 0 -0.34475717967991132 -0.068595070548471249 0 -0.35217159659032232 -0.05313626741746251 0 -0.34008173660725832 -0.04100860914713586 0 -0.36177701350261748 -0.054750595911384127 0 -0.35217159659032232 -0.05313626741746251 0 -0.36329546327126672 -0.041142767418341691 0 -0.34475717967991132 -0.068595070548471249 0 -0.35494834161021771 -0.06194377696909157 0 -0.35217159659032232 -0.05313626741746251 0 -0.35217159659032232 -0.05313626741746251 0 -0.35233090603521772 -0.034345905606361089 0 -0.36329546327126672 -0.041142767418341691 0 -0.35217159659032232 -0.05313626741746251 0 -0.35233090603521772 -0.034345905606361089 0 -0.34008173660725832 -0.04100860914713586 0 -0.35233090603521772 -0.034345905606361089 0 -0.34677261788783459 -0.022263095799622792 0 -0.34008173660725832 -0.04100860914713586 0 -0.35233090603521772 -0.034345905606361089 0 -0.36329546327126672 -0.041142767418341691 0 -0.36125368123050811 -0.029816691131076791 0 -0.36329546327126672 -0.041142767418341691 0 -0.37015544225173291 -0.03012439130571171 0 -0.36125368123050811 -0.029816691131076791 0 -0.37085155020467431 -0.050438611479832557 0 -0.36329546327126672 -0.041142767418341691 0 -0.37439980638912518 -0.038891661293645137 0 -0.36329546327126672 -0.041142767418341691 0 -0.37439980638912518 -0.038891661293645137 0 -0.37015544225173291 -0.03012439130571171 0 -0.37439980638912518 -0.038891661293645137 0 -0.37015544225173291 -0.03012439130571171 0 -0.37866743010551202 -0.02906954498465647 0 -0.37015544225173291 -0.03012439130571171 0 -0.37402384376206249 -0.023759624541515059 0 -0.37866743010551202 -0.02906954498465647 0 -0.37015544225173291 -0.03012439130571171 0 -0.37402384376206249 -0.023759624541515059 0 -0.36652472594663232 -0.022500501643346649 0 -0.37402384376206249 -0.023759624541515059 0 -0.37465439862472261 -0.016787835852634068 0 -0.36652472594663232 -0.022500501643346649 0 -0.37465439862472261 -0.016787835852634068 0 -0.36652472594663232 -0.022500501643346649 0 -0.3596530522362773 -0.017262546391789129 0 -0.36652472594663232 -0.022500501643346649 0 -0.3596530522362773 -0.017262546391789129 0 -0.35649867437881472 -0.022585523222405649 0 -0.36652472594663232 -0.022500501643346649 0 -0.36125368123050811 -0.029816691131076791 0 -0.35649867437881472 -0.022585523222405649 0 -0.37015544225173291 -0.03012439130571171 0 -0.36652472594663232 -0.022500501643346649 0 -0.36125368123050811 -0.029816691131076791 0 -0.37465439862472261 -0.016787835852634068 0 -0.3596530522362773 -0.017262546391789129 0 -0.34857824671955512 -0.007874197240844389 0 -0.37465439862472261 -0.016787835852634068 0 -0.3597652811465577 -0.0058215117475868012 0 -0.34857824671955512 -0.007874197240844389 0 -0.37465439862472261 -0.016787835852634068 0 -0.34857824671955512 -0.007874197240844389 0 -0.37126952376897032 -0.00085078512189483576 0 -0.36867541047690239 -0.006920070417115203 0 -0.36494834593608783 -0.001298186014321303 0 -0.37126952376897032 -0.00085078512189483576 0 -0.37464851222799189 -0.0076089195940836872 0 -0.37774077980655368 -0.001289555558904682 0 -0.37126952376897032 -0.00085078512189483576 0 -0.37464851222799189 -0.0076089195940836872 0 -0.36867541047690239 -0.006920070417115203 0 -0.37465439862472261 -0.016787835852634068 0 -0.36867541047690239 -0.006920070417115203 0 -0.3597652811465577 -0.0058215117475868012 0 -0.37465439862472261 -0.016787835852634068 0 -0.37464851222799189 -0.0076089195940836872 0 -0.36867541047690239 -0.006920070417115203 0 -0.36867541047690239 -0.006920070417115203 0 -0.3597652811465577 -0.0058215117475868012 0 -0.36494834593608783 -0.001298186014321303 0 -0.3597652811465577 -0.0058215117475868012 0 -0.36494834593608783 -0.001298186014321303 0 -0.35900139338342918 0.0020097317905480609 0 -0.3597652811465577 -0.0058215117475868012 0 -0.35221409618436439 -0.0049109655465913588 0 -0.34857824671955512 -0.007874197240844389 0 -0.3597652811465577 -0.0058215117475868012 0 -0.35509488683577939 -0.0004162838960613095 0 -0.35900139338342918 0.0020097317905480609 0 -0.3597652811465577 -0.0058215117475868012 0 -0.35509488683577939 -0.0004162838960613095 0 -0.35221409618436439 -0.0049109655465913588 0 -0.3596530522362773 -0.017262546391789129 0 -0.34857824671955512 -0.007874197240844389 0 -0.35200921551166209 -0.0165646739997149 0 -0.34857824671955512 -0.007874197240844389 0 -0.34618108527798752 -0.01472783018749277 0 -0.35200921551166209 -0.0165646739997149 0 -0.35233090603521772 -0.034345905606361089 0 -0.36125368123050811 -0.029816691131076791 0 -0.35649867437881472 -0.022585523222405649 0 -0.35233090603521772 -0.034345905606361089 0 -0.35649867437881472 -0.022585523222405649 0 -0.34677261788783459 -0.022263095799622792 0 -0.35649867437881472 -0.022585523222405649 0 -0.35200921551166209 -0.0165646739997149 0 -0.34677261788783459 -0.022263095799622792 0 -0.3596530522362773 -0.017262546391789129 0 -0.35649867437881472 -0.022585523222405649 0 -0.35200921551166209 -0.0165646739997149 0 -0.34618108527798752 -0.01472783018749277 0 -0.35200921551166209 -0.0165646739997149 0 -0.34677261788783459 -0.022263095799622792 0 -0.33540629353460438 -0.01342214774580049 0 -0.31718310516035308 -0.038172790333745737 0 -0.34008173660725832 -0.04100860914713586 0 -0.33540629353460438 -0.01342214774580049 0 -0.34008173660725832 -0.04100860914713586 0 -0.34677261788783459 -0.022263095799622792 0 -0.33540629353460438 -0.01342214774580049 0 -0.34008173660725832 -0.04100860914713586 0 -0.34618108527798752 -0.01472783018749277 0 -0.34677261788783459 -0.022263095799622792 0 -0.33540629353460438 -0.01342214774580049 0 -0.33540629353460438 -0.01342214774580049 0 -0.3204068892458079 -0.0014125807301150939 0 -0.33073085046195078 0.01416431365553468 0 -0.34857824671955512 -0.007874197240844389 0 -0.33540629353460438 -0.01342214774580049 0 -0.33073085046195078 0.01416431365553468 0 -0.34857824671955512 -0.007874197240844389 0 -0.34618108527798752 -0.01472783018749277 0 -0.33540629353460438 -0.01342214774580049 0 -0.3025805037907468 -0.0027432771802810229 0 -0.31459326366374579 -0.01532774276474733 0 -0.3204068892458079 -0.0014125807301150939 0 -0.33540629353460438 -0.01342214774580049 0 -0.31459326366374579 -0.01532774276474733 0 -0.3204068892458079 -0.0014125807301150939 0 -0.33540629353460438 -0.01342214774580049 0 -0.31459326366374579 -0.01532774276474733 0 -0.31718310516035308 -0.038172790333745737 0 -0.31718310516035308 -0.038172790333745737 0 -0.3268834079531176 -0.05023453433316457 0 -0.34008173660725832 -0.04100860914713586 0 -0.31718310516035308 -0.038172790333745737 0 -0.31370341578724742 -0.051143824177853653 0 -0.3268834079531176 -0.05023453433316457 0 -0.31370341578724742 -0.051143824177853653 0 -0.31629816603535338 -0.060261719535131632 0 -0.32352590008436471 -0.062378140209921912 0 -0.31629816603535338 -0.060261719535131632 0 -0.32352590008436471 -0.062378140209921912 0 -0.32352590008436471 -0.062378140209921912 0 -0.3268834079531176 -0.05023453433316457 0 -0.33381205608116321 -0.055554088559673351 0 -0.31370341578724742 -0.051143824177853653 0 -0.32352590008436471 -0.062378140209921912 0 -0.3268834079531176 -0.05023453433316457 0 -0.34475717967991132 -0.068595070548471249 0 -0.32352590008436471 -0.062378140209921912 0 -0.33381205608116321 -0.055554088559673351 0 -0.34475717967991132 -0.068595070548471249 0 -0.33381205608116321 -0.055554088559673351 0 -0.34008173660725832 -0.04100860914713586 0 -0.3268834079531176 -0.05023453433316457 0 -0.33381205608116321 -0.055554088559673351 0 -0.34008173660725832 -0.04100860914713586 0 -0.34475717967991132 -0.068595070548471249 0 -0.34008173660725832 -0.04100860914713586 0 -0.29131753467172561 -0.25675805269722002 0 -0.30769212114973271 -0.24578220261295139 0 -0.29241592956139478 -0.23974284613727589 0 -0.30769212114973271 -0.24578220261295139 0 -0.30829656048542242 -0.23127198481015249 0 -0.29241592956139478 -0.23974284613727589 0 -0.30829656048542242 -0.23127198481015249 0 -0.29279532374442052 -0.2217612167757172 0 -0.3129652712195421 -0.2114706657937139 0 -0.30829656048542242 -0.23127198481015249 0 -0.29279532374442052 -0.2217612167757172 0 -0.29241592956139478 -0.23974284613727589 0 -0.29279532374442052 -0.2217612167757172 0 -0.29241592956139478 -0.23974284613727589 0 -0.27798049023744681 -0.23352671123603991 0 -0.29279532374442052 -0.2217612167757172 0 -0.27798049023744681 -0.23352671123603991 0 -0.27449661508218531 -0.21747639879007349 0 -0.29131753467172561 -0.25675805269722002 0 -0.29241592956139478 -0.23974284613727589 0 -0.27722523139620658 -0.24922189107985179 0 -0.29241592956139478 -0.23974284613727589 0 -0.27722523139620658 -0.24922189107985179 0 -0.27798049023744681 -0.23352671123603991 0 -0.27722523139620658 -0.24922189107985179 0 -0.25992972331208369 -0.2410680052130979 0 -0.27798049023744681 -0.23352671123603991 0 -0.26398002587916253 -0.25656090854441049 0 -0.27722523139620658 -0.24922189107985179 0 -0.25992972331208369 -0.2410680052130979 0 -0.25992972331208369 -0.2410680052130979 0 -0.25674041691710447 -0.22108212323078871 0 -0.27798049023744681 -0.23352671123603991 0 -0.2377451423251814 -0.23136366228574551 0 -0.25992972331208369 -0.2410680052130979 0 -0.25674041691710447 -0.22108212323078871 0 -0.25674041691710447 -0.22108212323078871 0 -0.27798049023744681 -0.23352671123603991 0 -0.27449661508218531 -0.21747639879007349 0 -0.27449661508218531 -0.21747639879007349 0 -0.25644706280453389 -0.1995927939493197 0 -0.27817485521465529 -0.19463925610534399 0 -0.27449661508218531 -0.21747639879007349 0 -0.27817485521465529 -0.19463925610534399 0 -0.25674041691710447 -0.22108212323078871 0 -0.27449661508218531 -0.21747639879007349 0 -0.25644706280453389 -0.1995927939493197 0 -0.25644706280453389 -0.1995927939493197 0 -0.27817485521465529 -0.19463925610534399 0 -0.26629571781906192 -0.18034234132084431 0 -0.27817485521465529 -0.19463925610534399 0 -0.29367807880863189 -0.20345752952089671 0 -0.29386082525749962 -0.1848532680646672 0 -0.27449661508218531 -0.21747639879007349 0 -0.27817485521465529 -0.19463925610534399 0 -0.29367807880863189 -0.20345752952089671 0 -0.29279532374442052 -0.2217612167757172 0 -0.27449661508218531 -0.21747639879007349 0 -0.29367807880863189 -0.20345752952089671 0 -0.29279532374442052 -0.2217612167757172 0 -0.29367807880863189 -0.20345752952089671 0 -0.3129652712195421 -0.2114706657937139 0 -0.29367807880863189 -0.20345752952089671 0 -0.30717411826112789 -0.1920401195635244 0 -0.29386082525749962 -0.1848532680646672 0 -0.29367807880863189 -0.20345752952089671 0 -0.30717411826112789 -0.1920401195635244 0 -0.3129652712195421 -0.2114706657937139 0 -0.30551265723832022 -0.17938492804960809 0 -0.29677214667513702 -0.1677956617280158 0 -0.29386082525749962 -0.1848532680646672 0 -0.30717411826112789 -0.1920401195635244 0 -0.30551265723832022 -0.17938492804960809 0 -0.29386082525749962 -0.1848532680646672 0 -0.30717411826112789 -0.1920401195635244 0 -0.30551265723832022 -0.17938492804960809 0 -0.31489114071409963 -0.18333745750317351 0 -0.30551265723832022 -0.17938492804960809 0 -0.31220508881165993 -0.16846949012138551 0 -0.29677214667513702 -0.1677956617280158 0 -0.30551265723832022 -0.17938492804960809 0 -0.31220508881165993 -0.16846949012138551 0 -0.31489114071409963 -0.18333745750317351 0 -0.31220508881165993 -0.16846949012138551 0 -0.2949530938874384 -0.15245549241185349 0 -0.31498630483336881 -0.15987728715749039 0 -0.31220508881165993 -0.16846949012138551 0 -0.2949530938874384 -0.15245549241185349 0 -0.31220508881165993 -0.16846949012138551 0 -0.29677214667513702 -0.1677956617280158 0 -0.2949530938874384 -0.15245549241185349 0 -0.28185309534712533 -0.17180211342061449 0 -0.28553133547959519 -0.14896497073588499 0 -0.29677214667513702 -0.1677956617280158 0 -0.28185309534712533 -0.17180211342061449 0 -0.2949530938874384 -0.15245549241185349 0 -0.28185309534712533 -0.17180211342061449 0 -0.28553133547959519 -0.14896497073588499 0 -0.2949530938874384 -0.15245549241185349 0 -0.27817485521465529 -0.19463925610534399 0 -0.28185309534712533 -0.17180211342061449 0 -0.29386082525749962 -0.1848532680646672 0 -0.29677214667513702 -0.1677956617280158 0 -0.28185309534712533 -0.17180211342061449 0 -0.29386082525749962 -0.1848532680646672 0 -0.27817485521465529 -0.19463925610534399 0 -0.28185309534712533 -0.17180211342061449 0 -0.27817485521465529 -0.19463925610534399 0 -0.28185309534712533 -0.17180211342061449 0 -0.26629571781906192 -0.18034234132084431 0 -0.26629571781906192 -0.18034234132084431 0 -0.25029992488695979 -0.1782534950292988 0 -0.25761979100978533 -0.16665415002795461 0 -0.25644706280453389 -0.1995927939493197 0 -0.26629571781906192 -0.18034234132084431 0 -0.25029992488695979 -0.1782534950292988 0 -0.26629571781906192 -0.18034234132084431 0 -0.25761979100978533 -0.16665415002795461 0 -0.26933386928146391 -0.16300442301689841 0 -0.24825300788518309 -0.1555077779107997 0 -0.25761979100978533 -0.16665415002795461 0 -0.26108146703715113 -0.15708396540124031 0 -0.25761979100978533 -0.16665415002795461 0 -0.26108146703715113 -0.15708396540124031 0 -0.26933386928146391 -0.16300442301689841 0 -0.28185309534712533 -0.17180211342061449 0 -0.27598770130958522 -0.15333886838191951 0 -0.28553133547959519 -0.14896497073588499 0 -0.28185309534712533 -0.17180211342061449 0 -0.26629571781906192 -0.18034234132084431 0 -0.26933386928146391 -0.16300442301689841 0 -0.26108146703715113 -0.15708396540124031 0 -0.26933386928146391 -0.16300442301689841 0 -0.26726071412102442 -0.15087550168963329 0 -0.28185309534712533 -0.17180211342061449 0 -0.26933386928146391 -0.16300442301689841 0 -0.27598770130958522 -0.15333886838191951 0 -0.27598770130958522 -0.15333886838191951 0 -0.271177428866754 -0.14364721368904659 0 -0.28553133547959519 -0.14896497073588499 0 -0.271177428866754 -0.14364721368904659 0 -0.28662611268527088 -0.1421678116724244 0 -0.28553133547959519 -0.14896497073588499 0 -0.271177428866754 -0.14364721368904659 0 -0.28553133547959519 -0.14896497073588499 0 -0.271177428866754 -0.14364721368904659 0 -0.26726071412102442 -0.15087550168963329 0 -0.25891484533836889 -0.13910423861407881 0 -0.271177428866754 -0.14364721368904659 0 -0.26726071412102442 -0.15087550168963329 0 -0.27598770130958522 -0.15333886838191951 0 -0.271177428866754 -0.14364721368904659 0 -0.26726071412102442 -0.15087550168963329 0 -0.26933386928146391 -0.16300442301689841 0 -0.27598770130958522 -0.15333886838191951 0 -0.26726071412102442 -0.15087550168963329 0 -0.2405789555143194 -0.1375116727892334 0 -0.25601133851015478 -0.1487044986697981 0 -0.25891484533836889 -0.13910423861407881 0 -0.26108146703715113 -0.15708396540124031 0 -0.26726071412102442 -0.15087550168963329 0 -0.25601133851015478 -0.1487044986697981 0 -0.271177428866754 -0.14364721368904659 0 -0.25891484533836889 -0.13910423861407881 0 -0.26726071412102442 -0.15087550168963329 0 -0.25601133851015478 -0.1487044986697981 0 -0.25891484533836889 -0.13910423861407881 0 -0.24825300788518309 -0.1555077779107997 0 -0.26108146703715113 -0.15708396540124031 0 -0.25601133851015478 -0.1487044986697981 0 -0.26009747564537128 -0.1202716976192799 0 -0.25054446979338107 -0.12912519928877991 0 -0.26697405985724948 -0.1304210152969853 0 -0.25054446979338107 -0.12912519928877991 0 -0.25891484533836889 -0.13910423861407881 0 -0.26697405985724948 -0.1304210152969853 0 -0.2405789555143194 -0.1375116727892334 0 -0.25054446979338107 -0.12912519928877991 0 -0.25891484533836889 -0.13910423861407881 0 -0.28368315898475188 -0.1205679176925603 0 -0.271177428866754 -0.14364721368904659 0 -0.26697405985724948 -0.1304210152969853 0 -0.28368315898475188 -0.1205679176925603 0 -0.271177428866754 -0.14364721368904659 0 -0.28514813781506088 -0.1345929107172644 0 -0.28368315898475188 -0.1205679176925603 0 -0.271177428866754 -0.14364721368904659 0 -0.271177428866754 -0.14364721368904659 0 -0.25891484533836889 -0.13910423861407881 0 -0.26697405985724948 -0.1304210152969853 0 -0.271177428866754 -0.14364721368904659 0 -0.28514813781506088 -0.1345929107172644 0 -0.28662611268527088 -0.1421678116724244 0 -0.28368315898475188 -0.1205679176925603 0 -0.29492821592448881 -0.13453805291007029 0 -0.28514813781506088 -0.1345929107172644 0 -0.28368315898475188 -0.1205679176925603 0 -0.29492821592448881 -0.13453805291007029 0 -0.30140371581860798 -0.1292511186866305 0 -0.29492821592448881 -0.13453805291007029 0 -0.2912775948780732 -0.1389862943003273 0 -0.28514813781506088 -0.1345929107172644 0 -0.29657756063899582 -0.140013172184488 0 -0.29492821592448881 -0.13453805291007029 0 -0.2912775948780732 -0.1389862943003273 0 -0.2912775948780732 -0.1389862943003273 0 -0.28514813781506088 -0.1345929107172644 0 -0.28662611268527088 -0.1421678116724244 0 -0.28662611268527088 -0.1421678116724244 0 -0.28553133547959519 -0.14896497073588499 0 -0.28662611268527088 -0.1421678116724244 0 -0.28553133547959519 -0.14896497073588499 0 -0.28937009998544028 -0.14621975116982991 0 -0.28553133547959519 -0.14896497073588499 0 -0.2922536480049423 -0.1499497578362777 0 -0.28937009998544028 -0.14621975116982991 0 -0.28553133547959519 -0.14896497073588499 0 -0.2922536480049423 -0.1499497578362777 0 -0.2949530938874384 -0.15245549241185349 0 -0.28553133547959519 -0.14896497073588499 0 -0.2949530938874384 -0.15245549241185349 0 -0.2922536480049423 -0.1499497578362777 0 -0.2949530938874384 -0.15245549241185349 0 -0.29617843115691228 -0.14802272380236281 0 -0.2922536480049423 -0.1499497578362777 0 -0.2949530938874384 -0.15245549241185349 0 -0.2912775948780732 -0.1389862943003273 0 -0.28662611268527088 -0.1421678116724244 0 -0.29310794732654949 -0.1436195240173895 0 -0.28662611268527088 -0.1421678116724244 0 -0.28937009998544028 -0.14621975116982991 0 -0.29310794732654949 -0.1436195240173895 0 -0.2922536480049423 -0.1499497578362777 0 -0.28937009998544028 -0.14621975116982991 0 -0.29310794732654949 -0.1436195240173895 0 -0.29617843115691228 -0.14802272380236281 0 -0.29310794732654949 -0.1436195240173895 0 -0.29956135480037449 -0.14472193576336759 0 -0.2922536480049423 -0.1499497578362777 0 -0.29617843115691228 -0.14802272380236281 0 -0.29310794732654949 -0.1436195240173895 0 -0.29657756063899582 -0.140013172184488 0 -0.2912775948780732 -0.1389862943003273 0 -0.29310794732654949 -0.1436195240173895 0 -0.29657756063899582 -0.140013172184488 0 -0.29310794732654949 -0.1436195240173895 0 -0.29956135480037449 -0.14472193576336759 0 -0.29956135480037449 -0.14472193576336759 0 -0.30554397810907652 -0.146919348525368 0 -0.30456114821214081 -0.13888567554976469 0 -0.2949530938874384 -0.15245549241185349 0 -0.30620642865757891 -0.15285211384445899 0 -0.31498630483336881 -0.15987728715749039 0 -0.2949530938874384 -0.15245549241185349 0 -0.31498630483336881 -0.15987728715749039 0 -0.29657756063899582 -0.140013172184488 0 -0.29956135480037449 -0.14472193576336759 0 -0.30456114821214081 -0.13888567554976469 0 -0.29617843115691228 -0.14802272380236281 0 -0.29956135480037449 -0.14472193576336759 0 -0.30052761464898298 -0.14908162957255741 0 -0.29956135480037449 -0.14472193576336759 0 -0.30052761464898298 -0.14908162957255741 0 -0.30554397810907652 -0.146919348525368 0 -0.2949530938874384 -0.15245549241185349 0 -0.30052761464898298 -0.14908162957255741 0 -0.30620642865757891 -0.15285211384445899 0 -0.2949530938874384 -0.15245549241185349 0 -0.29617843115691228 -0.14802272380236281 0 -0.30052761464898298 -0.14908162957255741 0 -0.30052761464898298 -0.14908162957255741 0 -0.30620642865757891 -0.15285211384445899 0 -0.30554397810907652 -0.146919348525368 0 -0.30620642865757891 -0.15285211384445899 0 -0.31211863317072019 -0.1538765410016501 0 -0.31498630483336881 -0.15987728715749039 0 -0.30620642865757891 -0.15285211384445899 0 -0.31071230574427161 -0.15022116190891349 0 -0.30554397810907652 -0.146919348525368 0 -0.30620642865757891 -0.15285211384445899 0 -0.31071230574427161 -0.15022116190891349 0 -0.31211863317072019 -0.1538765410016501 0 -0.31246836027323899 -0.14497521722301901 0 -0.31246708178415561 -0.13872402753426441 0 -0.30456114821214081 -0.13888567554976469 0 -0.30554397810907652 -0.146919348525368 0 -0.31246836027323899 -0.14497521722301901 0 -0.30456114821214081 -0.13888567554976469 0 -0.31071230574427161 -0.15022116190891349 0 -0.30554397810907652 -0.146919348525368 0 -0.31246836027323899 -0.14497521722301901 0 -0.30140371581860798 -0.1292511186866305 0 -0.30456114821214081 -0.13888567554976469 0 -0.31280589771709483 -0.13181614145056869 0 -0.31246708178415561 -0.13872402753426441 0 -0.30456114821214081 -0.13888567554976469 0 -0.31280589771709483 -0.13181614145056869 0 -0.30807566230962469 -0.12087427087378499 0 -0.30140371581860798 -0.1292511186866305 0 -0.31280589771709483 -0.13181614145056869 0 -0.29657756063899582 -0.140013172184488 0 -0.29492821592448881 -0.13453805291007029 0 -0.30456114821214081 -0.13888567554976469 0 -0.29492821592448881 -0.13453805291007029 0 -0.30140371581860798 -0.1292511186866305 0 -0.30456114821214081 -0.13888567554976469 0 -0.3226930215385343 -0.13395567837890529 0 -0.31855308997834159 -0.13934265221991729 0 -0.32506280578504959 -0.14064102607364051 0 -0.3226930215385343 -0.13395567837890529 0 -0.32506280578504959 -0.14064102607364051 0 -0.33047387389575927 -0.1369340691945744 0 -0.3226930215385343 -0.13395567837890529 0 -0.32807010768985068 -0.12986880773923029 0 -0.33047387389575927 -0.1369340691945744 0 -0.32007374605487132 -0.12494213909402439 0 -0.33441303965894859 -0.1249452932850653 0 -0.32807010768985068 -0.12986880773923029 0 -0.32007374605487132 -0.12494213909402439 0 -0.3226930215385343 -0.13395567837890529 0 -0.32807010768985068 -0.12986880773923029 0 -0.32007374605487132 -0.12494213909402439 0 -0.3226930215385343 -0.13395567837890529 0 -0.31280589771709483 -0.13181614145056869 0 -0.30807566230962469 -0.12087427087378499 0 -0.32007374605487132 -0.12494213909402439 0 -0.31280589771709483 -0.13181614145056869 0 -0.3226930215385343 -0.13395567837890529 0 -0.31280589771709483 -0.13181614145056869 0 -0.31855308997834159 -0.13934265221991729 0 -0.31246708178415561 -0.13872402753426441 0 -0.31280589771709483 -0.13181614145056869 0 -0.31855308997834159 -0.13934265221991729 0 -0.31246836027323899 -0.14497521722301901 0 -0.31246708178415561 -0.13872402753426441 0 -0.31855308997834159 -0.13934265221991729 0 -0.31246836027323899 -0.14497521722301901 0 -0.31855308997834159 -0.13934265221991729 0 -0.32096396999162452 -0.14503749675666289 0 -0.31246836027323899 -0.14497521722301901 0 -0.31722412851074311 -0.15248258895007169 0 -0.32096396999162452 -0.14503749675666289 0 -0.31211863317072019 -0.1538765410016501 0 -0.31722412851074311 -0.15248258895007169 0 -0.31498630483336881 -0.15987728715749039 0 -0.31071230574427161 -0.15022116190891349 0 -0.31246836027323899 -0.14497521722301901 0 -0.31722412851074311 -0.15248258895007169 0 -0.31071230574427161 -0.15022116190891349 0 -0.31211863317072019 -0.1538765410016501 0 -0.31722412851074311 -0.15248258895007169 0 -0.32096396999162452 -0.14503749675666289 0 -0.32506280578504959 -0.14064102607364051 0 -0.33039285730051032 -0.1475567648151897 0 -0.31722412851074311 -0.15248258895007169 0 -0.32096396999162452 -0.14503749675666289 0 -0.33039285730051032 -0.1475567648151897 0 -0.31855308997834159 -0.13934265221991729 0 -0.32096396999162452 -0.14503749675666289 0 -0.32506280578504959 -0.14064102607364051 0 -0.33039285730051032 -0.1475567648151897 0 -0.33813688440009898 -0.15615522653291031 0 -0.34198145815712638 -0.1395953898376964 0 -0.32506280578504959 -0.14064102607364051 0 -0.33039285730051032 -0.1475567648151897 0 -0.33047387389575927 -0.1369340691945744 0 -0.31722412851074311 -0.15248258895007169 0 -0.33039285730051032 -0.1475567648151897 0 -0.33813688440009898 -0.15615522653291031 0 -0.33039285730051032 -0.1475567648151897 0 -0.34198145815712638 -0.1395953898376964 0 -0.33047387389575927 -0.1369340691945744 0 -0.33813688440009898 -0.15615522653291031 0 -0.34198145815712638 -0.1395953898376964 0 -0.34954987665533299 -0.15424548639031271 0 -0.34198145815712638 -0.1395953898376964 0 -0.3337346198504213 -0.1328358900141379 0 -0.33047387389575927 -0.1369340691945744 0 -0.32807010768985068 -0.12986880773923029 0 -0.3337346198504213 -0.1328358900141379 0 -0.33047387389575927 -0.1369340691945744 0 -0.33441303965894859 -0.1249452932850653 0 -0.32807010768985068 -0.12986880773923029 0 -0.3337346198504213 -0.1328358900141379 0 -0.33441303965894859 -0.1249452932850653 0 -0.34198145815712638 -0.1395953898376964 0 -0.34272140335036932 -0.124947120862287 0 -0.33441303965894859 -0.1249452932850653 0 -0.34198145815712638 -0.1395953898376964 0 -0.33441303965894859 -0.1249452932850653 0 -0.34198145815712638 -0.1395953898376964 0 -0.3337346198504213 -0.1328358900141379 0 -0.34272140335036932 -0.124947120862287 0 -0.35413341494744088 -0.14719959415449421 0 -0.34272140335036932 -0.124947120862287 0 -0.35599685079288468 -0.13305792836185981 0 -0.35413341494744088 -0.14719959415449421 0 -0.34272140335036932 -0.124947120862287 0 -0.34198145815712638 -0.1395953898376964 0 -0.35413341494744088 -0.14719959415449421 0 -0.34272140335036932 -0.124947120862287 0 -0.36893450279197471 -0.1249528869149899 0 -0.35599685079288468 -0.13305792836185981 0 -0.35599685079288468 -0.13305792836185981 0 -0.36484224068191412 -0.14157370685753851 0 -0.35413341494744088 -0.14719959415449421 0 -0.36893450279197471 -0.1249528869149899 0 -0.35599685079288468 -0.13305792836185981 0 -0.36484224068191412 -0.14157370685753851 0 -0.36893450279197471 -0.1249528869149899 0 -0.36484224068191412 -0.14157370685753851 0 -0.3777566452334315 -0.14913711856379011 0 -0.3679743334396014 -0.15408772885571331 0 -0.37696591512674532 -0.1609827341034305 0 -0.3777566452334315 -0.14913711856379011 0 -0.3679743334396014 -0.15408772885571331 0 -0.36484224068191412 -0.14157370685753851 0 -0.3777566452334315 -0.14913711856379011 0 -0.3679743334396014 -0.15408772885571331 0 -0.36484224068191412 -0.14157370685753851 0 -0.35413341494744088 -0.14719959415449421 0 -0.35413341494744088 -0.14719959415449421 0 -0.34954987665533299 -0.15424548639031271 0 -0.35445721343992059 -0.1619675590177023 0 -0.34198145815712638 -0.1395953898376964 0 -0.34954987665533299 -0.15424548639031271 0 -0.34198145815712638 -0.1395953898376964 0 -0.35413341494744088 -0.14719959415449421 0 -0.34954987665533299 -0.15424548639031271 0 -0.33813688440009898 -0.15615522653291031 0 -0.34954987665533299 -0.15424548639031271 0 -0.34648545334868369 -0.16311147615285329 0 -0.34648545334868369 -0.16311147615285329 0 -0.35788001493839611 -0.17576831496813999 0 -0.33501951577929873 -0.16729908190312789 0 -0.34954987665533299 -0.15424548639031271 0 -0.34648545334868369 -0.16311147615285329 0 -0.35445721343992059 -0.1619675590177023 0 -0.35413341494744088 -0.14719959415449421 0 -0.35445721343992059 -0.1619675590177023 0 -0.36554542654456429 -0.16945206744667471 0 -0.35788001493839611 -0.17576831496813999 0 -0.33501951577929873 -0.16729908190312789 0 -0.34648545334868369 -0.16311147615285329 0 -0.35445721343992059 -0.1619675590177023 0 -0.35788001493839611 -0.17576831496813999 0 -0.35445721343992059 -0.1619675590177023 0 -0.36554542654456429 -0.16945206744667471 0 -0.35788001493839611 -0.17576831496813999 0 -0.35413341494744088 -0.14719959415449421 0 -0.36554542654456429 -0.16945206744667471 0 -0.3679743334396014 -0.15408772885571331 0 -0.35413341494744088 -0.14719959415449421 0 -0.36554542654456429 -0.16945206744667471 0 -0.3679743334396014 -0.15408772885571331 0 -0.36554542654456429 -0.16945206744667471 0 -0.37696591512674532 -0.1609827341034305 0 -0.37016556171889331 -0.18126023377528719 0 -0.3536864721015115 -0.18284124587119119 0 -0.37235342842372432 -0.19838340983925429 0 -0.36554542654456429 -0.16945206744667471 0 -0.37016556171889331 -0.18126023377528719 0 -0.38426477739238413 -0.17192867897072969 0 -0.37016556171889331 -0.18126023377528719 0 -0.3536864721015115 -0.18284124587119119 0 -0.35788001493839611 -0.17576831496813999 0 -0.36554542654456429 -0.16945206744667471 0 -0.37016556171889331 -0.18126023377528719 0 -0.35788001493839611 -0.17576831496813999 0 -0.3536864721015115 -0.18284124587119119 0 -0.33501951577929873 -0.16729908190312789 0 -0.3536864721015115 -0.18284124587119119 0 -0.35788001493839611 -0.17576831496813999 0 -0.33501951577929873 -0.16729908190312789 0 -0.3536864721015115 -0.18284124587119119 0 -0.32945708373588178 -0.18448348783091689 0 -0.33501951577929873 -0.16729908190312789 0 -0.31722412851074311 -0.15248258895007169 0 -0.33813688440009898 -0.15615522653291031 0 -0.33501951577929873 -0.16729908190312789 0 -0.33813688440009898 -0.15615522653291031 0 -0.34648545334868369 -0.16311147615285329 0 -0.33501951577929873 -0.16729908190312789 0 -0.31722412851074311 -0.15248258895007169 0 -0.33501951577929873 -0.16729908190312789 0 -0.31722412851074311 -0.15248258895007169 0 -0.33501951577929873 -0.16729908190312789 0 -0.31498630483336881 -0.15987728715749039 0 -0.31220508881165993 -0.16846949012138551 0 -0.33501951577929873 -0.16729908190312789 0 -0.31498630483336881 -0.15987728715749039 0 -0.33501951577929873 -0.16729908190312789 0 -0.31498630483336881 -0.15987728715749039 0 -0.31220508881165993 -0.16846949012138551 0 -0.32945708373588178 -0.18448348783091689 0 -0.31489114071409963 -0.18333745750317351 0 -0.31220508881165993 -0.16846949012138551 0 -0.32945708373588178 -0.18448348783091689 0 -0.31220508881165993 -0.16846949012138551 0 -0.32945708373588178 -0.18448348783091689 0 -0.33501951577929873 -0.16729908190312789 0 -0.32945708373588178 -0.18448348783091689 0 -0.31489114071409963 -0.18333745750317351 0 -0.32010675552350842 -0.19230926195043291 0 -0.30717411826112789 -0.1920401195635244 0 -0.32010675552350842 -0.19230926195043291 0 -0.3129652712195421 -0.2114706657937139 0 -0.32945708373588178 -0.18448348783091689 0 -0.32010675552350842 -0.19230926195043291 0 -0.32566449460190838 -0.20326261146105551 0 -0.32010675552350842 -0.19230926195043291 0 -0.3129652712195421 -0.2114706657937139 0 -0.32566449460190838 -0.20326261146105551 0 -0.30717411826112789 -0.1920401195635244 0 -0.31489114071409963 -0.18333745750317351 0 -0.32010675552350842 -0.19230926195043291 0 -0.3129652712195421 -0.2114706657937139 0 -0.32566449460190838 -0.20326261146105551 0 -0.33208474862113468 -0.21873250337862821 0 -0.33208474862113468 -0.21873250337862821 0 -0.34670907866010381 -0.20049748554044841 0 -0.34896881396179619 -0.22434135344573131 0 -0.32566449460190838 -0.20326261146105551 0 -0.33208474862113468 -0.21873250337862821 0 -0.34670907866010381 -0.20049748554044841 0 -0.3536864721015115 -0.18284124587119119 0 -0.32945708373588178 -0.18448348783091689 0 -0.34670907866010381 -0.20049748554044841 0 -0.32945708373588178 -0.18448348783091689 0 -0.32566449460190838 -0.20326261146105551 0 -0.34670907866010381 -0.20049748554044841 0 -0.32945708373588178 -0.18448348783091689 0 -0.34670907866010381 -0.20049748554044841 0 -0.3536864721015115 -0.18284124587119119 0 -0.35917751319241631 -0.19955840612521841 0 -0.34670907866010381 -0.20049748554044841 0 -0.3536864721015115 -0.18284124587119119 0 -0.37235342842372432 -0.19838340983925429 0 -0.3536864721015115 -0.18284124587119119 0 -0.35917751319241631 -0.19955840612521841 0 -0.37235342842372432 -0.19838340983925429 0 -0.37235342842372432 -0.19838340983925429 0 -0.36396107358432572 -0.21651148324997979 0 -0.37772562505684643 -0.22219038377974651 0 -0.35917751319241631 -0.19955840612521841 0 -0.37235342842372432 -0.19838340983925429 0 -0.36396107358432572 -0.21651148324997979 0 -0.34670907866010381 -0.20049748554044841 0 -0.36396107358432572 -0.21651148324997979 0 -0.34896881396179619 -0.22434135344573131 0 -0.34670907866010381 -0.20049748554044841 0 -0.36396107358432572 -0.21651148324997979 0 -0.35917751319241631 -0.19955840612521841 0 -0.34670907866010381 -0.20049748554044841 0 -0.36396107358432572 -0.21651148324997979 0 -0.34896881396179619 -0.22434135344573131 0 -0.36764811873304098 -0.23322730847002751 0 -0.35305879752332059 -0.24486073726717009 0 -0.36396107358432572 -0.21651148324997979 0 -0.36764811873304098 -0.23322730847002751 0 -0.37772562505684643 -0.22219038377974651 0 -0.36396107358432572 -0.21651148324997979 0 -0.34896881396179619 -0.22434135344573131 0 -0.36764811873304098 -0.23322730847002751 0 -0.37533687834285862 -0.25417213976024849 0 -0.36764811873304098 -0.23322730847002751 0 -0.35305879752332059 -0.24486073726717009 0 -0.34896881396179619 -0.22434135344573131 0 -0.35305879752332059 -0.24486073726717009 0 -0.33568364413539042 -0.23615154195274179 0 -0.33623326073948312 -0.25365348176558788 0 -0.33568364413539042 -0.23615154195274179 0 -0.32213598881581812 -0.2442700999577708 0 -0.33623326073948312 -0.25365348176558788 0 -0.35305879752332059 -0.24486073726717009 0 -0.33568364413539042 -0.23615154195274179 0 -0.33208474862113468 -0.21873250337862821 0 -0.33568364413539042 -0.23615154195274179 0 -0.32219037366776621 -0.22897372759534659 0 -0.33208474862113468 -0.21873250337862821 0 -0.34896881396179619 -0.22434135344573131 0 -0.33568364413539042 -0.23615154195274179 0 -0.30829656048542242 -0.23127198481015249 0 -0.3129652712195421 -0.2114706657937139 0 -0.32219037366776621 -0.22897372759534659 0 -0.3129652712195421 -0.2114706657937139 0 -0.33208474862113468 -0.21873250337862821 0 -0.32219037366776621 -0.22897372759534659 0 -0.30769212114973271 -0.24578220261295139 0 -0.30829656048542242 -0.23127198481015249 0 -0.32213598881581812 -0.2442700999577708 0 -0.30829656048542242 -0.23127198481015249 0 -0.32219037366776621 -0.22897372759534659 0 -0.32213598881581812 -0.2442700999577708 0 -0.31968345090478489 -0.25798973640781447 0 -0.30769212114973271 -0.24578220261295139 0 -0.32213598881581812 -0.2442700999577708 0 -0.33568364413539042 -0.23615154195274179 0 -0.32219037366776621 -0.22897372759534659 0 -0.32213598881581812 -0.2442700999577708 0 -0.43598079583492633 -0.24721882136819351 0 -0.42311134176242837 -0.2304528026464861 0 -0.41615383063077721 -0.2466412503256647 0 -0.43598079583492633 -0.24721882136819351 0 -0.42311134176242837 -0.2304528026464861 0 -0.43908324849522451 -0.2287046610080686 0 -0.42311134176242837 -0.2304528026464861 0 -0.41411505562058892 -0.2091502018577929 0 -0.42948217154750851 -0.21815887616964899 0 -0.42311134176242837 -0.2304528026464861 0 -0.42948217154750851 -0.21815887616964899 0 -0.43908324849522451 -0.2287046610080686 0 -0.42948217154750851 -0.21815887616964899 0 -0.43955036875351089 -0.21658504913102711 0 -0.43908324849522451 -0.2287046610080686 0 -0.40619246279161347 -0.2313797712556602 0 -0.41411505562058892 -0.2091502018577929 0 -0.42311134176242837 -0.2304528026464861 0 -0.40619246279161347 -0.2313797712556602 0 -0.41411505562058892 -0.2091502018577929 0 -0.39826986996263802 -0.25360934065352753 0 -0.41615383063077721 -0.2466412503256647 0 -0.40619246279161347 -0.2313797712556602 0 -0.42311134176242837 -0.2304528026464861 0 -0.41615383063077721 -0.2466412503256647 0 -0.40619246279161347 -0.2313797712556602 0 -0.39826986996263802 -0.25360934065352753 0 -0.38632210934187061 -0.2364082567837591 0 -0.40619246279161347 -0.2313797712556602 0 -0.39826986996263802 -0.25360934065352753 0 -0.40619246279161347 -0.2313797712556602 0 -0.37533687834285862 -0.25417213976024849 0 -0.36764811873304098 -0.23322730847002751 0 -0.38632210934187061 -0.2364082567837591 0 -0.37533687834285862 -0.25417213976024849 0 -0.39826986996263802 -0.25360934065352753 0 -0.38632210934187061 -0.2364082567837591 0 -0.36764811873304098 -0.23322730847002751 0 -0.38632210934187061 -0.2364082567837591 0 -0.37772562505684643 -0.22219038377974651 0 -0.38632210934187061 -0.2364082567837591 0 -0.37772562505684643 -0.22219038377974651 0 -0.39102038474593709 -0.2139255738073175 0 -0.38632210934187061 -0.2364082567837591 0 -0.40619246279161347 -0.2313797712556602 0 -0.39102038474593709 -0.2139255738073175 0 -0.39102038474593709 -0.2139255738073175 0 -0.40351751052996843 -0.1957217498792192 0 -0.41411505562058892 -0.2091502018577929 0 -0.40619246279161347 -0.2313797712556602 0 -0.39102038474593709 -0.2139255738073175 0 -0.41411505562058892 -0.2091502018577929 0 -0.37235342842372432 -0.19838340983925429 0 -0.39102038474593709 -0.2139255738073175 0 -0.37235342842372432 -0.19838340983925429 0 -0.37772562505684643 -0.22219038377974651 0 -0.39102038474593709 -0.2139255738073175 0 -0.37016556171889331 -0.18126023377528719 0 -0.37235342842372432 -0.19838340983925429 0 -0.38726325091278008 -0.18918768555573329 0 -0.37235342842372432 -0.19838340983925429 0 -0.39102038474593709 -0.2139255738073175 0 -0.38726325091278008 -0.18918768555573329 0 -0.38726325091278008 -0.18918768555573329 0 -0.40351751052996843 -0.1957217498792192 0 -0.40315121292097328 -0.17942465571532731 0 -0.39102038474593709 -0.2139255738073175 0 -0.38726325091278008 -0.18918768555573329 0 -0.40351751052996843 -0.1957217498792192 0 -0.41411505562058892 -0.2091502018577929 0 -0.42203764844956237 -0.18692063245992491 0 -0.40351751052996843 -0.1957217498792192 0 -0.41411505562058892 -0.2091502018577929 0 -0.42203764844956237 -0.18692063245992491 0 -0.41411505562058892 -0.2091502018577929 0 -0.42948217154750851 -0.21815887616964899 0 -0.43155084310578928 -0.2059016662048701 0 -0.42948217154750851 -0.21815887616964899 0 -0.43155084310578928 -0.2059016662048701 0 -0.43955036875351089 -0.21658504913102711 0 -0.42203764844956237 -0.18692063245992491 0 -0.44484374680150301 -0.19597231310248839 0 -0.41411505562058892 -0.2091502018577929 0 -0.43155084310578928 -0.2059016662048701 0 -0.42203764844956237 -0.18692063245992491 0 -0.43155084310578928 -0.2059016662048701 0 -0.42203764844956237 -0.18692063245992491 0 -0.44484374680150301 -0.19597231310248839 0 -0.42203764844956237 -0.18692063245992491 0 -0.44134853753678083 -0.18159229851429221 0 -0.44484374680150301 -0.19597231310248839 0 -0.42203764844956237 -0.18692063245992491 0 -0.42880774722037651 -0.1679247830322266 0 -0.42203764844956237 -0.18692063245992491 0 -0.42880774722037651 -0.1679247830322266 0 -0.44134853753678083 -0.18159229851429221 0 -0.42880774722037651 -0.1679247830322266 0 -0.43557784599118871 -0.14892893360452769 0 -0.44631139980808621 -0.1631836851414229 0 -0.42880774722037651 -0.1679247830322266 0 -0.43557784599118871 -0.14892893360452769 0 -0.42880774722037651 -0.1679247830322266 0 -0.41236960909879722 -0.16540507401591409 0 -0.42079860369606048 -0.15043713941075901 0 -0.42203764844956237 -0.18692063245992491 0 -0.42880774722037651 -0.1679247830322266 0 -0.41236960909879722 -0.16540507401591409 0 -0.40351751052996843 -0.1957217498792192 0 -0.42203764844956237 -0.18692063245992491 0 -0.40315121292097328 -0.17942465571532731 0 -0.42203764844956237 -0.18692063245992491 0 -0.40315121292097328 -0.17942465571532731 0 -0.42203764844956237 -0.18692063245992491 0 -0.41236960909879722 -0.16540507401591409 0 -0.40315121292097328 -0.17942465571532731 0 -0.38726325091278008 -0.18918768555573329 0 -0.40315121292097328 -0.17942465571532731 0 -0.38426477739238413 -0.17192867897072969 0 -0.40315121292097328 -0.17942465571532731 0 -0.38426477739238413 -0.17192867897072969 0 -0.37016556171889331 -0.18126023377528719 0 -0.38726325091278008 -0.18918768555573329 0 -0.38426477739238413 -0.17192867897072969 0 -0.36554542654456429 -0.16945206744667471 0 -0.38426477739238413 -0.17192867897072969 0 -0.37696591512674532 -0.1609827341034305 0 -0.38426477739238413 -0.17192867897072969 0 -0.37696591512674532 -0.1609827341034305 0 -0.39230106084837368 -0.15838844905994759 0 -0.40315121292097328 -0.17942465571532731 0 -0.38426477739238413 -0.17192867897072969 0 -0.39230106084837368 -0.15838844905994759 0 -0.41236960909879722 -0.16540507401591409 0 -0.39230106084837368 -0.15838844905994759 0 -0.40587711449475489 -0.1449624873806776 0 -0.41236960909879722 -0.16540507401591409 0 -0.40315121292097328 -0.17942465571532731 0 -0.39230106084837368 -0.15838844905994759 0 -0.39230106084837368 -0.15838844905994759 0 -0.39162863389564362 -0.14105630786861159 0 -0.40587711449475489 -0.1449624873806776 0 -0.39230106084837368 -0.15838844905994759 0 -0.39162863389564362 -0.14105630786861159 0 -0.3777566452334315 -0.14913711856379011 0 -0.37696591512674532 -0.1609827341034305 0 -0.39230106084837368 -0.15838844905994759 0 -0.3777566452334315 -0.14913711856379011 0 -0.36893450279197471 -0.1249528869149899 0 -0.39162863389564362 -0.14105630786861159 0 -0.3777566452334315 -0.14913711856379011 0 -0.36893450279197471 -0.1249528869149899 0 -0.39162863389564362 -0.14105630786861159 0 -0.39514760223357998 -0.1249586529677193 0 -0.39162863389564362 -0.14105630786861159 0 -0.40587711449475489 -0.1449624873806776 0 -0.39514760223357998 -0.1249586529677193 0 -0.40587711449475489 -0.1449624873806776 0 -0.39514760223357998 -0.1249586529677193 0 -0.42136070167518519 -0.1249644190204488 0 -0.40587711449475489 -0.1449624873806776 0 -0.42079860369606048 -0.15043713941075901 0 -0.42136070167518519 -0.1249644190204488 0 -0.41236960909879722 -0.16540507401591409 0 -0.40587711449475489 -0.1449624873806776 0 -0.42079860369606048 -0.15043713941075901 0 -0.42079860369606048 -0.15043713941075901 0 -0.43557784599118871 -0.14892893360452769 0 -0.42136070167518519 -0.1249644190204488 0 -0.42880774722037651 -0.1679247830322266 0 -0.42079860369606048 -0.15043713941075901 0 -0.43557784599118871 -0.14892893360452769 0 -0.43557784599118871 -0.14892893360452769 0 -0.42136070167518519 -0.1249644190204488 0 -0.44757380111679052 -0.12497018507317829 0 -0.43557784599118871 -0.14892893360452769 0 -0.45596445488588 -0.14427568033770541 0 -0.44757380111679052 -0.12497018507317829 0 -0.43557784599118871 -0.14892893360452769 0 -0.45596445488588 -0.14427568033770541 0 -0.44631139980808621 -0.1631836851414229 0 -0.45596445488588 -0.14427568033770541 0 -0.46278066629215481 -0.1610158872753634 0 -0.44631139980808621 -0.1631836851414229 0 -0.45596445488588 -0.14427568033770541 0 -0.47930750267908417 -0.1480635854121114 0 -0.46278066629215481 -0.1610158872753634 0 -0.45596445488588 -0.14427568033770541 0 -0.44757380111679052 -0.12497018507317829 0 -0.47378690055839578 -0.1249759511259078 0 -0.48827360080937021 -0.13531742911399189 0 -0.47930750267908417 -0.1480635854121114 0 -0.47378690055839578 -0.1249759511259078 0 -0.45596445488588 -0.14427568033770541 0 -0.47930750267908417 -0.1480635854121114 0 -0.47378690055839578 -0.1249759511259078 0 -0.48827360080937021 -0.13531742911399189 0 -0.5 -0.14324846273931111 0 -0.50000000000000111 -0.12498171717863731 0 -0.48827360080937021 -0.13531742911399189 0 -0.47378690055839578 -0.1249759511259078 0 -0.50000000000000111 -0.12498171717863731 0 -0.5 -0.14324846273931111 0 -0.47930750267908417 -0.1480635854121114 0 -0.49999999999999961 -0.161515208299985 0 -0.48827360080937021 -0.13531742911399189 0 -0.5 -0.14324846273931111 0 -0.47930750267908417 -0.1480635854121114 0 -0.47930750267908417 -0.1480635854121114 0 -0.47738728335761421 -0.1682509267597351 0 -0.46278066629215481 -0.1610158872753634 0 -0.47738728335761421 -0.1682509267597351 0 -0.49999999999999961 -0.161515208299985 0 -0.48839409620634278 -0.18039624849769001 0 -0.49999999999999961 -0.161515208299985 0 -0.48839409620634278 -0.18039624849769001 0 -0.47930750267908417 -0.1480635854121114 0 -0.47738728335761421 -0.1682509267597351 0 -0.49999999999999961 -0.161515208299985 0 -0.49999999999999961 -0.161515208299985 0 -0.5 -0.18618779176616679 0 -0.48839409620634278 -0.18039624849769001 0 -0.5 -0.18618779176616679 0 -0.48839409620634278 -0.18039624849769001 0 -0.48957789370491162 -0.19386933705848941 0 -0.47738728335761421 -0.1682509267597351 0 -0.48839409620634278 -0.18039624849769001 0 -0.47328693949397721 -0.18411760774338479 0 -0.47738728335761421 -0.1682509267597351 0 -0.47328693949397721 -0.18411760774338479 0 -0.45860677246597031 -0.17520894370368309 0 -0.47328693949397721 -0.18411760774338479 0 -0.45860677246597031 -0.17520894370368309 0 -0.45906836497473352 -0.19043479360484361 0 -0.47738728335761421 -0.1682509267597351 0 -0.45860677246597031 -0.17520894370368309 0 -0.46278066629215481 -0.1610158872753634 0 -0.45860677246597031 -0.17520894370368309 0 -0.46278066629215481 -0.1610158872753634 0 -0.44631139980808621 -0.1631836851414229 0 -0.42880774722037651 -0.1679247830322266 0 -0.44631139980808621 -0.1631836851414229 0 -0.44134853753678083 -0.18159229851429221 0 -0.45860677246597031 -0.17520894370368309 0 -0.44631139980808621 -0.1631836851414229 0 -0.44134853753678083 -0.18159229851429221 0 -0.45860677246597031 -0.17520894370368309 0 -0.44134853753678083 -0.18159229851429221 0 -0.45906836497473352 -0.19043479360484361 0 -0.44134853753678083 -0.18159229851429221 0 -0.45906836497473352 -0.19043479360484361 0 -0.44134853753678083 -0.18159229851429221 0 -0.44484374680150301 -0.19597231310248839 0 -0.45906836497473352 -0.19043479360484361 0 -0.43155084310578928 -0.2059016662048701 0 -0.44484374680150301 -0.19597231310248839 0 -0.44343463088850471 -0.20721188330797369 0 -0.43155084310578928 -0.2059016662048701 0 -0.44343463088850471 -0.20721188330797369 0 -0.43955036875351089 -0.21658504913102711 0 -0.44343463088850471 -0.20721188330797369 0 -0.43955036875351089 -0.21658504913102711 0 -0.44966782191270221 -0.21345696714665749 0 -0.44966782191270221 -0.21345696714665749 0 -0.45691127413918359 -0.218140336649912 0 -0.44903912237987481 -0.22310222333220869 0 -0.43955036875351089 -0.21658504913102711 0 -0.44966782191270221 -0.21345696714665749 0 -0.44903912237987481 -0.22310222333220869 0 -0.44484374680150301 -0.19597231310248839 0 -0.44343463088850471 -0.20721188330797369 0 -0.45285363365211462 -0.2065344908709397 0 -0.44343463088850471 -0.20721188330797369 0 -0.44966782191270221 -0.21345696714665749 0 -0.45285363365211462 -0.2065344908709397 0 -0.45285363365211462 -0.2065344908709397 0 -0.4586721235044201 -0.2110072970525271 0 -0.46764984515344349 -0.20502399374505181 0 -0.44966782191270221 -0.21345696714665749 0 -0.45285363365211462 -0.2065344908709397 0 -0.4586721235044201 -0.2110072970525271 0 -0.44966782191270221 -0.21345696714665749 0 -0.4586721235044201 -0.2110072970525271 0 -0.45691127413918359 -0.218140336649912 0 -0.4586721235044201 -0.2110072970525271 0 -0.45691127413918359 -0.218140336649912 0 -0.46757130244775341 -0.21427176676618889 0 -0.4586721235044201 -0.2110072970525271 0 -0.46757130244775341 -0.21427176676618889 0 -0.46764984515344349 -0.20502399374505181 0 -0.44484374680150301 -0.19597231310248839 0 -0.46764984515344349 -0.20502399374505181 0 -0.45906836497473352 -0.19043479360484361 0 -0.44484374680150301 -0.19597231310248839 0 -0.45285363365211462 -0.2065344908709397 0 -0.46764984515344349 -0.20502399374505181 0 -0.45906836497473352 -0.19043479360484361 0 -0.47678819241268611 -0.1992772886953951 0 -0.44484374680150301 -0.19597231310248839 0 -0.46764984515344349 -0.20502399374505181 0 -0.46764984515344349 -0.20502399374505181 0 -0.45906836497473352 -0.19043479360484361 0 -0.47678819241268611 -0.1992772886953951 0 -0.47328693949397721 -0.18411760774338479 0 -0.45906836497473352 -0.19043479360484361 0 -0.47678819241268611 -0.1992772886953951 0 -0.48839409620634278 -0.18039624849769001 0 -0.47328693949397721 -0.18411760774338479 0 -0.47678819241268611 -0.1992772886953951 0 -0.48839409620634278 -0.18039624849769001 0 -0.47678819241268611 -0.1992772886953951 0 -0.47678819241268611 -0.1992772886953951 0 -0.48957789370491162 -0.19386933705848941 0 -0.50000000000000222 -0.21086037523234849 0 -0.48839409620634278 -0.18039624849769001 0 -0.47678819241268611 -0.1992772886953951 0 -0.48957789370491162 -0.19386933705848941 0 -0.5 -0.18618779176616679 0 -0.48957789370491162 -0.19386933705848941 0 -0.50000000000000222 -0.21086037523234849 0 -0.50000000000000222 -0.21086037523234849 0 -0.48101414991814051 -0.21220490785157131 0 -0.4775447229854059 -0.22535576830415929 0 -0.47678819241268611 -0.1992772886953951 0 -0.50000000000000222 -0.21086037523234849 0 -0.47678819241268611 -0.1992772886953951 0 -0.50000000000000222 -0.21086037523234849 0 -0.48101414991814051 -0.21220490785157131 0 -0.46757130244775341 -0.21427176676618889 0 -0.47678819241268611 -0.1992772886953951 0 -0.48101414991814051 -0.21220490785157131 0 -0.46757130244775341 -0.21427176676618889 0 -0.47678819241268611 -0.1992772886953951 0 -0.46757130244775341 -0.21427176676618889 0 -0.46764984515344349 -0.20502399374505181 0 -0.47678819241268611 -0.1992772886953951 0 -0.46757130244775341 -0.21427176676618889 0 -0.48101414991814051 -0.21220490785157131 0 -0.4775447229854059 -0.22535576830415929 0 -0.46757130244775341 -0.21427176676618889 0 -0.4775447229854059 -0.22535576830415929 0 -0.46571952953094348 -0.22577651025912229 0 -0.4775447229854059 -0.22535576830415929 0 -0.4726071657750785 -0.240360200228666 0 -0.45676275941016609 -0.23628729483617639 0 -0.50000000000000222 -0.21086037523234849 0 -0.4775447229854059 -0.22535576830415929 0 -0.48548116721245049 -0.23774912910784329 0 -0.50000000000000222 -0.21086037523234849 0 -0.5 -0.2401545466321974 0 -0.48548116721245049 -0.23774912910784329 0 -0.48050148842732221 -0.25523221810557922 0 -0.5 -0.2401545466321974 0 -0.48548116721245049 -0.23774912910784329 0 -0.48050148842732221 -0.25523221810557922 0 -0.4726071657750785 -0.240360200228666 0 -0.46267023581878858 -0.24817136713935201 0 -0.48050148842732221 -0.25523221810557922 0 -0.48548116721245049 -0.23774912910784329 0 -0.4726071657750785 -0.240360200228666 0 -0.4775447229854059 -0.22535576830415929 0 -0.48548116721245049 -0.23774912910784329 0 -0.4726071657750785 -0.240360200228666 0 -0.4726071657750785 -0.240360200228666 0 -0.46267023581878858 -0.24817136713935201 0 -0.45676275941016609 -0.23628729483617639 0 -0.46267023581878858 -0.24817136713935201 0 -0.45676275941016609 -0.23628729483617639 0 -0.45139902778349827 -0.24711062934306771 0 -0.4775447229854059 -0.22535576830415929 0 -0.45676275941016609 -0.23628729483617639 0 -0.46571952953094348 -0.22577651025912229 0 -0.4775447229854059 -0.22535576830415929 0 -0.45676275941016609 -0.23628729483617639 0 -0.46757130244775341 -0.21427176676618889 0 -0.45835441248282049 -0.22926624483698249 0 -0.45691127413918359 -0.218140336649912 0 -0.46757130244775341 -0.21427176676618889 0 -0.45835441248282049 -0.22926624483698249 0 -0.46757130244775341 -0.21427176676618889 0 -0.46571952953094348 -0.22577651025912229 0 -0.45835441248282049 -0.22926624483698249 0 -0.45691127413918359 -0.218140336649912 0 -0.45835441248282049 -0.22926624483698249 0 -0.44903912237987481 -0.22310222333220869 0 -0.45676275941016609 -0.23628729483617639 0 -0.46571952953094348 -0.22577651025912229 0 -0.45835441248282049 -0.22926624483698249 0 -0.45676275941016609 -0.23628729483617639 0 -0.45835441248282049 -0.22926624483698249 0 -0.44784406772060242 -0.23291584907632601 0 -0.45835441248282049 -0.22926624483698249 0 -0.44784406772060242 -0.23291584907632601 0 -0.44903912237987481 -0.22310222333220869 0 -0.44784406772060242 -0.23291584907632601 0 -0.44903912237987481 -0.22310222333220869 0 -0.43908324849522451 -0.2287046610080686 0 -0.43955036875351089 -0.21658504913102711 0 -0.44903912237987481 -0.22310222333220869 0 -0.43908324849522451 -0.2287046610080686 0 -0.43598079583492633 -0.24721882136819351 0 -0.44784406772060242 -0.23291584907632601 0 -0.43908324849522451 -0.2287046610080686 0 -0.43598079583492633 -0.24721882136819351 0 -0.45676275941016609 -0.23628729483617639 0 -0.45139902778349827 -0.24711062934306771 0 -0.43598079583492633 -0.24721882136819351 0 -0.45676275941016609 -0.23628729483617639 0 -0.44784406772060242 -0.23291584907632601 0 -0.43598079583492633 -0.24721882136819351 0 -0.45676275941016609 -0.23628729483617639 0 -0.41513049604948221 -0.033942569896895612 0 -0.42680670243505803 -0.034615113076212713 0 -0.40073055052989021 -0.025701474464423758 0 -0.41513049604948221 -0.033942569896895612 0 -0.42462943043776058 -0.041038039404546971 0 -0.40237332615973681 -0.030676944162886681 0 -0.42462943043776058 -0.041038039404546971 0 -0.40237332615973681 -0.030676944162886681 0 -0.41105872637709778 -0.041104419315527559 0 -0.42462943043776058 -0.041038039404546971 0 -0.40237332615973681 -0.030676944162886681 0 -0.41795689190558921 -0.046390941043723911 0 -0.41105872637709778 -0.041104419315527559 0 -0.42462943043776058 -0.041038039404546971 0 -0.41513049604948221 -0.033942569896895612 0 -0.42462943043776058 -0.041038039404546971 0 -0.4243569293735685 -0.037306081984415762 0 -0.41105872637709778 -0.041104419315527559 0 -0.4050251302254127 -0.045922345921936697 0 -0.40306291723554027 -0.039039715031688543 0 -0.41795689190558921 -0.046390941043723911 0 -0.41105872637709778 -0.041104419315527559 0 -0.41174405323292163 -0.047949206462353358 0 -0.41105872637709778 -0.041104419315527559 0 -0.41174405323292163 -0.047949206462353358 0 -0.4050251302254127 -0.045922345921936697 0 -0.41174405323292163 -0.047949206462353358 0 -0.4050251302254127 -0.045922345921936697 0 -0.40603099279739802 -0.054788986838451827 0 -0.41174405323292163 -0.047949206462353358 0 -0.4187470457232762 -0.053937065845881961 0 -0.40603099279739802 -0.054788986838451827 0 -0.4187470457232762 -0.053937065845881961 0 -0.40603099279739802 -0.054788986838451827 0 -0.41284572228237681 -0.064006668923108523 0 -0.4187470457232762 -0.053937065845881961 0 -0.41284572228237681 -0.064006668923108523 0 -0.42746868386642678 -0.066478460468227696 0 -0.41795689190558921 -0.046390941043723911 0 -0.41174405323292163 -0.047949206462353358 0 -0.4187470457232762 -0.053937065845881961 0 -0.41795689190558921 -0.046390941043723911 0 -0.4187470457232762 -0.053937065845881961 0 -0.42320145590089769 -0.048540393412862697 0 -0.42320145590089769 -0.048540393412862697 0 -0.43147245553696489 -0.05279552735729795 0 -0.42462943043776058 -0.041038039404546971 0 -0.4187470457232762 -0.053937065845881961 0 -0.42320145590089769 -0.048540393412862697 0 -0.43147245553696489 -0.05279552735729795 0 -0.43147245553696489 -0.05279552735729795 0 -0.42462943043776058 -0.041038039404546971 0 -0.44688553471578463 -0.051399134646207288 0 -0.4187470457232762 -0.053937065845881961 0 -0.43147245553696489 -0.05279552735729795 0 -0.42746868386642678 -0.066478460468227696 0 -0.43147245553696489 -0.05279552735729795 0 -0.42746868386642678 -0.066478460468227696 0 -0.43950717444435422 -0.063784996514660589 0 -0.42818951741271921 -0.038310772776573528 0 -0.43628267576141971 -0.035329403205585218 0 -0.44688553471578463 -0.051399134646207288 0 -0.42462943043776058 -0.041038039404546971 0 -0.42818951741271921 -0.038310772776573528 0 -0.44688553471578463 -0.051399134646207288 0 -0.42462943043776058 -0.041038039404546971 0 -0.44688553471578463 -0.051399134646207288 0 -0.41795689190558921 -0.046390941043723911 0 -0.42320145590089769 -0.048540393412862697 0 -0.42462943043776058 -0.041038039404546971 0 -0.41513049604948221 -0.033942569896895612 0 -0.4243569293735685 -0.037306081984415762 0 -0.42680670243505803 -0.034615113076212713 0 -0.42462943043776058 -0.041038039404546971 0 -0.4243569293735685 -0.037306081984415762 0 -0.42818951741271921 -0.038310772776573528 0 -0.42818951741271921 -0.038310772776573528 0 -0.42680670243505803 -0.034615113076212713 0 -0.4243569293735685 -0.037306081984415762 0 -0.42818951741271921 -0.038310772776573528 0 -0.42680670243505803 -0.034615113076212713 0 -0.42818951741271921 -0.038310772776573528 0 -0.42680670243505803 -0.034615113076212713 0 -0.42995577540377822 -0.032900560567165532 0 -0.42818951741271921 -0.038310772776573528 0 -0.42995577540377822 -0.032900560567165532 0 -0.43628267576141971 -0.035329403205585218 0 -0.42995577540377822 -0.032900560567165532 0 -0.43628267576141971 -0.035329403205585218 0 -0.4327931004709421 -0.029092843067932112 0 -0.42680670243505803 -0.034615113076212713 0 -0.4285090787839364 -0.025262373234060161 0 -0.41794895562780338 -0.01094222954485795 0 -0.42680670243505803 -0.034615113076212713 0 -0.41794895562780338 -0.01094222954485795 0 -0.43628267576141971 -0.035329403205585218 0 -0.4327931004709421 -0.029092843067932112 0 -0.43710875721387199 -0.026668229939385779 0 -0.42995577540377822 -0.032900560567165532 0 -0.4327931004709421 -0.029092843067932112 0 -0.4285090787839364 -0.025262373234060161 0 -0.43210921519170409 -0.025303648393463829 0 -0.43710875721387199 -0.026668229939385779 0 -0.43108579893039811 -0.01948839847471974 0 -0.4327931004709421 -0.029092843067932112 0 -0.43210921519170409 -0.025303648393463829 0 -0.4285090787839364 -0.025262373234060161 0 -0.4327931004709421 -0.029092843067932112 0 -0.43210921519170409 -0.025303648393463829 0 -0.43710875721387199 -0.026668229939385779 0 -0.43108579893039811 -0.01948839847471974 0 -0.43397544616601241 -0.014244232554068349 0 -0.43928417642389239 -0.017661557407765791 0 -0.43710875721387199 -0.026668229939385779 0 -0.43108579893039811 -0.01948839847471974 0 -0.43928417642389239 -0.017661557407765791 0 -0.43210921519170409 -0.025303648393463829 0 -0.43108579893039811 -0.01948839847471974 0 -0.4285090787839364 -0.025262373234060161 0 -0.43108579893039811 -0.01948839847471974 0 -0.4285090787839364 -0.025262373234060161 0 -0.41794895562780338 -0.01094222954485795 0 -0.42680670243505803 -0.034615113076212713 0 -0.42995577540377822 -0.032900560567165532 0 -0.4285090787839364 -0.025262373234060161 0 -0.43591977417237449 -0.008065469867085449 0 -0.42907061680018699 -0.010664914002041091 0 -0.42583279771702431 0.00046528033667210148 0 -0.43108579893039811 -0.01948839847471974 0 -0.43397544616601241 -0.014244232554068349 0 -0.42907061680018699 -0.010664914002041091 0 -0.43591977417237449 -0.008065469867085449 0 -0.43397544616601241 -0.014244232554068349 0 -0.43928417642389239 -0.017661557407765791 0 -0.43591977417237449 -0.008065469867085449 0 -0.43397544616601241 -0.014244232554068349 0 -0.42907061680018699 -0.010664914002041091 0 -0.43108579893039811 -0.01948839847471974 0 -0.42907061680018699 -0.010664914002041091 0 -0.41794895562780338 -0.01094222954485795 0 -0.42907061680018699 -0.010664914002041091 0 -0.41794895562780338 -0.01094222954485795 0 -0.42583279771702431 0.00046528033667210148 0 -0.41794895562780338 -0.01094222954485795 0 -0.4102220184461346 -0.019351118920435541 0 -0.40021295305484711 -0.013852611056198059 0 -0.41794895562780338 -0.01094222954485795 0 -0.40352261506359649 -0.001038070178381474 0 -0.40021295305484711 -0.013852611056198059 0 -0.42680670243505803 -0.034615113076212713 0 -0.41794895562780338 -0.01094222954485795 0 -0.4102220184461346 -0.019351118920435541 0 -0.42680670243505803 -0.034615113076212713 0 -0.4102220184461346 -0.019351118920435541 0 -0.40073055052989021 -0.025701474464423758 0 -0.42680670243505803 -0.034615113076212713 0 -0.40073055052989021 -0.025701474464423758 0 -0.41513049604948221 -0.033942569896895612 0 -0.40073055052989021 -0.025701474464423758 0 -0.40237332615973681 -0.030676944162886681 0 -0.40073055052989021 -0.025701474464423758 0 -0.40237332615973681 -0.030676944162886681 0 -0.38011722188171299 -0.020315848921226409 0 -0.40237332615973681 -0.030676944162886681 0 -0.38011722188171299 -0.020315848921226409 0 -0.4102220184461346 -0.019351118920435541 0 -0.40073055052989021 -0.025701474464423758 0 -0.40021295305484711 -0.013852611056198059 0 -0.40073055052989021 -0.025701474464423758 0 -0.40021295305484711 -0.013852611056198059 0 -0.38745402304870558 -0.01483805838738575 0 -0.40352261506359649 -0.001038070178381474 0 -0.40021295305484711 -0.013852611056198059 0 -0.39408165103759368 -0.0019794594859314238 0 -0.40021295305484711 -0.013852611056198059 0 -0.39408165103759368 -0.0019794594859314238 0 -0.39005949432245718 -0.0085411321607220259 0 -0.40021295305484711 -0.013852611056198059 0 -0.39005949432245718 -0.0085411321607220259 0 -0.38745402304870558 -0.01483805838738575 0 -0.39408165103759368 -0.0019794594859314238 0 -0.3848191179490616 -0.0027051675553946518 0 -0.39005949432245718 -0.0085411321607220259 0 -0.3848191179490616 -0.0027051675553946518 0 -0.38372972652207787 -0.0093303643187002475 0 -0.39005949432245718 -0.0085411321607220259 0 -0.38372972652207787 -0.0093303643187002475 0 -0.38745402304870558 -0.01483805838738575 0 -0.3791207175096093 -0.01135650732177081 0 -0.38372972652207787 -0.0093303643187002475 0 -0.39005949432245718 -0.0085411321607220259 0 -0.38745402304870558 -0.01483805838738575 0 -0.37465439862472261 -0.016787835852634068 0 -0.37464851222799189 -0.0076089195940836872 0 -0.3791207175096093 -0.01135650732177081 0 -0.37465439862472261 -0.016787835852634068 0 -0.38745402304870558 -0.01483805838738575 0 -0.3791207175096093 -0.01135650732177081 0 -0.37464851222799189 -0.0076089195940836872 0 -0.3791207175096093 -0.01135650732177081 0 -0.37960876280762101 -0.0064231604720931881 0 -0.38372972652207787 -0.0093303643187002475 0 -0.3791207175096093 -0.01135650732177081 0 -0.37960876280762101 -0.0064231604720931881 0 -0.3848191179490616 -0.0027051675553946518 0 -0.38372972652207787 -0.0093303643187002475 0 -0.37960876280762101 -0.0064231604720931881 0 -0.37464851222799189 -0.0076089195940836872 0 -0.37960876280762101 -0.0064231604720931881 0 -0.37774077980655368 -0.001289555558904682 0 -0.3848191179490616 -0.0027051675553946518 0 -0.37960876280762101 -0.0064231604720931881 0 -0.37774077980655368 -0.001289555558904682 0 -0.37465439862472261 -0.016787835852634068 0 -0.40073055052989021 -0.025701474464423758 0 -0.38745402304870558 -0.01483805838738575 0 -0.40237332615973681 -0.030676944162886681 0 -0.38781453024876661 -0.02996800237218563 0 -0.38011722188171299 -0.020315848921226409 0 -0.37465439862472261 -0.016787835852634068 0 -0.40073055052989021 -0.025701474464423758 0 -0.38011722188171299 -0.020315848921226409 0 -0.37465439862472261 -0.016787835852634068 0 -0.40073055052989021 -0.025701474464423758 0 -0.37402384376206249 -0.023759624541515059 0 -0.37465439862472261 -0.016787835852634068 0 -0.38011722188171299 -0.020315848921226409 0 -0.37402384376206249 -0.023759624541515059 0 -0.38011722188171299 -0.020315848921226409 0 -0.37866743010551202 -0.02906954498465647 0 -0.38781453024876661 -0.02996800237218563 0 -0.38011722188171299 -0.020315848921226409 0 -0.37866743010551202 -0.02906954498465647 0 -0.37439980638912518 -0.038891661293645137 0 -0.37866743010551202 -0.02906954498465647 0 -0.38394575501216083 -0.036535335565972972 0 -0.37439980638912518 -0.038891661293645137 0 -0.37993408630244868 -0.045501240077299353 0 -0.38394575501216083 -0.036535335565972972 0 -0.37085155020467431 -0.050438611479832557 0 -0.37439980638912518 -0.038891661293645137 0 -0.37993408630244868 -0.045501240077299353 0 -0.37993408630244868 -0.045501240077299353 0 -0.38895054345211377 -0.045335196083553769 0 -0.38394575501216083 -0.036535335565972972 0 -0.38895054345211377 -0.045335196083553769 0 -0.38394575501216083 -0.036535335565972972 0 -0.39396365166307989 -0.03445798481758762 0 -0.38781453024876661 -0.02996800237218563 0 -0.38394575501216083 -0.036535335565972972 0 -0.39396365166307989 -0.03445798481758762 0 -0.38781453024876661 -0.02996800237218563 0 -0.37866743010551202 -0.02906954498465647 0 -0.38394575501216083 -0.036535335565972972 0 -0.40237332615973681 -0.030676944162886681 0 -0.38781453024876661 -0.02996800237218563 0 -0.39396365166307989 -0.03445798481758762 0 -0.39396365166307989 -0.03445798481758762 0 -0.39750411751227832 -0.042292212187568533 0 -0.39928834571923882 -0.035924112998793431 0 -0.38895054345211377 -0.045335196083553769 0 -0.39396365166307989 -0.03445798481758762 0 -0.39750411751227832 -0.042292212187568533 0 -0.39750411751227832 -0.042292212187568533 0 -0.4050251302254127 -0.045922345921936697 0 -0.40306291723554027 -0.039039715031688543 0 -0.39750411751227832 -0.042292212187568533 0 -0.40306291723554027 -0.039039715031688543 0 -0.39928834571923882 -0.035924112998793431 0 -0.40237332615973681 -0.030676944162886681 0 -0.39396365166307989 -0.03445798481758762 0 -0.39928834571923882 -0.035924112998793431 0 -0.41105872637709778 -0.041104419315527559 0 -0.40237332615973681 -0.030676944162886681 0 -0.40306291723554027 -0.039039715031688543 0 -0.40237332615973681 -0.030676944162886681 0 -0.40306291723554027 -0.039039715031688543 0 -0.39928834571923882 -0.035924112998793431 0 -0.40603099279739802 -0.054788986838451827 0 -0.39527915405366182 -0.064437672488960096 0 -0.41284572228237681 -0.064006668923108523 0 -0.40603099279739802 -0.054788986838451827 0 -0.39443592701229091 -0.053019652188425637 0 -0.39527915405366182 -0.064437672488960096 0 -0.4050251302254127 -0.045922345921936697 0 -0.40603099279739802 -0.054788986838451827 0 -0.39443592701229091 -0.053019652188425637 0 -0.39750411751227832 -0.042292212187568533 0 -0.4050251302254127 -0.045922345921936697 0 -0.39443592701229091 -0.053019652188425637 0 -0.38895054345211377 -0.045335196083553769 0 -0.39750411751227832 -0.042292212187568533 0 -0.39443592701229091 -0.053019652188425637 0 -0.39443592701229091 -0.053019652188425637 0 -0.38221605892473098 -0.056125323053866277 0 -0.39527915405366182 -0.064437672488960096 0 -0.36608399240098949 -0.063120758007335118 0 -0.38221605892473098 -0.056125323053866277 0 -0.37978412082390189 -0.068029865631836883 0 -0.38895054345211377 -0.045335196083553769 0 -0.39443592701229091 -0.053019652188425637 0 -0.38221605892473098 -0.056125323053866277 0 -0.37993408630244868 -0.045501240077299353 0 -0.38895054345211377 -0.045335196083553769 0 -0.38221605892473098 -0.056125323053866277 0 -0.37085155020467431 -0.050438611479832557 0 -0.37993408630244868 -0.045501240077299353 0 -0.38221605892473098 -0.056125323053866277 0 -0.36843110820579178 -0.075527255856609146 0 -0.37978412082390189 -0.068029865631836883 0 -0.38691029053433551 -0.080938318752413793 0 -0.37978412082390189 -0.068029865631836883 0 -0.38691029053433551 -0.080938318752413793 0 -0.39527915405366182 -0.064437672488960096 0 -0.38221605892473098 -0.056125323053866277 0 -0.37978412082390189 -0.068029865631836883 0 -0.39527915405366182 -0.064437672488960096 0 -0.37380044498630338 -0.100392191664622 0 -0.36747037526515469 -0.088210616938563927 0 -0.38691029053433551 -0.080938318752413793 0 -0.36843110820579178 -0.075527255856609146 0 -0.38691029053433551 -0.080938318752413793 0 -0.40007542381043809 -0.086939242353532731 0 -0.39460333317738627 -0.1006873657273652 0 -0.41352047356827321 -0.0909948847898496 0 -0.38691029053433551 -0.080938318752413793 0 -0.40007542381043809 -0.086939242353532731 0 -0.40767355229219521 -0.074626636544090755 0 -0.38691029053433551 -0.080938318752413793 0 -0.40007542381043809 -0.086939242353532731 0 -0.39460333317738627 -0.1006873657273652 0 -0.38691029053433551 -0.080938318752413793 0 -0.39527915405366182 -0.064437672488960096 0 -0.40767355229219521 -0.074626636544090755 0 -0.39527915405366182 -0.064437672488960096 0 -0.41284572228237681 -0.064006668923108523 0 -0.40767355229219521 -0.074626636544090755 0 -0.36893450279197471 -0.1249528869149899 0 -0.3789649235099295 -0.11270856972454819 0 -0.39514760223357998 -0.1249586529677193 0 -0.36893450279197471 -0.1249528869149899 0 -0.39514760223357998 -0.1249586529677193 0 -0.3789649235099295 -0.11270856972454819 0 -0.39460333317738627 -0.1006873657273652 0 -0.39514760223357998 -0.1249586529677193 0 -0.37380044498630338 -0.100392191664622 0 -0.38691029053433551 -0.080938318752413793 0 -0.39460333317738627 -0.1006873657273652 0 -0.37380044498630338 -0.100392191664622 0 -0.3789649235099295 -0.11270856972454819 0 -0.39460333317738627 -0.1006873657273652 0 -0.39460333317738627 -0.1006873657273652 0 -0.39514760223357998 -0.1249586529677193 0 -0.4114708495464785 -0.1093321351213095 0 -0.42136070167518519 -0.1249644190204488 0 -0.4114708495464785 -0.1093321351213095 0 -0.43272213707796769 -0.1050553531011644 0 -0.39514760223357998 -0.1249586529677193 0 -0.42136070167518519 -0.1249644190204488 0 -0.39514760223357998 -0.1249586529677193 0 -0.42136070167518519 -0.1249644190204488 0 -0.4114708495464785 -0.1093321351213095 0 -0.39460333317738627 -0.1006873657273652 0 -0.4114708495464785 -0.1093321351213095 0 -0.41352047356827321 -0.0909948847898496 0 -0.4114708495464785 -0.1093321351213095 0 -0.43272213707796769 -0.1050553531011644 0 -0.41352047356827321 -0.0909948847898496 0 -0.42136070167518519 -0.1249644190204488 0 -0.43272213707796769 -0.1050553531011644 0 -0.44757380111679052 -0.12497018507317829 0 -0.42136070167518519 -0.1249644190204488 0 -0.44757380111679052 -0.12497018507317829 0 -0.42023793718526542 -0.076451056482049876 0 -0.41284572228237681 -0.064006668923108523 0 -0.42746868386642678 -0.066478460468227696 0 -0.42023793718526542 -0.076451056482049876 0 -0.41284572228237681 -0.064006668923108523 0 -0.40767355229219521 -0.074626636544090755 0 -0.42023793718526542 -0.076451056482049876 0 -0.40767355229219521 -0.074626636544090755 0 -0.41352047356827321 -0.0909948847898496 0 -0.40007542381043809 -0.086939242353532731 0 -0.40767355229219521 -0.074626636544090755 0 -0.41352047356827321 -0.0909948847898496 0 -0.42023793718526542 -0.076451056482049876 0 -0.41352047356827321 -0.0909948847898496 0 -0.43051036701793649 -0.083964229305721505 0 -0.43272213707796769 -0.1050553531011644 0 -0.41352047356827321 -0.0909948847898496 0 -0.43051036701793649 -0.083964229305721505 0 -0.43272213707796769 -0.1050553531011644 0 -0.43051036701793649 -0.083964229305721505 0 -0.44869793539396702 -0.090613631575090198 0 -0.43051036701793649 -0.083964229305721505 0 -0.42746868386642678 -0.066478460468227696 0 -0.43938561630945938 -0.075374003134316428 0 -0.42023793718526542 -0.076451056482049876 0 -0.43051036701793649 -0.083964229305721505 0 -0.42746868386642678 -0.066478460468227696 0 -0.42746868386642678 -0.066478460468227696 0 -0.43950717444435422 -0.063784996514660589 0 -0.43938561630945938 -0.075374003134316428 0 -0.43950717444435422 -0.063784996514660589 0 -0.45074392082461212 -0.072028697807882153 0 -0.43938561630945938 -0.075374003134316428 0 -0.43051036701793649 -0.083964229305721505 0 -0.43938561630945938 -0.075374003134316428 0 -0.44869793539396702 -0.090613631575090198 0 -0.45074392082461212 -0.072028697807882153 0 -0.43938561630945938 -0.075374003134316428 0 -0.44869793539396702 -0.090613631575090198 0 -0.45074392082461212 -0.072028697807882153 0 -0.44869793539396702 -0.090613631575090198 0 -0.4647336852437608 -0.080388630180202481 0 -0.44869793539396702 -0.090613631575090198 0 -0.4647336852437608 -0.080388630180202481 0 -0.47380622041468068 -0.096022360055862885 0 -0.4647336852437608 -0.080388630180202481 0 -0.46264955769922828 -0.069236149835977229 0 -0.47254815090776853 -0.069469283055039688 0 -0.45074392082461212 -0.072028697807882153 0 -0.46264955769922828 -0.069236149835977229 0 -0.44688553471578463 -0.051399134646207288 0 -0.46264955769922828 -0.069236149835977229 0 -0.47254815090776853 -0.069469283055039688 0 -0.46914163899380801 -0.061760229887868598 0 -0.45074392082461212 -0.072028697807882153 0 -0.4647336852437608 -0.080388630180202481 0 -0.46264955769922828 -0.069236149835977229 0 -0.43272213707796769 -0.1050553531011644 0 -0.44757380111679052 -0.12497018507317829 0 -0.46022938895027038 -0.10869066194517669 0 -0.43272213707796769 -0.1050553531011644 0 -0.44869793539396702 -0.090613631575090198 0 -0.46022938895027038 -0.10869066194517669 0 -0.44869793539396702 -0.090613631575090198 0 -0.46022938895027038 -0.10869066194517669 0 -0.47380622041468068 -0.096022360055862885 0 -0.44757380111679052 -0.12497018507317829 0 -0.47378690055839578 -0.1249759511259078 0 -0.44757380111679052 -0.12497018507317829 0 -0.46022938895027038 -0.10869066194517669 0 -0.47378690055839578 -0.1249759511259078 0 -0.46022938895027038 -0.10869066194517669 0 -0.47378690055839578 -0.1249759511259078 0 -0.48374478807960558 -0.1092121363906397 0 -0.46022938895027038 -0.10869066194517669 0 -0.48374478807960558 -0.1092121363906397 0 -0.47380622041468068 -0.096022360055862885 0 -0.48374478807960558 -0.1092121363906397 0 -0.47380622041468068 -0.096022360055862885 0 -0.48832582805197727 -0.092109142267116931 0 -0.48374478807960558 -0.1092121363906397 0 -0.5 -0.10055386622176241 0 -0.48832582805197727 -0.092109142267116931 0 -0.47378690055839578 -0.1249759511259078 0 -0.48374478807960558 -0.1092121363906397 0 -0.50000000000000111 -0.12498171717863731 0 -0.48374478807960558 -0.1092121363906397 0 -0.5 -0.10055386622176241 0 -0.50000000000000111 -0.12498171717863731 0 -0.47378690055839578 -0.1249759511259078 0 -0.50000000000000111 -0.12498171717863731 0 -0.47254815090776853 -0.069469283055039688 0 -0.47913967023945842 -0.082463322467565006 0 -0.48457081949690362 -0.068943122576377761 0 -0.47913967023945842 -0.082463322467565006 0 -0.48808502354595151 -0.080031310268457945 0 -0.48457081949690362 -0.068943122576377761 0 -0.48457081949690362 -0.068943122576377761 0 -0.46914163899380801 -0.061760229887868598 0 -0.48457081949690362 -0.068943122576377761 0 -0.48230491698392047 -0.057318093012348498 0 -0.46914163899380801 -0.061760229887868598 0 -0.47254815090776853 -0.069469283055039688 0 -0.48457081949690362 -0.068943122576377761 0 -0.46914163899380801 -0.061760229887868598 0 -0.47254815090776853 -0.069469283055039688 0 -0.46914163899380801 -0.061760229887868598 0 -0.4647336852437608 -0.080388630180202481 0 -0.47254815090776853 -0.069469283055039688 0 -0.47913967023945842 -0.082463322467565006 0 -0.4647336852437608 -0.080388630180202481 0 -0.47380622041468068 -0.096022360055862885 0 -0.47913967023945842 -0.082463322467565006 0 -0.47380622041468068 -0.096022360055862885 0 -0.47913967023945842 -0.082463322467565006 0 -0.48832582805197727 -0.092109142267116931 0 -0.5 -0.10055386622176241 0 -0.48832582805197727 -0.092109142267116931 0 -0.499999999999999 -0.07612601526488752 0 -0.48808502354595151 -0.080031310268457945 0 -0.48832582805197727 -0.092109142267116931 0 -0.499999999999999 -0.07612601526488752 0 -0.47913967023945842 -0.082463322467565006 0 -0.48808502354595151 -0.080031310268457945 0 -0.48832582805197727 -0.092109142267116931 0 -0.499999999999999 -0.07612601526488752 0 -0.48457081949690362 -0.068943122576377761 0 -0.499999999999999 -0.07612601526488752 0 -0.48457081949690362 -0.068943122576377761 0 -0.5 -0.055081012739928707 0 -0.48808502354595151 -0.080031310268457945 0 -0.499999999999999 -0.07612601526488752 0 -0.48457081949690362 -0.068943122576377761 0 -0.48457081949690362 -0.068943122576377761 0 -0.5 -0.055081012739928707 0 -0.48230491698392047 -0.057318093012348498 0 -0.5 -0.055081012739928707 0 -0.48157039955536241 -0.044558511477442143 0 -0.48230491698392047 -0.057318093012348498 0 -0.5 -0.055081012739928707 0 -0.500000000000004 -0.034036010214970061 0 -0.48157039955536241 -0.044558511477442143 0 -0.500000000000004 -0.034036010214970061 0 -0.48157039955536241 -0.044558511477442143 0 -0.48148290990478199 -0.029591545163434652 0 -0.48157039955536241 -0.044558511477442143 0 -0.45768975774058179 -0.035844230274481748 0 -0.48148290990478199 -0.029591545163434652 0 -0.48157039955536241 -0.044558511477442143 0 -0.46914163899380801 -0.061760229887868598 0 -0.45768975774058179 -0.035844230274481748 0 -0.48157039955536241 -0.044558511477442143 0 -0.48230491698392047 -0.057318093012348498 0 -0.46914163899380801 -0.061760229887868598 0 -0.46914163899380801 -0.061760229887868598 0 -0.45768975774058179 -0.035844230274481748 0 -0.44688553471578463 -0.051399134646207288 0 -0.46914163899380801 -0.061760229887868598 0 -0.45768975774058179 -0.035844230274481748 0 -0.46264955769922828 -0.069236149835977229 0 -0.46914163899380801 -0.061760229887868598 0 -0.44688553471578463 -0.051399134646207288 0 -0.46914163899380801 -0.061760229887868598 0 -0.44688553471578463 -0.051399134646207288 0 -0.43628267576141971 -0.035329403205585218 0 -0.44354830351403418 -0.034418653902415733 0 -0.44688553471578463 -0.051399134646207288 0 -0.45768975774058179 -0.035844230274481748 0 -0.44354830351403418 -0.034418653902415733 0 -0.44688553471578463 -0.051399134646207288 0 -0.45768975774058179 -0.035844230274481748 0 -0.44354830351403418 -0.034418653902415733 0 -0.44312252706978628 -0.024928407146411868 0 -0.43628267576141971 -0.035329403205585218 0 -0.43710875721387199 -0.026668229939385779 0 -0.44354830351403418 -0.034418653902415733 0 -0.43950717444435422 -0.063784996514660589 0 -0.45074392082461212 -0.072028697807882153 0 -0.44688553471578463 -0.051399134646207288 0 -0.43147245553696489 -0.05279552735729795 0 -0.43950717444435422 -0.063784996514660589 0 -0.44688553471578463 -0.051399134646207288 0 -0.43591977417237449 -0.008065469867085449 0 -0.44623787648735791 -0.0099282306610938807 0 -0.43740981058492812 0.01004998492246997 0 -0.43591977417237449 -0.008065469867085449 0 -0.44623787648735791 -0.0099282306610938807 0 -0.43928417642389239 -0.017661557407765791 0 -0.43591977417237449 -0.008065469867085449 0 -0.44623787648735791 -0.0099282306610938807 0 -0.43710875721387199 -0.026668229939385779 0 -0.43928417642389239 -0.017661557407765791 0 -0.44312252706978628 -0.024928407146411868 0 -0.45768975774058179 -0.035844230274481748 0 -0.44623787648735791 -0.0099282306610938807 0 -0.44312252706978628 -0.024928407146411868 0 -0.45768975774058179 -0.035844230274481748 0 -0.44623787648735791 -0.0099282306610938807 0 -0.44623787648735791 -0.0099282306610938807 0 -0.43928417642389239 -0.017661557407765791 0 -0.44312252706978628 -0.024928407146411868 0 -0.43710875721387199 -0.026668229939385779 0 -0.44354830351403418 -0.034418653902415733 0 -0.44312252706978628 -0.024928407146411868 0 -0.45768975774058179 -0.035844230274481748 0 -0.44623787648735791 -0.0099282306610938807 0 -0.47146408957177099 -0.01448240150379307 0 -0.44623787648735791 -0.0099282306610938807 0 -0.47146408957177099 -0.01448240150379307 0 -0.44623787648735791 -0.0099282306610938807 0 -0.47146408957177099 -0.01448240150379307 0 -0.46048772545436639 0.0043098071123656434 0 -0.47146408957177099 -0.01448240150379307 0 -0.47882554305316488 -0.0018417715126103191 0 -0.46048772545436639 0.0043098071123656434 0 -0.47146408957177099 -0.01448240150379307 0 -0.47882554305316488 -0.0018417715126103191 0 -0.49669030265618502 -0.01903657234648758 0 -0.47146408957177099 -0.01448240150379307 0 -0.49669030265618502 -0.01903657234648758 0 -0.47146408957177099 -0.01448240150379307 0 -0.48148290990478199 -0.029591545163434652 0 -0.49669030265618502 -0.01903657234648758 0 -0.45768975774058179 -0.035844230274481748 0 -0.47146408957177099 -0.01448240150379307 0 -0.48148290990478199 -0.029591545163434652 0 -0.500000000000004 -0.034036010214970061 0 -0.48148290990478199 -0.029591545163434652 0 -0.49669030265618502 -0.01903657234648758 0 -0.49669030265618502 -0.01903657234648758 0 -0.50000000000000056 -0.019634082844440681 0 -0.500000000000004 -0.034036010214970061 0 -0.49669030265618502 -0.01903657234648758 0 -0.500000000000004 -0.034036010214970061 0 -0.49669030265618502 -0.01903657234648758 0 -0.50000000000000056 -0.019634082844440681 0 -0.47882554305316488 -0.0018417715126103191 0 -0.49669030265618502 -0.01903657234648758 0 -0.49160980924365538 0.0039880541876541054 0 -0.49669030265618502 -0.01903657234648758 0 -0.49160980924365538 0.0039880541876541054 0 -0.49669030265618502 -0.01903657234648758 0 -0.50000000000000056 -0.019634082844440681 0 -0.49160980924365538 0.0039880541876541054 0 -0.50000000000000056 -0.019634082844440681 0 -0.49160980924365538 0.0039880541876541054 0 -0.50000000000000033 0.009303662189531537 0 -0.49160980924365538 0.0039880541876541054 0 -0.48652931583112352 0.027012680721795381 0 -0.49160980924365538 0.0039880541876541054 0 -0.50000000000000033 0.009303662189531537 0 -0.48652931583112352 0.027012680721795381 0 -0.50000000000000033 0.009303662189531537 0 -0.5 0.03611151152349279 0 -0.49175907743105379 0.031398254416965428 0 -0.50000000000000033 0.009303662189531537 0 -0.49175907743105379 0.031398254416965428 0 -0.50000000000000033 0.009303662189531537 0 -0.48652931583112352 0.027012680721795381 0 -0.49175907743105379 0.031398254416965428 0 -0.48652931583112352 0.027012680721795381 0 -0.47387578833984401 0.016012254987208822 0 -0.46815351836101687 0.031449839152918539 0 -0.49160980924365538 0.0039880541876541054 0 -0.48652931583112352 0.027012680721795381 0 -0.47387578833984401 0.016012254987208822 0 -0.47882554305316488 -0.0018417715126103191 0 -0.49160980924365538 0.0039880541876541054 0 -0.47387578833984401 0.016012254987208822 0 -0.47882554305316488 -0.0018417715126103191 0 -0.47387578833984401 0.016012254987208822 0 -0.46048772545436639 0.0043098071123656434 0 -0.49282352307895688 0.045257754500502748 0 -0.5 0.03611151152349279 0 -0.5 0.062919360857453976 0 -0.49282352307895688 0.045257754500502748 0 -0.48351815486210709 0.053492846644399093 0 -0.5 0.062919360857453976 0 -0.49175907743105379 0.031398254416965428 0 -0.48144882241859149 0.050037307255936581 0 -0.48351815486210709 0.053492846644399093 0 -0.48652931583112352 0.027012680721795381 0 -0.49175907743105379 0.031398254416965428 0 -0.48144882241859149 0.050037307255936581 0 -0.49175907743105379 0.031398254416965428 0 -0.48351815486210709 0.053492846644399093 0 -0.49282352307895688 0.045257754500502748 0 -0.49175907743105379 0.031398254416965428 0 -0.48351815486210709 0.053492846644399093 0 -0.49282352307895688 0.045257754500502748 0 -0.5 0.03611151152349279 0 -0.49175907743105379 0.031398254416965428 0 -0.48144882241859149 0.050037307255936581 0 -0.4639696453013944 0.043374392403556838 0 -0.46815351836101687 0.031449839152918539 0 -0.48652931583112352 0.027012680721795381 0 -0.48144882241859149 0.050037307255936581 0 -0.48652931583112352 0.027012680721795381 0 -0.48144882241859149 0.050037307255936581 0 -0.46815351836101687 0.031449839152918539 0 -0.48144882241859149 0.050037307255936581 0 -0.45709786057011947 0.055708105081253657 0 -0.47636832900606041 0.073061933790077832 0 -0.48144882241859149 0.050037307255936581 0 -0.48351815486210709 0.053492846644399093 0 -0.47636832900606041 0.073061933790077832 0 -0.48144882241859149 0.050037307255936581 0 -0.47636832900606041 0.073061933790077832 0 -0.48144882241859149 0.050037307255936581 0 -0.45709786057011947 0.055708105081253657 0 -0.4639696453013944 0.043374392403556838 0 -0.45709786057011947 0.055708105081253657 0 -0.4639696453013944 0.043374392403556838 0 -0.45299045524759751 0.034902057762674861 0 -0.4639696453013944 0.043374392403556838 0 -0.46815351836101687 0.031449839152918539 0 -0.45299045524759751 0.034902057762674861 0 -0.46815351836101687 0.031449839152918539 0 -0.45299045524759751 0.034902057762674861 0 -0.45709786057011947 0.055708105081253657 0 -0.45299045524759751 0.034902057762674861 0 -0.43782739213417787 0.038354276372430232 0 -0.45299045524759751 0.034902057762674861 0 -0.43782739213417787 0.038354276372430232 0 -0.45299045524759751 0.034902057762674861 0 -0.43782739213417787 0.038354276372430232 0 -0.44297011017848281 0.02707887027054981 0 -0.45709786057011947 0.055708105081253657 0 -0.43782739213417787 0.038354276372430232 0 -0.43187248081207541 0.055496176207803817 0 -0.45709786057011947 0.055708105081253657 0 -0.43782739213417787 0.038354276372430232 0 -0.45709786057011947 0.055708105081253657 0 -0.43187248081207541 0.055496176207803817 0 -0.43763284036668942 0.072255399145110422 0 -0.47387578833984401 0.016012254987208822 0 -0.46048772545436639 0.0043098071123656434 0 -0.45598123469437257 0.020633802368031268 0 -0.47387578833984401 0.016012254987208822 0 -0.46815351836101687 0.031449839152918539 0 -0.45598123469437257 0.020633802368031268 0 -0.46815351836101687 0.031449839152918539 0 -0.45299045524759751 0.034902057762674861 0 -0.45598123469437257 0.020633802368031268 0 -0.45598123469437257 0.020633802368031268 0 -0.44297011017848281 0.02707887027054981 0 -0.43740981058492812 0.01004998492246997 0 -0.45299045524759751 0.034902057762674861 0 -0.45598123469437257 0.020633802368031268 0 -0.44297011017848281 0.02707887027054981 0 -0.46048772545436639 0.0043098071123656434 0 -0.45598123469437257 0.020633802368031268 0 -0.43740981058492812 0.01004998492246997 0 -0.44623787648735791 -0.0099282306610938807 0 -0.46048772545436639 0.0043098071123656434 0 -0.43740981058492812 0.01004998492246997 0 -0.44623787648735791 -0.0099282306610938807 0 -0.43740981058492812 0.01004998492246997 0 -0.43591977417237449 -0.008065469867085449 0 -0.43740981058492812 0.01004998492246997 0 -0.42583279771702431 0.00046528033667210148 0 -0.43740981058492812 0.01004998492246997 0 -0.42292027786463471 0.01349413118407828 0 -0.42583279771702431 0.00046528033667210148 0 -0.41794895562780338 -0.01094222954485795 0 -0.40909120882054839 0.01273065398649661 0 -0.41794895562780338 -0.01094222954485795 0 -0.40352261506359649 -0.001038070178381474 0 -0.40909120882054839 0.01273065398649661 0 -0.42292027786463471 0.01349413118407828 0 -0.42583279771702431 0.00046528033667210148 0 -0.40909120882054839 0.01273065398649661 0 -0.41794895562780338 -0.01094222954485795 0 -0.42583279771702431 0.00046528033667210148 0 -0.40909120882054839 0.01273065398649661 0 -0.40909120882054839 0.01273065398649661 0 -0.41494363987246979 0.023236645495722939 0 -0.40023346201329341 0.036403537517851137 0 -0.41494363987246979 0.023236645495722939 0 -0.41436175989852531 0.033604495869393458 0 -0.40023346201329341 0.036403537517851137 0 -0.42292027786463471 0.01349413118407828 0 -0.41494363987246979 0.023236645495722939 0 -0.424969395700869 0.026775135554755129 0 -0.42292027786463471 0.01349413118407828 0 -0.40909120882054839 0.01273065398649661 0 -0.41494363987246979 0.023236645495722939 0 -0.41494363987246979 0.023236645495722939 0 -0.41896391809246269 0.029132761591660509 0 -0.41436175989852531 0.033604495869393458 0 -0.41494363987246979 0.023236645495722939 0 -0.41896391809246269 0.029132761591660509 0 -0.424969395700869 0.026775135554755129 0 -0.41896391809246269 0.029132761591660509 0 -0.424969395700869 0.026775135554755129 0 -0.42158087689798668 0.032914769446770492 0 -0.424969395700869 0.026775135554755129 0 -0.42858174468249838 0.030028200506033911 0 -0.42158087689798668 0.032914769446770492 0 -0.44297011017848281 0.02707887027054981 0 -0.43740981058492812 0.01004998492246997 0 -0.42858174468249838 0.030028200506033911 0 -0.43740981058492812 0.01004998492246997 0 -0.42292027786463471 0.01349413118407828 0 -0.424969395700869 0.026775135554755129 0 -0.43740981058492812 0.01004998492246997 0 -0.42858174468249838 0.030028200506033911 0 -0.43740981058492812 0.01004998492246997 0 -0.424969395700869 0.026775135554755129 0 -0.42858174468249838 0.030028200506033911 0 -0.424969395700869 0.026775135554755129 0 -0.42858174468249838 0.030028200506033911 0 -0.43782739213417787 0.038354276372430232 0 -0.44297011017848281 0.02707887027054981 0 -0.42858174468249838 0.030028200506033911 0 -0.43782739213417787 0.038354276372430232 0 -0.42858174468249838 0.030028200506033911 0 -0.42345682706553001 0.041626064651069543 0 -0.43782739213417787 0.038354276372430232 0 -0.42345682706553001 0.041626064651069543 0 -0.43187248081207541 0.055496176207803817 0 -0.43782739213417787 0.038354276372430232 0 -0.42858174468249838 0.030028200506033911 0 -0.43782739213417787 0.038354276372430232 0 -0.42345682706553001 0.041626064651069543 0 -0.42858174468249838 0.030028200506033911 0 -0.42345682706553001 0.041626064651069543 0 -0.42158087689798668 0.032914769446770492 0 -0.42858174468249838 0.030028200506033911 0 -0.42345682706553001 0.041626064651069543 0 -0.42345682706553001 0.041626064651069543 0 -0.43187248081207541 0.055496176207803817 0 -0.4177568865966339 0.054525225210098782 0 -0.43187248081207541 0.055496176207803817 0 -0.4177568865966339 0.054525225210098782 0 -0.41753301535116211 0.067129086497859855 0 -0.42345682706553001 0.041626064651069543 0 -0.4177568865966339 0.054525225210098782 0 -0.40276573021624068 0.046336866753853997 0 -0.4177568865966339 0.054525225210098782 0 -0.40750332447406851 0.057375884956624552 0 -0.41753301535116211 0.067129086497859855 0 -0.42345682706553001 0.041626064651069543 0 -0.4177568865966339 0.054525225210098782 0 -0.4177568865966339 0.054525225210098782 0 -0.40750332447406851 0.057375884956624552 0 -0.40276573021624068 0.046336866753853997 0 -0.42345682706553001 0.041626064651069543 0 -0.40276573021624068 0.046336866753853997 0 -0.42345682706553001 0.041626064651069543 0 -0.41020444479839763 0.039492741198042178 0 -0.40276573021624068 0.046336866753853997 0 -0.42345682706553001 0.041626064651069543 0 -0.41436175989852531 0.033604495869393458 0 -0.42158087689798668 0.032914769446770492 0 -0.42345682706553001 0.041626064651069543 0 -0.41436175989852531 0.033604495869393458 0 -0.41020444479839763 0.039492741198042178 0 -0.41896391809246269 0.029132761591660509 0 -0.41436175989852531 0.033604495869393458 0 -0.42158087689798668 0.032914769446770492 0 -0.41436175989852531 0.033604495869393458 0 -0.41020444479839763 0.039492741198042178 0 -0.40023346201329341 0.036403537517851137 0 -0.40276573021624068 0.046336866753853997 0 -0.38207463336695202 0.051047668856640811 0 -0.38772007791329738 0.03985096685417347 0 -0.41020444479839763 0.039492741198042178 0 -0.40023346201329341 0.036403537517851137 0 -0.40276573021624068 0.046336866753853997 0 -0.40023346201329341 0.036403537517851137 0 -0.40276573021624068 0.046336866753853997 0 -0.38772007791329738 0.03985096685417347 0 -0.40023346201329341 0.036403537517851137 0 -0.38772007791329738 0.03985096685417347 0 -0.38925836826538629 0.030805614435688099 0 -0.40276573021624068 0.046336866753853997 0 -0.38207463336695202 0.051047668856640811 0 -0.40276573021624068 0.046336866753853997 0 -0.39689466156197101 0.057407184083191301 0 -0.38207463336695202 0.051047668856640811 0 -0.40750332447406851 0.057375884956624552 0 -0.39689466156197101 0.057407184083191301 0 -0.40210564328563447 0.066115584712721373 0 -0.40750332447406851 0.057375884956624552 0 -0.40276573021624068 0.046336866753853997 0 -0.39689466156197101 0.057407184083191301 0 -0.38207463336695202 0.051047668856640811 0 -0.38848633305814179 0.065600711414542545 0 -0.36891219827968119 0.060077996683558232 0 -0.39689466156197101 0.057407184083191301 0 -0.38207463336695202 0.051047668856640811 0 -0.38848633305814179 0.065600711414542545 0 -0.38772007791329738 0.03985096685417347 0 -0.37937813184432773 0.031366277704107569 0 -0.38925836826538629 0.030805614435688099 0 -0.38207463336695202 0.051047668856640811 0 -0.38772007791329738 0.03985096685417347 0 -0.37261014177358448 0.043145835856899219 0 -0.38772007791329738 0.03985096685417347 0 -0.37937813184432773 0.031366277704107569 0 -0.37261014177358448 0.043145835856899219 0 -0.37937813184432773 0.031366277704107569 0 -0.38391758338059062 0.022870450659759161 0 -0.37479293228070759 0.022502646493578662 0 -0.37937813184432773 0.031366277704107569 0 -0.38925836826538629 0.030805614435688099 0 -0.38391758338059062 0.022870450659759161 0 -0.38925836826538629 0.030805614435688099 0 -0.38391758338059062 0.022870450659759161 0 -0.3946160130735708 0.021551959563878339 0 -0.38391758338059062 0.022870450659759161 0 -0.38667067902898572 0.013842153393714489 0 -0.3946160130735708 0.021551959563878339 0 -0.38391758338059062 0.022870450659759161 0 -0.3778438638662554 0.014761087644765769 0 -0.38667067902898572 0.013842153393714489 0 -0.38391758338059062 0.022870450659759161 0 -0.3778438638662554 0.014761087644765769 0 -0.37479293228070759 0.022502646493578662 0 -0.3778438638662554 0.014761087644765769 0 -0.38165634421242611 0.0056742618597281089 0 -0.38667067902898572 0.013842153393714489 0 -0.3778438638662554 0.014761087644765769 0 -0.38165634421242611 0.0056742618597281089 0 -0.37464316483836829 0.0066416053135349984 0 -0.37774077980655368 -0.001289555558904682 0 -0.38165634421242611 0.0056742618597281089 0 -0.37464316483836829 0.0066416053135349984 0 -0.3848191179490616 -0.0027051675553946518 0 -0.37774077980655368 -0.001289555558904682 0 -0.38165634421242611 0.0056742618597281089 0 -0.3848191179490616 -0.0027051675553946518 0 -0.38165634421242611 0.0056742618597281089 0 -0.38845980705381639 0.0057813395070211177 0 -0.39408165103759368 -0.0019794594859314238 0 -0.3848191179490616 -0.0027051675553946518 0 -0.38845980705381639 0.0057813395070211177 0 -0.38845980705381639 0.0057813395070211177 0 -0.38667067902898572 0.013842153393714489 0 -0.39627830677719 0.008853295208583448 0 -0.38165634421242611 0.0056742618597281089 0 -0.38845980705381639 0.0057813395070211177 0 -0.38667067902898572 0.013842153393714489 0 -0.38667067902898572 0.013842153393714489 0 -0.39627830677719 0.008853295208583448 0 -0.3946160130735708 0.021551959563878339 0 -0.39408165103759368 -0.0019794594859314238 0 -0.38845980705381639 0.0057813395070211177 0 -0.39627830677719 0.008853295208583448 0 -0.40352261506359649 -0.001038070178381474 0 -0.39408165103759368 -0.0019794594859314238 0 -0.39627830677719 0.008853295208583448 0 -0.40352261506359649 -0.001038070178381474 0 -0.40909120882054839 0.01273065398649661 0 -0.39627830677719 0.008853295208583448 0 -0.40909120882054839 0.01273065398649661 0 -0.39627830677719 0.008853295208583448 0 -0.3946160130735708 0.021551959563878339 0 -0.40909120882054839 0.01273065398649661 0 -0.40023346201329341 0.036403537517851137 0 -0.3946160130735708 0.021551959563878339 0 -0.40909120882054839 0.01273065398649661 0 -0.40023346201329341 0.036403537517851137 0 -0.40023346201329341 0.036403537517851137 0 -0.38925836826538629 0.030805614435688099 0 -0.3946160130735708 0.021551959563878339 0 -0.38696142946532958 0.1003701901717608 0 -0.40164011277457379 0.081352107660276216 0 -0.40864304721671202 0.1107171055473533 0 -0.38750957741872682 0.11885909540365321 0 -0.40864304721671202 0.1107171055473533 0 -0.39401402549175851 0.1361747599337243 0 -0.38750957741872682 0.11885909540365321 0 -0.38696142946532958 0.1003701901717608 0 -0.40864304721671202 0.1107171055473533 0 -0.38750957741872682 0.11885909540365321 0 -0.38696142946532958 0.1003701901717608 0 -0.36904533532088801 0.1177582563576956 0 -0.38696142946532958 0.1003701901717608 0 -0.37090825683648998 0.098456277756480637 0 -0.36904533532088801 0.1177582563576956 0 -0.37929074908003868 0.077603726490867345 0 -0.40164011277457379 0.081352107660276216 0 -0.38696142946532958 0.1003701901717608 0 -0.37929074908003868 0.077603726490867345 0 -0.40164011277457379 0.081352107660276216 0 -0.38696142946532958 0.1003701901717608 0 -0.37929074908003868 0.077603726490867345 0 -0.37090825683648998 0.098456277756480637 0 -0.37929074908003868 0.077603726490867345 0 -0.38848633305814179 0.065600711414542545 0 -0.36891219827968119 0.060077996683558232 0 -0.37929074908003868 0.077603726490867345 0 -0.38848633305814179 0.065600711414542545 0 -0.40164011277457379 0.081352107660276216 0 -0.38848633305814179 0.065600711414542545 0 -0.40210564328563447 0.066115584712721373 0 -0.40164011277457379 0.081352107660276216 0 -0.39689466156197101 0.057407184083191301 0 -0.38848633305814179 0.065600711414542545 0 -0.40210564328563447 0.066115584712721373 0 -0.40164011277457379 0.081352107660276216 0 -0.42398947646910912 0.085100488829685086 0 -0.40164011277457379 0.081352107660276216 0 -0.42398947646910912 0.085100488829685086 0 -0.40864304721671202 0.1107171055473533 0 -0.40210564328563447 0.066115584712721373 0 -0.40164011277457379 0.081352107660276216 0 -0.41753301535116211 0.067129086497859855 0 -0.40164011277457379 0.081352107660276216 0 -0.41753301535116211 0.067129086497859855 0 -0.42398947646910912 0.085100488829685086 0 -0.40750332447406851 0.057375884956624552 0 -0.40210564328563447 0.066115584712721373 0 -0.41753301535116211 0.067129086497859855 0 -0.41753301535116211 0.067129086497859855 0 -0.42398947646910912 0.085100488829685086 0 -0.43763284036668942 0.072255399145110422 0 -0.43187248081207541 0.055496176207803817 0 -0.41753301535116211 0.067129086497859855 0 -0.43763284036668942 0.072255399145110422 0 -0.42398947646910912 0.085100488829685086 0 -0.44633884016364428 0.088848869999093971 0 -0.42398947646910912 0.085100488829685086 0 -0.43763284036668942 0.072255399145110422 0 -0.44633884016364428 0.088848869999093971 0 -0.42398947646910912 0.085100488829685086 0 -0.42906186480059683 0.10519001099972999 0 -0.44633884016364428 0.088848869999093971 0 -0.42398947646910912 0.085100488829685086 0 -0.42906186480059683 0.10519001099972999 0 -0.40864304721671202 0.1107171055473533 0 -0.40864304721671202 0.1107171055473533 0 -0.43267942878230348 0.12559175737704789 0 -0.42906186480059683 0.10519001099972999 0 -0.40864304721671202 0.1107171055473533 0 -0.43267942878230348 0.12559175737704789 0 -0.42906186480059683 0.10519001099972999 0 -0.4489383204882843 0.11104189391905871 0 -0.43267942878230348 0.12559175737704789 0 -0.4489383204882843 0.11104189391905871 0 -0.45289828098281221 0.1241297055338681 0 -0.43267942878230348 0.12559175737704789 0 -0.4489383204882843 0.11104189391905871 0 -0.43267942878230348 0.12559175737704789 0 -0.42906186480059683 0.10519001099972999 0 -0.4489383204882843 0.11104189391905871 0 -0.44633884016364428 0.088848869999093971 0 -0.4489383204882843 0.11104189391905871 0 -0.44633884016364428 0.088848869999093971 0 -0.47121921728662652 0.096397536200283296 0 -0.46607010556719342 0.11973313861048911 0 -0.47121921728662652 0.096397536200283296 0 -0.4489383204882843 0.11104189391905871 0 -0.46607010556719342 0.11973313861048911 0 -0.47121921728662652 0.096397536200283296 0 -0.4489383204882843 0.11104189391905871 0 -0.45289828098281221 0.1241297055338681 0 -0.46607010556719342 0.11973313861048911 0 -0.45709786057011947 0.055708105081253657 0 -0.43763284036668942 0.072255399145110422 0 -0.45544766770060358 0.07348919590478746 0 -0.43763284036668942 0.072255399145110422 0 -0.44633884016364428 0.088848869999093971 0 -0.45544766770060358 0.07348919590478746 0 -0.44633884016364428 0.088848869999093971 0 -0.45544766770060358 0.07348919590478746 0 -0.47121921728662652 0.096397536200283296 0 -0.45544766770060358 0.07348919590478746 0 -0.47636832900606041 0.073061933790077832 0 -0.47121921728662652 0.096397536200283296 0 -0.45709786057011947 0.055708105081253657 0 -0.47636832900606041 0.073061933790077832 0 -0.45709786057011947 0.055708105081253657 0 -0.45544766770060358 0.07348919590478746 0 -0.47636832900606041 0.073061933790077832 0 -0.48351815486210709 0.053492846644399093 0 -0.47636832900606041 0.073061933790077832 0 -0.49140909277123612 0.074197219851226057 0 -0.47636832900606041 0.073061933790077832 0 -0.48274454235378189 0.091705374172880549 0 -0.47121921728662652 0.096397536200283296 0 -0.47636832900606041 0.073061933790077832 0 -0.47121921728662652 0.096397536200283296 0 -0.47636832900606041 0.073061933790077832 0 -0.49715897998801373 0.091784747772784503 0 -0.5 0.089727210191415163 0 -0.49715897998801373 0.091784747772784503 0 -0.49140909277123612 0.074197219851226057 0 -0.47636832900606041 0.073061933790077832 0 -0.48274454235378189 0.091705374172880549 0 -0.49715897998801373 0.091784747772784503 0 -0.47636832900606041 0.073061933790077832 0 -0.49715897998801373 0.091784747772784503 0 -0.49140909277123612 0.074197219851226057 0 -0.5 0.089727210191415163 0 -0.5 0.062919360857453976 0 -0.49140909277123612 0.074197219851226057 0 -0.48351815486210709 0.053492846644399093 0 -0.5 0.062919360857453976 0 -0.49140909277123612 0.074197219851226057 0 -0.46607010556719342 0.11973313861048911 0 -0.48623164313442779 0.1055772789283768 0 -0.48453668432005692 0.123143207324586 0 -0.46607010556719342 0.11973313861048911 0 -0.47121921728662652 0.096397536200283296 0 -0.48623164313442779 0.1055772789283768 0 -0.48274454235378189 0.091705374172880549 0 -0.47121921728662652 0.096397536200283296 0 -0.48623164313442779 0.1055772789283768 0 -0.5 0.089727210191415163 0 -0.49715897998801373 0.091784747772784503 0 -0.5 0.1165350595253765 0 -0.49715897998801373 0.091784747772784503 0 -0.48623164313442779 0.1055772789283768 0 -0.5 0.1165350595253765 0 -0.48274454235378189 0.091705374172880549 0 -0.49715897998801373 0.091784747772784503 0 -0.48623164313442779 0.1055772789283768 0 -0.48623164313442779 0.1055772789283768 0 -0.5 0.1165350595253765 0 -0.48453668432005692 0.123143207324586 0 -0.5 0.1165350595253765 0 -0.48453668432005692 0.123143207324586 0 -0.5 0.1433429088593379 0 -0.48453668432005692 0.123143207324586 0 -0.48049738108946538 0.1379484740379 0 -0.5 0.1433429088593379 0 -0.46607010556719342 0.11973313861048911 0 -0.48453668432005692 0.123143207324586 0 -0.48049738108946538 0.1379484740379 0 -0.46607010556719342 0.11973313861048911 0 -0.48049738108946538 0.1379484740379 0 -0.46092099384776192 0.14306874102069511 0 -0.48464943840857888 0.15775282940309851 0 -0.46990863904630059 0.1670362475492525 0 -0.46092099384776192 0.14306874102069511 0 -0.48464943840857888 0.15775282940309851 0 -0.46092099384776192 0.14306874102069511 0 -0.48049738108946538 0.1379484740379 0 -0.48464943840857888 0.15775282940309851 0 -0.46092099384776192 0.14306874102069511 0 -0.48049738108946538 0.1379484740379 0 -0.5 0.1433429088593379 0 -0.48464943840857888 0.15775282940309851 0 -0.48464943840857888 0.15775282940309851 0 -0.5 0.17015075819329931 0 -0.4898809761324775 0.17912292006808481 0 -0.5 0.1433429088593379 0 -0.48464943840857888 0.15775282940309851 0 -0.5 0.17015075819329931 0 -0.48464943840857888 0.15775282940309851 0 -0.4898809761324775 0.17912292006808481 0 -0.47865635922375932 0.17909963177513319 0 -0.5 0.17015075819329931 0 -0.4898809761324775 0.17912292006808481 0 -0.5 0.19695860752726069 0 -0.4898809761324775 0.17912292006808481 0 -0.47865635922375932 0.17909963177513319 0 -0.48609908303004917 0.1916527734416324 0 -0.47865635922375932 0.17909963177513319 0 -0.47279817792341111 0.1948006201282925 0 -0.47865635922375932 0.17909963177513319 0 -0.46589335310649882 0.18744802338852329 0 -0.47279817792341111 0.1948006201282925 0 -0.47865635922375932 0.17909963177513319 0 -0.46927870962167312 0.17493875400548389 0 -0.46990863904630059 0.1670362475492525 0 -0.47865635922375932 0.17909963177513319 0 -0.46927870962167312 0.17493875400548389 0 -0.46555461593459269 0.18128722400797501 0 -0.47865635922375932 0.17909963177513319 0 -0.46589335310649882 0.18744802338852329 0 -0.46555461593459269 0.18128722400797501 0 -0.48464943840857888 0.15775282940309851 0 -0.47865635922375932 0.17909963177513319 0 -0.46990863904630059 0.1670362475492525 0 -0.45742932361540911 0.15889287394486271 0 -0.45393765338305497 0.17471700686903011 0 -0.46990863904630059 0.1670362475492525 0 -0.45742932361540911 0.15889287394486271 0 -0.46092099384776192 0.14306874102069511 0 -0.45742932361540911 0.15889287394486271 0 -0.46299522428203971 0.17233191268957501 0 -0.45393765338305497 0.17471700686903011 0 -0.46927870962167312 0.17493875400548389 0 -0.46990863904630059 0.1670362475492525 0 -0.46299522428203971 0.17233191268957501 0 -0.46990863904630059 0.1670362475492525 0 -0.45742932361540911 0.15889287394486271 0 -0.46299522428203971 0.17233191268957501 0 -0.46589335310649882 0.18744802338852329 0 -0.46555461593459269 0.18128722400797501 0 -0.45393765338305497 0.17471700686903011 0 -0.46589335310649882 0.18744802338852329 0 -0.46555461593459269 0.18128722400797501 0 -0.46927870962167312 0.17493875400548389 0 -0.46555461593459269 0.18128722400797501 0 -0.46299522428203971 0.17233191268957501 0 -0.46555461593459269 0.18128722400797501 0 -0.46299522428203971 0.17233191268957501 0 -0.45393765338305497 0.17471700686903011 0 -0.46589335310649882 0.18744802338852329 0 -0.45393765338305497 0.17471700686903011 0 -0.45393765338305497 0.17471700686903011 0 -0.44047241453070329 0.18324079402305421 0 -0.44820564853932793 0.20069426145875721 0 -0.45393765338305497 0.17471700686903011 0 -0.44047241453070329 0.18324079402305421 0 -0.44174290600336708 0.16173144065936321 0 -0.45742932361540911 0.15889287394486271 0 -0.44174290600336708 0.16173144065936321 0 -0.44616928685712581 0.1494742970518641 0 -0.45742932361540911 0.15889287394486271 0 -0.45393765338305497 0.17471700686903011 0 -0.44174290600336708 0.16173144065936321 0 -0.45393765338305497 0.17471700686903011 0 -0.44174290600336708 0.16173144065936321 0 -0.44174290600336708 0.16173144065936321 0 -0.44616928685712581 0.1494742970518641 0 -0.43187713239064979 0.1573343508491826 0 -0.44616928685712581 0.1494742970518641 0 -0.43700896048386301 0.14249666109927989 0 -0.43187713239064979 0.1573343508491826 0 -0.44616928685712581 0.1494742970518641 0 -0.44680021131503311 0.13433024919887079 0 -0.46092099384776192 0.14306874102069511 0 -0.44616928685712581 0.1494742970518641 0 -0.44680021131503311 0.13433024919887079 0 -0.43700896048386301 0.14249666109927989 0 -0.45289828098281221 0.1241297055338681 0 -0.44680021131503311 0.13433024919887079 0 -0.43267942878230348 0.12559175737704789 0 -0.44680021131503311 0.13433024919887079 0 -0.43267942878230348 0.12559175737704789 0 -0.43700896048386301 0.14249666109927989 0 -0.44680021131503311 0.13433024919887079 0 -0.43267942878230348 0.12559175737704789 0 -0.45289828098281221 0.1241297055338681 0 -0.44680021131503311 0.13433024919887079 0 -0.46092099384776192 0.14306874102069511 0 -0.46607010556719342 0.11973313861048911 0 -0.46092099384776192 0.14306874102069511 0 -0.45289828098281221 0.1241297055338681 0 -0.46607010556719342 0.11973313861048911 0 -0.46092099384776192 0.14306874102069511 0 -0.44680021131503311 0.13433024919887079 0 -0.46092099384776192 0.14306874102069511 0 -0.45742932361540911 0.15889287394486271 0 -0.46092099384776192 0.14306874102069511 0 -0.45742932361540911 0.15889287394486271 0 -0.44616928685712581 0.1494742970518641 0 -0.46092099384776192 0.14306874102069511 0 -0.46853242371352971 0.23544625301742969 0 -0.46993231893463527 0.26090691788180947 0 -0.48177750529808522 0.24619974485466931 0 -0.46853242371352971 0.23544625301742969 0 -0.46993231893463527 0.26090691788180947 0 -0.48177750529808522 0.24619974485466931 0 -0.48375626182904402 0.22755154475287301 0 -0.46853242371352971 0.23544625301742969 0 -0.48177750529808522 0.24619974485466931 0 -0.5 0.2461359573144368 0 -0.48375626182904402 0.22755154475287301 0 -0.5 0.2461359573144368 0 -0.48375626182904402 0.22755154475287301 0 -0.49999999999999978 0.22376645686122221 0 -0.48375626182904402 0.22755154475287301 0 -0.48639908896170481 0.20928353849475789 0 -0.5 0.2461359573144368 0 -0.49999999999999978 0.22376645686122221 0 -0.48375626182904402 0.22755154475287301 0 -0.47173343442327142 0.22048762952866541 0 -0.46713252849242448 0.20998558815304991 0 -0.46853242371352971 0.23544625301742969 0 -0.48375626182904402 0.22755154475287301 0 -0.47173343442327142 0.22048762952866541 0 -0.4670472636537164 0.20843482960316059 0 -0.48375626182904402 0.22755154475287301 0 -0.47173343442327142 0.22048762952866541 0 -0.46853242371352971 0.23544625301742969 0 -0.48375626182904402 0.22755154475287301 0 -0.4670472636537164 0.20843482960316059 0 -0.48639908896170481 0.20928353849475789 0 -0.47279817792341111 0.1948006201282925 0 -0.4670472636537164 0.20843482960316059 0 -0.48375626182904402 0.22755154475287301 0 -0.48639908896170481 0.20928353849475789 0 -0.4670472636537164 0.20843482960316059 0 -0.49999999999999978 0.22376645686122221 0 -0.48639908896170481 0.20928353849475789 0 -0.5 0.19695860752726069 0 -0.49999999999999978 0.22376645686122221 0 -0.48639908896170481 0.20928353849475789 0 -0.48639908896170481 0.20928353849475789 0 -0.5 0.19695860752726069 0 -0.48609908303004917 0.1916527734416324 0 -0.4898809761324775 0.17912292006808481 0 -0.5 0.19695860752726069 0 -0.48609908303004917 0.1916527734416324 0 -0.48639908896170481 0.20928353849475789 0 -0.48609908303004917 0.1916527734416324 0 -0.47279817792341111 0.1948006201282925 0 -0.47865635922375932 0.17909963177513319 0 -0.48609908303004917 0.1916527734416324 0 -0.47279817792341111 0.1948006201282925 0 -0.48639908896170481 0.20928353849475789 0 -0.47279817792341111 0.1948006201282925 0 -0.47279817792341111 0.1948006201282925 0 -0.4670472636537164 0.20843482960316059 0 -0.46589335310649882 0.18744802338852329 0 -0.47279817792341111 0.1948006201282925 0 -0.46589335310649882 0.18744802338852329 0 -0.4603250720810298 0.20074399020462361 0 -0.4670472636537164 0.20843482960316059 0 -0.46589335310649882 0.18744802338852329 0 -0.45393765338305497 0.17471700686903011 0 -0.44820564853932793 0.20069426145875721 0 -0.46589335310649882 0.18744802338852329 0 -0.4603250720810298 0.20074399020462361 0 -0.44820564853932793 0.20069426145875721 0 -0.46589335310649882 0.18744802338852329 0 -0.47279817792341111 0.1948006201282925 0 -0.4670472636537164 0.20843482960316059 0 -0.46589335310649882 0.18744802338852329 0 -0.4670472636537164 0.20843482960316059 0 -0.45393765338305497 0.17471700686903011 0 -0.44820564853932793 0.20069426145875721 0 -0.44820564853932793 0.20069426145875721 0 -0.45427794118362658 0.21265328965042851 0 -0.44247364369559788 0.22667151604848371 0 -0.44820564853932793 0.20069426145875721 0 -0.44247364369559788 0.22667151604848371 0 -0.44820564853932793 0.20069426145875721 0 -0.44247364369559788 0.22667151604848371 0 -0.42336320141575168 0.21609666274764849 0 -0.45880341375183131 0.2186303689721085 0 -0.45427794118362658 0.21265328965042851 0 -0.46188137931700068 0.21002659871962689 0 -0.45880341375183131 0.2186303689721085 0 -0.45427794118362658 0.21265328965042851 0 -0.4536201791639074 0.2236252940046442 0 -0.4603250720810298 0.20074399020462361 0 -0.45427794118362658 0.21265328965042851 0 -0.46188137931700068 0.21002659871962689 0 -0.4603250720810298 0.20074399020462361 0 -0.44820564853932793 0.20069426145875721 0 -0.45427794118362658 0.21265328965042851 0 -0.4603250720810298 0.20074399020462361 0 -0.46188137931700068 0.21002659871962689 0 -0.4670472636537164 0.20843482960316059 0 -0.4603250720810298 0.20074399020462361 0 -0.4670472636537164 0.20843482960316059 0 -0.46188137931700068 0.21002659871962689 0 -0.4670472636537164 0.20843482960316059 0 -0.46713252849242448 0.20998558815304991 0 -0.4670472636537164 0.20843482960316059 0 -0.46713252849242448 0.20998558815304991 0 -0.47173343442327142 0.22048762952866541 0 -0.4670472636537164 0.20843482960316059 0 -0.46713252849242448 0.20998558815304991 0 -0.45880341375183131 0.2186303689721085 0 -0.46188137931700068 0.21002659871962689 0 -0.46713252849242448 0.20998558815304991 0 -0.46713252849242448 0.20998558815304991 0 -0.45710504060219709 0.23686107433279269 0 -0.46713252849242448 0.20998558815304991 0 -0.45710504060219709 0.23686107433279269 0 -0.46853242371352971 0.23544625301742969 0 -0.45880341375183131 0.2186303689721085 0 -0.46713252849242448 0.20998558815304991 0 -0.45710504060219709 0.23686107433279269 0 -0.45880341375183131 0.2186303689721085 0 -0.4536201791639074 0.2236252940046442 0 -0.45710504060219709 0.23686107433279269 0 -0.46713252849242448 0.20998558815304991 0 -0.46853242371352971 0.23544625301742969 0 -0.45427794118362658 0.21265328965042851 0 -0.4536201791639074 0.2236252940046442 0 -0.44247364369559788 0.22667151604848371 0 -0.4536201791639074 0.2236252940046442 0 -0.44247364369559788 0.22667151604848371 0 -0.45710504060219709 0.23686107433279269 0 -0.44247364369559788 0.22667151604848371 0 -0.4367416388518679 0.25264877063821017 0 -0.44247364369559788 0.22667151604848371 0 -0.45710504060219709 0.23686107433279269 0 -0.4367416388518679 0.25264877063821017 0 -0.45710504060219709 0.23686107433279269 0 -0.46853242371352971 0.23544625301742969 0 -0.46993231893463527 0.26090691788180947 0 -0.41931835140954682 0.23739665832436521 0 -0.40367044579520373 0.24132688110038639 0 -0.41175872593851298 0.2549478601346914 0 -0.41931835140954682 0.23739665832436521 0 -0.40790513800462019 0.22799805468035339 0 -0.40367044579520373 0.24132688110038639 0 -0.41931835140954682 0.23739665832436521 0 -0.4367416388518679 0.25264877063821017 0 -0.41175872593851298 0.2549478601346914 0 -0.44247364369559788 0.22667151604848371 0 -0.41931835140954682 0.23739665832436521 0 -0.4367416388518679 0.25264877063821017 0 -0.44247364369559788 0.22667151604848371 0 -0.41931835140954682 0.23739665832436521 0 -0.42336320141575168 0.21609666274764849 0 -0.41931835140954682 0.23739665832436521 0 -0.40790513800462019 0.22799805468035339 0 -0.42336320141575168 0.21609666274764849 0 -0.40790513800462019 0.22799805468035339 0 -0.42336320141575168 0.21609666274764849 0 -0.40538393777915788 0.2123952851453417 0 -0.42336320141575168 0.21609666274764849 0 -0.42071240458675369 0.1920614743917832 0 -0.40538393777915788 0.2123952851453417 0 -0.44820564853932793 0.20069426145875721 0 -0.42336320141575168 0.21609666274764849 0 -0.42071240458675369 0.1920614743917832 0 -0.44047241453070329 0.18324079402305421 0 -0.44820564853932793 0.20069426145875721 0 -0.42071240458675369 0.1920614743917832 0 -0.42071240458675369 0.1920614743917832 0 -0.40538393777915788 0.2123952851453417 0 -0.42071240458675369 0.1920614743917832 0 -0.4022878927449296 0.1970928012265635 0 -0.40298680868332198 0.18508216307238631 0 -0.42071240458675369 0.1920614743917832 0 -0.4022878927449296 0.1970928012265635 0 -0.40538393777915788 0.2123952851453417 0 -0.4022878927449296 0.1970928012265635 0 -0.39286614404695941 0.1920732104686422 0 -0.40298680868332198 0.18508216307238631 0 -0.4022878927449296 0.1970928012265635 0 -0.39286614404695941 0.1920732104686422 0 -0.39380007669083689 0.206464460861051 0 -0.38422654444444693 0.2008322729754812 0 -0.38088029112643113 0.1825210369279657 0 -0.38422654444444693 0.2008322729754812 0 -0.38088029112643113 0.1825210369279657 0 -0.36802074197771562 0.19700904511440151 0 -0.38422654444444693 0.2008322729754812 0 -0.37368745339656201 0.20924711939208951 0 -0.36802074197771562 0.19700904511440151 0 -0.39286614404695941 0.1920732104686422 0 -0.38422654444444693 0.2008322729754812 0 -0.38088029112643113 0.1825210369279657 0 -0.39286614404695941 0.1920732104686422 0 -0.38422654444444693 0.2008322729754812 0 -0.39380007669083689 0.206464460861051 0 -0.38422654444444693 0.2008322729754812 0 -0.38757279776246373 0.21914350902299659 0 -0.38757279776246373 0.21914350902299659 0 -0.36800338097472479 0.22147713987588341 0 -0.37368745339656201 0.20924711939208951 0 -0.38422654444444693 0.2008322729754812 0 -0.39380007669083689 0.206464460861051 0 -0.38757279776246373 0.21914350902299659 0 -0.38422654444444693 0.2008322729754812 0 -0.38757279776246373 0.21914350902299659 0 -0.37368745339656201 0.20924711939208951 0 -0.39141353052387118 0.2186855059784025 0 -0.39380007669083689 0.206464460861051 0 -0.38757279776246373 0.21914350902299659 0 -0.39141353052387118 0.2186855059784025 0 -0.39380007669083689 0.206464460861051 0 -0.40538393777915788 0.2123952851453417 0 -0.4022878927449296 0.1970928012265635 0 -0.39380007669083689 0.206464460861051 0 -0.40538393777915788 0.2123952851453417 0 -0.40790513800462019 0.22799805468035339 0 -0.39005547097156312 0.23272909589890109 0 -0.40367044579520373 0.24132688110038639 0 -0.39141353052387118 0.2186855059784025 0 -0.40538393777915788 0.2123952851453417 0 -0.39005547097156312 0.23272909589890109 0 -0.40790513800462019 0.22799805468035339 0 -0.40538393777915788 0.2123952851453417 0 -0.39005547097156312 0.23272909589890109 0 -0.40538393777915788 0.2123952851453417 0 -0.39005547097156312 0.23272909589890109 0 -0.38757279776246373 0.21914350902299659 0 -0.39005547097156312 0.23272909589890109 0 -0.38757279776246373 0.21914350902299659 0 -0.36800338097472479 0.22147713987588341 0 -0.39141353052387118 0.2186855059784025 0 -0.38757279776246373 0.21914350902299659 0 -0.39005547097156312 0.23272909589890109 0 -0.38757279776246373 0.21914350902299659 0 -0.37939186114838758 0.22424627805714001 0 -0.36800338097472479 0.22147713987588341 0 -0.38757279776246373 0.21914350902299659 0 -0.37939186114838758 0.22424627805714001 0 -0.39005547097156312 0.23272909589890109 0 -0.39141353052387118 0.2186855059784025 0 -0.38757279776246373 0.21914350902299659 0 -0.37939186114838758 0.22424627805714001 0 -0.37477717689163992 0.25299635056682518 0 -0.39005547097156312 0.23272909589890109 0 -0.39384597734802013 0.25347135609337229 0 -0.37477717689163992 0.25299635056682518 0 -0.37939186114838758 0.22424627805714001 0 -0.39005547097156312 0.23272909589890109 0 -0.37477717689163992 0.25299635056682518 0 -0.39005547097156312 0.23272909589890109 0 -0.37477717689163992 0.25299635056682518 0 -0.40367044579520373 0.24132688110038639 0 -0.41175872593851298 0.2549478601346914 0 -0.39384597734802013 0.25347135609337229 0 -0.39005547097156312 0.23272909589890109 0 -0.39384597734802013 0.25347135609337229 0 -0.39005547097156312 0.23272909589890109 0 -0.40367044579520373 0.24132688110038639 0 -0.39384597734802013 0.25347135609337229 0 -0.41485942150404181 0.14153864215909739 0 -0.41553858058260518 0.15317901213210369 0 -0.42574561826610652 0.14613969243370301 0 -0.41553858058260518 0.15317901213210369 0 -0.42574561826610652 0.14613969243370301 0 -0.42127399236650492 0.15770626544657529 0 -0.41485942150404181 0.14153864215909739 0 -0.41553858058260518 0.15317901213210369 0 -0.4044664398419977 0.15594807455379561 0 -0.40864304721671202 0.1107171055473533 0 -0.41485942150404181 0.14153864215909739 0 -0.43267942878230348 0.12559175737704789 0 -0.41485942150404181 0.14153864215909739 0 -0.43267942878230348 0.12559175737704789 0 -0.42574561826610652 0.14613969243370301 0 -0.43267942878230348 0.12559175737704789 0 -0.43700896048386301 0.14249666109927989 0 -0.42574561826610652 0.14613969243370301 0 -0.41485942150404181 0.14153864215909739 0 -0.43267942878230348 0.12559175737704789 0 -0.42574561826610652 0.14613969243370301 0 -0.43187713239064979 0.1573343508491826 0 -0.42127399236650492 0.15770626544657529 0 -0.43700896048386301 0.14249666109927989 0 -0.42574561826610652 0.14613969243370301 0 -0.43187713239064979 0.1573343508491826 0 -0.43187713239064979 0.1573343508491826 0 -0.42946357341586749 0.17496324995209989 0 -0.4216380035134229 0.16659483191912641 0 -0.44174290600336708 0.16173144065936321 0 -0.43187713239064979 0.1573343508491826 0 -0.42946357341586749 0.17496324995209989 0 -0.43187713239064979 0.1573343508491826 0 -0.42127399236650492 0.15770626544657529 0 -0.4216380035134229 0.16659483191912641 0 -0.44047241453070329 0.18324079402305421 0 -0.44174290600336708 0.16173144065936321 0 -0.42946357341586749 0.17496324995209989 0 -0.44047241453070329 0.18324079402305421 0 -0.42071240458675369 0.1920614743917832 0 -0.42946357341586749 0.17496324995209989 0 -0.42071240458675369 0.1920614743917832 0 -0.42946357341586749 0.17496324995209989 0 -0.41235879422937732 0.17543682721938669 0 -0.42071240458675369 0.1920614743917832 0 -0.41235879422937732 0.17543682721938669 0 -0.40298680868332198 0.18508216307238631 0 -0.42946357341586749 0.17496324995209989 0 -0.41235879422937732 0.17543682721938669 0 -0.4216380035134229 0.16659483191912641 0 -0.41553858058260518 0.15317901213210369 0 -0.42127399236650492 0.15770626544657529 0 -0.41302135350813218 0.1630654313638546 0 -0.42127399236650492 0.15770626544657529 0 -0.4216380035134229 0.16659483191912641 0 -0.41302135350813218 0.1630654313638546 0 -0.41235879422937732 0.17543682721938669 0 -0.4216380035134229 0.16659483191912641 0 -0.41302135350813218 0.1630654313638546 0 -0.41235879422937732 0.17543682721938669 0 -0.41302135350813218 0.1630654313638546 0 -0.40449990094882532 0.16792382984329149 0 -0.41302135350813218 0.1630654313638546 0 -0.40449990094882532 0.16792382984329149 0 -0.4044664398419977 0.15594807455379561 0 -0.41553858058260518 0.15317901213210369 0 -0.41302135350813218 0.1630654313638546 0 -0.4044664398419977 0.15594807455379561 0 -0.3926733654842145 0.1692345557408807 0 -0.4044664398419977 0.15594807455379561 0 -0.40449990094882532 0.16792382984329149 0 -0.3926733654842145 0.1692345557408807 0 -0.40078474618547688 0.17571320347163299 0 -0.40449990094882532 0.16792382984329149 0 -0.3926733654842145 0.1692345557408807 0 -0.4044664398419977 0.15594807455379561 0 -0.3926733654842145 0.1692345557408807 0 -0.39703941422577987 0.15748552694114659 0 -0.4044664398419977 0.15594807455379561 0 -0.40298680868332198 0.18508216307238631 0 -0.40078474618547688 0.17571320347163299 0 -0.39301525059178999 0.18044652774840561 0 -0.41235879422937732 0.17543682721938669 0 -0.40298680868332198 0.18508216307238631 0 -0.40078474618547688 0.17571320347163299 0 -0.41235879422937732 0.17543682721938669 0 -0.40449990094882532 0.16792382984329149 0 -0.40078474618547688 0.17571320347163299 0 -0.3926733654842145 0.1692345557408807 0 -0.40078474618547688 0.17571320347163299 0 -0.39301525059178999 0.18044652774840561 0 -0.39286614404695941 0.1920732104686422 0 -0.40298680868332198 0.18508216307238631 0 -0.39301525059178999 0.18044652774840561 0 -0.39286614404695941 0.1920732104686422 0 -0.39301525059178999 0.18044652774840561 0 -0.38088029112643113 0.1825210369279657 0 -0.3926733654842145 0.1692345557408807 0 -0.38088029112643113 0.1825210369279657 0 -0.3926733654842145 0.1692345557408807 0 -0.39301525059178999 0.18044652774840561 0 -0.38088029112643113 0.1825210369279657 0 -0.3926733654842145 0.1692345557408807 0 -0.37921940694751782 0.17343241172319571 0 -0.38088029112643113 0.1825210369279657 0 -0.37921940694751782 0.17343241172319571 0 -0.38088029112643113 0.1825210369279657 0 -0.37921940694751782 0.17343241172319571 0 -0.38088029112643113 0.1825210369279657 0 -0.37283571032282492 0.1791450959532255 0 -0.3784015845151173 0.16895715591276281 0 -0.37283571032282492 0.1791450959532255 0 -0.37921940694751782 0.17343241172319571 0 -0.3784015845151173 0.16895715591276281 0 -0.37283571032282492 0.1791450959532255 0 -0.37921940694751782 0.17343241172319571 0 -0.37283571032282492 0.1791450959532255 0 -0.39703941422577987 0.15748552694114659 0 -0.37921940694751782 0.17343241172319571 0 -0.38193020105096481 0.16249827228531991 0 -0.3784015845151173 0.16895715591276281 0 -0.38193020105096481 0.16249827228531991 0 -0.37372345991800282 0.14335770613522919 0 -0.39703941422577987 0.15748552694114659 0 -0.37921940694751782 0.17343241172319571 0 -0.3926733654842145 0.1692345557408807 0 -0.39703941422577987 0.15748552694114659 0 -0.37921940694751782 0.17343241172319571 0 -0.39703941422577987 0.15748552694114659 0 -0.38193020105096481 0.16249827228531991 0 -0.38598126975628672 0.1494316781992327 0 -0.37921940694751782 0.17343241172319571 0 -0.3784015845151173 0.16895715591276281 0 -0.38193020105096481 0.16249827228531991 0 -0.3784015845151173 0.16895715591276281 0 -0.38193020105096481 0.16249827228531991 0 -0.37921940694751782 0.17343241172319571 0 -0.3784015845151173 0.16895715591276281 0 -0.38598126975628672 0.1494316781992327 0 -0.39401402549175851 0.1361747599337243 0 -0.37372345991800282 0.14335770613522919 0 -0.38193020105096481 0.16249827228531991 0 -0.38598126975628672 0.1494316781992327 0 -0.37372345991800282 0.14335770613522919 0 -0.3784015845151173 0.16895715591276281 0 -0.37372345991800282 0.14335770613522919 0 -0.39703941422577987 0.15748552694114659 0 -0.38598126975628672 0.1494316781992327 0 -0.39401402549175851 0.1361747599337243 0 -0.41485942150404181 0.14153864215909739 0 -0.39703941422577987 0.15748552694114659 0 -0.39401402549175851 0.1361747599337243 0 -0.41485942150404181 0.14153864215909739 0 -0.39703941422577987 0.15748552694114659 0 -0.4044664398419977 0.15594807455379561 0 -0.41485942150404181 0.14153864215909739 0 -0.39703941422577987 0.15748552694114659 0 -0.40864304721671202 0.1107171055473533 0 -0.41485942150404181 0.14153864215909739 0 -0.39401402549175851 0.1361747599337243 0 -0.38750957741872682 0.11885909540365321 0 -0.37372345991800282 0.14335770613522919 0 -0.36904533532088801 0.1177582563576956 0 -0.38750957741872682 0.11885909540365321 0 -0.39401402549175851 0.1361747599337243 0 -0.37372345991800282 0.14335770613522919 0 -0.35823941519022368 0.13573745574644491 0 -0.37372345991800282 0.14335770613522919 0 -0.36904533532088801 0.1177582563576956 0 -0.37372345991800282 0.14335770613522919 0 -0.36904533532088801 0.1177582563576956 0 -0.35823941519022368 0.13573745574644491 0 -0.34455851703438989 0.13305210298766909 0 -0.35158166360451942 0.11704707172714621 0 -0.35823941519022368 0.13573745574644491 0 -0.34455851703438989 0.13305210298766909 0 -0.34873147585397152 0.15030858297792049 0 -0.35823941519022368 0.13573745574644491 0 -0.34873147585397152 0.15030858297792049 0 -0.36179603940957061 0.15290101429300901 0 -0.34873147585397152 0.15030858297792049 0 -0.34720568730415252 0.1616956217090188 0 -0.33647431770126862 0.14798842126345041 0 -0.34873147585397152 0.15030858297792049 0 -0.36179603940957061 0.15290101429300901 0 -0.35552330674067661 0.16014073544654131 0 -0.35823941519022368 0.13573745574644491 0 -0.36179603940957061 0.15290101429300901 0 -0.37372345991800282 0.14335770613522919 0 -0.3784015845151173 0.16895715591276281 0 -0.36179603940957061 0.15290101429300901 0 -0.37372345991800282 0.14335770613522919 0 -0.3784015845151173 0.16895715591276281 0 -0.36179603940957061 0.15290101429300901 0 -0.3628088848288224 0.16705289795690309 0 -0.3784015845151173 0.16895715591276281 0 -0.3628088848288224 0.16705289795690309 0 -0.36959790597703868 0.17377317275203899 0 -0.36179603940957061 0.15290101429300901 0 -0.3628088848288224 0.16705289795690309 0 -0.35552330674067661 0.16014073544654131 0 -0.38088029112643113 0.1825210369279657 0 -0.37283571032282492 0.1791450959532255 0 -0.36802074197771562 0.19700904511440151 0 -0.37283571032282492 0.1791450959532255 0 -0.36399845157591232 0.19532107462703119 0 -0.37283571032282492 0.1791450959532255 0 -0.36261880381503758 0.18828806813974089 0 -0.3784015845151173 0.16895715591276281 0 -0.36959790597703868 0.17377317275203899 0 -0.37283571032282492 0.1791450959532255 0 -0.36959790597703868 0.17377317275203899 0 -0.37283571032282492 0.1791450959532255 0 -0.36409588864576692 0.17933358541092431 0 -0.3628088848288224 0.16705289795690309 0 -0.36959790597703868 0.17377317275203899 0 -0.36409588864576692 0.17933358541092431 0 -0.3628088848288224 0.16705289795690309 0 -0.36409588864576692 0.17933358541092431 0 -0.35614161380151321 0.17761165346375071 0 -0.36409588864576692 0.17933358541092431 0 -0.35797279878738592 0.18411861580098379 0 -0.35614161380151321 0.17761165346375071 0 -0.36409588864576692 0.17933358541092431 0 -0.35797279878738592 0.18411861580098379 0 -0.36261880381503758 0.18828806813974089 0 -0.37283571032282492 0.1791450959532255 0 -0.36409588864576692 0.17933358541092431 0 -0.36261880381503758 0.18828806813974089 0 -0.35797279878738592 0.18411861580098379 0 -0.35614161380151321 0.17761165346375071 0 -0.35065229879255438 0.18593262723135329 0 -0.35797279878738592 0.18411861580098379 0 -0.35065229879255438 0.18593262723135329 0 -0.35645772166264922 0.19211102842263869 0 -0.35614161380151321 0.17761165346375071 0 -0.34811061985946878 0.17434540014992381 0 -0.35436851446084039 0.1683048517912053 0 -0.35614161380151321 0.17761165346375071 0 -0.34811061985946878 0.17434540014992381 0 -0.35065229879255438 0.18593262723135329 0 -0.35065229879255438 0.18593262723135329 0 -0.34227569468909552 0.1811403169530669 0 -0.33993633525554889 0.19055096072852831 0 -0.34811061985946878 0.17434540014992381 0 -0.35065229879255438 0.18593262723135329 0 -0.34227569468909552 0.1811403169530669 0 -0.35552330674067661 0.16014073544654131 0 -0.35436851446084039 0.1683048517912053 0 -0.34720568730415252 0.1616956217090188 0 -0.3628088848288224 0.16705289795690309 0 -0.35614161380151321 0.17761165346375071 0 -0.35436851446084039 0.1683048517912053 0 -0.3628088848288224 0.16705289795690309 0 -0.35552330674067661 0.16014073544654131 0 -0.35436851446084039 0.1683048517912053 0 -0.34811061985946878 0.17434540014992381 0 -0.34720568730415252 0.1616956217090188 0 -0.33801991010865667 0.17138732975114751 0 -0.34811061985946878 0.17434540014992381 0 -0.35436851446084039 0.1683048517912053 0 -0.34720568730415252 0.1616956217090188 0 -0.34873147585397152 0.15030858297792049 0 -0.35552330674067661 0.16014073544654131 0 -0.34720568730415252 0.1616956217090188 0 -0.34720568730415252 0.1616956217090188 0 -0.33801991010865667 0.17138732975114751 0 -0.33092539158612982 0.1609515407851054 0 -0.34720568730415252 0.1616956217090188 0 -0.33092539158612982 0.1609515407851054 0 -0.33647431770126862 0.14798842126345041 0 -0.33801991010865667 0.17138732975114751 0 -0.33092539158612982 0.1609515407851054 0 -0.3265778886375873 0.17202186172735501 0 -0.34227569468909552 0.1811403169530669 0 -0.33183788287013261 0.1831818366374682 0 -0.33993633525554889 0.19055096072852831 0 -0.34811061985946878 0.17434540014992381 0 -0.33801991010865667 0.17138732975114751 0 -0.34227569468909552 0.1811403169530669 0 -0.33801991010865667 0.17138732975114751 0 -0.34227569468909552 0.1811403169530669 0 -0.33183788287013261 0.1831818366374682 0 -0.33801991010865667 0.17138732975114751 0 -0.33183788287013261 0.1831818366374682 0 -0.3265778886375873 0.17202186172735501 0 -0.3265778886375873 0.17202186172735501 0 -0.31632076704925127 0.18575639557221951 0 -0.3167678101826048 0.16359462978275929 0 -0.33183788287013261 0.1831818366374682 0 -0.3265778886375873 0.17202186172735501 0 -0.31632076704925127 0.18575639557221951 0 -0.33092539158612982 0.1609515407851054 0 -0.3167678101826048 0.16359462978275929 0 -0.32050673558250908 0.1490213804769015 0 -0.33092539158612982 0.1609515407851054 0 -0.3265778886375873 0.17202186172735501 0 -0.3167678101826048 0.16359462978275929 0 -0.32050673558250908 0.1490213804769015 0 -0.30739524272803709 0.15185112365938391 0 -0.31211500736378339 0.1240031522641292 0 -0.3167678101826048 0.16359462978275929 0 -0.32050673558250908 0.1490213804769015 0 -0.30739524272803709 0.15185112365938391 0 -0.32050673558250908 0.1490213804769015 0 -0.30739524272803709 0.15185112365938391 0 -0.32919359534549508 0.13424827028365749 0 -0.31211500736378339 0.1240031522641292 0 -0.33231339904552459 0.1171762944261375 0 -0.32050673558250908 0.1490213804769015 0 -0.32919359534549508 0.13424827028365749 0 -0.31211500736378339 0.1240031522641292 0 -0.34455851703438989 0.13305210298766909 0 -0.32919359534549508 0.13424827028365749 0 -0.33231339904552459 0.1171762944261375 0 -0.34455851703438989 0.13305210298766909 0 -0.32919359534549508 0.13424827028365749 0 -0.33647431770126862 0.14798842126345041 0 -0.32050673558250908 0.1490213804769015 0 -0.32919359534549508 0.13424827028365749 0 -0.33647431770126862 0.14798842126345041 0 -0.33092539158612982 0.1609515407851054 0 -0.32050673558250908 0.1490213804769015 0 -0.33647431770126862 0.14798842126345041 0 -0.34455851703438989 0.13305210298766909 0 -0.34873147585397152 0.15030858297792049 0 -0.33647431770126862 0.14798842126345041 0 -0.35416421148584648 0.23888623464626721 0 -0.34843396418698602 0.22381077072877051 0 -0.33845336435013867 0.242079554605789 0 -0.35416421148584648 0.23888623464626721 0 -0.33845336435013867 0.242079554605789 0 -0.35464358931248319 0.25491115920099722 0 -0.37939186114838758 0.22424627805714001 0 -0.37013679196984273 0.23750613219799629 0 -0.37477717689163992 0.25299635056682518 0 -0.37013679196984273 0.23750613219799629 0 -0.35464358931248319 0.25491115920099722 0 -0.37477717689163992 0.25299635056682518 0 -0.35416421148584648 0.23888623464626721 0 -0.37013679196984273 0.23750613219799629 0 -0.35464358931248319 0.25491115920099722 0 -0.35416421148584648 0.23888623464626721 0 -0.37013679196984273 0.23750613219799629 0 -0.36148561266771267 0.2305011068434443 0 -0.36148561266771267 0.2305011068434443 0 -0.36975441169016687 0.228432664243616 0 -0.36800338097472479 0.22147713987588341 0 -0.37013679196984273 0.23750613219799629 0 -0.36148561266771267 0.2305011068434443 0 -0.36975441169016687 0.228432664243616 0 -0.37939186114838758 0.22424627805714001 0 -0.37013679196984273 0.23750613219799629 0 -0.36975441169016687 0.228432664243616 0 -0.37939186114838758 0.22424627805714001 0 -0.36975441169016687 0.228432664243616 0 -0.36800338097472479 0.22147713987588341 0 -0.36800338097472479 0.22147713987588341 0 -0.34843396418698602 0.22381077072877051 0 -0.35516119282899983 0.21149705330083701 0 -0.36148561266771267 0.2305011068434443 0 -0.36800338097472479 0.22147713987588341 0 -0.34843396418698602 0.22381077072877051 0 -0.36800338097472479 0.22147713987588341 0 -0.34843396418698602 0.22381077072877051 0 -0.35416421148584648 0.23888623464626721 0 -0.36148561266771267 0.2305011068434443 0 -0.34843396418698602 0.22381077072877051 0 -0.34843396418698602 0.22381077072877051 0 -0.34802604401402371 0.21953575615482759 0 -0.33982416592956399 0.21665757569738961 0 -0.34802604401402371 0.21953575615482759 0 -0.34581283434165899 0.20861347152532789 0 -0.33982416592956399 0.21665757569738961 0 -0.34802604401402371 0.21953575615482759 0 -0.34581283434165899 0.20861347152532789 0 -0.35516119282899983 0.21149705330083701 0 -0.34843396418698602 0.22381077072877051 0 -0.34802604401402371 0.21953575615482759 0 -0.35516119282899983 0.21149705330083701 0 -0.34581283434165899 0.20861347152532789 0 -0.35516119282899983 0.21149705330083701 0 -0.35389383475621161 0.20092716755479181 0 -0.34802604401402371 0.21953575615482759 0 -0.35516119282899983 0.21149705330083701 0 -0.34843396418698602 0.22381077072877051 0 -0.35516119282899983 0.21149705330083701 0 -0.36800338097472479 0.22147713987588341 0 -0.35516119282899983 0.21149705330083701 0 -0.37368745339656201 0.20924711939208951 0 -0.35516119282899983 0.21149705330083701 0 -0.37368745339656201 0.20924711939208951 0 -0.36802074197771562 0.19700904511440151 0 -0.35516119282899983 0.21149705330083701 0 -0.36399845157591232 0.19532107462703119 0 -0.35516119282899983 0.21149705330083701 0 -0.36802074197771562 0.19700904511440151 0 -0.37283571032282492 0.1791450959532255 0 -0.36399845157591232 0.19532107462703119 0 -0.36261880381503758 0.18828806813974089 0 -0.37283571032282492 0.1791450959532255 0 -0.36399845157591232 0.19532107462703119 0 -0.36802074197771562 0.19700904511440151 0 -0.35516119282899983 0.21149705330083701 0 -0.36399845157591232 0.19532107462703119 0 -0.36802074197771562 0.19700904511440151 0 -0.38088029112643113 0.1825210369279657 0 -0.36802074197771562 0.19700904511440151 0 -0.36399845157591232 0.19532107462703119 0 -0.36261880381503758 0.18828806813974089 0 -0.35645772166264922 0.19211102842263869 0 -0.35797279878738592 0.18411861580098379 0 -0.36261880381503758 0.18828806813974089 0 -0.35645772166264922 0.19211102842263869 0 -0.35065229879255438 0.18593262723135329 0 -0.35645772166264922 0.19211102842263869 0 -0.34803897337183792 0.19709320989812409 0 -0.35516119282899983 0.21149705330083701 0 -0.36399845157591232 0.19532107462703119 0 -0.35389383475621161 0.20092716755479181 0 -0.35645772166264922 0.19211102842263869 0 -0.35389383475621161 0.20092716755479181 0 -0.34803897337183792 0.19709320989812409 0 -0.36399845157591232 0.19532107462703119 0 -0.35645772166264922 0.19211102842263869 0 -0.35389383475621161 0.20092716755479181 0 -0.34581283434165899 0.20861347152532789 0 -0.35389383475621161 0.20092716755479181 0 -0.34803897337183792 0.19709320989812409 0 -0.34581283434165899 0.20861347152532789 0 -0.34803897337183792 0.19709320989812409 0 -0.33933674095816863 0.19971543786353729 0 -0.35065229879255438 0.18593262723135329 0 -0.34803897337183792 0.19709320989812409 0 -0.33993633525554889 0.19055096072852831 0 -0.33993633525554889 0.19055096072852831 0 -0.33933674095816863 0.19971543786353729 0 -0.33069942903629101 0.19625725860753851 0 -0.34803897337183792 0.19709320989812409 0 -0.33993633525554889 0.19055096072852831 0 -0.33933674095816863 0.19971543786353729 0 -0.33933674095816863 0.19971543786353729 0 -0.33069942903629101 0.19625725860753851 0 -0.33422481296465362 0.2080963853910347 0 -0.33183788287013261 0.1831818366374682 0 -0.33993633525554889 0.19055096072852831 0 -0.33069942903629101 0.19625725860753851 0 -0.31632076704925127 0.18575639557221951 0 -0.33069942903629101 0.19625725860753851 0 -0.32036655352850157 0.2095523693350691 0 -0.33183788287013261 0.1831818366374682 0 -0.31632076704925127 0.18575639557221951 0 -0.33069942903629101 0.19625725860753851 0 -0.32036655352850157 0.2095523693350691 0 -0.32458589997660492 0.2266546254550818 0 -0.30779163400160159 0.21927945841494459 0 -0.32036655352850157 0.2095523693350691 0 -0.32934906837639222 0.21536895119528529 0 -0.32458589997660492 0.2266546254550818 0 -0.32036655352850157 0.2095523693350691 0 -0.32934906837639222 0.21536895119528529 0 -0.33422481296465362 0.2080963853910347 0 -0.32934906837639222 0.21536895119528529 0 -0.33422481296465362 0.2080963853910347 0 -0.33982416592956399 0.21665757569738961 0 -0.33069942903629101 0.19625725860753851 0 -0.32036655352850157 0.2095523693350691 0 -0.33422481296465362 0.2080963853910347 0 -0.34581283434165899 0.20861347152532789 0 -0.33933674095816863 0.19971543786353729 0 -0.33422481296465362 0.2080963853910347 0 -0.34581283434165899 0.20861347152532789 0 -0.33422481296465362 0.2080963853910347 0 -0.33982416592956399 0.21665757569738961 0 -0.34843396418698602 0.22381077072877051 0 -0.33982416592956399 0.21665757569738961 0 -0.32458589997660492 0.2266546254550818 0 -0.34843396418698602 0.22381077072877051 0 -0.32458589997660492 0.2266546254550818 0 -0.34843396418698602 0.22381077072877051 0 -0.32458589997660492 0.2266546254550818 0 -0.33845336435013867 0.242079554605789 0 -0.34843396418698602 0.22381077072877051 0 -0.33845336435013867 0.242079554605789 0 -0.32934906837639222 0.21536895119528529 0 -0.33982416592956399 0.21665757569738961 0 -0.32458589997660492 0.2266546254550818 0 -0.32458589997660492 0.2266546254550818 0 -0.30073783576622393 0.22949848018139329 0 -0.32458589997660492 0.2266546254550818 0 -0.32455092720978362 0.24357057421839101 0 -0.31122576982003303 0.23714335435801151 0 -0.32455092720978362 0.24357057421839101 0 -0.311575650220281 0.24878047680599949 0 -0.31122576982003303 0.23714335435801151 0 -0.32458589997660492 0.2266546254550818 0 -0.32455092720978362 0.24357057421839101 0 -0.33845336435013867 0.242079554605789 0 -0.32455092720978362 0.24357057421839101 0 -0.33845336435013867 0.242079554605789 0 -0.32847276451329022 0.26034833848280681 0 -0.29310990672191722 0.23613872254877591 0 -0.29467853592727078 0.23721261512919359 0 -0.28985028671148488 0.25537141990030859 0 -0.29310990672191722 0.23613872254877591 0 -0.27131573767068418 0.22826101281380451 0 -0.28058301219108422 0.24181621635705669 0 -0.29310990672191722 0.23613872254877591 0 -0.28985028671148488 0.25537141990030859 0 -0.29310990672191722 0.23613872254877591 0 -0.28058301219108422 0.24181621635705669 0 -0.28985028671148488 0.25537141990030859 0 -0.28058301219108422 0.24181621635705669 0 -0.28985028671148488 0.25537141990030859 0 -0.29310990672191722 0.23613872254877591 0 -0.29467853592727078 0.23721261512919359 0 -0.29467853592727078 0.23721261512919359 0 -0.31122576982003303 0.23714335435801151 0 -0.30073783576622393 0.22949848018139329 0 -0.29467853592727078 0.23721261512919359 0 -0.311575650220281 0.24878047680599949 0 -0.31122576982003303 0.23714335435801151 0 -0.29467853592727078 0.23721261512919359 0 -0.311575650220281 0.24878047680599949 0 -0.29467853592727078 0.23721261512919359 0 -0.311575650220281 0.24878047680599949 0 -0.29523766041035199 0.26325150879709891 0 -0.32458589997660492 0.2266546254550818 0 -0.30073783576622393 0.22949848018139329 0 -0.30779163400160159 0.21927945841494459 0 -0.32458589997660492 0.2266546254550818 0 -0.31122576982003303 0.23714335435801151 0 -0.30073783576622393 0.22949848018139329 0 -0.30073783576622393 0.22949848018139329 0 -0.30779163400160159 0.21927945841494459 0 -0.29448167989639912 0.22804486553003031 0 -0.29310990672191722 0.23613872254877591 0 -0.29448167989639912 0.22804486553003031 0 -0.27369133376421262 0.22284465576077489 0 -0.29448167989639912 0.22804486553003031 0 -0.2838712618875629 0.21479465795795599 0 -0.27369133376421262 0.22284465576077489 0 -0.29448167989639912 0.22804486553003031 0 -0.29413635243235581 0.21196267741475219 0 -0.29310990672191722 0.23613872254877591 0 -0.27369133376421262 0.22284465576077489 0 -0.29467853592727078 0.23721261512919359 0 -0.30073783576622393 0.22949848018139329 0 -0.29448167989639912 0.22804486553003031 0 -0.29310990672191722 0.23613872254877591 0 -0.29467853592727078 0.23721261512919359 0 -0.29448167989639912 0.22804486553003031 0 -0.29467853592727078 0.23721261512919359 0 -0.29448167989639912 0.22804486553003031 0 -0.29310990672191722 0.23613872254877591 0 -0.29448167989639912 0.22804486553003031 0 -0.29413635243235581 0.21196267741475219 0 -0.29878620084027852 0.20264695157314819 0 -0.29379102496831272 0.19588048929947419 0 -0.29448167989639912 0.22804486553003031 0 -0.29413635243235581 0.21196267741475219 0 -0.29878620084027852 0.20264695157314819 0 -0.29448167989639912 0.22804486553003031 0 -0.29878620084027852 0.20264695157314819 0 -0.29413635243235581 0.21196267741475219 0 -0.29379102496831272 0.19588048929947419 0 -0.28522308967114912 0.20452327137286261 0 -0.29413635243235581 0.21196267741475219 0 -0.29379102496831272 0.19588048929947419 0 -0.29448167989639912 0.22804486553003031 0 -0.2838712618875629 0.21479465795795599 0 -0.29413635243235581 0.21196267741475219 0 -0.2838712618875629 0.21479465795795599 0 -0.28522308967114912 0.20452327137286261 0 -0.29413635243235581 0.21196267741475219 0 -0.32036655352850157 0.2095523693350691 0 -0.30779163400160159 0.21927945841494459 0 -0.29878620084027852 0.20264695157314819 0 -0.30779163400160159 0.21927945841494459 0 -0.29448167989639912 0.22804486553003031 0 -0.29878620084027852 0.20264695157314819 0 -0.29878620084027852 0.20264695157314819 0 -0.29379102496831272 0.19588048929947419 0 -0.30309072178415769 0.17724903761626601 0 -0.31632076704925127 0.18575639557221951 0 -0.29878620084027852 0.20264695157314819 0 -0.30309072178415769 0.17724903761626601 0 -0.31632076704925127 0.18575639557221951 0 -0.32036655352850157 0.2095523693350691 0 -0.29878620084027852 0.20264695157314819 0 -0.29878620084027852 0.20264695157314819 0 -0.30309072178415769 0.17724903761626601 0 -0.28522308967114912 0.20452327137286261 0 -0.29379102496831272 0.19588048929947419 0 -0.28124953787461371 0.1935735916895788 0 -0.29379102496831272 0.19588048929947419 0 -0.28124953787461371 0.1935735916895788 0 -0.28752446549241689 0.1832489647230989 0 -0.28124953787461371 0.1935735916895788 0 -0.2659766044530758 0.19238405035351089 0 -0.27494974420821611 0.1793112011395637 0 -0.28522308967114912 0.20452327137286261 0 -0.28124953787461371 0.1935735916895788 0 -0.27431068871210279 0.20621206129374381 0 -0.28124953787461371 0.1935735916895788 0 -0.2659766044530758 0.19238405035351089 0 -0.27431068871210279 0.20621206129374381 0 -0.25427276080650663 0.20955058897277601 0 -0.24947341468037071 0.1874691479585941 0 -0.2659766044530758 0.19238405035351089 0 -0.25427276080650663 0.20955058897277601 0 -0.24947341468037071 0.1874691479585941 0 -0.2659766044530758 0.19238405035351089 0 -0.25427276080650663 0.20955058897277601 0 -0.27431068871210279 0.20621206129374381 0 -0.25427276080650663 0.20955058897277601 0 -0.27369133376421262 0.22284465576077489 0 -0.25427276080650663 0.20955058897277601 0 -0.25977281016601761 0.2185578892770178 0 -0.27369133376421262 0.22284465576077489 0 -0.25427276080650663 0.20955058897277601 0 -0.25561524088587501 0.21572724177218369 0 -0.25977281016601761 0.2185578892770178 0 -0.25427276080650663 0.20955058897277601 0 -0.25561524088587501 0.21572724177218369 0 -0.24333230173327219 0.21221501244476959 0 -0.25427276080650663 0.20955058897277601 0 -0.25561524088587501 0.21572724177218369 0 -0.25427276080650663 0.20955058897277601 0 -0.27431068871210279 0.20621206129374381 0 -0.27369133376421262 0.22284465576077489 0 -0.2838712618875629 0.21479465795795599 0 -0.27431068871210279 0.20621206129374381 0 -0.27369133376421262 0.22284465576077489 0 -0.2838712618875629 0.21479465795795599 0 -0.28522308967114912 0.20452327137286261 0 -0.27431068871210279 0.20621206129374381 0 -0.29310990672191722 0.23613872254877591 0 -0.27369133376421262 0.22284465576077489 0 -0.27131573767068418 0.22826101281380451 0 -0.27131573767068418 0.22826101281380451 0 -0.26439065681250729 0.2289784260688752 0 -0.26819560602517328 0.23507842756581021 0 -0.27131573767068418 0.22826101281380451 0 -0.26675876456119929 0.22568570462696191 0 -0.26439065681250729 0.2289784260688752 0 -0.27369133376421262 0.22284465576077489 0 -0.26675876456119929 0.22568570462696191 0 -0.26371349664181459 0.22286429712754721 0 -0.25977281016601761 0.2185578892770178 0 -0.27369133376421262 0.22284465576077489 0 -0.26371349664181459 0.22286429712754721 0 -0.27369133376421262 0.22284465576077489 0 -0.27131573767068418 0.22826101281380451 0 -0.26675876456119929 0.22568570462696191 0 -0.26675876456119929 0.22568570462696191 0 -0.26371349664181459 0.22286429712754721 0 -0.26068259791677789 0.22548013136380779 0 -0.26068259791677789 0.22548013136380779 0 -0.25678634991227811 0.22260498734460241 0 -0.2574101570832959 0.22971939663687391 0 -0.26371349664181459 0.22286429712754721 0 -0.26068259791677789 0.22548013136380779 0 -0.25678634991227811 0.22260498734460241 0 -0.25977281016601761 0.2185578892770178 0 -0.26371349664181459 0.22286429712754721 0 -0.25678634991227811 0.22260498734460241 0 -0.25561524088587501 0.21572724177218369 0 -0.25977281016601761 0.2185578892770178 0 -0.25678634991227811 0.22260498734460241 0 -0.25678634991227811 0.22260498734460241 0 -0.249817319625419 0.2274340479663062 0 -0.24904636230289101 0.22050689045355901 0 -0.25561524088587501 0.21572724177218369 0 -0.25678634991227811 0.22260498734460241 0 -0.24904636230289101 0.22050689045355901 0 -0.25109603964961891 0.234366577265785 0 -0.2574101570832959 0.22971939663687391 0 -0.249817319625419 0.2274340479663062 0 -0.25678634991227811 0.22260498734460241 0 -0.2574101570832959 0.22971939663687391 0 -0.249817319625419 0.2274340479663062 0 -0.2574101570832959 0.22971939663687391 0 -0.26439065681250729 0.2289784260688752 0 -0.26193406046231932 0.2344272911270443 0 -0.26068259791677789 0.22548013136380779 0 -0.2574101570832959 0.22971939663687391 0 -0.26439065681250729 0.2289784260688752 0 -0.26675876456119929 0.22568570462696191 0 -0.26068259791677789 0.22548013136380779 0 -0.26439065681250729 0.2289784260688752 0 -0.26439065681250729 0.2289784260688752 0 -0.26193406046231932 0.2344272911270443 0 -0.26819560602517328 0.23507842756581021 0 -0.26193406046231932 0.2344272911270443 0 -0.26614348890836192 0.24293385421211869 0 -0.26819560602517328 0.23507842756581021 0 -0.2574101570832959 0.22971939663687391 0 -0.26193406046231932 0.2344272911270443 0 -0.25699538715464082 0.23905233796863981 0 -0.26193406046231932 0.2344272911270443 0 -0.25699538715464082 0.23905233796863981 0 -0.26614348890836192 0.24293385421211869 0 -0.25109603964961891 0.234366577265785 0 -0.25699538715464082 0.23905233796863981 0 -0.2470081454867771 0.2422065880623451 0 -0.25109603964961891 0.234366577265785 0 -0.2574101570832959 0.22971939663687391 0 -0.25699538715464082 0.23905233796863981 0 -0.25699538715464082 0.23905233796863981 0 -0.25693865295534157 0.25278860643768353 0 -0.2470081454867771 0.2422065880623451 0 -0.25699538715464082 0.23905233796863981 0 -0.26614348890836192 0.24293385421211869 0 -0.25693865295534157 0.25278860643768353 0 -0.26614348890836192 0.24293385421211869 0 -0.2724296921133022 0.25217156250687062 0 -0.25693865295534157 0.25278860643768353 0 -0.26614348890836192 0.24293385421211869 0 -0.28058301219108422 0.24181621635705669 0 -0.2724296921133022 0.25217156250687062 0 -0.28058301219108422 0.24181621635705669 0 -0.28985028671148488 0.25537141990030859 0 -0.2724296921133022 0.25217156250687062 0 -0.26614348890836192 0.24293385421211869 0 -0.26819560602517328 0.23507842756581021 0 -0.28058301219108422 0.24181621635705669 0 -0.27131573767068418 0.22826101281380451 0 -0.26819560602517328 0.23507842756581021 0 -0.28058301219108422 0.24181621635705669 0 -0.27131573767068418 0.22826101281380451 0 -0.28058301219108422 0.24181621635705669 0 -0.29326612220823411 0.13512644163735801 0 -0.28648818467010168 0.15636331808772699 0 -0.27141175194646833 0.1445184244171912 0 -0.29326612220823411 0.13512644163735801 0 -0.30739524272803709 0.15185112365938391 0 -0.28648818467010168 0.15636331808772699 0 -0.30739524272803709 0.15185112365938391 0 -0.31211500736378339 0.1240031522641292 0 -0.29326612220823411 0.13512644163735801 0 -0.30739524272803709 0.15185112365938391 0 -0.31211500736378339 0.1240031522641292 0 -0.30739524272803709 0.15185112365938391 0 -0.28648818467010168 0.15636331808772699 0 -0.30739524272803709 0.15185112365938391 0 -0.30309072178415769 0.17724903761626601 0 -0.3167678101826048 0.16359462978275929 0 -0.30739524272803709 0.15185112365938391 0 -0.30309072178415769 0.17724903761626601 0 -0.30739524272803709 0.15185112365938391 0 -0.30309072178415769 0.17724903761626601 0 -0.28648818467010168 0.15636331808772699 0 -0.31632076704925127 0.18575639557221951 0 -0.3167678101826048 0.16359462978275929 0 -0.30309072178415769 0.17724903761626601 0 -0.30309072178415769 0.17724903761626601 0 -0.28752446549241689 0.1832489647230989 0 -0.28381669143151822 0.17107272026056419 0 -0.29379102496831272 0.19588048929947419 0 -0.30309072178415769 0.17724903761626601 0 -0.28752446549241689 0.1832489647230989 0 -0.28752446549241689 0.1832489647230989 0 -0.28381669143151822 0.17107272026056419 0 -0.27494974420821611 0.1793112011395637 0 -0.30309072178415769 0.17724903761626601 0 -0.28648818467010168 0.15636331808772699 0 -0.28381669143151822 0.17107272026056419 0 -0.28648818467010168 0.15636331808772699 0 -0.28381669143151822 0.17107272026056419 0 -0.26558112661216632 0.16087551251606999 0 -0.28381669143151822 0.17107272026056419 0 -0.27494974420821611 0.1793112011395637 0 -0.26558112661216632 0.16087551251606999 0 -0.28648818467010168 0.15636331808772699 0 -0.26558112661216632 0.16087551251606999 0 -0.27494974420821611 0.1793112011395637 0 -0.26084394980388648 0.17618123618614701 0 -0.26558112661216632 0.16087551251606999 0 -0.2659766044530758 0.19238405035351089 0 -0.27494974420821611 0.1793112011395637 0 -0.26084394980388648 0.17618123618614701 0 -0.28124953787461371 0.1935735916895788 0 -0.28752446549241689 0.1832489647230989 0 -0.27494974420821611 0.1793112011395637 0 -0.2659766044530758 0.19238405035351089 0 -0.26084394980388648 0.17618123618614701 0 -0.24947341468037071 0.1874691479585941 0 -0.26084394980388648 0.17618123618614701 0 -0.24467406855423091 0.1653877069444131 0 -0.24947341468037071 0.1874691479585941 0 -0.26558112661216632 0.16087551251606999 0 -0.24467406855423091 0.1653877069444131 0 -0.26558112661216632 0.16087551251606999 0 -0.2543915534089356 0.15018751405662761 0 -0.24467406855423091 0.1653877069444131 0 -0.26084394980388648 0.17618123618614701 0 -0.26558112661216632 0.16087551251606999 0 -0.24467406855423091 0.1653877069444131 0 -0.26558112661216632 0.16087551251606999 0 -0.2543915534089356 0.15018751405662761 0 -0.27141175194646833 0.1445184244171912 0 -0.2543915534089356 0.15018751405662761 0 -0.27141175194646833 0.1445184244171912 0 -0.25477231595188199 0.13792181725732239 0 -0.28648818467010168 0.15636331808772699 0 -0.26558112661216632 0.16087551251606999 0 -0.27141175194646833 0.1445184244171912 0 -0.29326612220823411 0.13512644163735801 0 -0.27141175194646833 0.1445184244171912 0 -0.27545980130109921 0.1239996051278405 0 -0.27141175194646833 0.1445184244171912 0 -0.25477231595188199 0.13792181725732239 0 -0.27545980130109921 0.1239996051278405 0 -0.25477231595188199 0.13792181725732239 0 -0.27545980130109921 0.1239996051278405 0 -0.25477231595188199 0.13792181725732239 0 -0.27545980130109921 0.1239996051278405 0 -0.2495823492922267 0.12121763785839371 0 -0.25610310449345419 0.1041046972302731 0 -0.27545980130109921 0.1239996051278405 0 -0.2495823492922267 0.12121763785839371 0 -0.25610310449345419 0.1041046972302731 0 -0.25413031243694739 0.089521027236778197 0 -0.2427234934652894 0.090762762990284518 0 -0.25610310449345419 0.1041046972302731 0 -0.26471001572300679 0.091779207982481292 0 -0.25413031243694739 0.089521027236778197 0 -0.25610310449345419 0.1041046972302731 0 -0.27632390472144541 0.10600366135062909 0 -0.26471001572300679 0.091779207982481292 0 -0.27632390472144541 0.10600366135062909 0 -0.27815219556391091 0.091433986845849968 0 -0.26471001572300679 0.091779207982481292 0 -0.27632390472144541 0.10600366135062909 0 -0.28783094919658059 0.096999283795453681 0 -0.27815219556391091 0.091433986845849968 0 -0.25610310449345419 0.1041046972302731 0 -0.27632390472144541 0.10600366135062909 0 -0.27545980130109921 0.1239996051278405 0 -0.27545980130109921 0.1239996051278405 0 -0.29614728665031642 0.1100773929983587 0 -0.29326612220823411 0.13512644163735801 0 -0.27545980130109921 0.1239996051278405 0 -0.29614728665031642 0.1100773929983587 0 -0.27632390472144541 0.10600366135062909 0 -0.27545980130109921 0.1239996051278405 0 -0.29614728665031642 0.1100773929983587 0 -0.27632390472144541 0.10600366135062909 0 -0.29614728665031642 0.1100773929983587 0 -0.28783094919658059 0.096999283795453681 0 -0.29614728665031642 0.1100773929983587 0 -0.28783094919658059 0.096999283795453681 0 -0.29903425758953422 0.090155638130954882 0 -0.29614728665031642 0.1100773929983587 0 -0.29903425758953422 0.090155638130954882 0 -0.31683477199953253 0.096155180868875256 0 -0.29614728665031642 0.1100773929983587 0 -0.31683477199953253 0.096155180868875256 0 -0.29614728665031642 0.1100773929983587 0 -0.31211500736378339 0.1240031522641292 0 -0.31683477199953253 0.096155180868875256 0 -0.29326612220823411 0.13512644163735801 0 -0.29614728665031642 0.1100773929983587 0 -0.31211500736378339 0.1240031522641292 0 -0.30635830999651792 0.07761242167179265 0 -0.30189037325813839 0.060543452134012458 0 -0.32146679815367007 0.068824891797761426 0 -0.30635830999651792 0.07761242167179265 0 -0.29256534898171721 0.072382945427359638 0 -0.30189037325813839 0.060543452134012458 0 -0.30635830999651792 0.07761242167179265 0 -0.29903425758953422 0.090155638130954882 0 -0.29256534898171721 0.072382945427359638 0 -0.30635830999651792 0.07761242167179265 0 -0.29903425758953422 0.090155638130954882 0 -0.31683477199953253 0.096155180868875256 0 -0.29903425758953422 0.090155638130954882 0 -0.28572263353681682 0.08337299634339973 0 -0.29256534898171721 0.072382945427359638 0 -0.28783094919658059 0.096999283795453681 0 -0.29903425758953422 0.090155638130954882 0 -0.28572263353681682 0.08337299634339973 0 -0.28783094919658059 0.096999283795453681 0 -0.28572263353681682 0.08337299634339973 0 -0.27815219556391091 0.091433986845849968 0 -0.28572263353681682 0.08337299634339973 0 -0.29256534898171721 0.072382945427359638 0 -0.28059357561043269 0.073644623599786935 0 -0.29256534898171721 0.072382945427359638 0 -0.29088471103165969 0.062671374321780771 0 -0.30189037325813839 0.060543452134012458 0 -0.29256534898171721 0.072382945427359638 0 -0.29088471103165969 0.062671374321780771 0 -0.28261649390190829 0.064291953838756216 0 -0.29256534898171721 0.072382945427359638 0 -0.28261649390190829 0.064291953838756216 0 -0.28059357561043269 0.073644623599786935 0 -0.28261649390190829 0.064291953838756216 0 -0.27678196032587499 0.069585006034529676 0 -0.27195195811963518 0.06635492754641531 0 -0.26855373331756138 0.063547936276670339 0 -0.27195195811963518 0.06635492754641531 0 -0.25743728825439521 0.07924270920583569 0 -0.28261649390190829 0.064291953838756216 0 -0.27678196032587499 0.069585006034529676 0 -0.28059357561043269 0.073644623599786935 0 -0.27678196032587499 0.069585006034529676 0 -0.27196581367152378 0.074048519153160283 0 -0.27195195811963518 0.06635492754641531 0 -0.27678196032587499 0.069585006034529676 0 -0.28059357561043269 0.073644623599786935 0 -0.27196581367152378 0.074048519153160283 0 -0.28059357561043269 0.073644623599786935 0 -0.27196581367152378 0.074048519153160283 0 -0.27303575277029413 0.081855029780232597 0 -0.27196581367152378 0.074048519153160283 0 -0.27195195811963518 0.06635492754641531 0 -0.25743728825439521 0.07924270920583569 0 -0.28572263353681682 0.08337299634339973 0 -0.27815219556391091 0.091433986845849968 0 -0.27303575277029413 0.081855029780232597 0 -0.28572263353681682 0.08337299634339973 0 -0.28059357561043269 0.073644623599786935 0 -0.27303575277029413 0.081855029780232597 0 -0.27196581367152378 0.074048519153160283 0 -0.27303575277029413 0.081855029780232597 0 -0.25743728825439521 0.07924270920583569 0 -0.27815219556391091 0.091433986845849968 0 -0.27303575277029413 0.081855029780232597 0 -0.26471001572300679 0.091779207982481292 0 -0.26471001572300679 0.091779207982481292 0 -0.25743728825439521 0.07924270920583569 0 -0.25413031243694739 0.089521027236778197 0 -0.27303575277029413 0.081855029780232597 0 -0.26471001572300679 0.091779207982481292 0 -0.25743728825439521 0.07924270920583569 0 -0.25743728825439521 0.07924270920583569 0 -0.25064083865024739 0.073628726666345984 0 -0.24857020570659841 0.081659589420377987 0 -0.25743728825439521 0.07924270920583569 0 -0.25413031243694739 0.089521027236778197 0 -0.24857020570659841 0.081659589420377987 0 -0.26855373331756138 0.063547936276670339 0 -0.25743728825439521 0.07924270920583569 0 -0.25064083865024739 0.073628726666345984 0 -0.26855373331756138 0.063547936276670339 0 -0.25064083865024739 0.073628726666345984 0 -0.2562734301216873 0.062061687155910393 0 -0.26855373331756138 0.063547936276670339 0 -0.25064083865024739 0.073628726666345984 0 -0.27195195811963518 0.06635492754641531 0 -0.25743728825439521 0.07924270920583569 0 -0.25064083865024739 0.073628726666345984 0 -0.2562734301216873 0.062061687155910393 0 -0.24829977196364941 0.065213336215906109 0 -0.2623477931936597 0.053657636987073307 0 -0.25116276906762952 0.054241108780248931 0 -0.26153642505613889 0.036367366133998442 0 -0.2562734301216873 0.062061687155910393 0 -0.2623477931936597 0.053657636987073307 0 -0.25116276906762952 0.054241108780248931 0 -0.2562734301216873 0.062061687155910393 0 -0.25116276906762952 0.054241108780248931 0 -0.24829977196364941 0.065213336215906109 0 -0.26855373331756138 0.063547936276670339 0 -0.2562734301216873 0.062061687155910393 0 -0.2623477931936597 0.053657636987073307 0 -0.25116276906762952 0.054241108780248931 0 -0.26153642505613889 0.036367366133998442 0 -0.239388393447095 0.04766651035075449 0 -0.2623477931936597 0.053657636987073307 0 -0.26153642505613889 0.036367366133998442 0 -0.27323710809808138 0.049716314049096537 0 -0.26153642505613889 0.036367366133998442 0 -0.28732673365434691 0.040933413293477772 0 -0.26153642505613889 0.036367366133998442 0 -0.2825074511423824 0.030310297232740709 0 -0.28732673365434691 0.040933413293477772 0 -0.26153642505613889 0.036367366133998442 0 -0.27323710809808138 0.049716314049096537 0 -0.28732673365434691 0.040933413293477772 0 -0.26855373331756138 0.063547936276670339 0 -0.27195195811963518 0.06635492754641531 0 -0.28646662798487532 0.053467145886994819 0 -0.26855373331756138 0.063547936276670339 0 -0.28646662798487532 0.053467145886994819 0 -0.26855373331756138 0.063547936276670339 0 -0.27323710809808138 0.049716314049096537 0 -0.28646662798487532 0.053467145886994819 0 -0.27195195811963518 0.06635492754641531 0 -0.28646662798487532 0.053467145886994819 0 -0.28261649390190829 0.064291953838756216 0 -0.27195195811963518 0.06635492754641531 0 -0.28646662798487532 0.053467145886994819 0 -0.26855373331756138 0.063547936276670339 0 -0.2623477931936597 0.053657636987073307 0 -0.27323710809808138 0.049716314049096537 0 -0.26176261374782622 0.0098260211376069873 0 -0.24854849079604721 0.020569936005881421 0 -0.24598119983726671 0.0037338506766126851 0 -0.26003022337954462 -0.0038093911555793728 0 -0.26176261374782622 0.0098260211376069873 0 -0.24598119983726671 0.0037338506766126851 0 -0.26003022337954462 -0.0038093911555793728 0 -0.27433688946420332 -0.0007833753365484626 0 -0.26176261374782622 0.0098260211376069873 0 -0.26153642505613889 0.036367366133998442 0 -0.26176261374782622 0.0098260211376069873 0 -0.24854849079604721 0.020569936005881421 0 -0.26153642505613889 0.036367366133998442 0 -0.26176261374782622 0.0098260211376069873 0 -0.27684491432135683 0.017453585025194441 0 -0.26153642505613889 0.036367366133998442 0 -0.27684491432135683 0.017453585025194441 0 -0.2825074511423824 0.030310297232740709 0 -0.27433688946420332 -0.0007833753365484626 0 -0.26176261374782622 0.0098260211376069873 0 -0.27684491432135683 0.017453585025194441 0 -0.27433688946420332 -0.0007833753365484626 0 -0.27684491432135683 0.017453585025194441 0 -0.28842838408131971 0.0076205693905790281 0 -0.28842838408131971 0.0076205693905790281 0 -0.29131927560690712 0.022062190579302341 0 -0.29989828236451899 0.011495108916467369 0 -0.27684491432135683 0.017453585025194441 0 -0.29131927560690712 0.022062190579302341 0 -0.2825074511423824 0.030310297232740709 0 -0.27684491432135683 0.017453585025194441 0 -0.28842838408131971 0.0076205693905790281 0 -0.29131927560690712 0.022062190579302341 0 -0.29131927560690712 0.022062190579302341 0 -0.2825074511423824 0.030310297232740709 0 -0.29550990707316249 0.034734931131730561 0 -0.29131927560690712 0.022062190579302341 0 -0.30587597075389272 0.02137954460474218 0 -0.29550990707316249 0.034734931131730561 0 -0.30587597075389272 0.02137954460474218 0 -0.29550990707316249 0.034734931131730561 0 -0.30859873922341308 0.03381572977126493 0 -0.29131927560690712 0.022062190579302341 0 -0.30587597075389272 0.02137954460474218 0 -0.29989828236451899 0.011495108916467369 0 -0.3025805037907468 -0.0027432771802810229 0 -0.3204068892458079 -0.0014125807301150939 0 -0.31128727758972891 0.0091565171879943417 0 -0.30587597075389272 0.02137954460474218 0 -0.29989828236451899 0.011495108916467369 0 -0.31128727758972891 0.0091565171879943417 0 -0.3025805037907468 -0.0027432771802810229 0 -0.29989828236451899 0.011495108916467369 0 -0.31128727758972891 0.0091565171879943417 0 -0.3025805037907468 -0.0027432771802810229 0 -0.28842838408131971 0.0076205693905790281 0 -0.29989828236451899 0.011495108916467369 0 -0.28646662798487532 0.053467145886994819 0 -0.304010183261538 0.043594207608826187 0 -0.29088471103165969 0.062671374321780771 0 -0.28646662798487532 0.053467145886994819 0 -0.30189037325813839 0.060543452134012458 0 -0.29088471103165969 0.062671374321780771 0 -0.28261649390190829 0.064291953838756216 0 -0.28646662798487532 0.053467145886994819 0 -0.27323710809808138 0.049716314049096537 0 -0.28646662798487532 0.053467145886994819 0 -0.28732673365434691 0.040933413293477772 0 -0.28646662798487532 0.053467145886994819 0 -0.29550990707316249 0.034734931131730561 0 -0.30859873922341308 0.03381572977126493 0 -0.28646662798487532 0.053467145886994819 0 -0.28732673365434691 0.040933413293477772 0 -0.29550990707316249 0.034734931131730561 0 -0.2825074511423824 0.030310297232740709 0 -0.28732673365434691 0.040933413293477772 0 -0.29550990707316249 0.034734931131730561 0 -0.28646662798487532 0.053467145886994819 0 -0.30859873922341308 0.03381572977126493 0 -0.28646662798487532 0.053467145886994819 0 -0.304010183261538 0.043594207608826187 0 -0.30859873922341308 0.03381572977126493 0 -0.304010183261538 0.043594207608826187 0 -0.30859873922341308 0.03381572977126493 0 -0.32155373853820057 0.033721269330657687 0 -0.304010183261538 0.043594207608826187 0 -0.3137915997446068 0.051476736654279882 0 -0.31549181974187701 0.042926529004151233 0 -0.28646662798487532 0.053467145886994819 0 -0.304010183261538 0.043594207608826187 0 -0.30189037325813839 0.060543452134012458 0 -0.30189037325813839 0.060543452134012458 0 -0.3137915997446068 0.051476736654279882 0 -0.32146679815367007 0.068824891797761426 0 -0.304010183261538 0.043594207608826187 0 -0.30189037325813839 0.060543452134012458 0 -0.3137915997446068 0.051476736654279882 0 -0.3137915997446068 0.051476736654279882 0 -0.32609882430781029 0.041494602726648067 0 -0.32146679815367007 0.068824891797761426 0 -0.32609882430781029 0.041494602726648067 0 -0.32146679815367007 0.068824891797761426 0 -0.3137915997446068 0.051476736654279882 0 -0.31549181974187701 0.042926529004151233 0 -0.32609882430781029 0.041494602726648067 0 -0.304010183261538 0.043594207608826187 0 -0.31549181974187701 0.042926529004151233 0 -0.32155373853820057 0.033721269330657687 0 -0.304010183261538 0.043594207608826187 0 -0.32155373853820057 0.033721269330657687 0 -0.31549181974187701 0.042926529004151233 0 -0.32155373853820057 0.033721269330657687 0 -0.32609882430781029 0.041494602726648067 0 -0.32609882430781029 0.041494602726648067 0 -0.34385517732675519 0.031131612817745031 0 -0.35163198926140088 0.046228739452983239 0 -0.32609882430781029 0.041494602726648067 0 -0.338272543408071 0.060603673933957783 0 -0.32146679815367007 0.068824891797761426 0 -0.32609882430781029 0.041494602726648067 0 -0.338272543408071 0.060603673933957783 0 -0.35163198926140088 0.046228739452983239 0 -0.3204068892458079 -0.0014125807301150939 0 -0.31128727758972891 0.0091565171879943417 0 -0.33073085046195078 0.01416431365553468 0 -0.30587597075389272 0.02137954460474218 0 -0.31128727758972891 0.0091565171879943417 0 -0.33073085046195078 0.01416431365553468 0 -0.30859873922341308 0.03381572977126493 0 -0.33073085046195078 0.01416431365553468 0 -0.30587597075389272 0.02137954460474218 0 -0.30859873922341308 0.03381572977126493 0 -0.33073085046195078 0.01416431365553468 0 -0.32155373853820057 0.033721269330657687 0 -0.32609882430781029 0.041494602726648067 0 -0.33073085046195078 0.01416431365553468 0 -0.30859873922341308 0.03381572977126493 0 -0.32155373853820057 0.033721269330657687 0 -0.33073085046195078 0.01416431365553468 0 -0.32609882430781029 0.041494602726648067 0 -0.33073085046195078 0.01416431365553468 0 -0.33073085046195078 0.01416431365553468 0 -0.34385517732675519 0.031131612817745031 0 -0.35381837275022032 0.01853105722209741 0 -0.32609882430781029 0.041494602726648067 0 -0.33073085046195078 0.01416431365553468 0 -0.34385517732675519 0.031131612817745031 0 -0.33540629353460438 -0.01342214774580049 0 -0.33073085046195078 0.01416431365553468 0 -0.35221409618436439 -0.0049109655465913588 0 -0.33073085046195078 0.01416431365553468 0 -0.35221409618436439 -0.0049109655465913588 0 -0.34857824671955512 -0.007874197240844389 0 -0.33073085046195078 0.01416431365553468 0 -0.35221409618436439 -0.0049109655465913588 0 -0.33073085046195078 0.01416431365553468 0 -0.34939877662876639 0.0070576099193848619 0 -0.33073085046195078 0.01416431365553468 0 -0.34939877662876639 0.0070576099193848619 0 -0.35381837275022032 0.01853105722209741 0 -0.35900139338342918 0.0020097317905480609 0 -0.34939877662876639 0.0070576099193848619 0 -0.35834074471334648 0.0096788928264882005 0 -0.35509488683577939 -0.0004162838960613095 0 -0.35900139338342918 0.0020097317905480609 0 -0.34939877662876639 0.0070576099193848619 0 -0.35509488683577939 -0.0004162838960613095 0 -0.35221409618436439 -0.0049109655465913588 0 -0.34939877662876639 0.0070576099193848619 0 -0.34939877662876639 0.0070576099193848619 0 -0.35834074471334648 0.0096788928264882005 0 -0.35381837275022032 0.01853105722209741 0 -0.34385517732675519 0.031131612817745031 0 -0.35381837275022032 0.01853105722209741 0 -0.36551724687399623 0.028318485711261141 0 -0.37937813184432773 0.031366277704107569 0 -0.36551724687399623 0.028318485711261141 0 -0.37479293228070759 0.022502646493578662 0 -0.36551724687399623 0.028318485711261141 0 -0.37479293228070759 0.022502646493578662 0 -0.36730783543836809 0.01519693074799966 0 -0.3778438638662554 0.014761087644765769 0 -0.37479293228070759 0.022502646493578662 0 -0.36730783543836809 0.01519693074799966 0 -0.35381837275022032 0.01853105722209741 0 -0.36551724687399623 0.028318485711261141 0 -0.36730783543836809 0.01519693074799966 0 -0.35834074471334648 0.0096788928264882005 0 -0.36730783543836809 0.01519693074799966 0 -0.36603012090457948 0.0050917054244422654 0 -0.35834074471334648 0.0096788928264882005 0 -0.35381837275022032 0.01853105722209741 0 -0.36730783543836809 0.01519693074799966 0 -0.36730783543836809 0.01519693074799966 0 -0.37464316483836829 0.0066416053135349984 0 -0.36603012090457948 0.0050917054244422654 0 -0.3778438638662554 0.014761087644765769 0 -0.36730783543836809 0.01519693074799966 0 -0.37464316483836829 0.0066416053135349984 0 -0.37126952376897032 -0.00085078512189483576 0 -0.37774077980655368 -0.001289555558904682 0 -0.37464316483836829 0.0066416053135349984 0 -0.37126952376897032 -0.00085078512189483576 0 -0.37464316483836829 0.0066416053135349984 0 -0.36603012090457948 0.0050917054244422654 0 -0.37126952376897032 -0.00085078512189483576 0 -0.36494834593608783 -0.001298186014321303 0 -0.36603012090457948 0.0050917054244422654 0 -0.36494834593608783 -0.001298186014321303 0 -0.35900139338342918 0.0020097317905480609 0 -0.36603012090457948 0.0050917054244422654 0 -0.35900139338342918 0.0020097317905480609 0 -0.35834074471334648 0.0096788928264882005 0 -0.36603012090457948 0.0050917054244422654 0 -0.35163198926140088 0.046228739452983239 0 -0.36891219827968119 0.060077996683558232 0 -0.35298131256760962 0.063034912088641357 0 -0.338272543408071 0.060603673933957783 0 -0.35163198926140088 0.046228739452983239 0 -0.35298131256760962 0.063034912088641357 0 -0.34385517732675519 0.031131612817745031 0 -0.36551724687399623 0.028318485711261141 0 -0.35163198926140088 0.046228739452983239 0 -0.36551724687399623 0.028318485711261141 0 -0.35163198926140088 0.046228739452983239 0 -0.37261014177358448 0.043145835856899219 0 -0.37937813184432773 0.031366277704107569 0 -0.36551724687399623 0.028318485711261141 0 -0.37261014177358448 0.043145835856899219 0 -0.35163198926140088 0.046228739452983239 0 -0.37261014177358448 0.043145835856899219 0 -0.36891219827968119 0.060077996683558232 0 -0.38207463336695202 0.051047668856640811 0 -0.37261014177358448 0.043145835856899219 0 -0.36891219827968119 0.060077996683558232 0 -0.37929074908003868 0.077603726490867345 0 -0.35694138538550352 0.073855345321458488 0 -0.37929074908003868 0.077603726490867345 0 -0.36891219827968119 0.060077996683558232 0 -0.35694138538550352 0.073855345321458488 0 -0.36891219827968119 0.060077996683558232 0 -0.35298131256760962 0.063034912088641357 0 -0.35694138538550352 0.073855345321458488 0 -0.35298131256760962 0.063034912088641357 0 -0.35694138538550352 0.073855345321458488 0 -0.34914844650339177 0.074408805051249083 0 -0.35694138538550352 0.073855345321458488 0 -0.34914844650339177 0.074408805051249083 0 -0.35387282561504041 0.085789381247760657 0 -0.338272543408071 0.060603673933957783 0 -0.35298131256760962 0.063034912088641357 0 -0.34914844650339177 0.074408805051249083 0 -0.34914844650339177 0.074408805051249083 0 -0.35387282561504041 0.085789381247760657 0 -0.33299160925146271 0.085281992960062933 0 -0.35694138538550352 0.073855345321458488 0 -0.35387282561504041 0.085789381247760657 0 -0.36438159895332511 0.085691586513687634 0 -0.35387282561504041 0.085789381247760657 0 -0.36438159895332511 0.085691586513687634 0 -0.35579278546844412 0.098564625017930646 0 -0.37929074908003868 0.077603726490867345 0 -0.35694138538550352 0.073855345321458488 0 -0.36438159895332511 0.085691586513687634 0 -0.37929074908003868 0.077603726490867345 0 -0.36438159895332511 0.085691586513687634 0 -0.37090825683648998 0.098456277756480637 0 -0.37090825683648998 0.098456277756480637 0 -0.36904533532088801 0.1177582563576956 0 -0.35579278546844412 0.098564625017930646 0 -0.36438159895332511 0.085691586513687634 0 -0.37090825683648998 0.098456277756480637 0 -0.35579278546844412 0.098564625017930646 0 -0.35823941519022368 0.13573745574644491 0 -0.36904533532088801 0.1177582563576956 0 -0.35158166360451942 0.11704707172714621 0 -0.36904533532088801 0.1177582563576956 0 -0.35158166360451942 0.11704707172714621 0 -0.35579278546844412 0.098564625017930646 0 -0.35158166360451942 0.11704707172714621 0 -0.35579278546844412 0.098564625017930646 0 -0.34047962299512569 0.099373871294989508 0 -0.35387282561504041 0.085789381247760657 0 -0.35579278546844412 0.098564625017930646 0 -0.34047962299512569 0.099373871294989508 0 -0.34047962299512569 0.099373871294989508 0 -0.33231339904552459 0.1171762944261375 0 -0.31683477199953253 0.096155180868875256 0 -0.34455851703438989 0.13305210298766909 0 -0.35158166360451942 0.11704707172714621 0 -0.33231339904552459 0.1171762944261375 0 -0.35158166360451942 0.11704707172714621 0 -0.34047962299512569 0.099373871294989508 0 -0.33231339904552459 0.1171762944261375 0 -0.31211500736378339 0.1240031522641292 0 -0.31683477199953253 0.096155180868875256 0 -0.31211500736378339 0.1240031522641292 0 -0.33231339904552459 0.1171762944261375 0 -0.31683477199953253 0.096155180868875256 0 -0.30635830999651792 0.07761242167179265 0 -0.31683477199953253 0.096155180868875256 0 -0.32146679815367007 0.068824891797761426 0 -0.31683477199953253 0.096155180868875256 0 -0.32146679815367007 0.068824891797761426 0 -0.33299160925146271 0.085281992960062933 0 -0.31683477199953253 0.096155180868875256 0 -0.32146679815367007 0.068824891797761426 0 -0.31683477199953253 0.096155180868875256 0 -0.33299160925146271 0.085281992960062933 0 -0.338272543408071 0.060603673933957783 0 -0.32146679815367007 0.068824891797761426 0 -0.33576809196089219 0.072507027900731907 0 -0.32146679815367007 0.068824891797761426 0 -0.33576809196089219 0.072507027900731907 0 -0.33299160925146271 0.085281992960062933 0 -0.34914844650339177 0.074408805051249083 0 -0.33576809196089219 0.072507027900731907 0 -0.33299160925146271 0.085281992960062933 0 -0.338272543408071 0.060603673933957783 0 -0.34914844650339177 0.074408805051249083 0 -0.33576809196089219 0.072507027900731907 0 -0.35387282561504041 0.085789381247760657 0 -0.34047962299512569 0.099373871294989508 0 -0.33299160925146271 0.085281992960062933 0 -0.34914844650339177 0.074408805051249083 0 -0.33299160925146271 0.085281992960062933 0 -0.34047962299512569 0.099373871294989508 0 -0.31683477199953253 0.096155180868875256 0 -0.33299160925146271 0.085281992960062933 0 -0.3938434845513461 0.48000301234504228 0 -0.4154786193197833 0.47000451851756458 0 -0.40908183102320411 0.4845696213484928 0 -0.3938434845513461 0.48000301234504228 0 -0.40110135887996978 0.47332954189399812 0 -0.4154786193197833 0.47000451851756458 0 -0.3938434845513461 0.48000301234504228 0 -0.4154786193197833 0.47000451851756458 0 -0.3938434845513461 0.48000301234504228 0 -0.40110135887996978 0.47332954189399812 0 -0.38930270813857232 0.46778113184491188 0 -0.3938434845513461 0.48000301234504228 0 -0.39546946259238258 0.49128185561313598 0 -0.40908183102320411 0.4845696213484928 0 -0.40521342881326272 0.5 0 -0.39546946259238258 0.49128185561313598 0 -0.37789332191386737 0.5 0 -0.40521342881326272 0.5 0 -0.39546946259238258 0.49128185561313598 0 -0.40908183102320411 0.4845696213484928 0 -0.3938434845513461 0.48000301234504228 0 -0.39546946259238258 0.49128185561313598 0 -0.38517353549973538 0.49039659604947999 0 -0.3938434845513461 0.48000301234504228 0 -0.37220834978290879 0.49000150617251997 0 -0.39546946259238258 0.49128185561313598 0 -0.38517353549973538 0.49039659604947999 0 -0.37789332191386737 0.5 0 -0.3938434845513461 0.48000301234504228 0 -0.38517353549973538 0.49039659604947999 0 -0.37220834978290879 0.49000150617251997 0 -0.38517353549973538 0.49039659604947999 0 -0.37789332191386737 0.5 0 -0.37220834978290879 0.49000150617251997 0 -0.3938434845513461 0.48000301234504228 0 -0.37805640255927542 0.47903421333972468 0 -0.3842367001720054 0.47454362448235632 0 -0.3938434845513461 0.48000301234504228 0 -0.37805640255927542 0.47903421333972468 0 -0.37220834978290879 0.49000150617251997 0 -0.3842367001720054 0.47454362448235632 0 -0.37701653082709469 0.46900635458093531 0 -0.38930270813857232 0.46778113184491188 0 -0.3938434845513461 0.48000301234504228 0 -0.3842367001720054 0.47454362448235632 0 -0.38930270813857232 0.46778113184491188 0 -0.37805640255927542 0.47903421333972468 0 -0.3842367001720054 0.47454362448235632 0 -0.37701653082709469 0.46900635458093531 0 -0.37701653082709469 0.46900635458093531 0 -0.38677844954541418 0.45747132953460651 0 -0.37376195539900242 0.45249759326054367 0 -0.37701653082709469 0.46900635458093531 0 -0.38677844954541418 0.45747132953460651 0 -0.38930270813857232 0.46778113184491188 0 -0.38473584783684761 0.44354080077547992 0 -0.36778315087773072 0.43214877602771662 0 -0.37376195539900242 0.45249759326054367 0 -0.38677844954541418 0.45747132953460651 0 -0.38473584783684761 0.44354080077547992 0 -0.37376195539900242 0.45249759326054367 0 -0.38677844954541418 0.45747132953460651 0 -0.38473584783684761 0.44354080077547992 0 -0.39843898125590987 0.45231631840454728 0 -0.39843898125590987 0.45231631840454728 0 -0.4072920944712265 0.44499890251068641 0 -0.39856520721893041 0.43647578570475237 0 -0.38473584783684761 0.44354080077547992 0 -0.39843898125590987 0.45231631840454728 0 -0.39856520721893041 0.43647578570475237 0 -0.39843898125590987 0.45231631840454728 0 -0.39841490533913748 0.46178879282826651 0 -0.41709791082295028 0.45456801136960878 0 -0.40110135887996978 0.47332954189399812 0 -0.39841490533913748 0.46178879282826651 0 -0.41709791082295028 0.45456801136960878 0 -0.38677844954541418 0.45747132953460651 0 -0.38930270813857232 0.46778113184491188 0 -0.39841490533913748 0.46178879282826651 0 -0.40110135887996978 0.47332954189399812 0 -0.38930270813857232 0.46778113184491188 0 -0.39841490533913748 0.46178879282826651 0 -0.38677844954541418 0.45747132953460651 0 -0.39843898125590987 0.45231631840454728 0 -0.39841490533913748 0.46178879282826651 0 -0.40110135887996978 0.47332954189399812 0 -0.41709791082295028 0.45456801136960878 0 -0.4154786193197833 0.47000451851756458 0 -0.40110135887996978 0.47332954189399812 0 -0.41709791082295028 0.45456801136960878 0 -0.41709791082295028 0.45456801136960878 0 -0.42692569345801529 0.46340213249295897 0 -0.4154786193197833 0.47000451851756458 0 -0.41709791082295028 0.45456801136960878 0 -0.43309446276593089 0.43580648084521972 0 -0.41506627858711548 0.4366354945638371 0 -0.39843898125590987 0.45231631840454728 0 -0.41709791082295028 0.45456801136960878 0 -0.4072920944712265 0.44499890251068641 0 -0.4072920944712265 0.44499890251068641 0 -0.41506627858711548 0.4366354945638371 0 -0.39856520721893041 0.43647578570475237 0 -0.41709791082295028 0.45456801136960878 0 -0.4072920944712265 0.44499890251068641 0 -0.41506627858711548 0.4366354945638371 0 -0.41709791082295028 0.45456801136960878 0 -0.43251943231727258 0.45189802077753072 0 -0.43309446276593089 0.43580648084521972 0 -0.41709791082295028 0.45456801136960878 0 -0.43309446276593089 0.43580648084521972 0 -0.43251943231727258 0.45189802077753072 0 -0.44285055445462801 0.44408738363144917 0 -0.43309446276593089 0.43580648084521972 0 -0.43251943231727258 0.45189802077753072 0 -0.42692569345801529 0.46340213249295897 0 -0.44262854008483871 0.46162609554841733 0 -0.42692569345801529 0.46340213249295897 0 -0.43014133963940671 0.47900644757454591 0 -0.44262854008483871 0.46162609554841733 0 -0.41709791082295028 0.45456801136960878 0 -0.43251943231727258 0.45189802077753072 0 -0.42692569345801529 0.46340213249295897 0 -0.42692569345801529 0.46340213249295897 0 -0.43014133963940671 0.47900644757454591 0 -0.4154786193197833 0.47000451851756458 0 -0.43014133963940671 0.47900644757454591 0 -0.4154786193197833 0.47000451851756458 0 -0.40908183102320411 0.4845696213484928 0 -0.40521342881326272 0.5 0 -0.40908183102320411 0.4845696213484928 0 -0.43253353571265801 0.5 0 -0.43014133963940671 0.47900644757454591 0 -0.40908183102320411 0.4845696213484928 0 -0.43253353571265801 0.5 0 -0.43014133963940671 0.47900644757454591 0 -0.43253353571265801 0.5 0 -0.44984012809851409 0.48033494727474779 0 -0.43253353571265801 0.5 0 -0.44984012809851409 0.48033494727474779 0 -0.45985364261205308 0.50000000000000111 0 -0.43014133963940671 0.47900644757454591 0 -0.44984012809851409 0.48033494727474779 0 -0.44262854008483871 0.46162609554841733 0 -0.44984012809851409 0.48033494727474779 0 -0.47312811744354261 0.47395110078869013 0 -0.45820768181792781 0.46325373185340701 0 -0.45985364261205308 0.50000000000000111 0 -0.47312811744354261 0.47395110078869013 0 -0.44984012809851409 0.48033494727474779 0 -0.45985364261205308 0.50000000000000111 0 -0.47312811744354261 0.47395110078869013 0 -0.5 0.5 0 -0.47312811744354261 0.47395110078869013 0 -0.49999999999999972 0.44664233614409321 0 -0.45985364261205308 0.50000000000000111 0 -0.5 0.5 0 -0.47312811744354261 0.47395110078869013 0 -0.48640259227503152 0.44790220157737892 0 -0.49999999999999972 0.44664233614409321 0 -0.47883616718389621 0.43347798499105172 0 -0.49999999999999972 0.44664233614409321 0 -0.47883616718389621 0.43347798499105172 0 -0.47312811744354261 0.47395110078869013 0 -0.48640259227503152 0.44790220157737892 0 -0.49999999999999972 0.44664233614409321 0 -0.47312811744354261 0.47395110078869013 0 -0.48640259227503152 0.44790220157737892 0 -0.47312811744354261 0.47395110078869013 0 -0.48640259227503152 0.44790220157737892 0 -0.46932328621444303 0.45009797021529852 0 -0.46932328621444303 0.45009797021529852 0 -0.46288197751253979 0.435741310408158 0 -0.47883616718389621 0.43347798499105172 0 -0.48640259227503152 0.44790220157737892 0 -0.46932328621444303 0.45009797021529852 0 -0.47883616718389621 0.43347798499105172 0 -0.46932328621444303 0.45009797021529852 0 -0.45653044061400749 0.44574373859450739 0 -0.46288197751253979 0.435741310408158 0 -0.46932328621444303 0.45009797021529852 0 -0.45653044061400749 0.44574373859450739 0 -0.45820768181792781 0.46325373185340701 0 -0.45653044061400749 0.44574373859450739 0 -0.44988321330808601 0.43264183945635343 0 -0.46288197751253979 0.435741310408158 0 -0.47312811744354261 0.47395110078869013 0 -0.46932328621444303 0.45009797021529852 0 -0.45820768181792781 0.46325373185340701 0 -0.45653044061400749 0.44574373859450739 0 -0.45820768181792781 0.46325373185340701 0 -0.44262854008483871 0.46162609554841733 0 -0.44984012809851409 0.48033494727474779 0 -0.45820768181792781 0.46325373185340701 0 -0.44262854008483871 0.46162609554841733 0 -0.43251943231727258 0.45189802077753072 0 -0.44262854008483871 0.46162609554841733 0 -0.44285055445462801 0.44408738363144917 0 -0.45653044061400749 0.44574373859450739 0 -0.44262854008483871 0.46162609554841733 0 -0.44285055445462801 0.44408738363144917 0 -0.44285055445462801 0.44408738363144917 0 -0.44988321330808601 0.43264183945635343 0 -0.43309446276593089 0.43580648084521972 0 -0.45653044061400749 0.44574373859450739 0 -0.44285055445462801 0.44408738363144917 0 -0.44988321330808601 0.43264183945635343 0 -0.44909101470891138 0.41704495032083061 0 -0.43309446276593089 0.43580648084521972 0 -0.44988321330808601 0.43264183945635343 0 -0.44909101470891138 0.41704495032083061 0 -0.43309446276593089 0.43580648084521972 0 -0.44988321330808601 0.43264183945635343 0 -0.44909101470891138 0.41704495032083061 0 -0.45767233436779298 0.42031363383801013 0 -0.44909101470891138 0.41704495032083061 0 -0.43642708593841462 0.41129790334070748 0 -0.43309446276593089 0.43580648084521972 0 -0.44909101470891138 0.41704495032083061 0 -0.44923652684218601 0.40651161443480333 0 -0.43642708593841462 0.41129790334070748 0 -0.44909101470891138 0.41704495032083061 0 -0.46310762304278369 0.4136785712167641 0 -0.46508756665189233 0.39828341979644161 0 -0.44909101470891138 0.41704495032083061 0 -0.46508756665189233 0.39828341979644161 0 -0.44909101470891138 0.41704495032083061 0 -0.44923652684218601 0.40651161443480333 0 -0.46508756665189233 0.39828341979644161 0 -0.44909101470891138 0.41704495032083061 0 -0.45767233436779298 0.42031363383801013 0 -0.46310762304278369 0.4136785712167641 0 -0.45767233436779298 0.42031363383801013 0 -0.46310762304278369 0.4136785712167641 0 -0.4689935185142321 0.42014913325858988 0 -0.46310762304278369 0.4136785712167641 0 -0.47635794946245552 0.41312634298853379 0 -0.46508756665189233 0.39828341979644161 0 -0.45767233436779298 0.42031363383801013 0 -0.47883616718389621 0.43347798499105172 0 -0.4689935185142321 0.42014913325858988 0 -0.45767233436779298 0.42031363383801013 0 -0.46288197751253979 0.435741310408158 0 -0.47883616718389621 0.43347798499105172 0 -0.45767233436779298 0.42031363383801013 0 -0.47883616718389621 0.43347798499105172 0 -0.44988321330808601 0.43264183945635343 0 -0.45767233436779298 0.42031363383801013 0 -0.46288197751253979 0.435741310408158 0 -0.47883616718389621 0.43347798499105172 0 -0.47635794946245552 0.41312634298853379 0 -0.48714440641974271 0.42351608680749347 0 -0.47883616718389621 0.43347798499105172 0 -0.4689935185142321 0.42014913325858988 0 -0.47635794946245552 0.41312634298853379 0 -0.46310762304278369 0.4136785712167641 0 -0.4689935185142321 0.42014913325858988 0 -0.47635794946245552 0.41312634298853379 0 -0.47635794946245552 0.41312634298853379 0 -0.48901457958177968 0.41012265573874179 0 -0.48254378332594611 0.39722493186941499 0 -0.47635794946245552 0.41312634298853379 0 -0.48901457958177968 0.41012265573874179 0 -0.48714440641974271 0.42351608680749347 0 -0.48901457958177968 0.41012265573874179 0 -0.5 0.42140439004324071 0 -0.49999999999999978 0.39616644394238798 0 -0.48901457958177968 0.41012265573874179 0 -0.5 0.42140439004324071 0 -0.48714440641974271 0.42351608680749347 0 -0.49999999999999972 0.44664233614409321 0 -0.47883616718389621 0.43347798499105172 0 -0.48714440641974271 0.42351608680749347 0 -0.49999999999999972 0.44664233614409321 0 -0.5 0.42140439004324071 0 -0.48714440641974271 0.42351608680749347 0 -0.49007778645481631 0.38142997617552599 0 -0.49999999999999978 0.39616644394238798 0 -0.50000000000000311 0.3685517992903854 0 -0.49007778645481631 0.38142997617552599 0 -0.47611467569506138 0.38535029247959018 0 -0.48714178473823078 0.37241716516273898 0 -0.49999999999999978 0.39616644394238798 0 -0.48254378332594611 0.39722493186941499 0 -0.48901457958177968 0.41012265573874179 0 -0.49999999999999978 0.39616644394238798 0 -0.48254378332594611 0.39722493186941499 0 -0.49007778645481631 0.38142997617552599 0 -0.49999999999999978 0.39616644394238798 0 -0.48254378332594611 0.39722493186941499 0 -0.48254378332594611 0.39722493186941499 0 -0.46508756665189233 0.39828341979644161 0 -0.47635794946245552 0.41312634298853379 0 -0.48254378332594611 0.39722493186941499 0 -0.46508756665189233 0.39828341979644161 0 -0.48254378332594611 0.39722493186941499 0 -0.47611467569506138 0.38535029247959018 0 -0.46508756665189233 0.39828341979644161 0 -0.47611467569506138 0.38535029247959018 0 -0.46508756665189233 0.39828341979644161 0 -0.49007778645481631 0.38142997617552599 0 -0.48254378332594611 0.39722493186941499 0 -0.47611467569506138 0.38535029247959018 0 -0.47611467569506138 0.38535029247959018 0 -0.47397397291215421 0.37493689296344251 0 -0.48714178473823078 0.37241716516273898 0 -0.47611467569506138 0.38535029247959018 0 -0.48714178473823078 0.37241716516273898 0 -0.46871814716203669 0.37906981455344119 0 -0.46360543106569913 0.37231654924431878 0 -0.47397397291215421 0.37493689296344251 0 -0.47611467569506138 0.38535029247959018 0 -0.46871814716203669 0.37906981455344119 0 -0.47397397291215421 0.37493689296344251 0 -0.46871814716203669 0.37906981455344119 0 -0.46117850897523233 0.38367552352641338 0 -0.46360543106569913 0.37231654924431878 0 -0.47611467569506138 0.38535029247959018 0 -0.46871814716203669 0.37906981455344119 0 -0.46117850897523233 0.38367552352641338 0 -0.47611467569506138 0.38535029247959018 0 -0.46117850897523233 0.38367552352641338 0 -0.46508756665189233 0.39828341979644161 0 -0.46117850897523233 0.38367552352641338 0 -0.45400385251667602 0.39093091030285698 0 -0.45110956684876158 0.38402681738971201 0 -0.46117850897523233 0.38367552352641338 0 -0.45110956684876158 0.38402681738971201 0 -0.44813402172652672 0.37354371539476261 0 -0.46117850897523233 0.38367552352641338 0 -0.44813402172652672 0.37354371539476261 0 -0.46360543106569913 0.37231654924431878 0 -0.44923652684218601 0.40651161443480333 0 -0.46508756665189233 0.39828341979644161 0 -0.44634044006952572 0.39942018428123321 0 -0.46508756665189233 0.39828341979644161 0 -0.45400385251667602 0.39093091030285698 0 -0.44634044006952572 0.39942018428123321 0 -0.46508756665189233 0.39828341979644161 0 -0.44634044006952572 0.39942018428123321 0 -0.46117850897523233 0.38367552352641338 0 -0.46508756665189233 0.39828341979644161 0 -0.45400385251667602 0.39093091030285698 0 -0.45400385251667602 0.39093091030285698 0 -0.44634044006952572 0.39942018428123321 0 -0.44518347515021223 0.38837251913440451 0 -0.44634044006952572 0.39942018428123321 0 -0.44518347515021223 0.38837251913440451 0 -0.43728617553129168 0.39370672697544878 0 -0.44923652684218601 0.40651161443480333 0 -0.44634044006952572 0.39942018428123321 0 -0.43642708593841462 0.41129790334070748 0 -0.45110956684876158 0.38402681738971201 0 -0.44480856609964842 0.38185924381796288 0 -0.44813402172652672 0.37354371539476261 0 -0.45400385251667602 0.39093091030285698 0 -0.45110956684876158 0.38402681738971201 0 -0.44518347515021223 0.38837251913440451 0 -0.45110956684876158 0.38402681738971201 0 -0.44518347515021223 0.38837251913440451 0 -0.44480856609964842 0.38185924381796288 0 -0.44518347515021223 0.38837251913440451 0 -0.43913693036841173 0.38484964203092692 0 -0.43002747341826991 0.3864772557201327 0 -0.44518347515021223 0.38837251913440451 0 -0.43002747341826991 0.3864772557201327 0 -0.44518347515021223 0.38837251913440451 0 -0.43913693036841173 0.38484964203092692 0 -0.44480856609964842 0.38185924381796288 0 -0.44480856609964842 0.38185924381796288 0 -0.4393591315165738 0.37762743775392832 0 -0.44813402172652672 0.37354371539476261 0 -0.43913693036841173 0.38484964203092692 0 -0.44480856609964842 0.38185924381796288 0 -0.4393591315165738 0.37762743775392832 0 -0.43913693036841173 0.38484964203092692 0 -0.43173797726570751 0.37658334167695551 0 -0.43913693036841173 0.38484964203092692 0 -0.43173797726570751 0.37658334167695551 0 -0.43002747341826991 0.3864772557201327 0 -0.43913693036841173 0.38484964203092692 0 -0.4393591315165738 0.37762743775392832 0 -0.43173797726570751 0.37658334167695551 0 -0.4393591315165738 0.37762743775392832 0 -0.43173797726570751 0.37658334167695551 0 -0.4325639091043616 0.37180597819459837 0 -0.43173797726570751 0.37658334167695551 0 -0.43002747341826991 0.3864772557201327 0 -0.44518347515021223 0.38837251913440451 0 -0.43002747341826991 0.3864772557201327 0 -0.43728617553129168 0.39370672697544878 0 -0.43002747341826991 0.3864772557201327 0 -0.41472776448615789 0.38456402166930481 0 -0.42117367656598032 0.39254991666010941 0 -0.43002747341826991 0.3864772557201327 0 -0.41472776448615789 0.38456402166930481 0 -0.43002747341826991 0.3864772557201327 0 -0.42328890360694349 0.38021744503538613 0 -0.41472776448615789 0.38456402166930481 0 -0.43173797726570751 0.37658334167695551 0 -0.43002747341826991 0.3864772557201327 0 -0.42328890360694349 0.38021744503538613 0 -0.43173797726570751 0.37658334167695551 0 -0.42328890360694349 0.38021744503538613 0 -0.42689564018809201 0.37117335838025439 0 -0.40881671944059661 0.37920357314115732 0 -0.42689564018809201 0.37117335838025439 0 -0.42328890360694349 0.38021744503538613 0 -0.40881671944059661 0.37920357314115732 0 -0.42689564018809201 0.37117335838025439 0 -0.42328890360694349 0.38021744503538613 0 -0.41472776448615789 0.38456402166930481 0 -0.40881671944059661 0.37920357314115732 0 -0.41472776448615789 0.38456402166930481 0 -0.40724106840129259 0.39428871981441299 0 -0.42117367656598032 0.39254991666010941 0 -0.41472776448615789 0.38456402166930481 0 -0.40826438028753348 0.3817067557430866 0 -0.39942805555404642 0.38265078761847338 0 -0.41472776448615789 0.38456402166930481 0 -0.40724106840129259 0.39428871981441299 0 -0.39942805555404642 0.38265078761847338 0 -0.41472776448615789 0.38456402166930481 0 -0.39942805555404642 0.38265078761847338 0 -0.40881671944059661 0.37920357314115732 0 -0.39942805555404642 0.38265078761847338 0 -0.41098055992701871 0.3693971202961519 0 -0.40826438028753348 0.3817067557430866 0 -0.40881671944059661 0.37920357314115732 0 -0.41472776448615789 0.38456402166930481 0 -0.40826438028753348 0.3817067557430866 0 -0.40881671944059661 0.37920357314115732 0 -0.40724106840129259 0.39428871981441299 0 -0.4157685575788832 0.40127396331749671 0 -0.40157856791931718 0.40704460823596672 0 -0.42117367656598032 0.39254991666010941 0 -0.4157685575788832 0.40127396331749671 0 -0.42759331348715912 0.40055694876602499 0 -0.40724106840129259 0.39428871981441299 0 -0.42117367656598032 0.39254991666010941 0 -0.4157685575788832 0.40127396331749671 0 -0.4157685575788832 0.40127396331749671 0 -0.42759331348715912 0.40055694876602499 0 -0.44634044006952572 0.39942018428123321 0 -0.42759331348715912 0.40055694876602499 0 -0.44634044006952572 0.39942018428123321 0 -0.42759331348715912 0.40055694876602499 0 -0.43728617553129168 0.39370672697544878 0 -0.44634044006952572 0.39942018428123321 0 -0.42759331348715912 0.40055694876602499 0 -0.43642708593841462 0.41129790334070748 0 -0.43002747341826991 0.3864772557201327 0 -0.42117367656598032 0.39254991666010941 0 -0.42759331348715912 0.40055694876602499 0 -0.43002747341826991 0.3864772557201327 0 -0.42759331348715912 0.40055694876602499 0 -0.43002747341826991 0.3864772557201327 0 -0.42759331348715912 0.40055694876602499 0 -0.43728617553129168 0.39370672697544878 0 -0.43642708593841462 0.41129790334070748 0 -0.42449994900394461 0.41844961959922572 0 -0.43309446276593089 0.43580648084521972 0 -0.42759331348715912 0.40055694876602499 0 -0.43642708593841462 0.41129790334070748 0 -0.42449994900394461 0.41844961959922572 0 -0.4157685575788832 0.40127396331749671 0 -0.42759331348715912 0.40055694876602499 0 -0.42449994900394461 0.41844961959922572 0 -0.42759331348715912 0.40055694876602499 0 -0.42449994900394461 0.41844961959922572 0 -0.42449994900394461 0.41844961959922572 0 -0.43309446276593089 0.43580648084521972 0 -0.41506627858711548 0.4366354945638371 0 -0.42449994900394461 0.41844961959922572 0 -0.41506627858711548 0.4366354945638371 0 -0.40746949035714619 0.42222882353716701 0 -0.41506627858711548 0.4366354945638371 0 -0.40746949035714619 0.42222882353716701 0 -0.39856520721893041 0.43647578570475237 0 -0.42449994900394461 0.41844961959922572 0 -0.40746949035714619 0.42222882353716701 0 -0.41232914121482278 0.41224925367246401 0 -0.4157685575788832 0.40127396331749671 0 -0.42449994900394461 0.41844961959922572 0 -0.41232914121482278 0.41224925367246401 0 -0.4157685575788832 0.40127396331749671 0 -0.41232914121482278 0.41224925367246401 0 -0.40157856791931718 0.40704460823596672 0 -0.40746949035714619 0.42222882353716701 0 -0.41232914121482278 0.41224925367246401 0 -0.40157856791931718 0.40704460823596672 0 -0.40746949035714619 0.42222882353716701 0 -0.40157856791931718 0.40704460823596672 0 -0.39298749241221759 0.42119507937603923 0 -0.40746949035714619 0.42222882353716701 0 -0.39298749241221759 0.42119507937603923 0 -0.39856520721893041 0.43647578570475237 0 -0.39298749241221759 0.42119507937603923 0 -0.39856520721893041 0.43647578570475237 0 -0.38373994498284608 0.43043669407259588 0 -0.38373994498284608 0.43043669407259588 0 -0.37668454372729859 0.41206883315114529 0 -0.36778315087773072 0.43214877602771662 0 -0.38473584783684761 0.44354080077547992 0 -0.38373994498284608 0.43043669407259588 0 -0.36778315087773072 0.43214877602771662 0 -0.38473584783684761 0.44354080077547992 0 -0.39856520721893041 0.43647578570475237 0 -0.38373994498284608 0.43043669407259588 0 -0.40157856791931718 0.40704460823596672 0 -0.39298749241221759 0.42119507937603923 0 -0.37668454372729859 0.41206883315114529 0 -0.39298749241221759 0.42119507937603923 0 -0.38373994498284608 0.43043669407259588 0 -0.37668454372729859 0.41206883315114529 0 -0.40157856791931718 0.40704460823596672 0 -0.37668454372729859 0.41206883315114529 0 -0.37668454372729859 0.41206883315114529 0 -0.37844474563582792 0.390355182046278 0 -0.39076978830337122 0.39764902138512792 0 -0.40157856791931718 0.40704460823596672 0 -0.37668454372729859 0.41206883315114529 0 -0.39076978830337122 0.39764902138512792 0 -0.38141148745950948 0.38039780936179463 0 -0.39942805555404642 0.38265078761847338 0 -0.37844474563582792 0.390355182046278 0 -0.39942805555404642 0.38265078761847338 0 -0.38141148745950948 0.38039780936179463 0 -0.37844474563582792 0.390355182046278 0 -0.39942805555404642 0.38265078761847338 0 -0.37844474563582792 0.390355182046278 0 -0.39942805555404642 0.38265078761847338 0 -0.39076978830337122 0.39764902138512792 0 -0.38141148745950948 0.38039780936179463 0 -0.39942805555404642 0.38265078761847338 0 -0.39128338495032239 0.36719877308275878 0 -0.40826438028753348 0.3817067557430866 0 -0.40881671944059661 0.37920357314115732 0 -0.39942805555404642 0.38265078761847338 0 -0.40881671944059661 0.37920357314115732 0 -0.39942805555404642 0.38265078761847338 0 -0.40724106840129259 0.39428871981441299 0 -0.40157856791931718 0.40704460823596672 0 -0.39076978830337122 0.39764902138512792 0 -0.40724106840129259 0.39428871981441299 0 -0.39942805555404642 0.38265078761847338 0 -0.39076978830337122 0.39764902138512792 0 -0.39259889148010241 0.34864188780489069 0 -0.39999637464883392 0.35559476271013252 0 -0.38966798311544332 0.35610238881872369 0 -0.39259889148010241 0.34864188780489069 0 -0.39999637464883392 0.35559476271013252 0 -0.40046159691170069 0.34164056661102238 0 -0.39999637464883392 0.35559476271013252 0 -0.40046159691170069 0.34164056661102238 0 -0.41381361947694889 0.35655778899711688 0 -0.39999637464883392 0.35559476271013252 0 -0.40397412088998857 0.3623881668075713 0 -0.41381361947694889 0.35655778899711688 0 -0.39128338495032239 0.36719877308275878 0 -0.41098055992701871 0.3693971202961519 0 -0.40397412088998857 0.3623881668075713 0 -0.39128338495032239 0.36719877308275878 0 -0.41098055992701871 0.3693971202961519 0 -0.39942805555404642 0.38265078761847338 0 -0.39128338495032239 0.36719877308275878 0 -0.41098055992701871 0.3693971202961519 0 -0.39999637464883392 0.35559476271013252 0 -0.39128338495032239 0.36719877308275878 0 -0.38966798311544332 0.35610238881872369 0 -0.39999637464883392 0.35559476271013252 0 -0.40397412088998857 0.3623881668075713 0 -0.39128338495032239 0.36719877308275878 0 -0.39128338495032239 0.36719877308275878 0 -0.38070440212728118 0.35956436367519867 0 -0.38966798311544332 0.35610238881872369 0 -0.39128338495032239 0.36719877308275878 0 -0.38070440212728118 0.35956436367519867 0 -0.37158620997362618 0.36500042586936587 0 -0.39128338495032239 0.36719877308275878 0 -0.37158620997362618 0.36500042586936587 0 -0.38141148745950948 0.38039780936179463 0 -0.39128338495032239 0.36719877308275878 0 -0.37158620997362618 0.36500042586936587 0 -0.38070440212728118 0.35956436367519867 0 -0.38259242285128608 0.34975193996759602 0 -0.36960199921418602 0.35731180584905542 0 -0.38259242285128608 0.34975193996759602 0 -0.37580907906339922 0.33647878059299557 0 -0.36960199921418602 0.35731180584905542 0 -0.38070440212728118 0.35956436367519867 0 -0.38966798311544332 0.35610238881872369 0 -0.38259242285128608 0.34975193996759602 0 -0.39259889148010241 0.34864188780489069 0 -0.38966798311544332 0.35610238881872369 0 -0.38259242285128608 0.34975193996759602 0 -0.39259889148010241 0.34864188780489069 0 -0.38259242285128608 0.34975193996759602 0 -0.38794720083446621 0.34059934721089508 0 -0.38259242285128608 0.34975193996759602 0 -0.37580907906339922 0.33647878059299557 0 -0.38794720083446621 0.34059934721089508 0 -0.37580907906339922 0.33647878059299557 0 -0.38794720083446621 0.34059934721089508 0 -0.38710957434645199 0.32672334422492838 0 -0.37580907906339922 0.33647878059299557 0 -0.38201615891261242 0.31564575533693578 0 -0.38201615891261242 0.31564575533693578 0 -0.38336946241093189 0.30974931290420182 0 -0.36531193472093021 0.32454274932608829 0 -0.37580907906339922 0.33647878059299557 0 -0.38201615891261242 0.31564575533693578 0 -0.38710957434645199 0.32672334422492838 0 -0.38201615891261242 0.31564575533693578 0 -0.39350880394476312 0.31593875705230262 0 -0.38336946241093189 0.30974931290420182 0 -0.38201615891261242 0.31564575533693578 0 -0.38710957434645199 0.32672334422492838 0 -0.39350880394476312 0.31593875705230262 0 -0.38710957434645199 0.32672334422492838 0 -0.39350880394476312 0.31593875705230262 0 -0.39921774374196328 0.327754485124091 0 -0.39350880394476312 0.31593875705230262 0 -0.39921774374196328 0.327754485124091 0 -0.40602554896887638 0.32011992980008452 0 -0.39921774374196328 0.327754485124091 0 -0.40602554896887638 0.32011992980008452 0 -0.40814721749945931 0.33505042297199122 0 -0.38794720083446621 0.34059934721089508 0 -0.38710957434645199 0.32672334422492838 0 -0.40046159691170069 0.34164056661102238 0 -0.39259889148010241 0.34864188780489069 0 -0.38794720083446621 0.34059934721089508 0 -0.40046159691170069 0.34164056661102238 0 -0.38710957434645199 0.32672334422492838 0 -0.39921774374196328 0.327754485124091 0 -0.40046159691170069 0.34164056661102238 0 -0.38710957434645199 0.32672334422492838 0 -0.40046159691170069 0.34164056661102238 0 -0.39921774374196328 0.327754485124091 0 -0.40046159691170069 0.34164056661102238 0 -0.40814721749945931 0.33505042297199122 0 -0.40814721749945931 0.33505042297199122 0 -0.41954562432067788 0.33058053440738988 0 -0.41381361947694889 0.35655778899711688 0 -0.41954562432067788 0.33058053440738988 0 -0.41381361947694889 0.35655778899711688 0 -0.40602554896887638 0.32011992980008452 0 -0.40814721749945931 0.33505042297199122 0 -0.41954562432067788 0.33058053440738988 0 -0.40602554896887638 0.32011992980008452 0 -0.41954562432067788 0.33058053440738988 0 -0.42527762916440792 0.30460327981766322 0 -0.41954562432067788 0.33058053440738988 0 -0.42527762916440792 0.30460327981766322 0 -0.41954562432067788 0.33058053440738988 0 -0.44001701522470671 0.31606260091672289 0 -0.42527762916440792 0.30460327981766322 0 -0.41954562432067788 0.33058053440738988 0 -0.42420657124029282 0.3485159257420361 0 -0.43843079740841773 0.33787066219507811 0 -0.41954562432067788 0.33058053440738988 0 -0.43843079740841773 0.33787066219507811 0 -0.44001701522470671 0.31606260091672289 0 -0.42420657124029282 0.3485159257420361 0 -0.43459164588172849 0.36007712215754689 0 -0.43843079740841773 0.33787066219507811 0 -0.42420657124029282 0.3485159257420361 0 -0.41381361947694889 0.35655778899711688 0 -0.43459164588172849 0.36007712215754689 0 -0.41381361947694889 0.35655778899711688 0 -0.43459164588172849 0.36007712215754689 0 -0.43459164588172849 0.36007712215754689 0 -0.43843079740841773 0.33787066219507811 0 -0.40046159691170069 0.34164056661102238 0 -0.40814721749945931 0.33505042297199122 0 -0.41381361947694889 0.35655778899711688 0 -0.41954562432067788 0.33058053440738988 0 -0.42420657124029282 0.3485159257420361 0 -0.41381361947694889 0.35655778899711688 0 -0.39999637464883392 0.35559476271013252 0 -0.41381361947694889 0.35655778899711688 0 -0.40046159691170069 0.34164056661102238 0 -0.41381361947694889 0.35655778899711688 0 -0.41381361947694889 0.35655778899711688 0 -0.41098055992701871 0.3693971202961519 0 -0.42689564018809201 0.37117335838025439 0 -0.41098055992701871 0.3693971202961519 0 -0.42689564018809201 0.37117335838025439 0 -0.40881671944059661 0.37920357314115732 0 -0.41098055992701871 0.3693971202961519 0 -0.42689564018809201 0.37117335838025439 0 -0.40881671944059661 0.37920357314115732 0 -0.41098055992701871 0.3693971202961519 0 -0.40397412088998857 0.3623881668075713 0 -0.41381361947694889 0.35655778899711688 0 -0.41098055992701871 0.3693971202961519 0 -0.41381361947694889 0.35655778899711688 0 -0.41098055992701871 0.3693971202961519 0 -0.41381361947694889 0.35655778899711688 0 -0.42689564018809201 0.37117335838025439 0 -0.41381361947694889 0.35655778899711688 0 -0.42907199843085347 0.36486274908666949 0 -0.43459164588172849 0.36007712215754689 0 -0.42689564018809201 0.37117335838025439 0 -0.42907199843085347 0.36486274908666949 0 -0.42980351636605002 0.37149789839679431 0 -0.43173797726570751 0.37658334167695551 0 -0.42689564018809201 0.37117335838025439 0 -0.43173797726570751 0.37658334167695551 0 -0.42689564018809201 0.37117335838025439 0 -0.42980351636605002 0.37149789839679431 0 -0.42689564018809201 0.37117335838025439 0 -0.42980351636605002 0.37149789839679431 0 -0.41381361947694889 0.35655778899711688 0 -0.42689564018809201 0.37117335838025439 0 -0.42907199843085347 0.36486274908666949 0 -0.43459164588172849 0.36007712215754689 0 -0.4325639091043616 0.37180597819459837 0 -0.42907199843085347 0.36486274908666949 0 -0.43459164588172849 0.36007712215754689 0 -0.4325639091043616 0.37180597819459837 0 -0.43173797726570751 0.37658334167695551 0 -0.4325639091043616 0.37180597819459837 0 -0.43173797726570751 0.37658334167695551 0 -0.4325639091043616 0.37180597819459837 0 -0.42980351636605002 0.37149789839679431 0 -0.4325639091043616 0.37180597819459837 0 -0.42980351636605002 0.37149789839679431 0 -0.42907199843085347 0.36486274908666949 0 -0.4325639091043616 0.37180597819459837 0 -0.42980351636605002 0.37149789839679431 0 -0.4393591315165738 0.37762743775392832 0 -0.4325639091043616 0.37180597819459837 0 -0.44813402172652672 0.37354371539476261 0 -0.4325639091043616 0.37180597819459837 0 -0.44813402172652672 0.37354371539476261 0 -0.4325639091043616 0.37180597819459837 0 -0.44813402172652672 0.37354371539476261 0 -0.45404419213644692 0.3625975043188554 0 -0.43459164588172849 0.36007712215754689 0 -0.45404419213644692 0.3625975043188554 0 -0.43459164588172849 0.36007712215754689 0 -0.4325639091043616 0.37180597819459837 0 -0.45404419213644692 0.3625975043188554 0 -0.4325639091043616 0.37180597819459837 0 -0.45404419213644692 0.3625975043188554 0 -0.43459164588172849 0.36007712215754689 0 -0.44549025602952702 0.35300777224981977 0 -0.45404419213644692 0.3625975043188554 0 -0.44549025602952702 0.35300777224981977 0 -0.45575207180717081 0.34762579988211101 0 -0.43843079740841773 0.33787066219507811 0 -0.43459164588172849 0.36007712215754689 0 -0.44549025602952702 0.35300777224981977 0 -0.43843079740841773 0.33787066219507811 0 -0.44549025602952702 0.35300777224981977 0 -0.45575207180717081 0.34762579988211101 0 -0.45404419213644692 0.3625975043188554 0 -0.45575207180717081 0.34762579988211101 0 -0.46674234051517471 0.35793515390827568 0 -0.45404419213644692 0.3625975043188554 0 -0.45575207180717081 0.34762579988211101 0 -0.46674234051517471 0.35793515390827568 0 -0.46933267881425472 0.34565439271282838 0 -0.45404419213644692 0.3625975043188554 0 -0.47441064506165659 0.36523629740895902 0 -0.46674234051517471 0.35793515390827568 0 -0.45404419213644692 0.3625975043188554 0 -0.47441064506165659 0.36523629740895902 0 -0.45404419213644692 0.3625975043188554 0 -0.46360543106569913 0.37231654924431878 0 -0.47441064506165659 0.36523629740895902 0 -0.44813402172652672 0.37354371539476261 0 -0.45404419213644692 0.3625975043188554 0 -0.46360543106569913 0.37231654924431878 0 -0.46674234051517471 0.35793515390827568 0 -0.45404419213644692 0.3625975043188554 0 -0.46360543106569913 0.37231654924431878 0 -0.47397397291215421 0.37493689296344251 0 -0.47441064506165659 0.36523629740895902 0 -0.47441064506165659 0.36523629740895902 0 -0.48058358620238051 0.35168401037216412 0 -0.49477709798686631 0.36787509049906381 0 -0.47397397291215421 0.37493689296344251 0 -0.47441064506165659 0.36523629740895902 0 -0.48714178473823078 0.37241716516273898 0 -0.46674234051517471 0.35793515390827568 0 -0.47441064506165659 0.36523629740895902 0 -0.48058358620238051 0.35168401037216412 0 -0.46674234051517471 0.35793515390827568 0 -0.46933267881425472 0.34565439271282838 0 -0.48058358620238051 0.35168401037216412 0 -0.46933267881425472 0.34565439271282838 0 -0.48058358620238051 0.35168401037216412 0 -0.48121002056386808 0.3369363626790518 0 -0.48058358620238051 0.35168401037216412 0 -0.49703354506598713 0.34759711953555122 0 -0.48121002056386808 0.3369363626790518 0 -0.49703354506598713 0.34759711953555122 0 -0.5 0.34812631329607491 0 -0.49477709798686631 0.36787509049906381 0 -0.48058358620238051 0.35168401037216412 0 -0.49703354506598713 0.34759711953555122 0 -0.49477709798686631 0.36787509049906381 0 -0.49703354506598713 0.34759711953555122 0 -0.49477709798686631 0.36787509049906381 0 -0.5 0.34812631329607491 0 -0.50000000000000311 0.3685517992903854 0 -0.49477709798686631 0.36787509049906381 0 -0.47441064506165659 0.36523629740895902 0 -0.49477709798686631 0.36787509049906381 0 -0.48714178473823078 0.37241716516273898 0 -0.47441064506165659 0.36523629740895902 0 -0.49477709798686631 0.36787509049906381 0 -0.49007778645481631 0.38142997617552599 0 -0.50000000000000311 0.3685517992903854 0 -0.49477709798686631 0.36787509049906381 0 -0.50000000000000311 0.3685517992903854 0 -0.49477709798686631 0.36787509049906381 0 -0.49007778645481631 0.38142997617552599 0 -0.49477709798686631 0.36787509049906381 0 -0.48714178473823078 0.37241716516273898 0 -0.4992899921451075 0.32731914857203848 0 -0.47890896772952718 0.31636292681222472 0 -0.4992899921451075 0.32731914857203848 0 -0.48121002056386808 0.3369363626790518 0 -0.47890896772952718 0.31636292681222472 0 -0.49999999999999989 0.32093853419885771 0 -0.47890896772952718 0.31636292681222472 0 -0.48920120729889771 0.30786362236022019 0 -0.49999999999999989 0.32093853419885771 0 -0.4992899921451075 0.32731914857203848 0 -0.47890896772952718 0.31636292681222472 0 -0.49999999999999989 0.32093853419885771 0 -0.4992899921451075 0.32731914857203848 0 -0.49703354506598713 0.34759711953555122 0 -0.4992899921451075 0.32731914857203848 0 -0.49703354506598713 0.34759711953555122 0 -0.4992899921451075 0.32731914857203848 0 -0.48121002056386808 0.3369363626790518 0 -0.49703354506598713 0.34759711953555122 0 -0.5 0.34812631329607491 0 -0.4992899921451075 0.32731914857203848 0 -0.46933267881425472 0.34565439271282838 0 -0.48121002056386808 0.3369363626790518 0 -0.46237537498267961 0.3340906367225393 0 -0.48121002056386808 0.3369363626790518 0 -0.47890896772952718 0.31636292681222472 0 -0.46237537498267961 0.3340906367225393 0 -0.47890896772952718 0.31636292681222472 0 -0.45636509730576869 0.32029680939338251 0 -0.45852794331394758 0.30540670505240958 0 -0.47890896772952718 0.31636292681222472 0 -0.45636509730576869 0.32029680939338251 0 -0.46237537498267961 0.3340906367225393 0 -0.45575207180717081 0.34762579988211101 0 -0.46933267881425472 0.34565439271282838 0 -0.46237537498267961 0.3340906367225393 0 -0.45575207180717081 0.34762579988211101 0 -0.46237537498267961 0.3340906367225393 0 -0.43843079740841773 0.33787066219507811 0 -0.45636509730576869 0.32029680939338251 0 -0.46237537498267961 0.3340906367225393 0 -0.43843079740841773 0.33787066219507811 0 -0.45636509730576869 0.32029680939338251 0 -0.43843079740841773 0.33787066219507811 0 -0.44001701522470671 0.31606260091672289 0 -0.45636509730576869 0.32029680939338251 0 -0.44001701522470671 0.31606260091672289 0 -0.45852794331394758 0.30540670505240958 0 -0.4381469188983681 0.2944504832925946 0 -0.45852794331394758 0.30540670505240958 0 -0.44001701522470671 0.31606260091672289 0 -0.4381469188983681 0.2944504832925946 0 -0.45852794331394758 0.30540670505240958 0 -0.4381469188983681 0.2944504832925946 0 -0.4447805513699985 0.27737231294201392 0 -0.43100963400813791 0.27862602522793672 0 -0.4381469188983681 0.2944504832925946 0 -0.45724976864254441 0.28334965182257721 0 -0.4447805513699985 0.27737231294201392 0 -0.4381469188983681 0.2944504832925946 0 -0.45724976864254441 0.28334965182257721 0 -0.45852794331394758 0.30540670505240958 0 -0.45724976864254441 0.28334965182257721 0 -0.45852794331394758 0.30540670505240958 0 -0.47789586146606378 0.29814868652574811 0 -0.47890896772952718 0.31636292681222472 0 -0.45852794331394758 0.30540670505240958 0 -0.47890896772952718 0.31636292681222472 0 -0.47789586146606378 0.29814868652574811 0 -0.48920120729889771 0.30786362236022019 0 -0.47890896772952718 0.31636292681222472 0 -0.45852794331394758 0.30540670505240958 0 -0.47789586146606378 0.29814868652574811 0 -0.45724976864254441 0.28334965182257721 0 -0.47789586146606378 0.29814868652574811 0 -0.48102565218130672 0.27929705551177292 0 -0.5 0.29600434190405073 0 -0.5 0.27107014960924369 0 -0.48102565218130672 0.27929705551177292 0 -0.47789586146606378 0.29814868652574811 0 -0.5 0.29600434190405073 0 -0.48102565218130672 0.27929705551177292 0 -0.47789586146606378 0.29814868652574811 0 -0.5 0.29600434190405073 0 -0.48920120729889771 0.30786362236022019 0 -0.49999999999999989 0.32093853419885771 0 -0.5 0.29600434190405073 0 -0.48920120729889771 0.30786362236022019 0 -0.48177750529808522 0.24619974485466931 0 -0.5 0.2461359573144368 0 -0.48654709528280549 0.26072196503438649 0 -0.5 0.2461359573144368 0 -0.48654709528280549 0.26072196503438649 0 -0.5 0.27107014960924369 0 -0.48654709528280549 0.26072196503438649 0 -0.5 0.27107014960924369 0 -0.48102565218130672 0.27929705551177292 0 -0.48654709528280549 0.26072196503438649 0 -0.48102565218130672 0.27929705551177292 0 -0.46993231893463527 0.26090691788180947 0 -0.45724976864254441 0.28334965182257721 0 -0.48102565218130672 0.27929705551177292 0 -0.46993231893463527 0.26090691788180947 0 -0.48177750529808522 0.24619974485466931 0 -0.48654709528280549 0.26072196503438649 0 -0.46993231893463527 0.26090691788180947 0 -0.45710504060219709 0.23686107433279269 0 -0.46993231893463527 0.26090691788180947 0 -0.44707755271196942 0.2637365605125353 0 -0.45724976864254441 0.28334965182257721 0 -0.46993231893463527 0.26090691788180947 0 -0.44707755271196942 0.2637365605125353 0 -0.45724976864254441 0.28334965182257721 0 -0.4447805513699985 0.27737231294201392 0 -0.44707755271196942 0.2637365605125353 0 -0.4447805513699985 0.27737231294201392 0 -0.44707755271196942 0.2637365605125353 0 -0.43100963400813791 0.27862602522793672 0 -0.45710504060219709 0.23686107433279269 0 -0.44707755271196942 0.2637365605125353 0 -0.44707755271196942 0.2637365605125353 0 -0.4367416388518679 0.25264877063821017 0 -0.43100963400813791 0.27862602522793672 0 -0.45710504060219709 0.23686107433279269 0 -0.44707755271196942 0.2637365605125353 0 -0.4367416388518679 0.25264877063821017 0 -0.4367416388518679 0.25264877063821017 0 -0.41175872593851298 0.2549478601346914 0 -0.41885046316002428 0.26850948483906401 0 -0.41175872593851298 0.2549478601346914 0 -0.41885046316002428 0.26850948483906401 0 -0.3976364837244763 0.27421361628784369 0 -0.41885046316002428 0.26850948483906401 0 -0.41710583327712653 0.28211115190663788 0 -0.3976364837244763 0.27421361628784369 0 -0.41885046316002428 0.26850948483906401 0 -0.43100963400813791 0.27862602522793672 0 -0.41710583327712653 0.28211115190663788 0 -0.4367416388518679 0.25264877063821017 0 -0.43100963400813791 0.27862602522793672 0 -0.4367416388518679 0.25264877063821017 0 -0.41885046316002428 0.26850948483906401 0 -0.43100963400813791 0.27862602522793672 0 -0.4381469188983681 0.2944504832925946 0 -0.43100963400813791 0.27862602522793672 0 -0.42527762916440792 0.30460327981766322 0 -0.43100963400813791 0.27862602522793672 0 -0.42527762916440792 0.30460327981766322 0 -0.41710583327712653 0.28211115190663788 0 -0.43100963400813791 0.27862602522793672 0 -0.42527762916440792 0.30460327981766322 0 -0.44001701522470671 0.31606260091672289 0 -0.4381469188983681 0.2944504832925946 0 -0.42527762916440792 0.30460327981766322 0 -0.40602554896887638 0.32011992980008452 0 -0.42527762916440792 0.30460327981766322 0 -0.4014269901009333 0.29495587648231503 0 -0.41710583327712653 0.28211115190663788 0 -0.4014269901009333 0.29495587648231503 0 -0.42527762916440792 0.30460327981766322 0 -0.41710583327712653 0.28211115190663788 0 -0.4014269901009333 0.29495587648231503 0 -0.41710583327712653 0.28211115190663788 0 -0.4014269901009333 0.29495587648231503 0 -0.3976364837244763 0.27421361628784369 0 -0.4014269901009333 0.29495587648231503 0 -0.38389766901197209 0.2919764357376447 0 -0.3976364837244763 0.27421361628784369 0 -0.4014269901009333 0.29495587648231503 0 -0.3976364837244763 0.27421361628784369 0 -0.39350880394476312 0.31593875705230262 0 -0.40602554896887638 0.32011992980008452 0 -0.4014269901009333 0.29495587648231503 0 -0.4014269901009333 0.29495587648231503 0 -0.38336946241093189 0.30974931290420182 0 -0.40602554896887638 0.32011992980008452 0 -0.4014269901009333 0.29495587648231503 0 -0.39350880394476312 0.31593875705230262 0 -0.4014269901009333 0.29495587648231503 0 -0.38336946241093189 0.30974931290420182 0 -0.38336946241093189 0.30974931290420182 0 -0.38389766901197209 0.2919764357376447 0 -0.36596935852520629 0.30787018431111951 0 -0.4014269901009333 0.29495587648231503 0 -0.38336946241093189 0.30974931290420182 0 -0.38389766901197209 0.2919764357376447 0 -0.38389766901197209 0.2919764357376447 0 -0.3839238193794226 0.27871888045260418 0 -0.3976364837244763 0.27421361628784369 0 -0.38389766901197209 0.2919764357376447 0 -0.3839238193794226 0.27871888045260418 0 -0.3703732677084236 0.2804332674389724 0 -0.3839238193794226 0.27871888045260418 0 -0.38378785707281859 0.2682522023459562 0 -0.3703732677084236 0.2804332674389724 0 -0.38378785707281859 0.2682522023459562 0 -0.37477717689163992 0.25299635056682518 0 -0.3703732677084236 0.2804332674389724 0 -0.3839238193794226 0.27871888045260418 0 -0.38378785707281859 0.2682522023459562 0 -0.3976364837244763 0.27421361628784369 0 -0.38378785707281859 0.2682522023459562 0 -0.39384597734802013 0.25347135609337229 0 -0.37477717689163992 0.25299635056682518 0 -0.39384597734802013 0.25347135609337229 0 -0.3976364837244763 0.27421361628784369 0 -0.41175872593851298 0.2549478601346914 0 -0.39384597734802013 0.25347135609337229 0 -0.3976364837244763 0.27421361628784369 0 -0.38378785707281859 0.2682522023459562 0 -0.39384597734802013 0.25347135609337229 0 -0.3976364837244763 0.27421361628784369 0 -0.35834524103505527 0.27479395617319979 0 -0.34490227433735798 0.27909378963084902 0 -0.35045174428906722 0.28677843618767362 0 -0.35834524103505527 0.27479395617319979 0 -0.34490227433735798 0.27909378963084902 0 -0.34728570068091402 0.2661688508290645 0 -0.34728570068091402 0.2661688508290645 0 -0.35464358931248319 0.25491115920099722 0 -0.34150965816976359 0.25817059719828012 0 -0.33845336435013867 0.242079554605789 0 -0.35464358931248319 0.25491115920099722 0 -0.34150965816976359 0.25817059719828012 0 -0.35834524103505527 0.27479395617319979 0 -0.34728570068091402 0.2661688508290645 0 -0.35464358931248319 0.25491115920099722 0 -0.35834524103505527 0.27479395617319979 0 -0.37477717689163992 0.25299635056682518 0 -0.35834524103505527 0.27479395617319979 0 -0.35464358931248319 0.25491115920099722 0 -0.37477717689163992 0.25299635056682518 0 -0.37477717689163992 0.25299635056682518 0 -0.3703732677084236 0.2804332674389724 0 -0.35834524103505527 0.27479395617319979 0 -0.37477717689163992 0.25299635056682518 0 -0.3703732677084236 0.2804332674389724 0 -0.3703732677084236 0.2804332674389724 0 -0.36596935852520629 0.30787018431111951 0 -0.38389766901197209 0.2919764357376447 0 -0.3703732677084236 0.2804332674389724 0 -0.36596935852520629 0.30787018431111951 0 -0.35834524103505527 0.27479395617319979 0 -0.3703732677084236 0.2804332674389724 0 -0.35925388220638338 0.290827281626163 0 -0.3703732677084236 0.2804332674389724 0 -0.36596935852520629 0.30787018431111951 0 -0.35925388220638338 0.290827281626163 0 -0.36596935852520629 0.30787018431111951 0 -0.35645499353340299 0.30154574554434233 0 -0.35925388220638338 0.290827281626163 0 -0.36596935852520629 0.30787018431111951 0 -0.35645499353340299 0.30154574554434233 0 -0.35774913989266272 0.31391262040183171 0 -0.35645499353340299 0.30154574554434233 0 -0.35013945535461871 0.3105838988596446 0 -0.35774913989266272 0.31391262040183171 0 -0.35645499353340299 0.30154574554434233 0 -0.34780240298166087 0.30288468022079579 0 -0.35285886900803182 0.29452238055293539 0 -0.34780240298166087 0.30288468022079579 0 -0.34622635383862083 0.29383585221412489 0 -0.33932813284697128 0.29730713825443927 0 -0.34780240298166087 0.30288468022079579 0 -0.35285886900803182 0.29452238055293539 0 -0.34622635383862083 0.29383585221412489 0 -0.34780240298166087 0.30288468022079579 0 -0.34514961405368982 0.30758965292055213 0 -0.33997231501418312 0.30473657218964828 0 -0.35645499353340299 0.30154574554434233 0 -0.34780240298166087 0.30288468022079579 0 -0.35013945535461871 0.3105838988596446 0 -0.34780240298166087 0.30288468022079579 0 -0.34514961405368982 0.30758965292055213 0 -0.35013945535461871 0.3105838988596446 0 -0.34514961405368982 0.30758965292055213 0 -0.35013945535461871 0.3105838988596446 0 -0.34268428286429659 0.31215346041211978 0 -0.35834524103505527 0.27479395617319979 0 -0.35925388220638338 0.290827281626163 0 -0.35045174428906722 0.28677843618767362 0 -0.35645499353340299 0.30154574554434233 0 -0.35925388220638338 0.290827281626163 0 -0.35285886900803182 0.29452238055293539 0 -0.35925388220638338 0.290827281626163 0 -0.35285886900803182 0.29452238055293539 0 -0.35045174428906722 0.28677843618767362 0 -0.35285886900803182 0.29452238055293539 0 -0.34622635383862083 0.29383585221412489 0 -0.35045174428906722 0.28677843618767362 0 -0.34622635383862083 0.29383585221412489 0 -0.35045174428906722 0.28677843618767362 0 -0.34088660642111013 0.2879281286912172 0 -0.34490227433735798 0.27909378963084902 0 -0.35045174428906722 0.28677843618767362 0 -0.34088660642111013 0.2879281286912172 0 -0.34490227433735798 0.27909378963084902 0 -0.34088660642111013 0.2879281286912172 0 -0.33262910378125132 0.278293493462413 0 -0.34088660642111013 0.2879281286912172 0 -0.33227483086849752 0.29261385498347509 0 -0.33932813284697128 0.29730713825443927 0 -0.34622635383862083 0.29383585221412489 0 -0.34088660642111013 0.2879281286912172 0 -0.33932813284697128 0.29730713825443927 0 -0.33227483086849752 0.29261385498347509 0 -0.32398535199451511 0.28524421774589648 0 -0.33262910378125132 0.278293493462413 0 -0.34088660642111013 0.2879281286912172 0 -0.33227483086849752 0.29261385498347509 0 -0.33262910378125132 0.278293493462413 0 -0.33718535734333338 0.30882123026638569 0 -0.34268428286429659 0.31215346041211978 0 -0.33477104767585758 0.31524888829805342 0 -0.33718535734333338 0.30882123026638569 0 -0.34268428286429659 0.31215346041211978 0 -0.33997231501418312 0.30473657218964828 0 -0.34514961405368982 0.30758965292055213 0 -0.34268428286429659 0.31215346041211978 0 -0.33997231501418312 0.30473657218964828 0 -0.33718535734333338 0.30882123026638569 0 -0.33997231501418312 0.30473657218964828 0 -0.33396296217470239 0.30554582684384218 0 -0.33997231501418312 0.30473657218964828 0 -0.33932813284697128 0.29730713825443927 0 -0.33396296217470239 0.30554582684384218 0 -0.34780240298166087 0.30288468022079579 0 -0.33997231501418312 0.30473657218964828 0 -0.33932813284697128 0.29730713825443927 0 -0.33227483086849752 0.29261385498347509 0 -0.33396296217470239 0.30554582684384218 0 -0.32251037119006698 0.3031431883822347 0 -0.33227483086849752 0.29261385498347509 0 -0.33932813284697128 0.29730713825443927 0 -0.33396296217470239 0.30554582684384218 0 -0.33718535734333338 0.30882123026638569 0 -0.33396296217470239 0.30554582684384218 0 -0.33477104767585758 0.31524888829805342 0 -0.33396296217470239 0.30554582684384218 0 -0.32251037119006698 0.3031431883822347 0 -0.33219148171911272 0.31730370811833031 0 -0.32251037119006698 0.3031431883822347 0 -0.31456388983813333 0.31636814557902659 0 -0.33219148171911272 0.31730370811833031 0 -0.32251037119006698 0.3031431883822347 0 -0.31282926066102218 0.28898266864613842 0 -0.30402337591517081 0.3051012194244167 0 -0.32251037119006698 0.3031431883822347 0 -0.30402337591517081 0.3051012194244167 0 -0.31456388983813333 0.31636814557902659 0 -0.32251037119006698 0.3031431883822347 0 -0.33219148171911272 0.31730370811833031 0 -0.33227483086849752 0.29261385498347509 0 -0.32251037119006698 0.3031431883822347 0 -0.32398535199451511 0.28524421774589648 0 -0.32251037119006698 0.3031431883822347 0 -0.32398535199451511 0.28524421774589648 0 -0.31282926066102218 0.28898266864613842 0 -0.32251037119006698 0.3031431883822347 0 -0.31282926066102218 0.28898266864613842 0 -0.31282926066102218 0.28898266864613842 0 -0.32065101258715689 0.274665503564473 0 -0.32398535199451511 0.28524421774589648 0 -0.31282926066102218 0.28898266864613842 0 -0.32065101258715689 0.274665503564473 0 -0.32065101258715689 0.274665503564473 0 -0.32847276451329022 0.26034833848280681 0 -0.31199410965335322 0.26463258327439948 0 -0.32065101258715689 0.274665503564473 0 -0.33262910378125132 0.278293493462413 0 -0.32847276451329022 0.26034833848280681 0 -0.31282926066102218 0.28898266864613842 0 -0.32065101258715689 0.274665503564473 0 -0.30403346053568642 0.27611708872161922 0 -0.32065101258715689 0.274665503564473 0 -0.32847276451329022 0.26034833848280681 0 -0.32398535199451511 0.28524421774589648 0 -0.32065101258715689 0.274665503564473 0 -0.33262910378125132 0.278293493462413 0 -0.33262910378125132 0.278293493462413 0 -0.33869287199199061 0.26734508287274228 0 -0.32847276451329022 0.26034833848280681 0 -0.34490227433735798 0.27909378963084902 0 -0.34728570068091402 0.2661688508290645 0 -0.33869287199199061 0.26734508287274228 0 -0.34490227433735798 0.27909378963084902 0 -0.33262910378125132 0.278293493462413 0 -0.33869287199199061 0.26734508287274228 0 -0.33845336435013867 0.242079554605789 0 -0.34150965816976359 0.25817059719828012 0 -0.32847276451329022 0.26034833848280681 0 -0.33845336435013867 0.242079554605789 0 -0.32847276451329022 0.26034833848280681 0 -0.34728570068091402 0.2661688508290645 0 -0.33869287199199061 0.26734508287274228 0 -0.34150965816976359 0.25817059719828012 0 -0.33869287199199061 0.26734508287274228 0 -0.34150965816976359 0.25817059719828012 0 -0.32847276451329022 0.26034833848280681 0 -0.33869287199199061 0.26734508287274228 0 -0.32847276451329022 0.26034833848280681 0 -0.311575650220281 0.24878047680599949 0 -0.32847276451329022 0.26034833848280681 0 -0.311575650220281 0.24878047680599949 0 -0.32847276451329022 0.26034833848280681 0 -0.31199410965335322 0.26463258327439948 0 -0.32455092720978362 0.24357057421839101 0 -0.311575650220281 0.24878047680599949 0 -0.32847276451329022 0.26034833848280681 0 -0.311575650220281 0.24878047680599949 0 -0.31199410965335322 0.26463258327439948 0 -0.29523766041035199 0.26325150879709891 0 -0.30403346053568642 0.27611708872161922 0 -0.29523766041035199 0.26325150879709891 0 -0.29574151564778611 0.28671646758259889 0 -0.31199410965335322 0.26463258327439948 0 -0.30403346053568642 0.27611708872161922 0 -0.29523766041035199 0.26325150879709891 0 -0.32065101258715689 0.274665503564473 0 -0.31199410965335322 0.26463258327439948 0 -0.30403346053568642 0.27611708872161922 0 -0.30403346053568642 0.27611708872161922 0 -0.29523766041035199 0.26325150879709891 0 -0.28985028671148488 0.25537141990030859 0 -0.26863301980023729 0.26794771562718522 0 -0.28534189936007232 0.28197220440765719 0 -0.29523766041035199 0.26325150879709891 0 -0.29574151564778611 0.28671646758259889 0 -0.29523766041035199 0.26325150879709891 0 -0.29574151564778611 0.28671646758259889 0 -0.28534189936007232 0.28197220440765719 0 -0.28985028671148488 0.25537141990030859 0 -0.29523766041035199 0.26325150879709891 0 -0.28534189936007232 0.28197220440765719 0 -0.28985028671148488 0.25537141990030859 0 -0.28534189936007232 0.28197220440765719 0 -0.29467853592727078 0.23721261512919359 0 -0.29523766041035199 0.26325150879709891 0 -0.29467853592727078 0.23721261512919359 0 -0.28985028671148488 0.25537141990030859 0 -0.29523766041035199 0.26325150879709891 0 -0.28985028671148488 0.25537141990030859 0 -0.29523766041035199 0.26325150879709891 0 -0.28985028671148488 0.25537141990030859 0 -0.2724296921133022 0.25217156250687062 0 -0.26863301980023729 0.26794771562718522 0 -0.2724296921133022 0.25217156250687062 0 -0.26863301980023729 0.26794771562718522 0 -0.25693865295534157 0.25278860643768353 0 -0.26863301980023729 0.26794771562718522 0 -0.26277913973510902 0.29023342414179659 0 -0.28534189936007232 0.28197220440765719 0 -0.26277913973510902 0.29023342414179659 0 -0.2447247674615598 0.2718938593685879 0 -0.26863301980023729 0.26794771562718522 0 -0.26277913973510902 0.29023342414179659 0 -0.2447247674615598 0.2718938593685879 0 -0.26863301980023729 0.26794771562718522 0 -0.25693865295534157 0.25278860643768353 0 -0.2447247674615598 0.2718938593685879 0 -0.26277913973510902 0.29023342414179659 0 -0.25757488899104952 0.31786411623381933 0 -0.2366570207200871 0.30010935915934539 0 -0.26277913973510902 0.29023342414179659 0 -0.28083351200865853 0.30857298891500562 0 -0.28534189936007232 0.28197220440765719 0 -0.26277913973510902 0.29023342414179659 0 -0.28083351200865853 0.30857298891500562 0 -0.26277913973510902 0.29023342414179659 0 -0.28083351200865853 0.30857298891500562 0 -0.25757488899104952 0.31786411623381933 0 -0.28083351200865853 0.30857298891500562 0 -0.29574151564778611 0.28671646758259889 0 -0.30402337591517081 0.3051012194244167 0 -0.28083351200865853 0.30857298891500562 0 -0.29574151564778611 0.28671646758259889 0 -0.28534189936007232 0.28197220440765719 0 -0.28083351200865853 0.30857298891500562 0 -0.28534189936007232 0.28197220440765719 0 -0.31282926066102218 0.28898266864613842 0 -0.29574151564778611 0.28671646758259889 0 -0.30402337591517081 0.3051012194244167 0 -0.31282926066102218 0.28898266864613842 0 -0.30403346053568642 0.27611708872161922 0 -0.29574151564778611 0.28671646758259889 0 -0.31282926066102218 0.28898266864613842 0 -0.30403346053568642 0.27611708872161922 0 -0.31282926066102218 0.28898266864613842 0 -0.30402337591517081 0.3051012194244167 0 -0.30402337591517081 0.3051012194244167 0 -0.29932851783868691 0.32736014762988469 0 -0.31456388983813333 0.31636814557902659 0 -0.29932851783868691 0.32736014762988469 0 -0.31400963374603508 0.33178692824556621 0 -0.31456388983813333 0.31636814557902659 0 -0.29582778577295937 0.3462701483728044 0 -0.31354931950312093 0.34747342072874071 0 -0.31400963374603508 0.33178692824556621 0 -0.29582778577295937 0.3462701483728044 0 -0.31400963374603508 0.33178692824556621 0 -0.29932851783868691 0.32736014762988469 0 -0.29582778577295937 0.3462701483728044 0 -0.31400963374603508 0.33178692824556621 0 -0.29932851783868691 0.32736014762988469 0 -0.27670802547122531 0.33291454828341721 0 -0.29582778577295937 0.3462701483728044 0 -0.27670802547122531 0.33291454828341721 0 -0.29582778577295937 0.3462701483728044 0 -0.28186865011063378 0.34863084123191301 0 -0.28083351200865853 0.30857298891500562 0 -0.30402337591517081 0.3051012194244167 0 -0.29932851783868691 0.32736014762988469 0 -0.28083351200865853 0.30857298891500562 0 -0.29932851783868691 0.32736014762988469 0 -0.28083351200865853 0.30857298891500562 0 -0.29932851783868691 0.32736014762988469 0 -0.27670802547122531 0.33291454828341721 0 -0.28083351200865853 0.30857298891500562 0 -0.27670802547122531 0.33291454828341721 0 -0.25757488899104952 0.31786411623381933 0 -0.28083351200865853 0.30857298891500562 0 -0.27670802547122531 0.33291454828341721 0 -0.27670802547122531 0.33291454828341721 0 -0.25757488899104952 0.31786411623381933 0 -0.25368472498167011 0.34420349485172652 0 -0.2613799420943046 0.36179346951182628 0 -0.25453646971320443 0.37462232419521813 0 -0.26689531734350652 0.36931705260985792 0 -0.2613799420943046 0.36179346951182628 0 -0.25453646971320443 0.37462232419521813 0 -0.24822911175635759 0.36217347122335058 0 -0.25368472498167011 0.34420349485172652 0 -0.27258253893379292 0.35725610765182902 0 -0.2613799420943046 0.36179346951182628 0 -0.25368472498167011 0.34420349485172652 0 -0.24822911175635759 0.36217347122335058 0 -0.2613799420943046 0.36179346951182628 0 -0.25368472498167011 0.34420349485172652 0 -0.27258253893379292 0.35725610765182902 0 -0.27670802547122531 0.33291454828341721 0 -0.27258253893379292 0.35725610765182902 0 -0.27670802547122531 0.33291454828341721 0 -0.27258253893379292 0.35725610765182902 0 -0.28186865011063378 0.34863084123191301 0 -0.27670802547122531 0.33291454828341721 0 -0.25368472498167011 0.34420349485172652 0 -0.27258253893379292 0.35725610765182902 0 -0.27258253893379292 0.35725610765182902 0 -0.27764593779988228 0.36075336850004069 0 -0.28186865011063378 0.34863084123191301 0 -0.27258253893379292 0.35725610765182902 0 -0.27764593779988228 0.36075336850004069 0 -0.27764593779988228 0.36075336850004069 0 -0.27110701654299552 0.36596211494311248 0 -0.28943519450698252 0.3688961411714532 0 -0.27110701654299552 0.36596211494311248 0 -0.28943519450698252 0.3688961411714532 0 -0.27110701654299552 0.36596211494311248 0 -0.28943519450698252 0.3688961411714532 0 -0.28084635904778937 0.37544065550995409 0 -0.27258253893379292 0.35725610765182902 0 -0.27764593779988228 0.36075336850004069 0 -0.27110701654299552 0.36596211494311248 0 -0.27764593779988228 0.36075336850004069 0 -0.27110701654299552 0.36596211494311248 0 -0.2613799420943046 0.36179346951182628 0 -0.27258253893379292 0.35725610765182902 0 -0.27110701654299552 0.36596211494311248 0 -0.2613799420943046 0.36179346951182628 0 -0.27110701654299552 0.36596211494311248 0 -0.26689531734350652 0.36931705260985792 0 -0.27258253893379292 0.35725610765182902 0 -0.27110701654299552 0.36596211494311248 0 -0.27110701654299552 0.36596211494311248 0 -0.26689531734350652 0.36931705260985792 0 -0.27110701654299552 0.36596211494311248 0 -0.28084635904778937 0.37544065550995409 0 -0.27663284499009211 0.37939207802828528 0 -0.28943519450698252 0.3688961411714532 0 -0.28685204816290072 0.37621819500323123 0 -0.28084635904778937 0.37544065550995409 0 -0.27764593779988228 0.36075336850004069 0 -0.28943519450698252 0.3688961411714532 0 -0.29551252006441958 0.37309371542857861 0 -0.28943519450698252 0.3688961411714532 0 -0.28685204816290072 0.37621819500323123 0 -0.29551252006441958 0.37309371542857861 0 -0.28943519450698252 0.3688961411714532 0 -0.27764593779988228 0.36075336850004069 0 -0.29582778577295937 0.3462701483728044 0 -0.27764593779988228 0.36075336850004069 0 -0.29582778577295937 0.3462701483728044 0 -0.28186865011063378 0.34863084123191301 0 -0.28943519450698252 0.3688961411714532 0 -0.29582778577295937 0.3462701483728044 0 -0.30300283950081008 0.36051339397403093 0 -0.27764593779988228 0.36075336850004069 0 -0.28943519450698252 0.3688961411714532 0 -0.29582778577295937 0.3462701483728044 0 -0.29582778577295937 0.3462701483728044 0 -0.30300283950081008 0.36051339397403093 0 -0.31354931950312093 0.34747342072874071 0 -0.28943519450698252 0.3688961411714532 0 -0.31408843612631249 0.37197903781600761 0 -0.28943519450698252 0.3688961411714532 0 -0.30300283950081008 0.36051339397403093 0 -0.31408843612631249 0.37197903781600761 0 -0.29551252006441958 0.37309371542857861 0 -0.28943519450698252 0.3688961411714532 0 -0.31408843612631249 0.37197903781600761 0 -0.30300283950081008 0.36051339397403093 0 -0.31408843612631249 0.37197903781600761 0 -0.32472866683278162 0.35786931268145811 0 -0.31408843612631249 0.37197903781600761 0 -0.32472866683278162 0.35786931268145811 0 -0.33874167774564268 0.3750619344605613 0 -0.31408843612631249 0.37197903781600761 0 -0.33874167774564268 0.3750619344605613 0 -0.33942470910854639 0.36092010030626542 0 -0.32472866683278162 0.35786931268145811 0 -0.33874167774564268 0.3750619344605613 0 -0.33942470910854639 0.36092010030626542 0 -0.3497530714632448 0.36534695126967459 0 -0.33874167774564268 0.3750619344605613 0 -0.33815763529499693 0.35089104021064632 0 -0.32472866683278162 0.35786931268145811 0 -0.33017767166301859 0.34092732036984391 0 -0.33815763529499693 0.35089104021064632 0 -0.33017767166301859 0.34092732036984391 0 -0.34251680356524339 0.34321741671518669 0 -0.33815763529499693 0.35089104021064632 0 -0.3460879504978186 0.35511096805544279 0 -0.34556584107983002 0.34849125976349993 0 -0.33815763529499693 0.35089104021064632 0 -0.34251680356524339 0.34321741671518669 0 -0.34556584107983002 0.34849125976349993 0 -0.33942470910854639 0.36092010030626542 0 -0.33815763529499693 0.35089104021064632 0 -0.3460879504978186 0.35511096805544279 0 -0.33942470910854639 0.36092010030626542 0 -0.33815763529499693 0.35089104021064632 0 -0.32472866683278162 0.35786931268145811 0 -0.31354931950312093 0.34747342072874071 0 -0.32472866683278162 0.35786931268145811 0 -0.33017767166301859 0.34092732036984391 0 -0.30300283950081008 0.36051339397403093 0 -0.31354931950312093 0.34747342072874071 0 -0.32472866683278162 0.35786931268145811 0 -0.31400963374603508 0.33178692824556621 0 -0.33219148171911272 0.31730370811833031 0 -0.33017767166301859 0.34092732036984391 0 -0.31354931950312093 0.34747342072874071 0 -0.31400963374603508 0.33178692824556621 0 -0.33017767166301859 0.34092732036984391 0 -0.31400963374603508 0.33178692824556621 0 -0.33219148171911272 0.31730370811833031 0 -0.31400963374603508 0.33178692824556621 0 -0.31456388983813333 0.31636814557902659 0 -0.33219148171911272 0.31730370811833031 0 -0.33477104767585758 0.31524888829805342 0 -0.33219148171911272 0.31730370811833031 0 -0.34795343649956839 0.3209401758966518 0 -0.33219148171911272 0.31730370811833031 0 -0.34725440703092858 0.33933618574797492 0 -0.34795343649956839 0.3209401758966518 0 -0.33396296217470239 0.30554582684384218 0 -0.33477104767585758 0.31524888829805342 0 -0.33219148171911272 0.31730370811833031 0 -0.33477104767585758 0.31524888829805342 0 -0.33219148171911272 0.31730370811833031 0 -0.34268428286429659 0.31215346041211978 0 -0.33477104767585758 0.31524888829805342 0 -0.34795343649956839 0.3209401758966518 0 -0.33219148171911272 0.31730370811833031 0 -0.34725440703092858 0.33933618574797492 0 -0.33219148171911272 0.31730370811833031 0 -0.33017767166301859 0.34092732036984391 0 -0.34725440703092858 0.33933618574797492 0 -0.33017767166301859 0.34092732036984391 0 -0.34251680356524339 0.34321741671518669 0 -0.34725440703092858 0.33933618574797492 0 -0.34725440703092858 0.33933618574797492 0 -0.34795343649956839 0.3209401758966518 0 -0.36531193472093021 0.32454274932608829 0 -0.34251680356524339 0.34321741671518669 0 -0.35002774160894051 0.34339273059465159 0 -0.34725440703092858 0.33933618574797492 0 -0.34725440703092858 0.33933618574797492 0 -0.35848812135385522 0.33902175933596412 0 -0.36531193472093021 0.32454274932608829 0 -0.34725440703092858 0.33933618574797492 0 -0.36531193472093021 0.32454274932608829 0 -0.34251680356524339 0.34321741671518669 0 -0.34725440703092858 0.33933618574797492 0 -0.35002774160894051 0.34339273059465159 0 -0.34725440703092858 0.33933618574797492 0 -0.35002774160894051 0.34339273059465159 0 -0.35848812135385522 0.33902175933596412 0 -0.35712059876301439 0.34740413424876382 0 -0.35002774160894051 0.34339273059465159 0 -0.34725440703092858 0.33933618574797492 0 -0.35848812135385522 0.33902175933596412 0 -0.34795343649956839 0.3209401758966518 0 -0.35774913989266272 0.31391262040183171 0 -0.36531193472093021 0.32454274932608829 0 -0.35013945535461871 0.3105838988596446 0 -0.34268428286429659 0.31215346041211978 0 -0.34795343649956839 0.3209401758966518 0 -0.35013945535461871 0.3105838988596446 0 -0.34795343649956839 0.3209401758966518 0 -0.35774913989266272 0.31391262040183171 0 -0.38336946241093189 0.30974931290420182 0 -0.36596935852520629 0.30787018431111951 0 -0.36531193472093021 0.32454274932608829 0 -0.36596935852520629 0.30787018431111951 0 -0.35774913989266272 0.31391262040183171 0 -0.36531193472093021 0.32454274932608829 0 -0.37580907906339922 0.33647878059299557 0 -0.38201615891261242 0.31564575533693578 0 -0.36531193472093021 0.32454274932608829 0 -0.38336946241093189 0.30974931290420182 0 -0.36531193472093021 0.32454274932608829 0 -0.35848812135385522 0.33902175933596412 0 -0.36629538785756799 0.33494858662202331 0 -0.36491865814174967 0.34450616947628299 0 -0.35848812135385522 0.33902175933596412 0 -0.36491865814174967 0.34450616947628299 0 -0.35712059876301439 0.34740413424876382 0 -0.35848812135385522 0.33902175933596412 0 -0.36531193472093021 0.32454274932608829 0 -0.36629538785756799 0.33494858662202331 0 -0.37580907906339922 0.33647878059299557 0 -0.36531193472093021 0.32454274932608829 0 -0.36629538785756799 0.33494858662202331 0 -0.37580907906339922 0.33647878059299557 0 -0.36629538785756799 0.33494858662202331 0 -0.36491865814174967 0.34450616947628299 0 -0.37580907906339922 0.33647878059299557 0 -0.36491865814174967 0.34450616947628299 0 -0.36960199921418602 0.35731180584905542 0 -0.37580907906339922 0.33647878059299557 0 -0.36960199921418602 0.35731180584905542 0 -0.36491865814174967 0.34450616947628299 0 -0.36204010283369881 0.35293053614415609 0 -0.35712059876301439 0.34740413424876382 0 -0.36491865814174967 0.34450616947628299 0 -0.36204010283369881 0.35293053614415609 0 -0.36960199921418602 0.35731180584905542 0 -0.36231373349064938 0.3583368008115923 0 -0.36204010283369881 0.35293053614415609 0 -0.35577634304253192 0.35617190760009498 0 -0.36231373349064938 0.3583368008115923 0 -0.36204010283369881 0.35293053614415609 0 -0.36960199921418602 0.35731180584905542 0 -0.36960199921418602 0.35731180584905542 0 -0.36339491936497281 0.37814483110511521 0 -0.36960199921418602 0.35731180584905542 0 -0.37158620997362618 0.36500042586936587 0 -0.36339491936497281 0.37814483110511521 0 -0.36960199921418602 0.35731180584905542 0 -0.36108579844600058 0.36545797327707619 0 -0.36339491936497281 0.37814483110511521 0 -0.38141148745950948 0.38039780936179463 0 -0.37158620997362618 0.36500042586936587 0 -0.36339491936497281 0.37814483110511521 0 -0.38070440212728118 0.35956436367519867 0 -0.36960199921418602 0.35731180584905542 0 -0.37158620997362618 0.36500042586936587 0 -0.36231373349064938 0.3583368008115923 0 -0.36108579844600058 0.36545797327707619 0 -0.35577634304253192 0.35617190760009498 0 -0.36231373349064938 0.3583368008115923 0 -0.36960199921418602 0.35731180584905542 0 -0.36108579844600058 0.36545797327707619 0 -0.36108579844600058 0.36545797327707619 0 -0.3497530714632448 0.36534695126967459 0 -0.35577634304253192 0.35617190760009498 0 -0.3497530714632448 0.36534695126967459 0 -0.36339491936497281 0.37814483110511521 0 -0.33874167774564268 0.3750619344605613 0 -0.36108579844600058 0.36545797327707619 0 -0.3497530714632448 0.36534695126967459 0 -0.36339491936497281 0.37814483110511521 0 -0.33942470910854639 0.36092010030626542 0 -0.3497530714632448 0.36534695126967459 0 -0.3460879504978186 0.35511096805544279 0 -0.3497530714632448 0.36534695126967459 0 -0.3460879504978186 0.35511096805544279 0 -0.35577634304253192 0.35617190760009498 0 -0.3460879504978186 0.35511096805544279 0 -0.35103907443215082 0.34984414324157243 0 -0.35577634304253192 0.35617190760009498 0 -0.3460879504978186 0.35511096805544279 0 -0.34556584107983002 0.34849125976349993 0 -0.35103907443215082 0.34984414324157243 0 -0.34251680356524339 0.34321741671518669 0 -0.35002774160894051 0.34339273059465159 0 -0.34556584107983002 0.34849125976349993 0 -0.35002774160894051 0.34339273059465159 0 -0.34556584107983002 0.34849125976349993 0 -0.35103907443215082 0.34984414324157243 0 -0.35103907443215082 0.34984414324157243 0 -0.35712059876301439 0.34740413424876382 0 -0.35577634304253192 0.35617190760009498 0 -0.35002774160894051 0.34339273059465159 0 -0.35103907443215082 0.34984414324157243 0 -0.35712059876301439 0.34740413424876382 0 -0.36204010283369881 0.35293053614415609 0 -0.35712059876301439 0.34740413424876382 0 -0.35577634304253192 0.35617190760009498 0 -0.35746143571760969 0.39805957647408341 0 -0.33700984602307921 0.4055687403903776 0 -0.35746143571760969 0.39805957647408341 0 -0.36339491936497281 0.37814483110511521 0 -0.33874167774564268 0.3750619344605613 0 -0.36339491936497281 0.37814483110511521 0 -0.33874167774564268 0.3750619344605613 0 -0.38141148745950948 0.38039780936179463 0 -0.37844474563582792 0.390355182046278 0 -0.36339491936497281 0.37814483110511521 0 -0.37844474563582792 0.390355182046278 0 -0.35746143571760969 0.39805957647408341 0 -0.36339491936497281 0.37814483110511521 0 -0.35746143571760969 0.39805957647408341 0 -0.36339491936497281 0.37814483110511521 0 -0.38141148745950948 0.38039780936179463 0 -0.36339491936497281 0.37814483110511521 0 -0.37668454372729859 0.41206883315114529 0 -0.37844474563582792 0.390355182046278 0 -0.35746143571760969 0.39805957647408341 0 -0.37844474563582792 0.390355182046278 0 -0.35746143571760969 0.39805957647408341 0 -0.37668454372729859 0.41206883315114529 0 -0.36778315087773072 0.43214877602771662 0 -0.35179051953527918 0.41709305806631919 0 -0.37668454372729859 0.41206883315114529 0 -0.35746143571760969 0.39805957647408341 0 -0.35179051953527918 0.41709305806631919 0 -0.37668454372729859 0.41206883315114529 0 -0.35179051953527918 0.41709305806631919 0 -0.36778315087773072 0.43214877602771662 0 -0.35179051953527918 0.41709305806631919 0 -0.34355933144160938 0.44471966407244162 0 -0.35179051953527918 0.41709305806631919 0 -0.34355933144160938 0.44471966407244162 0 -0.35746143571760969 0.39805957647408341 0 -0.35179051953527918 0.41709305806631919 0 -0.33700984602307921 0.4055687403903776 0 -0.35746143571760969 0.39805957647408341 0 -0.35179051953527918 0.41709305806631919 0 -0.35179051953527918 0.41709305806631919 0 -0.33092261172728182 0.42130471390500562 0 -0.33700984602307921 0.4055687403903776 0 -0.35179051953527918 0.41709305806631919 0 -0.33092261172728182 0.42130471390500562 0 -0.33092261172728182 0.42130471390500562 0 -0.31655825632854873 0.41307790430667191 0 -0.33700984602307921 0.4055687403903776 0 -0.35179051953527918 0.41709305806631919 0 -0.33092261172728182 0.42130471390500562 0 -0.34355933144160938 0.44471966407244162 0 -0.33092261172728182 0.42130471390500562 0 -0.32304151796324199 0.43794530689545591 0 -0.34355933144160938 0.44471966407244162 0 -0.33092261172728182 0.42130471390500562 0 -0.31005470391928353 0.42551636974368717 0 -0.32304151796324199 0.43794530689545591 0 -0.33092261172728182 0.42130471390500562 0 -0.31005470391928353 0.42551636974368717 0 -0.31005470391928353 0.42551636974368717 0 -0.30636015846579262 0.44081646755455739 0 -0.32304151796324199 0.43794530689545591 0 -0.31655825632854873 0.41307790430667191 0 -0.32178824989383492 0.40044082628072353 0 -0.33700984602307921 0.4055687403903776 0 -0.33092261172728182 0.42130471390500562 0 -0.31655825632854873 0.41307790430667191 0 -0.31005470391928353 0.42551636974368717 0 -0.31655825632854873 0.41307790430667191 0 -0.33700984602307921 0.4055687403903776 0 -0.31655825632854873 0.41307790430667191 0 -0.32178824989383492 0.40044082628072353 0 -0.30820761894760612 0.40180007281058999 0 -0.31589124725359768 0.39098578459502642 0 -0.32178824989383492 0.40044082628072353 0 -0.30820761894760612 0.40180007281058999 0 -0.31589124725359768 0.39098578459502642 0 -0.32178824989383492 0.40044082628072353 0 -0.33127428091634248 0.39077162930095188 0 -0.35746143571760969 0.39805957647408341 0 -0.33127428091634248 0.39077162930095188 0 -0.33700984602307921 0.4055687403903776 0 -0.32178824989383492 0.40044082628072353 0 -0.33127428091634248 0.39077162930095188 0 -0.33700984602307921 0.4055687403903776 0 -0.35746143571760969 0.39805957647408341 0 -0.33127428091634248 0.39077162930095188 0 -0.33874167774564268 0.3750619344605613 0 -0.31408843612631249 0.37197903781600761 0 -0.33127428091634248 0.39077162930095188 0 -0.33874167774564268 0.3750619344605613 0 -0.31408843612631249 0.37197903781600761 0 -0.31589124725359768 0.39098578459502642 0 -0.33127428091634248 0.39077162930095188 0 -0.29551252006441958 0.37309371542857861 0 -0.31408843612631249 0.37197903781600761 0 -0.30568017353146049 0.38157918508743732 0 -0.31408843612631249 0.37197903781600761 0 -0.31589124725359768 0.39098578459502642 0 -0.30568017353146049 0.38157918508743732 0 -0.31589124725359768 0.39098578459502642 0 -0.30568017353146049 0.38157918508743732 0 -0.30603649680964828 0.39194203915736708 0 -0.30568017353146049 0.38157918508743732 0 -0.29743858983336929 0.38628170497916159 0 -0.30603649680964828 0.39194203915736708 0 -0.29551252006441958 0.37309371542857861 0 -0.30568017353146049 0.38157918508743732 0 -0.29743858983336929 0.38628170497916159 0 -0.31589124725359768 0.39098578459502642 0 -0.30820761894760612 0.40180007281058999 0 -0.30603649680964828 0.39194203915736708 0 -0.30820761894760612 0.40180007281058999 0 -0.30603649680964828 0.39194203915736708 0 -0.29604813782321171 0.40003827384795049 0 -0.29743858983336929 0.38628170497916159 0 -0.30603649680964828 0.39194203915736708 0 -0.29604813782321171 0.40003827384795049 0 -0.30820761894760612 0.40180007281058999 0 -0.29604813782321171 0.40003827384795049 0 -0.2987408814332651 0.40933989620534528 0 -0.29604813782321171 0.40003827384795049 0 -0.28905057763704689 0.40562835892549581 0 -0.28392778011776681 0.39892722844600809 0 -0.29604813782321171 0.40003827384795049 0 -0.28905057763704689 0.40562835892549581 0 -0.2987408814332651 0.40933989620534528 0 -0.29604813782321171 0.40003827384795049 0 -0.28980128107673031 0.39400368344191522 0 -0.28392778011776681 0.39892722844600809 0 -0.29743858983336929 0.38628170497916159 0 -0.29604813782321171 0.40003827384795049 0 -0.28980128107673031 0.39400368344191522 0 -0.28980128107673031 0.39400368344191522 0 -0.28179061653257348 0.3907675264945405 0 -0.28392778011776681 0.39892722844600809 0 -0.28905057763704689 0.40562835892549581 0 -0.28392778011776681 0.39892722844600809 0 -0.27817781655911977 0.40726136879628272 0 -0.29743858983336929 0.38628170497916159 0 -0.28980128107673031 0.39400368344191522 0 -0.28179061653257348 0.3907675264945405 0 -0.29743858983336929 0.38628170497916159 0 -0.28179061653257348 0.3907675264945405 0 -0.28819376848868639 0.38228739672622841 0 -0.29743858983336929 0.38628170497916159 0 -0.28179061653257348 0.3907675264945405 0 -0.29551252006441958 0.37309371542857861 0 -0.29743858983336929 0.38628170497916159 0 -0.28819376848868639 0.38228739672622841 0 -0.29551252006441958 0.37309371542857861 0 -0.28819376848868639 0.38228739672622841 0 -0.28685204816290072 0.37621819500323123 0 -0.28179061653257348 0.3907675264945405 0 -0.28158428542699082 0.38279668863870758 0 -0.28819376848868639 0.38228739672622841 0 -0.28158428542699082 0.38279668863870758 0 -0.28819376848868639 0.38228739672622841 0 -0.28685204816290072 0.37621819500323123 0 -0.28158428542699082 0.38279668863870758 0 -0.28685204816290072 0.37621819500323123 0 -0.28084635904778937 0.37544065550995409 0 -0.27110701654299552 0.36596211494311248 0 -0.26614264323177789 0.39525334800991979 0 -0.27110701654299552 0.36596211494311248 0 -0.27663284499009211 0.37939207802828528 0 -0.27229768174870289 0.38438446135480281 0 -0.27110701654299552 0.36596211494311248 0 -0.27229768174870289 0.38438446135480281 0 -0.26614264323177789 0.39525334800991979 0 -0.27110701654299552 0.36596211494311248 0 -0.26689531734350652 0.36931705260985792 0 -0.26614264323177789 0.39525334800991979 0 -0.28158428542699082 0.38279668863870758 0 -0.28084635904778937 0.37544065550995409 0 -0.27663284499009211 0.37939207802828528 0 -0.27229768174870289 0.38438446135480281 0 -0.27641046434025379 0.38710393959788297 0 -0.26614264323177789 0.39525334800991979 0 -0.28179061653257348 0.3907675264945405 0 -0.28158428542699082 0.38279668863870758 0 -0.27641046434025379 0.38710393959788297 0 -0.27663284499009211 0.37939207802828528 0 -0.27229768174870289 0.38438446135480281 0 -0.27641046434025379 0.38710393959788297 0 -0.28158428542699082 0.38279668863870758 0 -0.27663284499009211 0.37939207802828528 0 -0.27641046434025379 0.38710393959788297 0 -0.28179061653257348 0.3907675264945405 0 -0.27641046434025379 0.38710393959788297 0 -0.26614264323177789 0.39525334800991979 0 -0.28179061653257348 0.3907675264945405 0 -0.27661435207820328 0.39472461325581981 0 -0.26614264323177789 0.39525334800991979 0 -0.28179061653257348 0.3907675264945405 0 -0.28392778011776681 0.39892722844600809 0 -0.27661435207820328 0.39472461325581981 0 -0.28179061653257348 0.3907675264945405 0 -0.26614264323177789 0.39525334800991979 0 -0.28392778011776681 0.39892722844600809 0 -0.27661435207820328 0.39472461325581981 0 -0.27572094251528112 0.40196054452149499 0 -0.28392778011776681 0.39892722844600809 0 -0.27572094251528112 0.40196054452149499 0 -0.27817781655911977 0.40726136879628272 0 -0.27572094251528112 0.40196054452149499 0 -0.26416382130603389 0.40692896758786917 0 -0.27817781655911977 0.40726136879628272 0 -0.27661435207820328 0.39472461325581981 0 -0.27572094251528112 0.40196054452149499 0 -0.26416382130603389 0.40692896758786917 0 -0.27661435207820328 0.39472461325581981 0 -0.26614264323177789 0.39525334800991979 0 -0.26416382130603389 0.40692896758786917 0 -0.27661435207820328 0.39472461325581981 0 -0.26416382130603389 0.40692896758786917 0 -0.26614264323177789 0.39525334800991979 0 -0.24781733580734391 0.38604582424895789 0 -0.24388213391773941 0.40163479241199579 0 -0.26614264323177789 0.39525334800991979 0 -0.25157066981256843 0.40894445920752592 0 -0.24388213391773941 0.40163479241199579 0 -0.26614264323177789 0.39525334800991979 0 -0.24388213391773941 0.40163479241199579 0 -0.26614264323177789 0.39525334800991979 0 -0.26416382130603389 0.40692896758786917 0 -0.26614264323177789 0.39525334800991979 0 -0.25157066981256843 0.40894445920752592 0 -0.26416382130603389 0.40692896758786917 0 -0.25453646971320443 0.37462232419521813 0 -0.26614264323177789 0.39525334800991979 0 -0.24781733580734391 0.38604582424895789 0 -0.25453646971320443 0.37462232419521813 0 -0.26689531734350652 0.36931705260985792 0 -0.26614264323177789 0.39525334800991979 0 -0.26107936510946472 0.42512814796255138 0 -0.25799490891289278 0.4433273283372331 0 -0.26107936510946472 0.42512814796255138 0 -0.27138668263498972 0.43431468825499642 0 -0.25799490891289278 0.4433273283372331 0 -0.26107936510946472 0.42512814796255138 0 -0.25799490891289278 0.4433273283372331 0 -0.24263019791012411 0.42803682032005991 0 -0.25799490891289278 0.4433273283372331 0 -0.24263019791012411 0.42803682032005991 0 -0.26107936510946472 0.42512814796255138 0 -0.26416382130603389 0.40692896758786917 0 -0.26107936510946472 0.42512814796255138 0 -0.26416382130603389 0.40692896758786917 0 -0.24263019791012411 0.42803682032005991 0 -0.26416382130603389 0.40692896758786917 0 -0.24263019791012411 0.42803682032005991 0 -0.25157066981256843 0.40894445920752592 0 -0.26416382130603389 0.40692896758786917 0 -0.24263019791012411 0.42803682032005991 0 -0.26107936510946472 0.42512814796255138 0 -0.26416382130603389 0.40692896758786917 0 -0.27370875903762831 0.41905129137381081 0 -0.26416382130603389 0.40692896758786917 0 -0.27817781655911977 0.40726136879628272 0 -0.27370875903762831 0.41905129137381081 0 -0.27817781655911977 0.40726136879628272 0 -0.27370875903762831 0.41905129137381081 0 -0.28647403122915938 0.41490769911839809 0 -0.27370875903762831 0.41905129137381081 0 -0.27138668263498972 0.43431468825499642 0 -0.28359142860916292 0.42646623900898489 0 -0.26107936510946472 0.42512814796255138 0 -0.27370875903762831 0.41905129137381081 0 -0.27138668263498972 0.43431468825499642 0 -0.27138668263498972 0.43431468825499642 0 -0.28359142860916292 0.42646623900898489 0 -0.28426041238301858 0.43930471826406531 0 -0.28359142860916292 0.42646623900898489 0 -0.29576073289665422 0.43347565529899762 0 -0.28426041238301858 0.43930471826406531 0 -0.28359142860916292 0.42646623900898489 0 -0.29576073289665422 0.43347565529899762 0 -0.29610666663401819 0.4205870682229661 0 -0.28905057763704689 0.40562835892549581 0 -0.27817781655911977 0.40726136879628272 0 -0.28647403122915938 0.41490769911839809 0 -0.27370875903762831 0.41905129137381081 0 -0.28359142860916292 0.42646623900898489 0 -0.28647403122915938 0.41490769911839809 0 -0.28359142860916292 0.42646623900898489 0 -0.28647403122915938 0.41490769911839809 0 -0.29610666663401819 0.4205870682229661 0 -0.28647403122915938 0.41490769911839809 0 -0.29610666663401819 0.4205870682229661 0 -0.2987408814332651 0.40933989620534528 0 -0.28905057763704689 0.40562835892549581 0 -0.28647403122915938 0.41490769911839809 0 -0.2987408814332651 0.40933989620534528 0 -0.31655825632854873 0.41307790430667191 0 -0.29610666663401819 0.4205870682229661 0 -0.2987408814332651 0.40933989620534528 0 -0.31655825632854873 0.41307790430667191 0 -0.29610666663401819 0.4205870682229661 0 -0.31005470391928353 0.42551636974368717 0 -0.31655825632854873 0.41307790430667191 0 -0.29610666663401819 0.4205870682229661 0 -0.31655825632854873 0.41307790430667191 0 -0.30820761894760612 0.40180007281058999 0 -0.2987408814332651 0.40933989620534528 0 -0.29576073289665422 0.43347565529899762 0 -0.31005470391928353 0.42551636974368717 0 -0.30636015846579262 0.44081646755455739 0 -0.29576073289665422 0.43347565529899762 0 -0.29610666663401819 0.4205870682229661 0 -0.31005470391928353 0.42551636974368717 0 -0.29576073289665422 0.43347565529899762 0 -0.30636015846579262 0.44081646755455739 0 -0.2944743431310044 0.45228094752776682 0 -0.30636015846579262 0.44081646755455739 0 -0.30512100021830008 0.46490456032657962 0 -0.30636015846579262 0.44081646755455739 0 -0.30512100021830008 0.46490456032657962 0 -0.2944743431310044 0.45228094752776682 0 -0.30636015846579262 0.44081646755455739 0 -0.30512100021830008 0.46490456032657962 0 -0.32381548421637429 0.45642326981327008 0 -0.30512100021830008 0.46490456032657962 0 -0.2944743431310044 0.45228094752776682 0 -0.28858619761816889 0.47377087817814589 0 -0.2944743431310044 0.45228094752776682 0 -0.27329055326553048 0.45854910325768988 0 -0.28858619761816889 0.47377087817814589 0 -0.2944743431310044 0.45228094752776682 0 -0.28426041238301858 0.43930471826406531 0 -0.27329055326553048 0.45854910325768988 0 -0.29576073289665422 0.43347565529899762 0 -0.2944743431310044 0.45228094752776682 0 -0.28426041238301858 0.43930471826406531 0 -0.27138668263498972 0.43431468825499642 0 -0.28426041238301858 0.43930471826406531 0 -0.27329055326553048 0.45854910325768988 0 -0.27138668263498972 0.43431468825499642 0 -0.27329055326553048 0.45854910325768988 0 -0.25799490891289278 0.4433273283372331 0 -0.27329055326553048 0.45854910325768988 0 -0.25799490891289278 0.4433273283372331 0 -0.27329055326553048 0.45854910325768988 0 -0.28858619761816889 0.47377087817814589 0 -0.27329055326553048 0.45854910325768988 0 -0.25438198006151169 0.46464464965965441 0 -0.25799490891289278 0.4433273283372331 0 -0.27329055326553048 0.45854910325768988 0 -0.25438198006151169 0.46464464965965441 0 -0.26859377699614329 0.4811575177290362 0 -0.25438198006151169 0.46464464965965441 0 -0.25799490891289278 0.4433273283372331 0 -0.25438198006151169 0.46464464965965441 0 -0.25799490891289278 0.4433273283372331 0 -0.24356894722331929 0.44821508210096461 0 -0.25080144613104921 0.5 0 -0.26859377699614329 0.4811575177290362 0 -0.2467553297522557 0.48147402383551691 0 -0.25080144613104921 0.5 0 -0.26859377699614329 0.4811575177290362 0 -0.27705851983630159 0.5 0 -0.25438198006151169 0.46464464965965441 0 -0.26859377699614329 0.4811575177290362 0 -0.2467553297522557 0.48147402383551691 0 -0.27329055326553048 0.45854910325768988 0 -0.26859377699614329 0.4811575177290362 0 -0.28858619761816889 0.47377087817814589 0 -0.26859377699614329 0.4811575177290362 0 -0.27705851983630159 0.5 0 -0.28830299895955541 0.48893487857068268 0 -0.27705851983630159 0.5 0 -0.28830299895955541 0.48893487857068268 0 -0.30331559354155391 0.49999999999999939 0 -0.26859377699614329 0.4811575177290362 0 -0.28830299895955541 0.48893487857068268 0 -0.28858619761816889 0.47377087817814589 0 -0.28830299895955541 0.48893487857068268 0 -0.28858619761816889 0.47377087817814589 0 -0.30388184197080759 0.48899265309860168 0 -0.28858619761816889 0.47377087817814589 0 -0.30388184197080759 0.48899265309860168 0 -0.30512100021830008 0.46490456032657962 0 -0.30388184197080759 0.48899265309860168 0 -0.30512100021830008 0.46490456032657962 0 -0.30388184197080759 0.48899265309860168 0 -0.31654611508668351 0.48621885406126381 0 -0.30512100021830008 0.46490456032657962 0 -0.28858619761816889 0.47377087817814589 0 -0.30388184197080759 0.48899265309860168 0 -0.30331559354155391 0.49999999999999939 0 -0.30388184197080759 0.48899265309860168 0 -0.28830299895955541 0.48893487857068268 0 -0.30331559354155391 0.49999999999999939 0 -0.30388184197080759 0.48899265309860168 0 -0.30388184197080759 0.48899265309860168 0 -0.31494260619507058 0.500000000000002 0 -0.31654611508668351 0.48621885406126381 0 -0.30331559354155391 0.49999999999999939 0 -0.30388184197080759 0.48899265309860168 0 -0.31494260619507058 0.500000000000002 0 -0.30388184197080759 0.48899265309860168 0 -0.31494260619507058 0.500000000000002 0 -0.31654611508668351 0.48621885406126381 0 -0.33275791060477139 0.5 0 -0.32602721644446891 0.47719705688113462 0 -0.31494260619507058 0.500000000000002 0 -0.31654611508668351 0.48621885406126381 0 -0.33275791060477139 0.5 0 -0.33275791060477139 0.5 0 -0.34200011506365208 0.48331572161184322 0 -0.32602721644446891 0.47719705688113462 0 -0.33275791060477139 0.5 0 -0.34200011506365208 0.48331572161184322 0 -0.35057321501447208 0.49999999999999872 0 -0.34200011506365208 0.48331572161184322 0 -0.32602721644446891 0.47719705688113462 0 -0.33593075250063148 0.46750731867274542 0 -0.34200011506365208 0.48331572161184322 0 -0.33593075250063148 0.46750731867274542 0 -0.35201810675435108 0.4676562019538536 0 -0.30512100021830008 0.46490456032657962 0 -0.31654611508668351 0.48621885406126381 0 -0.32602721644446891 0.47719705688113462 0 -0.30512100021830008 0.46490456032657962 0 -0.32602721644446891 0.47719705688113462 0 -0.32381548421637429 0.45642326981327008 0 -0.30636015846579262 0.44081646755455739 0 -0.32381548421637429 0.45642326981327008 0 -0.32304151796324199 0.43794530689545591 0 -0.32381548421637429 0.45642326981327008 0 -0.32304151796324199 0.43794530689545591 0 -0.34355933144160938 0.44471966407244162 0 -0.32381548421637429 0.45642326981327008 0 -0.34355933144160938 0.44471966407244162 0 -0.33593075250063148 0.46750731867274542 0 -0.32602721644446891 0.47719705688113462 0 -0.32381548421637429 0.45642326981327008 0 -0.33593075250063148 0.46750731867274542 0 -0.35201810675435108 0.4676562019538536 0 -0.36028404822733179 0.44939908513577981 0 -0.36566353784044697 0.46257036423753561 0 -0.34355933144160938 0.44471966407244162 0 -0.35201810675435108 0.4676562019538536 0 -0.36028404822733179 0.44939908513577981 0 -0.34355933144160938 0.44471966407244162 0 -0.33593075250063148 0.46750731867274542 0 -0.35201810675435108 0.4676562019538536 0 -0.36778315087773072 0.43214877602771662 0 -0.34355933144160938 0.44471966407244162 0 -0.36028404822733179 0.44939908513577981 0 -0.36778315087773072 0.43214877602771662 0 -0.36028404822733179 0.44939908513577981 0 -0.37376195539900242 0.45249759326054367 0 -0.37701653082709469 0.46900635458093531 0 -0.37376195539900242 0.45249759326054367 0 -0.36566353784044697 0.46257036423753561 0 -0.36028404822733179 0.44939908513577981 0 -0.37376195539900242 0.45249759326054367 0 -0.36566353784044697 0.46257036423753561 0 -0.36552159823955549 0.47691699748014749 0 -0.37220834978290879 0.49000150617251997 0 -0.35595833756876799 0.48470827593500232 0 -0.37701653082709469 0.46900635458093531 0 -0.36566353784044697 0.46257036423753561 0 -0.36552159823955549 0.47691699748014749 0 -0.37805640255927542 0.47903421333972468 0 -0.37701653082709469 0.46900635458093531 0 -0.36552159823955549 0.47691699748014749 0 -0.35201810675435108 0.4676562019538536 0 -0.36566353784044697 0.46257036423753561 0 -0.36552159823955549 0.47691699748014749 0 -0.37805640255927542 0.47903421333972468 0 -0.36552159823955549 0.47691699748014749 0 -0.37220834978290879 0.49000150617251997 0 -0.37220834978290879 0.49000150617251997 0 -0.35057321501447208 0.49999999999999872 0 -0.35595833756876799 0.48470827593500232 0 -0.37789332191386737 0.5 0 -0.37220834978290879 0.49000150617251997 0 -0.35057321501447208 0.49999999999999872 0 -0.37220834978290879 0.49000150617251997 0 -0.35057321501447208 0.49999999999999872 0 -0.34200011506365208 0.48331572161184322 0 -0.35057321501447208 0.49999999999999872 0 -0.35595833756876799 0.48470827593500232 0 -0.34200011506365208 0.48331572161184322 0 -0.35201810675435108 0.4676562019538536 0 -0.35595833756876799 0.48470827593500232 0 -0.35201810675435108 0.4676562019538536 0 -0.36552159823955549 0.47691699748014749 0 -0.35595833756876799 0.48470827593500232 0 -0.142080771754234 0.48212662116497451 0 -0.14744519938683801 0.47523243684594829 0 -0.1380962150490555 0.47248515407185221 0 -0.142080771754234 0.48212662116497451 0 -0.14744519938683801 0.47523243684594829 0 -0.15313912830386001 0.48632871978955722 0 -0.14744519938683801 0.47523243684594829 0 -0.1380962150490555 0.47248515407185221 0 -0.1446941887002707 0.46454185114692792 0 -0.14744519938683801 0.47523243684594829 0 -0.1446941887002707 0.46454185114692792 0 -0.15815775643206659 0.473198332503178 0 -0.14744519938683801 0.47523243684594829 0 -0.15313912830386001 0.48632871978955722 0 -0.15815775643206659 0.473198332503178 0 -0.142080771754234 0.48212662116497451 0 -0.15313912830386001 0.48632871978955722 0 -0.13803845513632401 0.5 0 -0.15313912830386001 0.48632871978955722 0 -0.13803845513632401 0.5 0 -0.1663114266205577 0.50000000000000011 0 -0.142080771754234 0.48212662116497451 0 -0.13803845513632401 0.5 0 -0.12908554574303099 0.47755934496718438 0 -0.13803845513632401 0.5 0 -0.12908554574303099 0.47755934496718438 0 -0.1160402402672886 0.48503019582547341 0 -0.142080771754234 0.48212662116497451 0 -0.12908554574303099 0.47755934496718438 0 -0.1380962150490555 0.47248515407185221 0 -0.12908554574303099 0.47755934496718438 0 -0.1380962150490555 0.47248515407185221 0 -0.13097929143795109 0.46459511115351071 0 -0.12908554574303099 0.47755934496718438 0 -0.13097929143795109 0.46459511115351071 0 -0.1176294132596279 0.46872710166108278 0 -0.13097929143795109 0.46459511115351071 0 -0.1351896940807357 0.45304119368279389 0 -0.1204057133641486 0.45504160574272429 0 -0.13097929143795109 0.46459511115351071 0 -0.1351896940807357 0.45304119368279389 0 -0.1446941887002707 0.46454185114692792 0 -0.1380962150490555 0.47248515407185221 0 -0.13097929143795109 0.46459511115351071 0 -0.1446941887002707 0.46454185114692792 0 -0.1351896940807357 0.45304119368279389 0 -0.13889501351409689 0.43598263237980822 0 -0.1242648033483075 0.43981492828754482 0 -0.1351896940807357 0.45304119368279389 0 -0.1242648033483075 0.43981492828754482 0 -0.1204057133641486 0.45504160574272429 0 -0.15017718620881049 0.45777983735391498 0 -0.13889501351409689 0.43598263237980822 0 -0.1351896940807357 0.45304119368279389 0 -0.15017718620881049 0.45777983735391498 0 -0.13889501351409689 0.43598263237980822 0 -0.15995177900170021 0.44572512983606088 0 -0.15376963845050121 0.4328235067909087 0 -0.13889501351409689 0.43598263237980822 0 -0.15017718620881049 0.45777983735391498 0 -0.15995177900170021 0.44572512983606088 0 -0.13889501351409689 0.43598263237980822 0 -0.15017718620881049 0.45777983735391498 0 -0.15995177900170021 0.44572512983606088 0 -0.1446941887002707 0.46454185114692792 0 -0.15017718620881049 0.45777983735391498 0 -0.1351896940807357 0.45304119368279389 0 -0.1446941887002707 0.46454185114692792 0 -0.15017718620881049 0.45777983735391498 0 -0.1446941887002707 0.46454185114692792 0 -0.15017718620881049 0.45777983735391498 0 -0.15815775643206659 0.473198332503178 0 -0.15017718620881049 0.45777983735391498 0 -0.15868634814382429 0.46531473325554851 0 -0.15815775643206659 0.473198332503178 0 -0.15017718620881049 0.45777983735391498 0 -0.15815775643206659 0.473198332503178 0 -0.160558198289461 0.46047642425523388 0 -0.1655661766345953 0.45099185016729298 0 -0.16585225164495951 0.46980433890986678 0 -0.1655661766345953 0.45099185016729298 0 -0.17867327812258871 0.46114583139567922 0 -0.16585225164495951 0.46980433890986678 0 -0.1655661766345953 0.45099185016729298 0 -0.16585225164495951 0.46980433890986678 0 -0.15868634814382429 0.46531473325554851 0 -0.160558198289461 0.46047642425523388 0 -0.16585225164495951 0.46980433890986678 0 -0.15017718620881049 0.45777983735391498 0 -0.15868634814382429 0.46531473325554851 0 -0.160558198289461 0.46047642425523388 0 -0.15017718620881049 0.45777983735391498 0 -0.160558198289461 0.46047642425523388 0 -0.15995177900170021 0.44572512983606088 0 -0.15995177900170021 0.44572512983606088 0 -0.1655661766345953 0.45099185016729298 0 -0.1697263717945888 0.43367042231820602 0 -0.160558198289461 0.46047642425523388 0 -0.15995177900170021 0.44572512983606088 0 -0.1655661766345953 0.45099185016729298 0 -0.15995177900170021 0.44572512983606088 0 -0.1697263717945888 0.43367042231820602 0 -0.1655661766345953 0.45099185016729298 0 -0.1926513277646352 0.45119866261047992 0 -0.1697263717945888 0.43367042231820602 0 -0.1926513277646352 0.45119866261047992 0 -0.1697263717945888 0.43367042231820602 0 -0.1926513277646352 0.45119866261047992 0 -0.18693863061853061 0.43491447939059907 0 -0.1697263717945888 0.43367042231820602 0 -0.1655661766345953 0.45099185016729298 0 -0.17867327812258871 0.46114583139567922 0 -0.1926513277646352 0.45119866261047992 0 -0.17867327812258871 0.46114583139567922 0 -0.17876854714149509 0.47093865696285842 0 -0.16585225164495951 0.46980433890986678 0 -0.17867327812258871 0.46114583139567922 0 -0.1899884502156329 0.46461586120334353 0 -0.1926513277646352 0.45119866261047992 0 -0.17867327812258871 0.46114583139567922 0 -0.17876854714149509 0.47093865696285842 0 -0.1899884502156329 0.46461586120334353 0 -0.17876854714149509 0.47093865696285842 0 -0.19138341924764241 0.47827032896460842 0 -0.1899884502156329 0.46461586120334353 0 -0.1757986315986971 0.48088398659212228 0 -0.17876854714149509 0.47093865696285842 0 -0.19138341924764241 0.47827032896460842 0 -0.1757986315986971 0.48088398659212228 0 -0.17876854714149509 0.47093865696285842 0 -0.16585225164495951 0.46980433890986678 0 -0.16585225164495951 0.46980433890986678 0 -0.16613832665532341 0.48861682765244069 0 -0.16585225164495951 0.46980433890986678 0 -0.15815775643206659 0.473198332503178 0 -0.16613832665532341 0.48861682765244069 0 -0.1757986315986971 0.48088398659212228 0 -0.16585225164495951 0.46980433890986678 0 -0.16613832665532341 0.48861682765244069 0 -0.15313912830386001 0.48632871978955722 0 -0.15815775643206659 0.473198332503178 0 -0.16613832665532341 0.48861682765244069 0 -0.15815775643206659 0.473198332503178 0 -0.16613832665532341 0.48861682765244069 0 -0.15868634814382429 0.46531473325554851 0 -0.16585225164495951 0.46980433890986678 0 -0.15815775643206659 0.473198332503178 0 -0.15313912830386001 0.48632871978955722 0 -0.16613832665532341 0.48861682765244069 0 -0.1663114266205577 0.50000000000000011 0 -0.16613832665532341 0.48861682765244069 0 -0.1720302250152923 0.50000000000000022 0 -0.16613832665532341 0.48861682765244069 0 -0.1663114266205577 0.50000000000000011 0 -0.1720302250152923 0.50000000000000022 0 -0.16613832665532341 0.48861682765244069 0 -0.1663114266205577 0.50000000000000011 0 -0.16613832665532341 0.48861682765244069 0 -0.17430115969348189 0.49501483184612438 0 -0.1720302250152923 0.50000000000000022 0 -0.17430115969348189 0.49501483184612438 0 -0.1720302250152923 0.50000000000000022 0 -0.1982872987205446 0.5 0 -0.1757986315986971 0.48088398659212228 0 -0.17430115969348189 0.49501483184612438 0 -0.19138341924764241 0.47827032896460842 0 -0.17430115969348189 0.49501483184612438 0 -0.19138341924764241 0.47827032896460842 0 -0.1757986315986971 0.48088398659212228 0 -0.16613832665532341 0.48861682765244069 0 -0.17430115969348189 0.49501483184612438 0 -0.17430115969348189 0.49501483184612438 0 -0.1982872987205446 0.5 0 -0.19138341924764241 0.47827032896460842 0 -0.1982872987205446 0.5 0 -0.19138341924764241 0.47827032896460842 0 -0.21217809917650449 0.48030286392854288 0 -0.19138341924764241 0.47827032896460842 0 -0.208465678801803 0.46152582608309223 0 -0.19138341924764241 0.47827032896460842 0 -0.21217809917650449 0.48030286392854288 0 -0.208465678801803 0.46152582608309223 0 -0.1982872987205446 0.5 0 -0.21217809917650449 0.48030286392854288 0 -0.22454437242579681 0.5 0 -0.22454437242579681 0.5 0 -0.2288960980978284 0.47674808914996208 0 -0.2467553297522557 0.48147402383551691 0 -0.21217809917650449 0.48030286392854288 0 -0.22454437242579681 0.5 0 -0.2288960980978284 0.47674808914996208 0 -0.21217809917650449 0.48030286392854288 0 -0.2288960980978284 0.47674808914996208 0 -0.22325063631842021 0.46203708915627778 0 -0.25438198006151169 0.46464464965965441 0 -0.2467553297522557 0.48147402383551691 0 -0.2372897108761052 0.46028528898629889 0 -0.2288960980978284 0.47674808914996208 0 -0.2467553297522557 0.48147402383551691 0 -0.2372897108761052 0.46028528898629889 0 -0.25080144613104921 0.5 0 -0.22454437242579681 0.5 0 -0.2467553297522557 0.48147402383551691 0 -0.24356894722331929 0.44821508210096461 0 -0.22554793835596351 0.44478132320157598 0 -0.24263019791012411 0.42803682032005991 0 -0.24356894722331929 0.44821508210096461 0 -0.2372897108761052 0.46028528898629889 0 -0.22554793835596351 0.44478132320157598 0 -0.25799490891289278 0.4433273283372331 0 -0.24356894722331929 0.44821508210096461 0 -0.24263019791012411 0.42803682032005991 0 -0.25438198006151169 0.46464464965965441 0 -0.24356894722331929 0.44821508210096461 0 -0.2372897108761052 0.46028528898629889 0 -0.2288960980978284 0.47674808914996208 0 -0.2372897108761052 0.46028528898629889 0 -0.22325063631842021 0.46203708915627778 0 -0.2372897108761052 0.46028528898629889 0 -0.22325063631842021 0.46203708915627778 0 -0.22554793835596351 0.44478132320157598 0 -0.22325063631842021 0.46203708915627778 0 -0.22554793835596351 0.44478132320157598 0 -0.208465678801803 0.46152582608309223 0 -0.22554793835596351 0.44478132320157598 0 -0.20785557032720109 0.44518798724498809 0 -0.21437917226951189 0.43588067273166847 0 -0.22554793835596351 0.44478132320157598 0 -0.20785557032720109 0.44518798724498809 0 -0.208465678801803 0.46152582608309223 0 -0.22554793835596351 0.44478132320157598 0 -0.208465678801803 0.46152582608309223 0 -0.21217809917650449 0.48030286392854288 0 -0.22325063631842021 0.46203708915627778 0 -0.208465678801803 0.46152582608309223 0 -0.19138341924764241 0.47827032896460842 0 -0.208465678801803 0.46152582608309223 0 -0.1899884502156329 0.46461586120334353 0 -0.208465678801803 0.46152582608309223 0 -0.1899884502156329 0.46461586120334353 0 -0.1926513277646352 0.45119866261047992 0 -0.20785557032720109 0.44518798724498809 0 -0.1926513277646352 0.45119866261047992 0 -0.18693863061853061 0.43491447939059907 0 -0.20785557032720109 0.44518798724498809 0 -0.208465678801803 0.46152582608309223 0 -0.1926513277646352 0.45119866261047992 0 -0.19176926968858449 0.42488004754311998 0 -0.20430089696141959 0.42856004989685992 0 -0.18693863061853061 0.43491447939059907 0 -0.20785557032720109 0.44518798724498809 0 -0.20430089696141959 0.42856004989685992 0 -0.18693863061853061 0.43491447939059907 0 -0.19176926968858449 0.42488004754311998 0 -0.19667758679306771 0.41738623802377928 0 -0.20430089696141959 0.42856004989685992 0 -0.19667758679306771 0.41738623802377928 0 -0.19460267291041519 0.40299123798476227 0 -0.182164522352502 0.41833083015148409 0 -0.19460267291041519 0.40299123798476227 0 -0.182164522352502 0.41833083015148409 0 -0.19176926968858449 0.42488004754311998 0 -0.19667758679306771 0.41738623802377928 0 -0.182164522352502 0.41833083015148409 0 -0.19667758679306771 0.41738623802377928 0 -0.2074030129404133 0.4163894186605448 0 -0.20430089696141959 0.42856004989685992 0 -0.19667758679306771 0.41738623802377928 0 -0.2074030129404133 0.4163894186605448 0 -0.19460267291041519 0.40299123798476227 0 -0.2074030129404133 0.4163894186605448 0 -0.21981228343346321 0.42499333058324978 0 -0.22162162460370111 0.40801623681407218 0 -0.2074030129404133 0.4163894186605448 0 -0.22162162460370111 0.40801623681407218 0 -0.19460267291041519 0.40299123798476227 0 -0.20785557032720109 0.44518798724498809 0 -0.20430089696141959 0.42856004989685992 0 -0.21437917226951189 0.43588067273166847 0 -0.2074030129404133 0.4163894186605448 0 -0.20430089696141959 0.42856004989685992 0 -0.21981228343346321 0.42499333058324978 0 -0.20430089696141959 0.42856004989685992 0 -0.21437917226951189 0.43588067273166847 0 -0.21981228343346321 0.42499333058324978 0 -0.22554793835596351 0.44478132320157598 0 -0.24263019791012411 0.42803682032005991 0 -0.22554793835596351 0.44478132320157598 0 -0.2313941741476824 0.42795323546389102 0 -0.24263019791012411 0.42803682032005991 0 -0.22554793835596351 0.44478132320157598 0 -0.21437917226951189 0.43588067273166847 0 -0.21981228343346321 0.42499333058324978 0 -0.22554793835596351 0.44478132320157598 0 -0.2313941741476824 0.42795323546389102 0 -0.21981228343346321 0.42499333058324978 0 -0.2313941741476824 0.42795323546389102 0 -0.21981228343346321 0.42499333058324978 0 -0.2301621318308705 0.41771135234831969 0 -0.2313941741476824 0.42795323546389102 0 -0.2301621318308705 0.41771135234831969 0 -0.23881831920799079 0.42424335086624981 0 -0.21981228343346321 0.42499333058324978 0 -0.22162162460370111 0.40801623681407218 0 -0.2301621318308705 0.41771135234831969 0 -0.22162162460370111 0.40801623681407218 0 -0.2301621318308705 0.41771135234831969 0 -0.241034552697166 0.41286836770778501 0 -0.25157066981256843 0.40894445920752592 0 -0.241034552697166 0.41286836770778501 0 -0.24263019791012411 0.42803682032005991 0 -0.241034552697166 0.41286836770778501 0 -0.24263019791012411 0.42803682032005991 0 -0.23881831920799079 0.42424335086624981 0 -0.22162162460370111 0.40801623681407218 0 -0.241034552697166 0.41286836770778501 0 -0.24388213391773941 0.40163479241199579 0 -0.2301621318308705 0.41771135234831969 0 -0.241034552697166 0.41286836770778501 0 -0.23881831920799079 0.42424335086624981 0 -0.25157066981256843 0.40894445920752592 0 -0.241034552697166 0.41286836770778501 0 -0.24388213391773941 0.40163479241199579 0 -0.2313941741476824 0.42795323546389102 0 -0.24263019791012411 0.42803682032005991 0 -0.23881831920799079 0.42424335086624981 0 -0.24263019791012411 0.42803682032005991 0 -0.23881831920799079 0.42424335086624981 0 -0.25453646971320443 0.37462232419521813 0 -0.24781733580734391 0.38604582424895789 0 -0.23735930512057779 0.37349779701461089 0 -0.2365264908337599 0.38834162546439549 0 -0.24781733580734391 0.38604582424895789 0 -0.23735930512057779 0.37349779701461089 0 -0.2365264908337599 0.38834162546439549 0 -0.24781733580734391 0.38604582424895789 0 -0.24388213391773941 0.40163479241199579 0 -0.22162162460370111 0.40801623681407218 0 -0.24388213391773941 0.40163479241199579 0 -0.22162162460370111 0.40801623681407218 0 -0.2365264908337599 0.38834162546439549 0 -0.2225569648072106 0.38059728391652659 0 -0.22162162460370111 0.40801623681407218 0 -0.2365264908337599 0.38834162546439549 0 -0.24388213391773941 0.40163479241199579 0 -0.2365264908337599 0.38834162546439549 0 -0.2225569648072106 0.38059728391652659 0 -0.23735930512057779 0.37349779701461089 0 -0.2225569648072106 0.38059728391652659 0 -0.20545957084956781 0.38789926664213359 0 -0.1994770785436861 0.36691897370504389 0 -0.22162162460370111 0.40801623681407218 0 -0.2225569648072106 0.38059728391652659 0 -0.20545957084956781 0.38789926664213359 0 -0.22162162460370111 0.40801623681407218 0 -0.20545957084956781 0.38789926664213359 0 -0.19460267291041519 0.40299123798476227 0 -0.20545957084956781 0.38789926664213359 0 -0.19460267291041519 0.40299123798476227 0 -0.18736095772118591 0.3836472042370111 0 -0.20545957084956781 0.38789926664213359 0 -0.18736095772118591 0.3836472042370111 0 -0.1994770785436861 0.36691897370504389 0 -0.18736095772118591 0.3836472042370111 0 -0.16248792359233191 0.38534127627451031 0 -0.17644948136236779 0.3976803029940168 0 -0.18736095772118591 0.3836472042370111 0 -0.16248792359233191 0.38534127627451031 0 -0.1741500565645078 0.37123080613525078 0 -0.16248792359233191 0.38534127627451031 0 -0.16330635783110381 0.4038062271485704 0 -0.14438589058212131 0.3948348353259919 0 -0.16248792359233191 0.38534127627451031 0 -0.16330635783110381 0.4038062271485704 0 -0.17644948136236779 0.3976803029940168 0 -0.19460267291041519 0.40299123798476227 0 -0.17644948136236779 0.3976803029940168 0 -0.17778078602166139 0.40821888849324761 0 -0.19460267291041519 0.40299123798476227 0 -0.18736095772118591 0.3836472042370111 0 -0.17644948136236779 0.3976803029940168 0 -0.16330635783110381 0.4038062271485704 0 -0.17644948136236779 0.3976803029940168 0 -0.17778078602166139 0.40821888849324761 0 -0.19460267291041519 0.40299123798476227 0 -0.182164522352502 0.41833083015148409 0 -0.17778078602166139 0.40821888849324761 0 -0.182164522352502 0.41833083015148409 0 -0.1723808956519178 0.41828584418740389 0 -0.17778078602166139 0.40821888849324761 0 -0.19176926968858449 0.42488004754311998 0 -0.182164522352502 0.41833083015148409 0 -0.18693863061853061 0.43491447939059907 0 -0.182164522352502 0.41833083015148409 0 -0.18693863061853061 0.43491447939059907 0 -0.1697263717945888 0.43367042231820602 0 -0.182164522352502 0.41833083015148409 0 -0.1697263717945888 0.43367042231820602 0 -0.182164522352502 0.41833083015148409 0 -0.1723808956519178 0.41828584418740389 0 -0.1697263717945888 0.43367042231820602 0 -0.15995177900170021 0.44572512983606088 0 -0.1697263717945888 0.43367042231820602 0 -0.15376963845050121 0.4328235067909087 0 -0.1697263717945888 0.43367042231820602 0 -0.14650538949161929 0.41591584262955861 0 -0.15376963845050121 0.4328235067909087 0 -0.1697263717945888 0.43367042231820602 0 -0.14650538949161929 0.41591584262955861 0 -0.1723808956519178 0.41828584418740389 0 -0.1697263717945888 0.43367042231820602 0 -0.14650538949161929 0.41591584262955861 0 -0.1723808956519178 0.41828584418740389 0 -0.14650538949161929 0.41591584262955861 0 -0.16330635783110381 0.4038062271485704 0 -0.1723808956519178 0.41828584418740389 0 -0.14650538949161929 0.41591584262955861 0 -0.16330635783110381 0.4038062271485704 0 -0.1723808956519178 0.41828584418740389 0 -0.17778078602166139 0.40821888849324761 0 -0.14650538949161929 0.41591584262955861 0 -0.15376963845050121 0.4328235067909087 0 -0.13889501351409689 0.43598263237980822 0 -0.13889501351409689 0.43598263237980822 0 -0.12761284081938409 0.41418542740570108 0 -0.14650538949161929 0.41591584262955861 0 -0.13889501351409689 0.43598263237980822 0 -0.12761284081938409 0.41418542740570108 0 -0.13889501351409689 0.43598263237980822 0 -0.12761284081938409 0.41418542740570108 0 -0.1242648033483075 0.43981492828754482 0 -0.14650538949161929 0.41591584262955861 0 -0.12761284081938409 0.41418542740570108 0 -0.12644786621320531 0.40058001872868543 0 -0.14650538949161929 0.41591584262955861 0 -0.12644786621320531 0.40058001872868543 0 -0.14650538949161929 0.41591584262955861 0 -0.12761284081938409 0.41418542740570108 0 -0.14650538949161929 0.41591584262955861 0 -0.12644786621320531 0.40058001872868543 0 -0.14438589058212131 0.3948348353259919 0 -0.12644786621320531 0.40058001872868543 0 -0.12826940643264259 0.38638828685515292 0 -0.14438589058212131 0.3948348353259919 0 -0.1399268433138337 0.37661104245066729 0 -0.12826940643264259 0.38638828685515292 0 -0.1198206075896991 0.37069234566290138 0 -0.1399268433138337 0.37661104245066729 0 -0.12826940643264259 0.38638828685515292 0 -0.14438589058212131 0.3948348353259919 0 -0.16248792359233191 0.38534127627451031 0 -0.1399268433138337 0.37661104245066729 0 -0.1571746455416145 0.36408416689185819 0 -0.16248792359233191 0.38534127627451031 0 -0.1399268433138337 0.37661104245066729 0 -0.14438589058212131 0.3948348353259919 0 -0.16330635783110381 0.4038062271485704 0 -0.14650538949161929 0.41591584262955861 0 -0.14438589058212131 0.3948348353259919 0 -0.1367685514822152 0.35851885971508118 0 -0.13367478836053351 0.33932016938713638 0 -0.15331730601663701 0.3395623532820784 0 -0.1367685514822152 0.35851885971508118 0 -0.15331730601663701 0.3395623532820784 0 -0.1571746455416145 0.36408416689185819 0 -0.1399268433138337 0.37661104245066729 0 -0.1367685514822152 0.35851885971508118 0 -0.1571746455416145 0.36408416689185819 0 -0.1399268433138337 0.37661104245066729 0 -0.1367685514822152 0.35851885971508118 0 -0.1198206075896991 0.37069234566290138 0 -0.1367685514822152 0.35851885971508118 0 -0.13367478836053351 0.33932016938713638 0 -0.1173066256070304 0.35104950557859033 0 -0.13367478836053351 0.33932016938713638 0 -0.1262409447270301 0.3211703831111522 0 -0.1175879007316586 0.33497855513245622 0 -0.13367478836053351 0.33932016938713638 0 -0.1262409447270301 0.3211703831111522 0 -0.14995133854557879 0.31573290008088639 0 -0.1262409447270301 0.3211703831111522 0 -0.14995133854557879 0.31573290008088639 0 -0.13170636281121431 0.30540396541675668 0 -0.13367478836053351 0.33932016938713638 0 -0.14995133854557879 0.31573290008088639 0 -0.15331730601663701 0.3395623532820784 0 -0.15331730601663701 0.3395623532820784 0 -0.17079439025487569 0.32494122108339912 0 -0.1763971922801616 0.3532406634935612 0 -0.14995133854557879 0.31573290008088639 0 -0.17079439025487569 0.32494122108339912 0 -0.167164841548782 0.29891422322321631 0 -0.14995133854557879 0.31573290008088639 0 -0.15331730601663701 0.3395623532820784 0 -0.17079439025487569 0.32494122108339912 0 -0.17079439025487569 0.32494122108339912 0 -0.19256976679114979 0.33165381796875049 0 -0.19699128312530151 0.30504565645142051 0 -0.17079439025487569 0.32494122108339912 0 -0.1763971922801616 0.3532406634935612 0 -0.19256976679114979 0.33165381796875049 0 -0.15331730601663701 0.3395623532820784 0 -0.1763971922801616 0.3532406634935612 0 -0.1571746455416145 0.36408416689185819 0 -0.15331730601663701 0.3395623532820784 0 -0.1763971922801616 0.3532406634935612 0 -0.1763971922801616 0.3532406634935612 0 -0.1571746455416145 0.36408416689185819 0 -0.1741500565645078 0.37123080613525078 0 -0.16248792359233191 0.38534127627451031 0 -0.1571746455416145 0.36408416689185819 0 -0.1741500565645078 0.37123080613525078 0 -0.18736095772118591 0.3836472042370111 0 -0.1741500565645078 0.37123080613525078 0 -0.1994770785436861 0.36691897370504389 0 -0.1763971922801616 0.3532406634935612 0 -0.1741500565645078 0.37123080613525078 0 -0.1994770785436861 0.36691897370504389 0 -0.1763971922801616 0.3532406634935612 0 -0.1994770785436861 0.36691897370504389 0 -0.1763971922801616 0.3532406634935612 0 -0.20127160642404629 0.34878804965207372 0 -0.19256976679114979 0.33165381796875049 0 -0.1763971922801616 0.3532406634935612 0 -0.1994770785436861 0.36691897370504389 0 -0.20127160642404629 0.34878804965207372 0 -0.1994770785436861 0.36691897370504389 0 -0.20127160642404629 0.34878804965207372 0 -0.22480168799342179 0.35512276170724633 0 -0.20127160642404629 0.34878804965207372 0 -0.22480168799342179 0.35512276170724633 0 -0.2131123065118124 0.33700403138576668 0 -0.2225569648072106 0.38059728391652659 0 -0.1994770785436861 0.36691897370504389 0 -0.2225569648072106 0.38059728391652659 0 -0.1994770785436861 0.36691897370504389 0 -0.22480168799342179 0.35512276170724633 0 -0.2225569648072106 0.38059728391652659 0 -0.22480168799342179 0.35512276170724633 0 -0.23735930512057779 0.37349779701461089 0 -0.25368472498167011 0.34420349485172652 0 -0.22480168799342179 0.35512276170724633 0 -0.24822911175635759 0.36217347122335058 0 -0.22480168799342179 0.35512276170724633 0 -0.24822911175635759 0.36217347122335058 0 -0.23735930512057779 0.37349779701461089 0 -0.25453646971320443 0.37462232419521813 0 -0.24822911175635759 0.36217347122335058 0 -0.23735930512057779 0.37349779701461089 0 -0.25757488899104952 0.31786411623381933 0 -0.23478691102954721 0.33115088205162452 0 -0.2366570207200871 0.30010935915934539 0 -0.25368472498167011 0.34420349485172652 0 -0.22480168799342179 0.35512276170724633 0 -0.23478691102954721 0.33115088205162452 0 -0.25368472498167011 0.34420349485172652 0 -0.23478691102954721 0.33115088205162452 0 -0.25757488899104952 0.31786411623381933 0 -0.25368472498167011 0.34420349485172652 0 -0.23478691102954721 0.33115088205162452 0 -0.23478691102954721 0.33115088205162452 0 -0.2158890970774244 0.31809826925152251 0 -0.2131123065118124 0.33700403138576668 0 -0.22480168799342179 0.35512276170724633 0 -0.23478691102954721 0.33115088205162452 0 -0.2131123065118124 0.33700403138576668 0 -0.23478691102954721 0.33115088205162452 0 -0.2158890970774244 0.31809826925152251 0 -0.2366570207200871 0.30010935915934539 0 -0.23478691102954721 0.33115088205162452 0 -0.2158890970774244 0.31809826925152251 0 -0.2158890970774244 0.31809826925152251 0 -0.2131123065118124 0.33700403138576668 0 -0.19256976679114979 0.33165381796875049 0 -0.20127160642404629 0.34878804965207372 0 -0.2131123065118124 0.33700403138576668 0 -0.19256976679114979 0.33165381796875049 0 -0.2158890970774244 0.31809826925152251 0 -0.19256976679114979 0.33165381796875049 0 -0.19699128312530151 0.30504565645142051 0 -0.19699128312530151 0.30504565645142051 0 -0.2044220976180971 0.2747921468301005 0 -0.18537993383704029 0.28397978744787411 0 -0.19699128312530151 0.30504565645142051 0 -0.21636901433909059 0.29447561219915308 0 -0.2044220976180971 0.2747921468301005 0 -0.2158890970774244 0.31809826925152251 0 -0.19699128312530151 0.30504565645142051 0 -0.21636901433909059 0.29447561219915308 0 -0.2158890970774244 0.31809826925152251 0 -0.19699128312530151 0.30504565645142051 0 -0.2158890970774244 0.31809826925152251 0 -0.21636901433909059 0.29447561219915308 0 -0.2366570207200871 0.30010935915934539 0 -0.21636901433909059 0.29447561219915308 0 -0.2366570207200871 0.30010935915934539 0 -0.2235041758045673 0.27405874977876837 0 -0.26277913973510902 0.29023342414179659 0 -0.2366570207200871 0.30010935915934539 0 -0.2447247674615598 0.2718938593685879 0 -0.2366570207200871 0.30010935915934539 0 -0.2447247674615598 0.2718938593685879 0 -0.2235041758045673 0.27405874977876837 0 -0.25693865295534157 0.25278860643768353 0 -0.2416444700809012 0.25186566196455601 0 -0.2447247674615598 0.2718938593685879 0 -0.2416444700809012 0.25186566196455601 0 -0.2447247674615598 0.2718938593685879 0 -0.22667039518801041 0.25355429459537898 0 -0.2447247674615598 0.2718938593685879 0 -0.22667039518801041 0.25355429459537898 0 -0.2447247674615598 0.2718938593685879 0 -0.2235041758045673 0.27405874977876837 0 -0.22667039518801041 0.25355429459537898 0 -0.2235041758045673 0.27405874977876837 0 -0.22667039518801041 0.25355429459537898 0 -0.21218175950055909 0.24952722652004439 0 -0.2044220976180971 0.2747921468301005 0 -0.1929026130837673 0.25762258695206858 0 -0.21218175950055909 0.24952722652004439 0 -0.2044220976180971 0.2747921468301005 0 -0.21218175950055909 0.24952722652004439 0 -0.2235041758045673 0.27405874977876837 0 -0.2044220976180971 0.2747921468301005 0 -0.21218175950055909 0.24952722652004439 0 -0.21636901433909059 0.29447561219915308 0 -0.2235041758045673 0.27405874977876837 0 -0.2044220976180971 0.2747921468301005 0 -0.2044220976180971 0.2747921468301005 0 -0.1929026130837673 0.25762258695206858 0 -0.18537993383704029 0.28397978744787411 0 -0.1929026130837673 0.25762258695206858 0 -0.16582228118094081 0.26466105519565358 0 -0.18651378479530609 0.23505073182760211 0 -0.1929026130837673 0.25762258695206858 0 -0.16582228118094081 0.26466105519565358 0 -0.18537993383704029 0.28397978744787411 0 -0.16582228118094081 0.26466105519565358 0 -0.167164841548782 0.29891422322321631 0 -0.14136362158270599 0.28508793949713551 0 -0.16582228118094081 0.26466105519565358 0 -0.18537993383704029 0.28397978744787411 0 -0.167164841548782 0.29891422322321631 0 -0.19699128312530151 0.30504565645142051 0 -0.18537993383704029 0.28397978744787411 0 -0.167164841548782 0.29891422322321631 0 -0.17079439025487569 0.32494122108339912 0 -0.19699128312530151 0.30504565645142051 0 -0.167164841548782 0.29891422322321631 0 -0.167164841548782 0.29891422322321631 0 -0.14136362158270599 0.28508793949713551 0 -0.14995133854557879 0.31573290008088639 0 -0.167164841548782 0.29891422322321631 0 -0.14136362158270599 0.28508793949713551 0 -0.14995133854557879 0.31573290008088639 0 -0.14136362158270599 0.28508793949713551 0 -0.13170636281121431 0.30540396541675668 0 -0.1262409447270301 0.3211703831111522 0 -0.13170636281121431 0.30540396541675668 0 -0.1173504618646501 0.30916380798395637 0 -0.14136362158270599 0.28508793949713551 0 -0.13170636281121431 0.30540396541675668 0 -0.1202787732923796 0.29457691953651272 0 -0.14136362158270599 0.28508793949713551 0 -0.1196693143642453 0.28329908912575552 0 -0.1202787732923796 0.29457691953651272 0 -0.14136362158270599 0.28508793949713551 0 -0.1155624016166297 0.27126165577105521 0 -0.1196693143642453 0.28329908912575552 0 -0.14136362158270599 0.28508793949713551 0 -0.1155624016166297 0.27126165577105521 0 -0.12872708527658799 0.25991420809329241 0 -0.1416417428525672 0.26777243923482702 0 -0.1155624016166297 0.27126165577105521 0 -0.14136362158270599 0.28508793949713551 0 -0.1416417428525672 0.26777243923482702 0 -0.1155624016166297 0.27126165577105521 0 -0.12872708527658799 0.25991420809329241 0 -0.14534546737678511 0.25129379472131641 0 -0.1416417428525672 0.26777243923482702 0 -0.12872708527658799 0.25991420809329241 0 -0.14534546737678511 0.25129379472131641 0 -0.12470300375741469 0.2457033751303839 0 -0.16582228118094081 0.26466105519565358 0 -0.14534546737678511 0.25129379472131641 0 -0.1416417428525672 0.26777243923482702 0 -0.16582228118094081 0.26466105519565358 0 -0.14136362158270599 0.28508793949713551 0 -0.1416417428525672 0.26777243923482702 0 -0.1083690905562489 0.27746201143443072 0 -0.10470287070229969 0.27376422074294909 0 -0.09206590757372593 0.27740472432850488 0 -0.099741497972773749 0.27068482051400677 0 -0.1098053558875477 0.27272524579145851 0 -0.092391857727521592 0.25884509119311472 0 -0.1155624016166297 0.27126165577105521 0 -0.1098053558875477 0.27272524579145851 0 -0.092391857727521592 0.25884509119311472 0 -0.099741497972773749 0.27068482051400677 0 -0.09206590757372593 0.27740472432850488 0 -0.092391857727521592 0.25884509119311472 0 -0.10470287070229969 0.27376422074294909 0 -0.099741497972773749 0.27068482051400677 0 -0.1098053558875477 0.27272524579145851 0 -0.1083690905562489 0.27746201143443072 0 -0.1098053558875477 0.27272524579145851 0 -0.1083690905562489 0.27746201143443072 0 -0.10470287070229969 0.27376422074294909 0 -0.1098053558875477 0.27272524579145851 0 -0.10470287070229969 0.27376422074294909 0 -0.099741497972773749 0.27068482051400677 0 -0.09206590757372593 0.27740472432850488 0 -0.1155624016166297 0.27126165577105521 0 -0.092391857727521592 0.25884509119311472 0 -0.11076524853809321 0.25238606884059173 0 -0.1155624016166297 0.27126165577105521 0 -0.092391857727521592 0.25884509119311472 0 -0.11076524853809321 0.25238606884059173 0 -0.1199394347971814 0.25731632695883078 0 -0.1155624016166297 0.27126165577105521 0 -0.12872708527658799 0.25991420809329241 0 -0.1199394347971814 0.25731632695883078 0 -0.12470300375741469 0.2457033751303839 0 -0.11076524853809321 0.25238606884059173 0 -0.1199394347971814 0.25731632695883078 0 -0.12470300375741469 0.2457033751303839 0 -0.12872708527658799 0.25991420809329241 0 -0.1199394347971814 0.25731632695883078 0 -0.1155624016166297 0.27126165577105521 0 -0.12872708527658799 0.25991420809329241 0 -0.1155624016166297 0.27126165577105521 0 -0.1083690905562489 0.27746201143443072 0 -0.1155624016166297 0.27126165577105521 0 -0.1196693143642453 0.28329908912575552 0 -0.1083690905562489 0.27746201143443072 0 -0.1155624016166297 0.27126165577105521 0 -0.1098053558875477 0.27272524579145851 0 -0.1083690905562489 0.27746201143443072 0 -0.1155624016166297 0.27126165577105521 0 -0.1083690905562489 0.27746201143443072 0 -0.1202787732923796 0.29457691953651272 0 -0.1003457715998239 0.30392270831765028 0 -0.1083690905562489 0.27746201143443072 0 -0.1196693143642453 0.28329908912575552 0 -0.1202787732923796 0.29457691953651272 0 -0.1202787732923796 0.29457691953651272 0 -0.1173504618646501 0.30916380798395637 0 -0.1003457715998239 0.30392270831765028 0 -0.13170636281121431 0.30540396541675668 0 -0.1202787732923796 0.29457691953651272 0 -0.1173504618646501 0.30916380798395637 0 -0.1173504618646501 0.30916380798395637 0 -0.1003457715998239 0.30392270831765028 0 -0.1081804568928026 0.32074506353771021 0 -0.1083690905562489 0.27746201143443072 0 -0.08834593029567378 0.29472120043351602 0 -0.09206590757372593 0.27740472432850488 0 -0.1083690905562489 0.27746201143443072 0 -0.1003457715998239 0.30392270831765028 0 -0.08834593029567378 0.29472120043351602 0 -0.1083690905562489 0.27746201143443072 0 -0.1003457715998239 0.30392270831765028 0 -0.1083690905562489 0.27746201143443072 0 -0.08834593029567378 0.29472120043351602 0 -0.08834593029567378 0.29472120043351602 0 -0.079344374197139078 0.28508182268507098 0 -0.09206590757372593 0.27740472432850488 0 -0.08834593029567378 0.29472120043351602 0 -0.072463929930227558 0.29930610977545041 0 -0.077617967212061698 0.29366907382828078 0 -0.08834593029567378 0.29472120043351602 0 -0.079344374197139078 0.28508182268507098 0 -0.077617967212061698 0.29366907382828078 0 -0.08834593029567378 0.29472120043351602 0 -0.087527931766016032 0.31235393694025021 0 -0.08121949171140587 0.31012908581564408 0 -0.08834593029567378 0.29472120043351602 0 -0.068322770035098762 0.31198038943260148 0 -0.1003457715998239 0.30392270831765028 0 -0.08834593029567378 0.29472120043351602 0 -0.087527931766016032 0.31235393694025021 0 -0.08834593029567378 0.29472120043351602 0 -0.08121949171140587 0.31012908581564408 0 -0.069852456288818351 0.31207980665071 0 -0.08834593029567378 0.29472120043351602 0 -0.068322770035098762 0.31198038943260148 0 -0.069852456288818351 0.31207980665071 0 -0.08834593029567378 0.29472120043351602 0 -0.072463929930227558 0.29930610977545041 0 -0.068322770035098762 0.31198038943260148 0 -0.072463929930227558 0.29930610977545041 0 -0.064179569528432873 0.29754197169583518 0 -0.063962500348327456 0.30379626580195229 0 -0.072463929930227558 0.29930610977545041 0 -0.063962500348327456 0.30379626580195229 0 -0.068322770035098762 0.31198038943260148 0 -0.068322770035098762 0.31198038943260148 0 -0.069852456288818351 0.31207980665071 0 -0.079344374197139078 0.28508182268507098 0 -0.070510141993048517 0.29225124769799787 0 -0.067485792004003509 0.28106498521306011 0 -0.079344374197139078 0.28508182268507098 0 -0.077617967212061698 0.29366907382828078 0 -0.070510141993048517 0.29225124769799787 0 -0.072463929930227558 0.29930610977545041 0 -0.077617967212061698 0.29366907382828078 0 -0.070510141993048517 0.29225124769799787 0 -0.064179569528432873 0.29754197169583518 0 -0.070510141993048517 0.29225124769799787 0 -0.059799020663136082 0.29068729405280619 0 -0.072463929930227558 0.29930610977545041 0 -0.064179569528432873 0.29754197169583518 0 -0.070510141993048517 0.29225124769799787 0 -0.070510141993048517 0.29225124769799787 0 -0.067485792004003509 0.28106498521306011 0 -0.059799020663136082 0.29068729405280619 0 -0.079344374197139078 0.28508182268507098 0 -0.077112635008727601 0.26938653581869981 0 -0.067485792004003509 0.28106498521306011 0 -0.077112635008727601 0.26938653581869981 0 -0.067485792004003509 0.28106498521306011 0 -0.060296114269721542 0.26705395206363342 0 -0.079344374197139078 0.28508182268507098 0 -0.077112635008727601 0.26938653581869981 0 -0.09206590757372593 0.27740472432850488 0 -0.077112635008727601 0.26938653581869981 0 -0.09206590757372593 0.27740472432850488 0 -0.092391857727521592 0.25884509119311472 0 -0.092391857727521592 0.25884509119311472 0 -0.069221313838413207 0.24642852661517459 0 -0.077112635008727601 0.26938653581869981 0 -0.092391857727521592 0.25884509119311472 0 -0.069221313838413207 0.24642852661517459 0 -0.077112635008727601 0.26938653581869981 0 -0.060296114269721542 0.26705395206363342 0 -0.069221313838413207 0.24642852661517459 0 -0.048126263350958612 0.25465777805589501 0 -0.060296114269721542 0.26705395206363342 0 -0.069221313838413207 0.24642852661517459 0 -0.048126263350958612 0.25465777805589501 0 -0.060296114269721542 0.26705395206363342 0 -0.041784573477856593 0.2719242686623195 0 -0.055384127889045079 0.27986410773994991 0 -0.060296114269721542 0.26705395206363342 0 -0.041784573477856593 0.2719242686623195 0 -0.055384127889045079 0.27986410773994991 0 -0.041784573477856593 0.2719242686623195 0 -0.044370237993260717 0.29032640624232281 0 -0.067485792004003509 0.28106498521306011 0 -0.055384127889045079 0.27986410773994991 0 -0.060296114269721542 0.26705395206363342 0 -0.041784573477856593 0.2719242686623195 0 -0.028053557715267439 0.25838243531431121 0 -0.02550209953536561 0.27186686885002359 0 -0.041784573477856593 0.2719242686623195 0 -0.02550209953536561 0.27186686885002359 0 -0.031040102747703489 0.28267752730564011 0 -0.048126263350958612 0.25465777805589501 0 -0.041784573477856593 0.2719242686623195 0 -0.028053557715267439 0.25838243531431121 0 -0.048126263350958612 0.25465777805589501 0 -0.028053557715267439 0.25838243531431121 0 -0.033382390283993792 0.24359412621706661 0 -0.028053557715267439 0.25838243531431121 0 -0.01504563196256534 0.26333196488375049 0 -0.01778818590069102 0.2421293126167848 0 -0.01504563196256534 0.26333196488375049 0 -0.01778818590069102 0.2421293126167848 0 -0.028053557715267439 0.25838243531431121 0 -0.02550209953536561 0.27186686885002359 0 -0.01504563196256534 0.26333196488375049 0 -0.028053557715267439 0.25838243531431121 0 -0.01504563196256534 0.26333196488375049 0 -0.02550209953536561 0.27186686885002359 0 -0.01214761008608776 0.28573653795517551 0 -0.031040102747703489 0.28267752730564011 0 -0.02550209953536561 0.27186686885002359 0 -0.01504563196256534 0.26333196488375049 0 -0.01214761008608776 0.28573653795517551 0 -0.001267499687089951 0.2776013217203892 0 -0.01504563196256534 0.26333196488375049 0 -0.01214761008608776 0.28573653795517551 0 -0.01504563196256534 0.26333196488375049 0 -0.01214761008608776 0.28573653795517551 0 -0.00067809962666212902 0.26216505597133072 0 -0.01504563196256534 0.26333196488375049 0 0.010965700908337589 0.27322930467739909 0 -0.001267499687089951 0.2776013217203892 0 -0.01504563196256534 0.26333196488375049 0 0.010965700908337589 0.27322930467739909 0 -0.01504563196256534 0.26333196488375049 0 0.010965700908337589 0.27322930467739909 0 -0.0087132352456033638 0.25173417187717928 0 -0.01504563196256534 0.26333196488375049 0 -0.01778818590069102 0.2421293126167848 0 -0.00067809962666212902 0.26216505597133072 0 -0.0087132352456033638 0.25173417187717928 0 0.0027594708259384838 0.25829047161104352 0 -0.00067809962666212902 0.26216505597133072 0 -0.0087132352456033638 0.25173417187717928 0 -0.01504563196256534 0.26333196488375049 0 -0.009249588209606344 0.30814111102660002 0 -0.01214761008608776 0.28573653795517551 0 0.0038021096493471361 0.29689124930627131 0 -0.009249588209606344 0.30814111102660002 0 -0.01214761008608776 0.28573653795517551 0 -0.01214761008608776 0.28573653795517551 0 0.002380999114604244 0.28599596302517022 0 0.0038021096493471361 0.29689124930627131 0 -0.001267499687089951 0.2776013217203892 0 -0.01214761008608776 0.28573653795517551 0 0.002380999114604244 0.28599596302517022 0 -0.009249588209606344 0.30814111102660002 0 -0.01214761008608776 0.28573653795517551 0 -0.02711874363180217 0.2953884665518679 0 -0.01214761008608776 0.28573653795517551 0 -0.031040102747703489 0.28267752730564011 0 -0.02711874363180217 0.2953884665518679 0 -0.009249588209606344 0.30814111102660002 0 -0.02711874363180217 0.2953884665518679 0 -0.038786179122352507 0.31006075022960111 0 -0.009249588209606344 0.30814111102660002 0 -0.038786179122352507 0.31006075022960111 0 -0.02711874363180217 0.2953884665518679 0 -0.038786179122352507 0.31006075022960111 0 -0.044370237993260717 0.29032640624232281 0 -0.038786179122352507 0.31006075022960111 0 -0.044370237993260717 0.29032640624232281 0 -0.054162254707424723 0.30166894115096898 0 -0.031040102747703489 0.28267752730564011 0 -0.02711874363180217 0.2953884665518679 0 -0.044370237993260717 0.29032640624232281 0 -0.041784573477856593 0.2719242686623195 0 -0.031040102747703489 0.28267752730564011 0 -0.044370237993260717 0.29032640624232281 0 -0.055384127889045079 0.27986410773994991 0 -0.044370237993260717 0.29032640624232281 0 -0.059799020663136082 0.29068729405280619 0 -0.044370237993260717 0.29032640624232281 0 -0.059799020663136082 0.29068729405280619 0 -0.054162254707424723 0.30166894115096898 0 -0.064179569528432873 0.29754197169583518 0 -0.059799020663136082 0.29068729405280619 0 -0.054162254707424723 0.30166894115096898 0 -0.067485792004003509 0.28106498521306011 0 -0.055384127889045079 0.27986410773994991 0 -0.059799020663136082 0.29068729405280619 0 -0.068322770035098762 0.31198038943260148 0 -0.038786179122352507 0.31006075022960111 0 -0.068322770035098762 0.31198038943260148 0 -0.038786179122352507 0.31006075022960111 0 -0.054162254707424723 0.30166894115096898 0 -0.064179569528432873 0.29754197169583518 0 -0.063962500348327456 0.30379626580195229 0 -0.054162254707424723 0.30166894115096898 0 -0.063962500348327456 0.30379626580195229 0 -0.068322770035098762 0.31198038943260148 0 -0.054162254707424723 0.30166894115096898 0 -0.068322770035098762 0.31198038943260148 0 -0.038786179122352507 0.31006075022960111 0 -0.053879496619987192 0.32442993198196868 0 -0.068322770035098762 0.31198038943260148 0 -0.053879496619987192 0.32442993198196868 0 -0.059045099567240703 0.33862263320968672 0 -0.059976501396798443 0.34640013057040159 0 -0.068046633572776155 0.34513696516333192 0 -0.053879496619987192 0.32442993198196868 0 -0.059045099567240703 0.33862263320968672 0 -0.06815446288386498 0.3263880450875648 0 -0.053879496619987192 0.32442993198196868 0 -0.059045099567240703 0.33862263320968672 0 -0.049717572699208172 0.33977374392884352 0 -0.053879496619987192 0.32442993198196868 0 -0.049717572699208172 0.33977374392884352 0 -0.039436223204876379 0.33687947453133682 0 -0.059045099567240703 0.33862263320968672 0 -0.049717572699208172 0.33977374392884352 0 -0.052933118771744558 0.34753778728834739 0 -0.049717572699208172 0.33977374392884352 0 -0.039436223204876379 0.33687947453133682 0 -0.045752302425533672 0.34929255203680049 0 -0.053879496619987192 0.32442993198196868 0 -0.039436223204876379 0.33687947453133682 0 -0.039359444206513459 0.32419621080282812 0 -0.053879496619987192 0.32442993198196868 0 -0.039436223204876379 0.33687947453133682 0 -0.039436223204876379 0.33687947453133682 0 -0.039359444206513459 0.32419621080282812 0 -0.02531264429424256 0.33765677836634578 0 -0.039436223204876379 0.33687947453133682 0 -0.02531264429424256 0.33765677836634578 0 -0.034795741464765127 0.3466441775467104 0 -0.038786179122352507 0.31006075022960111 0 -0.053879496619987192 0.32442993198196868 0 -0.039359444206513459 0.32419621080282812 0 -0.038786179122352507 0.31006075022960111 0 -0.039359444206513459 0.32419621080282812 0 -0.024068293084679539 0.32272721199300619 0 -0.009249588209606344 0.30814111102660002 0 -0.038786179122352507 0.31006075022960111 0 -0.024068293084679539 0.32272721199300619 0 -0.024068293084679539 0.32272721199300619 0 -0.02531264429424256 0.33765677836634578 0 -0.005758602284471958 0.33512988219008361 0 -0.039359444206513459 0.32419621080282812 0 -0.024068293084679539 0.32272721199300619 0 -0.02531264429424256 0.33765677836634578 0 -0.005758602284471958 0.33512988219008361 0 -0.0077202170519437719 0.34710906184019069 0 0.0082446038140756572 0.34376242611402219 0 -0.02531264429424256 0.33765677836634578 0 -0.005758602284471958 0.33512988219008361 0 -0.0077202170519437719 0.34710906184019069 0 -0.009249588209606344 0.30814111102660002 0 -0.005758602284471958 0.33512988219008361 0 0.0094307060340404689 0.32376070079746733 0 -0.009249588209606344 0.30814111102660002 0 -0.005758602284471958 0.33512988219008361 0 -0.009249588209606344 0.30814111102660002 0 -0.024068293084679539 0.32272721199300619 0 -0.005758602284471958 0.33512988219008361 0 -0.0045677851665312944 0.36532665559408428 0 -0.0087141207398781558 0.37710904293520409 0 0.0077169544749549623 0.36306791211952738 0 -0.0045677851665312944 0.36532665559408428 0 -0.019623601183504629 0.35541479533684739 0 -0.0087141207398781558 0.37710904293520409 0 -0.0087141207398781558 0.37710904293520409 0 0.0077169544749549623 0.36306791211952738 0 -0.0077202170519437719 0.34710906184019069 0 -0.019623601183504629 0.35541479533684739 0 0.0038095970876644218 0.35606187191015221 0 -0.019623601183504629 0.35541479533684739 0 0.0038095970876644218 0.35606187191015221 0 -0.0045677851665312944 0.36532665559408428 0 -0.019623601183504629 0.35541479533684739 0 0.0038095970876644218 0.35606187191015221 0 -0.02531264429424256 0.33765677836634578 0 -0.019623601183504629 0.35541479533684739 0 -0.034795741464765127 0.3466441775467104 0 -0.02531264429424256 0.33765677836634578 0 -0.0077202170519437719 0.34710906184019069 0 -0.019623601183504629 0.35541479533684739 0 -0.019623601183504629 0.35541479533684739 0 -0.034100997704691827 0.37295894625721099 0 -0.0087141207398781558 0.37710904293520409 0 -0.019623601183504629 0.35541479533684739 0 -0.034100997704691827 0.37295894625721099 0 -0.043056799454673583 0.35476771876354157 0 -0.034100997704691827 0.37295894625721099 0 -0.047131069669461997 0.36807368878450081 0 -0.054593457040109393 0.3822816536988497 0 -0.034100997704691827 0.37295894625721099 0 -0.043056799454673583 0.35476771876354157 0 -0.034100997704691827 0.37295894625721099 0 -0.043056799454673583 0.35476771876354157 0 -0.047131069669461997 0.36807368878450081 0 -0.019623601183504629 0.35541479533684739 0 -0.043056799454673583 0.35476771876354157 0 -0.019623601183504629 0.35541479533684739 0 -0.034795741464765127 0.3466441775467104 0 -0.043056799454673583 0.35476771876354157 0 -0.043056799454673583 0.35476771876354157 0 -0.045752302425533672 0.34929255203680049 0 -0.039436223204876379 0.33687947453133682 0 -0.034795741464765127 0.3466441775467104 0 -0.045752302425533672 0.34929255203680049 0 -0.034795741464765127 0.3466441775467104 0 -0.043056799454673583 0.35476771876354157 0 -0.045752302425533672 0.34929255203680049 0 -0.043056799454673583 0.35476771876354157 0 -0.052933118771744558 0.34753778728834739 0 -0.059881153675432383 0.35430313662024071 0 -0.043056799454673583 0.35476771876354157 0 -0.059881153675432383 0.35430313662024071 0 -0.051828064233363932 0.36038047858465339 0 -0.043056799454673583 0.35476771876354157 0 -0.059881153675432383 0.35430313662024071 0 -0.043056799454673583 0.35476771876354157 0 -0.045752302425533672 0.34929255203680049 0 -0.052933118771744558 0.34753778728834739 0 -0.049717572699208172 0.33977374392884352 0 -0.045752302425533672 0.34929255203680049 0 -0.052933118771744558 0.34753778728834739 0 -0.059881153675432383 0.35430313662024071 0 -0.051828064233363932 0.36038047858465339 0 -0.058626870601395778 0.36023180910453118 0 -0.059045099567240703 0.33862263320968672 0 -0.052933118771744558 0.34753778728834739 0 -0.059976501396798443 0.34640013057040159 0 -0.052933118771744558 0.34753778728834739 0 -0.059881153675432383 0.35430313662024071 0 -0.059976501396798443 0.34640013057040159 0 -0.047131069669461997 0.36807368878450081 0 -0.054116187566776573 0.36544526432200969 0 -0.058148679921659119 0.37186744297544022 0 -0.047131069669461997 0.36807368878450081 0 -0.058148679921659119 0.37186744297544022 0 -0.054593457040109393 0.3822816536988497 0 -0.043056799454673583 0.35476771876354157 0 -0.047131069669461997 0.36807368878450081 0 -0.051828064233363932 0.36038047858465339 0 -0.047131069669461997 0.36807368878450081 0 -0.051828064233363932 0.36038047858465339 0 -0.054116187566776573 0.36544526432200969 0 -0.054116187566776573 0.36544526432200969 0 -0.058626870601395778 0.36023180910453118 0 -0.058148679921659119 0.37186744297544022 0 -0.051828064233363932 0.36038047858465339 0 -0.054116187566776573 0.36544526432200969 0 -0.058626870601395778 0.36023180910453118 0 -0.058626870601395778 0.36023180910453118 0 -0.058148679921659119 0.37186744297544022 0 -0.076275814730551866 0.38330479896731001 0 -0.058626870601395778 0.36023180910453118 0 -0.071157696118109362 0.36170448025062218 0 -0.076275814730551866 0.38330479896731001 0 -0.071157696118109362 0.36170448025062218 0 -0.084299133686975572 0.35684410208409001 0 -0.076275814730551866 0.38330479896731001 0 -0.058626870601395778 0.36023180910453118 0 -0.076275814730551866 0.38330479896731001 0 -0.084299133686975572 0.35684410208409001 0 -0.089436666146690338 0.3774527594588406 0 -0.076275814730551866 0.38330479896731001 0 -0.084299133686975572 0.35684410208409001 0 -0.076275814730551866 0.38330479896731001 0 -0.093494049974744503 0.36523362229143391 0 -0.084299133686975572 0.35684410208409001 0 -0.089436666146690338 0.3774527594588406 0 -0.084299133686975572 0.35684410208409001 0 -0.076705507896191183 0.35383855447693902 0 -0.080753986599573127 0.33990497651870988 0 -0.084299133686975572 0.35684410208409001 0 -0.092322452643399749 0.33038340520087017 0 -0.095141502753968779 0.35097174187852381 0 -0.093494049974744503 0.36523362229143391 0 -0.084299133686975572 0.35684410208409001 0 -0.095141502753968779 0.35097174187852381 0 -0.059881153675432383 0.35430313662024071 0 -0.071157696118109362 0.36170448025062218 0 -0.076705507896191183 0.35383855447693902 0 -0.076705507896191183 0.35383855447693902 0 -0.068046633572776155 0.34513696516333192 0 -0.080753986599573127 0.33990497651870988 0 -0.059881153675432383 0.35430313662024071 0 -0.076705507896191183 0.35383855447693902 0 -0.068046633572776155 0.34513696516333192 0 -0.059881153675432383 0.35430313662024071 0 -0.076705507896191183 0.35383855447693902 0 -0.071157696118109362 0.36170448025062218 0 -0.084299133686975572 0.35684410208409001 0 -0.076705507896191183 0.35383855447693902 0 -0.059881153675432383 0.35430313662024071 0 -0.058626870601395778 0.36023180910453118 0 -0.071157696118109362 0.36170448025062218 0 -0.059881153675432383 0.35430313662024071 0 -0.059976501396798443 0.34640013057040159 0 -0.068046633572776155 0.34513696516333192 0 -0.06815446288386498 0.3263880450875648 0 -0.079151648495115301 0.32136139923810009 0 -0.080753986599573127 0.33990497651870988 0 -0.068046633572776155 0.34513696516333192 0 -0.06815446288386498 0.3263880450875648 0 -0.080753986599573127 0.33990497651870988 0 -0.059045099567240703 0.33862263320968672 0 -0.068046633572776155 0.34513696516333192 0 -0.06815446288386498 0.3263880450875648 0 -0.068322770035098762 0.31198038943260148 0 -0.069852456288818351 0.31207980665071 0 -0.06815446288386498 0.3263880450875648 0 -0.068322770035098762 0.31198038943260148 0 -0.053879496619987192 0.32442993198196868 0 -0.06815446288386498 0.3263880450875648 0 -0.08121949171140587 0.31012908581564408 0 -0.069852456288818351 0.31207980665071 0 -0.079151648495115301 0.32136139923810009 0 -0.069852456288818351 0.31207980665071 0 -0.06815446288386498 0.3263880450875648 0 -0.079151648495115301 0.32136139923810009 0 -0.087527931766016032 0.31235393694025021 0 -0.079151648495115301 0.32136139923810009 0 -0.092322452643399749 0.33038340520087017 0 -0.1003457715998239 0.30392270831765028 0 -0.087527931766016032 0.31235393694025021 0 -0.092322452643399749 0.33038340520087017 0 -0.087527931766016032 0.31235393694025021 0 -0.08121949171140587 0.31012908581564408 0 -0.079151648495115301 0.32136139923810009 0 -0.084299133686975572 0.35684410208409001 0 -0.092322452643399749 0.33038340520087017 0 -0.079151648495115301 0.32136139923810009 0 -0.092322452643399749 0.33038340520087017 0 -0.080753986599573127 0.33990497651870988 0 -0.084299133686975572 0.35684410208409001 0 -0.092322452643399749 0.33038340520087017 0 -0.080753986599573127 0.33990497651870988 0 -0.092322452643399749 0.33038340520087017 0 -0.10472406897533799 0.34168768652513631 0 -0.095141502753968779 0.35097174187852381 0 -0.092322452643399749 0.33038340520087017 0 -0.10472406897533799 0.34168768652513631 0 -0.1081804568928026 0.32074506353771021 0 -0.1003457715998239 0.30392270831765028 0 -0.092322452643399749 0.33038340520087017 0 -0.1003457715998239 0.30392270831765028 0 -0.092322452643399749 0.33038340520087017 0 -0.1081804568928026 0.32074506353771021 0 -0.1262409447270301 0.3211703831111522 0 -0.1173504618646501 0.30916380798395637 0 -0.1081804568928026 0.32074506353771021 0 -0.1262409447270301 0.3211703831111522 0 -0.1081804568928026 0.32074506353771021 0 -0.1175879007316586 0.33497855513245622 0 -0.13367478836053351 0.33932016938713638 0 -0.1175879007316586 0.33497855513245622 0 -0.1173066256070304 0.35104950557859033 0 -0.10472406897533799 0.34168768652513631 0 -0.1081804568928026 0.32074506353771021 0 -0.1175879007316586 0.33497855513245622 0 -0.10472406897533799 0.34168768652513631 0 -0.1175879007316586 0.33497855513245622 0 -0.1173066256070304 0.35104950557859033 0 -0.1173066256070304 0.35104950557859033 0 -0.1198206075896991 0.37069234566290138 0 -0.1030551893938276 0.35978992576853291 0 -0.1367685514822152 0.35851885971508118 0 -0.1173066256070304 0.35104950557859033 0 -0.1198206075896991 0.37069234566290138 0 -0.1198206075896991 0.37069234566290138 0 -0.1030551893938276 0.35978992576853291 0 -0.10026372758235801 0.37465761506622741 0 -0.093494049974744503 0.36523362229143391 0 -0.10026372758235801 0.37465761506622741 0 -0.089436666146690338 0.3774527594588406 0 -0.093494049974744503 0.36523362229143391 0 -0.1030551893938276 0.35978992576853291 0 -0.10026372758235801 0.37465761506622741 0 -0.10472406897533799 0.34168768652513631 0 -0.1030551893938276 0.35978992576853291 0 -0.095141502753968779 0.35097174187852381 0 -0.093494049974744503 0.36523362229143391 0 -0.1030551893938276 0.35978992576853291 0 -0.095141502753968779 0.35097174187852381 0 -0.10472406897533799 0.34168768652513631 0 -0.1173066256070304 0.35104950557859033 0 -0.1030551893938276 0.35978992576853291 0 -0.101128536279416 0.3977608810528192 0 -0.11378235269799521 0.38746486633725291 0 -0.11258596611237601 0.40408595479252452 0 -0.101128536279416 0.3977608810528192 0 -0.095244926421122186 0.38729621463576269 0 -0.11378235269799521 0.38746486633725291 0 -0.101128536279416 0.3977608810528192 0 -0.11258596611237601 0.40408595479252452 0 -0.097808874238227678 0.41145560844912898 0 -0.101128536279416 0.3977608810528192 0 -0.097808874238227678 0.41145560844912898 0 -0.087042344484389883 0.39738020370821953 0 -0.101128536279416 0.3977608810528192 0 -0.095244926421122186 0.38729621463576269 0 -0.087042344484389883 0.39738020370821953 0 -0.10026372758235801 0.37465761506622741 0 -0.095244926421122186 0.38729621463576269 0 -0.11378235269799521 0.38746486633725291 0 -0.10026372758235801 0.37465761506622741 0 -0.095244926421122186 0.38729621463576269 0 -0.089436666146690338 0.3774527594588406 0 -0.1198206075896991 0.37069234566290138 0 -0.10026372758235801 0.37465761506622741 0 -0.11378235269799521 0.38746486633725291 0 -0.12826940643264259 0.38638828685515292 0 -0.1198206075896991 0.37069234566290138 0 -0.11378235269799521 0.38746486633725291 0 -0.12644786621320531 0.40058001872868543 0 -0.12826940643264259 0.38638828685515292 0 -0.11378235269799521 0.38746486633725291 0 -0.12761284081938409 0.41418542740570108 0 -0.11378235269799521 0.38746486633725291 0 -0.12761284081938409 0.41418542740570108 0 -0.12644786621320531 0.40058001872868543 0 -0.11378235269799521 0.38746486633725291 0 -0.12761284081938409 0.41418542740570108 0 -0.11378235269799521 0.38746486633725291 0 -0.11258596611237601 0.40408595479252452 0 -0.12761284081938409 0.41418542740570108 0 -0.11258596611237601 0.40408595479252452 0 -0.097808874238227678 0.41145560844912898 0 -0.12761284081938409 0.41418542740570108 0 -0.1126245701039178 0.4308246085444013 0 -0.097808874238227678 0.41145560844912898 0 -0.12761284081938409 0.41418542740570108 0 -0.097808874238227678 0.41145560844912898 0 -0.12761284081938409 0.41418542740570108 0 -0.1126245701039178 0.4308246085444013 0 -0.1242648033483075 0.43981492828754482 0 -0.1126245701039178 0.4308246085444013 0 -0.096605527178418776 0.42311346390882398 0 -0.097170403390676049 0.43571281837191522 0 -0.1126245701039178 0.4308246085444013 0 -0.097170403390676049 0.43571281837191522 0 -0.10338783084247161 0.44098956532991213 0 -0.1126245701039178 0.4308246085444013 0 -0.097808874238227678 0.41145560844912898 0 -0.1126245701039178 0.4308246085444013 0 -0.096605527178418776 0.42311346390882398 0 -0.097808874238227678 0.41145560844912898 0 -0.096605527178418776 0.42311346390882398 0 -0.097808874238227678 0.41145560844912898 0 -0.090623427087895073 0.41079747558654428 0 -0.097808874238227678 0.41145560844912898 0 -0.090623427087895073 0.41079747558654428 0 -0.096605527178418776 0.42311346390882398 0 -0.090623427087895073 0.41079747558654428 0 -0.084800361071377284 0.4267768085921303 0 -0.090623427087895073 0.41079747558654428 0 -0.084347825254610875 0.40943513047528779 0 -0.084800361071377284 0.4267768085921303 0 -0.084800361071377284 0.4267768085921303 0 -0.074925168374781331 0.40278603401425761 0 -0.084347825254610875 0.40943513047528779 0 -0.084800361071377284 0.4267768085921303 0 -0.074925168374781331 0.40278603401425761 0 -0.097808874238227678 0.41145560844912898 0 -0.090623427087895073 0.41079747558654428 0 -0.087042344484389883 0.39738020370821953 0 -0.096605527178418776 0.42311346390882398 0 -0.097170403390676049 0.43571281837191522 0 -0.084800361071377284 0.4267768085921303 0 -0.084800361071377284 0.4267768085921303 0 -0.077689053426030094 0.43734830183904833 0 -0.073740177733494089 0.43015549729097768 0 -0.084800361071377284 0.4267768085921303 0 -0.077689053426030094 0.43734830183904833 0 -0.085627028266785254 0.44117175463919189 0 -0.077689053426030094 0.43734830183904833 0 -0.073740177733494089 0.43015549729097768 0 -0.069373851585076945 0.43677151010665521 0 -0.084800361071377284 0.4267768085921303 0 -0.073740177733494089 0.43015549729097768 0 -0.074963529381557356 0.42372471124402672 0 -0.084800361071377284 0.4267768085921303 0 -0.074963529381557356 0.42372471124402672 0 -0.074207610301873977 0.415826985147286 0 -0.073740177733494089 0.43015549729097768 0 -0.07134827269677288 0.42521816639912852 0 -0.067010261651664849 0.42692585223643509 0 -0.073740177733494089 0.43015549729097768 0 -0.074963529381557356 0.42372471124402672 0 -0.07134827269677288 0.42521816639912852 0 -0.074963529381557356 0.42372471124402672 0 -0.07134827269677288 0.42521816639912852 0 -0.069903249343569923 0.42035209495099629 0 -0.06803153127557314 0.42418340705062968 0 -0.063864341410284964 0.42423751461595932 0 -0.069903249343569923 0.42035209495099629 0 -0.07134827269677288 0.42521816639912852 0 -0.06803153127557314 0.42418340705062968 0 -0.067010261651664849 0.42692585223643509 0 -0.07134827269677288 0.42521816639912852 0 -0.06803153127557314 0.42418340705062968 0 -0.069903249343569923 0.42035209495099629 0 -0.06803153127557314 0.42418340705062968 0 -0.063864341410284964 0.42423751461595932 0 -0.067010261651664849 0.42692585223643509 0 -0.063864341410284964 0.42423751461595932 0 -0.067010261651664849 0.42692585223643509 0 -0.067010261651664849 0.42692585223643509 0 -0.06657591115514655 0.43192586875325267 0 -0.062357688865182517 0.42920641545622512 0 -0.063864341410284964 0.42423751461595932 0 -0.067010261651664849 0.42692585223643509 0 -0.062357688865182517 0.42920641545622512 0 -0.063864341410284964 0.42423751461595932 0 -0.062357688865182517 0.42920641545622512 0 -0.073740177733494089 0.43015549729097768 0 -0.067010261651664849 0.42692585223643509 0 -0.06657591115514655 0.43192586875325267 0 -0.073740177733494089 0.43015549729097768 0 -0.06657591115514655 0.43192586875325267 0 -0.069373851585076945 0.43677151010665521 0 -0.06657591115514655 0.43192586875325267 0 -0.062750456602468974 0.43554137489064498 0 -0.062357688865182517 0.42920641545622512 0 -0.06657591115514655 0.43192586875325267 0 -0.062750456602468974 0.43554137489064498 0 -0.069373851585076945 0.43677151010665521 0 -0.063864341410284964 0.42423751461595932 0 -0.069903249343569923 0.42035209495099629 0 -0.070070078070418332 0.40377115679163461 0 -0.074207610301873977 0.415826985147286 0 -0.069903249343569923 0.42035209495099629 0 -0.070070078070418332 0.40377115679163461 0 -0.063864341410284964 0.42423751461595932 0 -0.070070078070418332 0.40377115679163461 0 -0.058881304157308093 0.40804381518971672 0 -0.063864341410284964 0.42423751461595932 0 -0.070070078070418332 0.40377115679163461 0 -0.084800361071377284 0.4267768085921303 0 -0.074207610301873977 0.415826985147286 0 -0.074925168374781331 0.40278603401425761 0 -0.074207610301873977 0.415826985147286 0 -0.070070078070418332 0.40377115679163461 0 -0.074925168374781331 0.40278603401425761 0 -0.074963529381557356 0.42372471124402672 0 -0.074207610301873977 0.415826985147286 0 -0.069903249343569923 0.42035209495099629 0 -0.070070078070418332 0.40377115679163461 0 -0.064506344576777661 0.39145758865641178 0 -0.076275814730551866 0.38330479896731001 0 -0.070070078070418332 0.40377115679163461 0 -0.074925168374781331 0.40278603401425761 0 -0.076275814730551866 0.38330479896731001 0 -0.070070078070418332 0.40377115679163461 0 -0.076275814730551866 0.38330479896731001 0 -0.070070078070418332 0.40377115679163461 0 -0.064506344576777661 0.39145758865641178 0 -0.057086028466031037 0.39647274516785291 0 -0.074925168374781331 0.40278603401425761 0 -0.087042344484389883 0.39738020370821953 0 -0.076275814730551866 0.38330479896731001 0 -0.084347825254610875 0.40943513047528779 0 -0.074925168374781331 0.40278603401425761 0 -0.087042344484389883 0.39738020370821953 0 -0.097808874238227678 0.41145560844912898 0 -0.087042344484389883 0.39738020370821953 0 -0.090623427087895073 0.41079747558654428 0 -0.084347825254610875 0.40943513047528779 0 -0.087042344484389883 0.39738020370821953 0 -0.087042344484389883 0.39738020370821953 0 -0.089436666146690338 0.3774527594588406 0 -0.076275814730551866 0.38330479896731001 0 -0.095244926421122186 0.38729621463576269 0 -0.087042344484389883 0.39738020370821953 0 -0.089436666146690338 0.3774527594588406 0 -0.087042344484389883 0.39738020370821953 0 -0.076275814730551866 0.38330479896731001 0 -0.064506344576777661 0.39145758865641178 0 -0.076275814730551866 0.38330479896731001 0 -0.054593457040109393 0.3822816536988497 0 -0.058148679921659119 0.37186744297544022 0 -0.076275814730551866 0.38330479896731001 0 -0.054593457040109393 0.3822816536988497 0 -0.064506344576777661 0.39145758865641178 0 -0.054593457040109393 0.3822816536988497 0 -0.057086028466031037 0.39647274516785291 0 -0.054593457040109393 0.3822816536988497 0 -0.057086028466031037 0.39647274516785291 0 -0.042391572779214973 0.39096282696345341 0 -0.057086028466031037 0.39647274516785291 0 -0.042391572779214973 0.39096282696345341 0 -0.044504768682498037 0.40769384418342008 0 -0.070070078070418332 0.40377115679163461 0 -0.057086028466031037 0.39647274516785291 0 -0.058881304157308093 0.40804381518971672 0 -0.057086028466031037 0.39647274516785291 0 -0.044504768682498037 0.40769384418342008 0 -0.058881304157308093 0.40804381518971672 0 -0.02514519595471108 0.39115017375088101 0 -0.044504768682498037 0.40769384418342008 0 -0.042391572779214973 0.39096282696345341 0 -0.02514519595471108 0.39115017375088101 0 -0.044504768682498037 0.40769384418342008 0 -0.034100997704691827 0.37295894625721099 0 -0.054593457040109393 0.3822816536988497 0 -0.042391572779214973 0.39096282696345341 0 -0.034100997704691827 0.37295894625721099 0 -0.042391572779214973 0.39096282696345341 0 -0.02514519595471108 0.39115017375088101 0 -0.034100997704691827 0.37295894625721099 0 -0.02514519595471108 0.39115017375088101 0 -0.034100997704691827 0.37295894625721099 0 -0.02514519595471108 0.39115017375088101 0 -0.0087141207398781558 0.37710904293520409 0 -0.02514519595471108 0.39115017375088101 0 -0.0087141207398781558 0.37710904293520409 0 -0.02514519595471108 0.39115017375088101 0 -0.014810785045769751 0.41214166341376801 0 -0.02514519595471108 0.39115017375088101 0 -0.014810785045769751 0.41214166341376801 0 -0.044504768682498037 0.40769384418342008 0 -0.0068648610501423502 0.39382000907293813 0 -0.014810785045769751 0.41214166341376801 0 0.0046995574085186929 0.41194005205042061 0 -0.02514519595471108 0.39115017375088101 0 -0.0068648610501423502 0.39382000907293813 0 -0.014810785045769751 0.41214166341376801 0 -0.02514519595471108 0.39115017375088101 0 -0.0068648610501423502 0.39382000907293813 0 -0.0087141207398781558 0.37710904293520409 0 -0.0068648610501423502 0.39382000907293813 0 -0.0087141207398781558 0.37710904293520409 0 0.0053185270157129726 0.37689571945341471 0 -0.0044763741368290672 0.43313315307665529 0 -0.014810785045769751 0.41214166341376801 0 -0.0044763741368290672 0.43313315307665529 0 -0.014810785045769751 0.41214166341376801 0 -0.026116443713473419 0.4246575807879529 0 -0.0044763741368290672 0.43313315307665529 0 -0.014810785045769751 0.41214166341376801 0 0.0046995574085186929 0.41194005205042061 0 -0.014810785045769751 0.41214166341376801 0 -0.026116443713473419 0.4246575807879529 0 -0.044504768682498037 0.40769384418342008 0 -0.0044763741368290672 0.43313315307665529 0 -0.026116443713473419 0.4246575807879529 0 -0.02623027688729573 0.44118750916919391 0 -0.026116443713473419 0.4246575807879529 0 -0.040560013814974517 0.42913173409672722 0 -0.02623027688729573 0.44118750916919391 0 -0.040560013814974517 0.42913173409672722 0 -0.048293098329248912 0.43867666423002288 0 -0.039090066940739521 0.44352471403713711 0 -0.026116443713473419 0.4246575807879529 0 -0.040560013814974517 0.42913173409672722 0 -0.044504768682498037 0.40769384418342008 0 -0.040560013814974517 0.42913173409672722 0 -0.044504768682498037 0.40769384418342008 0 -0.051886787429848112 0.42350176277299723 0 -0.063864341410284964 0.42423751461595932 0 -0.044504768682498037 0.40769384418342008 0 -0.058881304157308093 0.40804381518971672 0 -0.063864341410284964 0.42423751461595932 0 -0.044504768682498037 0.40769384418342008 0 -0.051886787429848112 0.42350176277299723 0 -0.063864341410284964 0.42423751461595932 0 -0.044504768682498037 0.40769384418342008 0 -0.053936434918908913 0.43159717611494758 0 -0.057641003333182179 0.44086754716312743 0 -0.048293098329248912 0.43867666423002288 0 -0.040560013814974517 0.42913173409672722 0 -0.053936434918908913 0.43159717611494758 0 -0.048293098329248912 0.43867666423002288 0 -0.040560013814974517 0.42913173409672722 0 -0.053936434918908913 0.43159717611494758 0 -0.051886787429848112 0.42350176277299723 0 -0.053936434918908913 0.43159717611494758 0 -0.051886787429848112 0.42350176277299723 0 -0.062357688865182517 0.42920641545622512 0 -0.063864341410284964 0.42423751461595932 0 -0.051886787429848112 0.42350176277299723 0 -0.062357688865182517 0.42920641545622512 0 -0.062750456602468974 0.43554137489064498 0 -0.053936434918908913 0.43159717611494758 0 -0.062357688865182517 0.42920641545622512 0 -0.062750456602468974 0.43554137489064498 0 -0.053936434918908913 0.43159717611494758 0 -0.057641003333182179 0.44086754716312743 0 -0.062750456602468974 0.43554137489064498 0 -0.057641003333182179 0.44086754716312743 0 -0.065491549478626135 0.44200233464982802 0 -0.057641003333182179 0.44086754716312743 0 -0.062398417199954148 0.4499603094023914 0 -0.065491549478626135 0.44200233464982802 0 -0.057641003333182179 0.44086754716312743 0 -0.062398417199954148 0.4499603094023914 0 -0.050237972638439453 0.44826214973817502 0 -0.057641003333182179 0.44086754716312743 0 -0.050237972638439453 0.44826214973817502 0 -0.048293098329248912 0.43867666423002288 0 -0.062398417199954148 0.4499603094023914 0 -0.050230730183752688 0.46259696058471089 0 -0.064501224992871267 0.46542691543905351 0 -0.062398417199954148 0.4499603094023914 0 -0.050237972638439453 0.44826214973817502 0 -0.050230730183752688 0.46259696058471089 0 -0.050230730183752688 0.46259696058471089 0 -0.035748626011326709 0.45858167758110602 0 -0.046040344352481867 0.47841272498986082 0 -0.050237972638439453 0.44826214973817502 0 -0.050230730183752688 0.46259696058471089 0 -0.035748626011326709 0.45858167758110602 0 -0.035748626011326709 0.45858167758110602 0 -0.039090066940739521 0.44352471403713711 0 -0.02623027688729573 0.44118750916919391 0 -0.050237972638439453 0.44826214973817502 0 -0.048293098329248912 0.43867666423002288 0 -0.039090066940739521 0.44352471403713711 0 -0.050237972638439453 0.44826214973817502 0 -0.035748626011326709 0.45858167758110602 0 -0.039090066940739521 0.44352471403713711 0 -0.040560013814974517 0.42913173409672722 0 -0.039090066940739521 0.44352471403713711 0 -0.02623027688729573 0.44118750916919391 0 -0.035748626011326709 0.45858167758110602 0 -0.02623027688729573 0.44118750916919391 0 -0.01728298942402769 0.45556140426229003 0 -0.0044763741368290672 0.43313315307665529 0 -0.02623027688729573 0.44118750916919391 0 -0.01728298942402769 0.45556140426229003 0 -0.035748626011326709 0.45858167758110602 0 -0.01728298942402769 0.45556140426229003 0 -0.022784747477638551 0.4775754860453762 0 -0.01728298942402769 0.45556140426229003 0 -0.0062093312902834459 0.46527566221073008 0 0.006403582431216831 0.45126676372832991 0 -0.01728298942402769 0.45556140426229003 0 -0.0062093312902834459 0.46527566221073008 0 -0.022784747477638551 0.4775754860453762 0 -0.0044763741368290672 0.43313315307665529 0 -0.01728298942402769 0.45556140426229003 0 0.006403582431216831 0.45126676372832991 0 -0.0062093312902834459 0.46527566221073008 0 -0.022784747477638551 0.4775754860453762 0 0.0095498935665802413 0.47810272379952351 0 -0.022784747477638551 0.4775754860453762 0 -0.021427984417146221 0.5 0 0.0095498935665802413 0.47810272379952351 0 -0.021427984417146221 0.5 0 0.0095498935665802413 0.47810272379952351 0 0.0086042794582089632 0.5 0 -0.022784747477638551 0.4775754860453762 0 -0.021427984417146221 0.5 0 -0.046040344352481867 0.47841272498986082 0 -0.021427984417146221 0.5 0 -0.046040344352481867 0.47841272498986082 0 -0.051460248292501398 0.5 0 -0.035748626011326709 0.45858167758110602 0 -0.022784747477638551 0.4775754860453762 0 -0.046040344352481867 0.47841272498986082 0 -0.046040344352481867 0.47841272498986082 0 -0.067939054777113927 0.48291587414950521 0 -0.064501224992871267 0.46542691543905351 0 -0.050230730183752688 0.46259696058471089 0 -0.046040344352481867 0.47841272498986082 0 -0.064501224992871267 0.46542691543905351 0 -0.046040344352481867 0.47841272498986082 0 -0.051460248292501398 0.5 0 -0.067939054777113927 0.48291587414950521 0 -0.051460248292501398 0.5 0 -0.081492512167856565 0.50000000000000011 0 -0.067939054777113927 0.48291587414950521 0 -0.081492512167856565 0.50000000000000011 0 -0.085878896958769185 0.47675925450649242 0 -0.067939054777113927 0.48291587414950521 0 -0.081492512167856565 0.50000000000000011 0 -0.085878896958769185 0.47675925450649242 0 -0.099362977551805121 0.48745008538217821 0 -0.081492512167856565 0.50000000000000011 0 -0.085878896958769185 0.47675925450649242 0 -0.085878896958769185 0.47675925450649242 0 -0.075452149305044958 0.46933040044586682 0 -0.067939054777113927 0.48291587414950521 0 -0.075452149305044958 0.46933040044586682 0 -0.067939054777113927 0.48291587414950521 0 -0.064501224992871267 0.46542691543905351 0 -0.064501224992871267 0.46542691543905351 0 -0.075214053997903707 0.45912990264989012 0 -0.070315415620740368 0.45334812155980347 0 -0.062398417199954148 0.4499603094023914 0 -0.064501224992871267 0.46542691543905351 0 -0.070315415620740368 0.45334812155980347 0 -0.075214053997903707 0.45912990264989012 0 -0.070315415620740368 0.45334812155980347 0 -0.081419329692844739 0.44979703694502599 0 -0.075452149305044958 0.46933040044586682 0 -0.064501224992871267 0.46542691543905351 0 -0.075214053997903707 0.45912990264989012 0 -0.075452149305044958 0.46933040044586682 0 -0.075214053997903707 0.45912990264989012 0 -0.082509194984251868 0.46007906520350089 0 -0.069373851585076945 0.43677151010665521 0 -0.065491549478626135 0.44200233464982802 0 -0.073041418115067244 0.44511613748665291 0 -0.062750456602468974 0.43554137489064498 0 -0.069373851585076945 0.43677151010665521 0 -0.065491549478626135 0.44200233464982802 0 -0.062398417199954148 0.4499603094023914 0 -0.065491549478626135 0.44200233464982802 0 -0.073041418115067244 0.44511613748665291 0 -0.062398417199954148 0.4499603094023914 0 -0.070315415620740368 0.45334812155980347 0 -0.073041418115067244 0.44511613748665291 0 -0.070315415620740368 0.45334812155980347 0 -0.073041418115067244 0.44511613748665291 0 -0.081419329692844739 0.44979703694502599 0 -0.073041418115067244 0.44511613748665291 0 -0.07941018481149445 0.44345804230003222 0 -0.081419329692844739 0.44979703694502599 0 -0.077689053426030094 0.43734830183904833 0 -0.069373851585076945 0.43677151010665521 0 -0.073041418115067244 0.44511613748665291 0 -0.077689053426030094 0.43734830183904833 0 -0.073041418115067244 0.44511613748665291 0 -0.07941018481149445 0.44345804230003222 0 -0.097170403390676049 0.43571281837191522 0 -0.084800361071377284 0.4267768085921303 0 -0.094675553767973264 0.45076758317000298 0 -0.084800361071377284 0.4267768085921303 0 -0.094675553767973264 0.45076758317000298 0 -0.084800361071377284 0.4267768085921303 0 -0.085627028266785254 0.44117175463919189 0 -0.094675553767973264 0.45076758317000298 0 -0.085627028266785254 0.44117175463919189 0 -0.07941018481149445 0.44345804230003222 0 -0.081419329692844739 0.44979703694502599 0 -0.077689053426030094 0.43734830183904833 0 -0.085627028266785254 0.44117175463919189 0 -0.07941018481149445 0.44345804230003222 0 -0.085627028266785254 0.44117175463919189 0 -0.081419329692844739 0.44979703694502599 0 -0.088082484801868088 0.44854024150695748 0 -0.081419329692844739 0.44979703694502599 0 -0.086047819819581178 0.45134535453790131 0 -0.088082484801868088 0.44854024150695748 0 -0.085627028266785254 0.44117175463919189 0 -0.088082484801868088 0.44854024150695748 0 -0.094675553767973264 0.45076758317000298 0 -0.086047819819581178 0.45134535453790131 0 -0.088082484801868088 0.44854024150695748 0 -0.090265281749681819 0.45351850901298468 0 -0.088082484801868088 0.44854024150695748 0 -0.090265281749681819 0.45351850901298468 0 -0.094675553767973264 0.45076758317000298 0 -0.085878896958769185 0.47675925450649242 0 -0.075452149305044958 0.46933040044586682 0 -0.082509194984251868 0.46007906520350089 0 -0.085878896958769185 0.47675925450649242 0 -0.090265281749681819 0.45351850901298468 0 -0.085878896958769185 0.47675925450649242 0 -0.090265281749681819 0.45351850901298468 0 -0.093944937474792503 0.46462082789344678 0 -0.085878896958769185 0.47675925450649242 0 -0.082509194984251868 0.46007906520350089 0 -0.090265281749681819 0.45351850901298468 0 -0.081419329692844739 0.44979703694502599 0 -0.086047819819581178 0.45134535453790131 0 -0.082509194984251868 0.46007906520350089 0 -0.075214053997903707 0.45912990264989012 0 -0.081419329692844739 0.44979703694502599 0 -0.082509194984251868 0.46007906520350089 0 -0.090265281749681819 0.45351850901298468 0 -0.093944937474792503 0.46462082789344678 0 -0.094675553767973264 0.45076758317000298 0 -0.086047819819581178 0.45134535453790131 0 -0.082509194984251868 0.46007906520350089 0 -0.090265281749681819 0.45351850901298468 0 -0.093944937474792503 0.46462082789344678 0 -0.094675553767973264 0.45076758317000298 0 -0.1045507464645692 0.47475835774787573 0 -0.094675553767973264 0.45076758317000298 0 -0.1045507464645692 0.47475835774787573 0 -0.1087715055698807 0.4588247561088431 0 -0.094675553767973264 0.45076758317000298 0 -0.1045507464645692 0.47475835774787573 0 -0.1126245701039178 0.4308246085444013 0 -0.1090807961073193 0.44665325123332839 0 -0.10338783084247161 0.44098956532991213 0 -0.097170403390676049 0.43571281837191522 0 -0.094675553767973264 0.45076758317000298 0 -0.10338783084247161 0.44098956532991213 0 -0.1087715055698807 0.4588247561088431 0 -0.094675553767973264 0.45076758317000298 0 -0.1090807961073193 0.44665325123332839 0 -0.094675553767973264 0.45076758317000298 0 -0.1090807961073193 0.44665325123332839 0 -0.10338783084247161 0.44098956532991213 0 -0.1126245701039178 0.4308246085444013 0 -0.1090807961073193 0.44665325123332839 0 -0.1242648033483075 0.43981492828754482 0 -0.1090807961073193 0.44665325123332839 0 -0.1242648033483075 0.43981492828754482 0 -0.1204057133641486 0.45504160574272429 0 -0.1087715055698807 0.4588247561088431 0 -0.1176294132596279 0.46872710166108278 0 -0.1045507464645692 0.47475835774787573 0 -0.1087715055698807 0.4588247561088431 0 -0.1204057133641486 0.45504160574272429 0 -0.1176294132596279 0.46872710166108278 0 -0.1087715055698807 0.4588247561088431 0 -0.1090807961073193 0.44665325123332839 0 -0.1204057133641486 0.45504160574272429 0 -0.13097929143795109 0.46459511115351071 0 -0.1204057133641486 0.45504160574272429 0 -0.1176294132596279 0.46872710166108278 0 -0.12908554574303099 0.47755934496718438 0 -0.1176294132596279 0.46872710166108278 0 -0.1160402402672886 0.48503019582547341 0 -0.1176294132596279 0.46872710166108278 0 -0.1160402402672886 0.48503019582547341 0 -0.1045507464645692 0.47475835774787573 0 -0.13803845513632401 0.5 0 -0.1097654836520903 0.5 0 -0.1160402402672886 0.48503019582547341 0 -0.1097654836520903 0.5 0 -0.1160402402672886 0.48503019582547341 0 -0.099362977551805121 0.48745008538217821 0 -0.081492512167856565 0.50000000000000011 0 -0.1097654836520903 0.5 0 -0.099362977551805121 0.48745008538217821 0 -0.085878896958769185 0.47675925450649242 0 -0.093944937474792503 0.46462082789344678 0 -0.1045507464645692 0.47475835774787573 0 -0.085878896958769185 0.47675925450649242 0 -0.099362977551805121 0.48745008538217821 0 -0.1045507464645692 0.47475835774787573 0 -0.1160402402672886 0.48503019582547341 0 -0.099362977551805121 0.48745008538217821 0 -0.1045507464645692 0.47475835774787573 0 -0.15850742705232401 0.077073165420907211 0 -0.17832815471062741 0.080370175701138483 0 -0.15596223049933161 0.089669487892629185 0 -0.17128916945913089 0.092189477241546317 0 -0.17832815471062741 0.080370175701138483 0 -0.15596223049933161 0.089669487892629185 0 -0.17832815471062741 0.080370175701138483 0 -0.15596223049933161 0.089669487892629185 0 -0.15850742705232401 0.077073165420907211 0 -0.16907692184479731 0.071953328836937142 0 -0.17832815471062741 0.080370175701138483 0 -0.15850742705232401 0.077073165420907211 0 -0.15722519427174569 0.065058312825911402 0 -0.16907692184479731 0.071953328836937142 0 -0.16907692184479731 0.071953328836937142 0 -0.1809864334298861 0.069780609401686525 0 -0.17832815471062741 0.080370175701138483 0 -0.16907692184479731 0.071953328836937142 0 -0.1809864334298861 0.069780609401686525 0 -0.18167022033174851 0.056262687610226528 0 -0.1809864334298861 0.069780609401686525 0 -0.17832815471062741 0.080370175701138483 0 -0.20069407892192309 0.071070863509647808 0 -0.1809864334298861 0.069780609401686525 0 -0.18167022033174851 0.056262687610226528 0 -0.1876556690991136 0.063313821709693935 0 -0.17128916945913089 0.092189477241546317 0 -0.18444466814129201 0.081023499242751457 0 -0.17631468167186989 0.1066384650542631 0 -0.17128916945913089 0.092189477241546317 0 -0.18444466814129201 0.081023499242751457 0 -0.17832815471062741 0.080370175701138483 0 -0.18444466814129201 0.081023499242751457 0 -0.17631468167186989 0.1066384650542631 0 -0.19937405773042491 0.1071019237599893 0 -0.17631468167186989 0.1066384650542631 0 -0.16393492635195239 0.1245978723337525 0 -0.1795193575176991 0.1294692331289829 0 -0.17631468167186989 0.1066384650542631 0 -0.19937405773042491 0.1071019237599893 0 -0.1795193575176991 0.1294692331289829 0 -0.16393492635195239 0.1245978723337525 0 -0.16139611227253359 0.1032457583169494 0 -0.15311233888185891 0.1152965378839053 0 -0.17631468167186989 0.1066384650542631 0 -0.16393492635195239 0.1245978723337525 0 -0.16139611227253359 0.1032457583169494 0 -0.17128916945913089 0.092189477241546317 0 -0.17631468167186989 0.1066384650542631 0 -0.16139611227253359 0.1032457583169494 0 -0.17128916945913089 0.092189477241546317 0 -0.16139611227253359 0.1032457583169494 0 -0.15596223049933161 0.089669487892629185 0 -0.16139611227253359 0.1032457583169494 0 -0.13359630628803579 0.098968800084119873 0 -0.15596223049933161 0.089669487892629185 0 -0.16139611227253359 0.1032457583169494 0 -0.15311233888185891 0.1152965378839053 0 -0.13359630628803579 0.098968800084119873 0 -0.13359630628803579 0.098968800084119873 0 -0.15596223049933161 0.089669487892629185 0 -0.15311233888185891 0.1152965378839053 0 -0.13930859898956699 0.1145050369687237 0 -0.153752621985453 0.14073392350839439 0 -0.15311233888185891 0.1152965378839053 0 -0.13930859898956699 0.1145050369687237 0 -0.13359630628803579 0.098968800084119873 0 -0.13930859898956699 0.1145050369687237 0 -0.12607259725238279 0.11330641960449821 0 -0.12916618827146031 0.12390190950899049 0 -0.13930859898956699 0.1145050369687237 0 -0.12607259725238279 0.11330641960449821 0 -0.13359630628803579 0.098968800084119873 0 -0.13359630628803579 0.098968800084119873 0 -0.12697672020224329 0.087309090757334687 0 -0.14089006822782121 0.082531143958766096 0 -0.12697672020224329 0.087309090757334687 0 -0.14089006822782121 0.082531143958766096 0 -0.12697985749263241 0.07630636069427757 0 -0.15850742705232401 0.077073165420907211 0 -0.14089006822782121 0.082531143958766096 0 -0.15596223049933161 0.089669487892629185 0 -0.13359630628803579 0.098968800084119873 0 -0.14089006822782121 0.082531143958766096 0 -0.15596223049933161 0.089669487892629185 0 -0.15850742705232401 0.077073165420907211 0 -0.14089006822782121 0.082531143958766096 0 -0.14764327064684279 0.071644858797684771 0 -0.15722519427174569 0.065058312825911402 0 -0.14764327064684279 0.071644858797684771 0 -0.1471722955607111 0.059591957907519158 0 -0.15850742705232401 0.077073165420907211 0 -0.15722519427174569 0.065058312825911402 0 -0.14764327064684279 0.071644858797684771 0 -0.14089006822782121 0.082531143958766096 0 -0.14764327064684279 0.071644858797684771 0 -0.13666502121529681 0.069478967649866344 0 -0.14764327064684279 0.071644858797684771 0 -0.13666502121529681 0.069478967649866344 0 -0.1471722955607111 0.059591957907519158 0 -0.14089006822782121 0.082531143958766096 0 -0.13666502121529681 0.069478967649866344 0 -0.12697985749263241 0.07630636069427757 0 -0.13666502121529681 0.069478967649866344 0 -0.12697985749263241 0.07630636069427757 0 -0.12509646681095879 0.065597408261105467 0 -0.13666502121529681 0.069478967649866344 0 -0.12509646681095879 0.065597408261105467 0 -0.13233523162579211 0.057527865090889828 0 -0.13233523162579211 0.057527865090889828 0 -0.1197320338084647 0.057760070231756527 0 -0.1244920148619628 0.050381604022983993 0 -0.12509646681095879 0.065597408261105467 0 -0.13233523162579211 0.057527865090889828 0 -0.1197320338084647 0.057760070231756527 0 -0.13666502121529681 0.069478967649866344 0 -0.13233523162579211 0.057527865090889828 0 -0.1471722955607111 0.059591957907519158 0 -0.13233523162579211 0.057527865090889828 0 -0.131277092146349 0.043237905602295942 0 -0.1435202772377579 0.047601805401877667 0 -0.13233523162579211 0.057527865090889828 0 -0.131277092146349 0.043237905602295942 0 -0.1244920148619628 0.050381604022983993 0 -0.131277092146349 0.043237905602295942 0 -0.14194951185496399 0.035172378083737049 0 -0.12424451236807239 0.027069144312366941 0 -0.131277092146349 0.043237905602295942 0 -0.12424451236807239 0.027069144312366941 0 -0.12075472355362291 0.04122338309529356 0 -0.131277092146349 0.043237905602295942 0 -0.12075472355362291 0.04122338309529356 0 -0.1244920148619628 0.050381604022983993 0 -0.131277092146349 0.043237905602295942 0 -0.14194951185496399 0.035172378083737049 0 -0.1435202772377579 0.047601805401877667 0 -0.14194951185496399 0.035172378083737049 0 -0.15126073753592009 0.02487777788828089 0 -0.1637260562540532 0.045028253166508762 0 -0.14194951185496399 0.035172378083737049 0 -0.1435202772377579 0.047601805401877667 0 -0.1637260562540532 0.045028253166508762 0 -0.15722519427174569 0.065058312825911402 0 -0.1471722955607111 0.059591957907519158 0 -0.1637260562540532 0.045028253166508762 0 -0.1471722955607111 0.059591957907519158 0 -0.1435202772377579 0.047601805401877667 0 -0.1637260562540532 0.045028253166508762 0 -0.13233523162579211 0.057527865090889828 0 -0.1471722955607111 0.059591957907519158 0 -0.1435202772377579 0.047601805401877667 0 -0.1244522405185825 -0.00038769298458709092 0 -0.1310798501921922 0.016754836893075501 0 -0.12424451236807239 0.027069144312366941 0 -0.1244522405185825 -0.00038769298458709092 0 -0.13302987177733741 0.0072862060594841918 0 -0.1310798501921922 0.016754836893075501 0 -0.13796817939809339 -7.5853332940862265e-05 0 -0.13302987177733741 0.0072862060594841918 0 -0.13861921700048169 0.01285353366238922 0 -0.1244522405185825 -0.00038769298458709092 0 -0.13796817939809339 -7.5853332940862265e-05 0 -0.13302987177733741 0.0072862060594841918 0 -0.13302987177733741 0.0072862060594841918 0 -0.13861921700048169 0.01285353366238922 0 -0.1310798501921922 0.016754836893075501 0 -0.14194951185496399 0.035172378083737049 0 -0.1395360945068517 0.023372288850015029 0 -0.12424451236807239 0.027069144312366941 0 -0.13861921700048169 0.01285353366238922 0 -0.1395360945068517 0.023372288850015029 0 -0.1310798501921922 0.016754836893075501 0 -0.1395360945068517 0.023372288850015029 0 -0.1310798501921922 0.016754836893075501 0 -0.12424451236807239 0.027069144312366941 0 -0.14194951185496399 0.035172378083737049 0 -0.1395360945068517 0.023372288850015029 0 -0.15126073753592009 0.02487777788828089 0 -0.15126073753592009 0.02487777788828089 0 -0.15188271994169991 0.01786916074884114 0 -0.14657132146084931 0.01677767438903701 0 -0.15126073753592009 0.02487777788828089 0 -0.15837519066330749 0.018103177496080571 0 -0.1567842680697151 0.017821512483746641 0 -0.15126073753592009 0.02487777788828089 0 -0.15188271994169991 0.01786916074884114 0 -0.1567842680697151 0.017821512483746641 0 -0.1543123506052223 0.01567032783345056 0 -0.15188271994169991 0.01786916074884114 0 -0.1567842680697151 0.017821512483746641 0 -0.13861921700048169 0.01285353366238922 0 -0.1395360945068517 0.023372288850015029 0 -0.14657132146084931 0.01677767438903701 0 -0.1395360945068517 0.023372288850015029 0 -0.15126073753592009 0.02487777788828089 0 -0.14657132146084931 0.01677767438903701 0 -0.15381676672243971 -0.0048344028756085976 0 -0.13796817939809339 -7.5853332940862265e-05 0 -0.14598604308907309 0.0075397954886723484 0 -0.15381676672243971 -0.0048344028756085976 0 -0.15837519066330749 0.018103177496080571 0 -0.15381676672243971 -0.0048344028756085976 0 -0.15182406541376531 0.011854288846745499 0 -0.15837519066330749 0.018103177496080571 0 -0.15381676672243971 -0.0048344028756085976 0 -0.15182406541376531 0.011854288846745499 0 -0.14598604308907309 0.0075397954886723484 0 -0.13861921700048169 0.01285353366238922 0 -0.14657132146084931 0.01677767438903701 0 -0.14598604308907309 0.0075397954886723484 0 -0.14657132146084931 0.01677767438903701 0 -0.15182406541376531 0.011854288846745499 0 -0.14598604308907309 0.0075397954886723484 0 -0.15188271994169991 0.01786916074884114 0 -0.14657132146084931 0.01677767438903701 0 -0.15182406541376531 0.011854288846745499 0 -0.1543123506052223 0.01567032783345056 0 -0.15182406541376531 0.011854288846745499 0 -0.15837519066330749 0.018103177496080571 0 -0.1543123506052223 0.01567032783345056 0 -0.15188271994169991 0.01786916074884114 0 -0.15182406541376531 0.011854288846745499 0 -0.13796817939809339 -7.5853332940862265e-05 0 -0.13861921700048169 0.01285353366238922 0 -0.14598604308907309 0.0075397954886723484 0 -0.15381676672243971 -0.0048344028756085976 0 -0.16872927738725291 0.0066655648670224509 0 -0.15837519066330749 0.018103177496080571 0 -0.16872927738725291 0.0066655648670224509 0 -0.15837519066330749 0.018103177496080571 0 -0.17312315274812851 0.016956976572924821 0 -0.15837519066330749 0.018103177496080571 0 -0.17088268452158301 0.030303691123205939 0 -0.18416549926151529 0.022669224655560441 0 -0.15837519066330749 0.018103177496080571 0 -0.17088268452158301 0.030303691123205939 0 -0.1637260562540532 0.045028253166508762 0 -0.15126073753592009 0.02487777788828089 0 -0.15837519066330749 0.018103177496080571 0 -0.1637260562540532 0.045028253166508762 0 -0.15837519066330749 0.018103177496080571 0 -0.18416549926151529 0.022669224655560441 0 -0.1543123506052223 0.01567032783345056 0 -0.15837519066330749 0.018103177496080571 0 -0.1567842680697151 0.017821512483746641 0 -0.15837519066330749 0.018103177496080571 0 -0.1567842680697151 0.017821512483746641 0 -0.15837519066330749 0.018103177496080571 0 -0.18416549926151529 0.022669224655560441 0 -0.17312315274812851 0.016956976572924821 0 -0.17088268452158301 0.030303691123205939 0 -0.18416549926151529 0.022669224655560441 0 -0.1815242396402782 0.037713578252632912 0 -0.18416549926151529 0.022669224655560441 0 -0.17919408738426101 0.017592611389363012 0 -0.18518118592807509 0.0154377595936586 0 -0.18416549926151529 0.022669224655560441 0 -0.17312315274812851 0.016956976572924821 0 -0.17919408738426101 0.017592611389363012 0 -0.1785064095432054 -0.0066611219507198768 0 -0.16872927738725291 0.0066655648670224509 0 -0.193034969706537 0.00064734206737222756 0 -0.16872927738725291 0.0066655648670224509 0 -0.193034969706537 0.00064734206737222756 0 -0.16872927738725291 0.0066655648670224509 0 -0.18518118592807509 0.0154377595936586 0 -0.193034969706537 0.00064734206737222756 0 -0.16872927738725291 0.0066655648670224509 0 -0.17919408738426101 0.017592611389363012 0 -0.18518118592807509 0.0154377595936586 0 -0.16872927738725291 0.0066655648670224509 0 -0.17312315274812851 0.016956976572924821 0 -0.17919408738426101 0.017592611389363012 0 -0.16907692184479731 0.071953328836937142 0 -0.1637260562540532 0.045028253166508762 0 -0.18167022033174851 0.056262687610226528 0 -0.15722519427174569 0.065058312825911402 0 -0.16907692184479731 0.071953328836937142 0 -0.1637260562540532 0.045028253166508762 0 -0.16907692184479731 0.071953328836937142 0 -0.1637260562540532 0.045028253166508762 0 -0.15837519066330749 0.018103177496080571 0 -0.1637260562540532 0.045028253166508762 0 -0.17088268452158301 0.030303691123205939 0 -0.1637260562540532 0.045028253166508762 0 -0.1815242396402782 0.037713578252632912 0 -0.1815242396402782 0.037713578252632912 0 -0.18167022033174851 0.056262687610226528 0 -0.1948999673891425 0.045815662425189529 0 -0.1637260562540532 0.045028253166508762 0 -0.1815242396402782 0.037713578252632912 0 -0.18167022033174851 0.056262687610226528 0 -0.18416549926151529 0.022669224655560441 0 -0.1815242396402782 0.037713578252632912 0 -0.19539241544158811 0.034915353149486399 0 -0.19598386328254799 0.058823167906541372 0 -0.20873259774339259 0.055173182954087172 0 -0.20069407892192309 0.071070863509647808 0 -0.18167022033174851 0.056262687610226528 0 -0.19598386328254799 0.058823167906541372 0 -0.1876556690991136 0.063313821709693935 0 -0.19598386328254799 0.058823167906541372 0 -0.1948999673891425 0.045815662425189529 0 -0.20873259774339259 0.055173182954087172 0 -0.18167022033174851 0.056262687610226528 0 -0.19598386328254799 0.058823167906541372 0 -0.1948999673891425 0.045815662425189529 0 -0.1815242396402782 0.037713578252632912 0 -0.1948999673891425 0.045815662425189529 0 -0.19539241544158811 0.034915353149486399 0 -0.1948999673891425 0.045815662425189529 0 -0.19539241544158811 0.034915353149486399 0 -0.20641656305728129 0.041143028599009299 0 -0.20641656305728129 0.041143028599009299 0 -0.20995580785972329 0.027235271815039791 0 -0.22080882119384479 0.043900986742667819 0 -0.19539241544158811 0.034915353149486399 0 -0.20641656305728129 0.041143028599009299 0 -0.20995580785972329 0.027235271815039791 0 -0.20641656305728129 0.041143028599009299 0 -0.20873259774339259 0.055173182954087172 0 -0.22080882119384479 0.043900986742667819 0 -0.20873259774339259 0.055173182954087172 0 -0.2267202713125637 0.058975611642501508 0 -0.2176358721649875 0.072186860311035453 0 -0.1948999673891425 0.045815662425189529 0 -0.20641656305728129 0.041143028599009299 0 -0.20873259774339259 0.055173182954087172 0 -0.20993853639106591 -0.0035380738047605968 0 -0.2009137908539024 0.01431144198083124 0 -0.193034969706537 0.00064734206737222756 0 -0.18518118592807509 0.0154377595936586 0 -0.2009137908539024 0.01431144198083124 0 -0.193034969706537 0.00064734206737222756 0 -0.18518118592807509 0.0154377595936586 0 -0.193034969706537 0.00064734206737222756 0 -0.18416549926151529 0.022669224655560441 0 -0.20995580785972329 0.027235271815039791 0 -0.18416549926151529 0.022669224655560441 0 -0.18518118592807509 0.0154377595936586 0 -0.2009137908539024 0.01431144198083124 0 -0.18416549926151529 0.022669224655560441 0 -0.2009137908539024 0.01431144198083124 0 -0.20995580785972329 0.027235271815039791 0 -0.18416549926151529 0.022669224655560441 0 -0.19539241544158811 0.034915353149486399 0 -0.20995580785972329 0.027235271815039791 0 -0.2009137908539024 0.01431144198083124 0 -0.20995580785972329 0.027235271815039791 0 -0.21568563774484731 0.0082874278720449449 0 -0.20993853639106591 -0.0035380738047605968 0 -0.2009137908539024 0.01431144198083124 0 -0.21568563774484731 0.0082874278720449449 0 -0.22684210307559549 -0.0077234896768903086 0 -0.21568563774484731 0.0082874278720449449 0 -0.23077795054394901 0.01115198904600462 0 -0.22684210307559549 -0.0077234896768903086 0 -0.23077795054394901 0.01115198904600462 0 -0.20995580785972329 0.027235271815039791 0 -0.21568563774484731 0.0082874278720449449 0 -0.23077795054394901 0.01115198904600462 0 -0.20995580785972329 0.027235271815039791 0 -0.2357461164579312 0.03180131897451912 0 -0.20995580785972329 0.027235271815039791 0 -0.23077795054394901 0.01115198904600462 0 -0.2357461164579312 0.03180131897451912 0 -0.23077795054394901 0.01115198904600462 0 -0.24854849079604721 0.020569936005881421 0 -0.2357461164579312 0.03180131897451912 0 -0.26153642505613889 0.036367366133998442 0 -0.24854849079604721 0.020569936005881421 0 -0.2357461164579312 0.03180131897451912 0 -0.23077795054394901 0.01115198904600462 0 -0.24854849079604721 0.020569936005881421 0 -0.24598119983726671 0.0037338506766126851 0 -0.22684210307559549 -0.0077234896768903086 0 -0.23077795054394901 0.01115198904600462 0 -0.24598119983726671 0.0037338506766126851 0 -0.20873259774339259 0.055173182954087172 0 -0.2267202713125637 0.058975611642501508 0 -0.22080882119384479 0.043900986742667819 0 -0.2267202713125637 0.058975611642501508 0 -0.22080882119384479 0.043900986742667819 0 -0.239388393447095 0.04766651035075449 0 -0.22080882119384479 0.043900986742667819 0 -0.2357461164579312 0.03180131897451912 0 -0.239388393447095 0.04766651035075449 0 -0.20995580785972329 0.027235271815039791 0 -0.22080882119384479 0.043900986742667819 0 -0.2357461164579312 0.03180131897451912 0 -0.26153642505613889 0.036367366133998442 0 -0.2357461164579312 0.03180131897451912 0 -0.26153642505613889 0.036367366133998442 0 -0.2357461164579312 0.03180131897451912 0 -0.239388393447095 0.04766651035075449 0 -0.25116276906762952 0.054241108780248931 0 -0.239388393447095 0.04766651035075449 0 -0.24035595759446179 0.060712669830591162 0 -0.2267202713125637 0.058975611642501508 0 -0.239388393447095 0.04766651035075449 0 -0.24035595759446179 0.060712669830591162 0 -0.25116276906762952 0.054241108780248931 0 -0.24035595759446179 0.060712669830591162 0 -0.24829977196364941 0.065213336215906109 0 -0.2267202713125637 0.058975611642501508 0 -0.24035595759446179 0.060712669830591162 0 -0.23791909572611269 0.075142721002645518 0 -0.24035595759446179 0.060712669830591162 0 -0.24829977196364941 0.065213336215906109 0 -0.23791909572611269 0.075142721002645518 0 -0.25064083865024739 0.073628726666345984 0 -0.23791909572611269 0.075142721002645518 0 -0.24857020570659841 0.081659589420377987 0 -0.25064083865024739 0.073628726666345984 0 -0.24829977196364941 0.065213336215906109 0 -0.23791909572611269 0.075142721002645518 0 -0.23791909572611269 0.075142721002645518 0 -0.2427234934652894 0.090762762990284518 0 -0.22646138453880821 0.085461994072224837 0 -0.25413031243694739 0.089521027236778197 0 -0.2427234934652894 0.090762762990284518 0 -0.24857020570659841 0.081659589420377987 0 -0.23791909572611269 0.075142721002645518 0 -0.2427234934652894 0.090762762990284518 0 -0.24857020570659841 0.081659589420377987 0 -0.2267202713125637 0.058975611642501508 0 -0.23791909572611269 0.075142721002645518 0 -0.2176358721649875 0.072186860311035453 0 -0.23791909572611269 0.075142721002645518 0 -0.22646138453880821 0.085461994072224837 0 -0.2176358721649875 0.072186860311035453 0 -0.20873259774339259 0.055173182954087172 0 -0.2176358721649875 0.072186860311035453 0 -0.20069407892192309 0.071070863509647808 0 -0.2176358721649875 0.072186860311035453 0 -0.20525373999263671 0.08640341449760941 0 -0.20069407892192309 0.071070863509647808 0 -0.22646138453880821 0.085461994072224837 0 -0.2176358721649875 0.072186860311035453 0 -0.20525373999263671 0.08640341449760941 0 -0.22646138453880821 0.085461994072224837 0 -0.20525373999263671 0.08640341449760941 0 -0.2161514522581473 0.1006972439961434 0 -0.18444466814129201 0.081023499242751457 0 -0.20525373999263671 0.08640341449760941 0 -0.20069407892192309 0.071070863509647808 0 -0.18444466814129201 0.081023499242751457 0 -0.20525373999263671 0.08640341449760941 0 -0.19937405773042491 0.1071019237599893 0 -0.17832815471062741 0.080370175701138483 0 -0.20069407892192309 0.071070863509647808 0 -0.18444466814129201 0.081023499242751457 0 -0.17832815471062741 0.080370175701138483 0 -0.20069407892192309 0.071070863509647808 0 -0.1809864334298861 0.069780609401686525 0 -0.1876556690991136 0.063313821709693935 0 -0.20069407892192309 0.071070863509647808 0 -0.19598386328254799 0.058823167906541372 0 -0.1876556690991136 0.063313821709693935 0 -0.20069407892192309 0.071070863509647808 0 -0.19937405773042491 0.1071019237599893 0 -0.2161514522581473 0.1006972439961434 0 -0.21430344731955769 0.133180348277227 0 -0.19937405773042491 0.1071019237599893 0 -0.19727411993202021 0.1275714443648302 0 -0.1795193575176991 0.1294692331289829 0 -0.18444466814129201 0.081023499242751457 0 -0.19937405773042491 0.1071019237599893 0 -0.20525373999263671 0.08640341449760941 0 -0.19937405773042491 0.1071019237599893 0 -0.2161514522581473 0.1006972439961434 0 -0.19937405773042491 0.1071019237599893 0 -0.21430344731955769 0.133180348277227 0 -0.19937405773042491 0.1071019237599893 0 -0.19727411993202021 0.1275714443648302 0 -0.21430344731955769 0.133180348277227 0 -0.2161514522581473 0.1006972439961434 0 -0.23231730930006211 0.10853516007106349 0 -0.21430344731955769 0.133180348277227 0 -0.2427234934652894 0.090762762990284518 0 -0.22646138453880821 0.085461994072224837 0 -0.23231730930006211 0.10853516007106349 0 -0.22646138453880821 0.085461994072224837 0 -0.2161514522581473 0.1006972439961434 0 -0.23231730930006211 0.10853516007106349 0 -0.25610310449345419 0.1041046972302731 0 -0.2427234934652894 0.090762762990284518 0 -0.23231730930006211 0.10853516007106349 0 -0.25610310449345419 0.1041046972302731 0 -0.23231730930006211 0.10853516007106349 0 -0.2495823492922267 0.12121763785839371 0 -0.23231730930006211 0.10853516007106349 0 -0.2495823492922267 0.12121763785839371 0 -0.23849568892714909 0.13696143350773771 0 -0.23231730930006211 0.10853516007106349 0 -0.23849568892714909 0.13696143350773771 0 -0.25477231595188199 0.13792181725732239 0 -0.2495823492922267 0.12121763785839371 0 -0.23849568892714909 0.13696143350773771 0 -0.23231730930006211 0.10853516007106349 0 -0.23849568892714909 0.13696143350773771 0 -0.21430344731955769 0.133180348277227 0 -0.23849568892714909 0.13696143350773771 0 -0.22923283690869051 0.15925877279446471 0 -0.21430344731955769 0.133180348277227 0 -0.22923283690869051 0.15925877279446471 0 -0.21430344731955769 0.133180348277227 0 -0.2543915534089356 0.15018751405662761 0 -0.23849568892714909 0.13696143350773771 0 -0.24467406855423091 0.1653877069444131 0 -0.23849568892714909 0.13696143350773771 0 -0.24467406855423091 0.1653877069444131 0 -0.22923283690869051 0.15925877279446471 0 -0.2543915534089356 0.15018751405662761 0 -0.25477231595188199 0.13792181725732239 0 -0.23849568892714909 0.13696143350773771 0 -0.23849568892714909 0.13696143350773771 0 -0.24467406855423091 0.1653877069444131 0 -0.24467406855423091 0.1653877069444131 0 -0.2350219134637796 0.18103954803765679 0 -0.22379977898383499 0.16989282922580509 0 -0.24467406855423091 0.1653877069444131 0 -0.24947341468037071 0.1874691479585941 0 -0.2350219134637796 0.18103954803765679 0 -0.24467406855423091 0.1653877069444131 0 -0.24947341468037071 0.1874691479585941 0 -0.2350219134637796 0.18103954803765679 0 -0.22004124654446131 0.18611549732905991 0 -0.22379977898383499 0.16989282922580509 0 -0.24467406855423091 0.1653877069444131 0 -0.22379977898383499 0.16989282922580509 0 -0.22923283690869051 0.15925877279446471 0 -0.22379977898383499 0.16989282922580509 0 -0.22923283690869051 0.15925877279446471 0 -0.20989634202023699 0.1560844752241346 0 -0.24467406855423091 0.1653877069444131 0 -0.22379977898383499 0.16989282922580509 0 -0.22379977898383499 0.16989282922580509 0 -0.20292548941343971 0.17439795150720031 0 -0.20989634202023699 0.1560844752241346 0 -0.20292548941343971 0.17439795150720031 0 -0.20989634202023699 0.1560844752241346 0 -0.17833905569944569 0.15756593750779829 0 -0.22379977898383499 0.16989282922580509 0 -0.20292548941343971 0.17439795150720031 0 -0.22004124654446131 0.18611549732905991 0 -0.22379977898383499 0.16989282922580509 0 -0.20292548941343971 0.17439795150720031 0 -0.22004124654446131 0.18611549732905991 0 -0.20292548941343971 0.17439795150720031 0 -0.22004124654446131 0.18611549732905991 0 -0.20292548941343971 0.17439795150720031 0 -0.20568385543668641 0.19260324117033031 0 -0.20292548941343971 0.17439795150720031 0 -0.1757122088887666 0.1802711648698879 0 -0.20292548941343971 0.17439795150720031 0 -0.1897130520823497 0.19444680225630501 0 -0.1757122088887666 0.1802711648698879 0 -0.20292548941343971 0.17439795150720031 0 -0.20568385543668641 0.19260324117033031 0 -0.1897130520823497 0.19444680225630501 0 -0.20292548941343971 0.17439795150720031 0 -0.17833905569944569 0.15756593750779829 0 -0.19589961716039911 0.1405342722931214 0 -0.20989634202023699 0.1560844752241346 0 -0.17833905569944569 0.15756593750779829 0 -0.19727411993202021 0.1275714443648302 0 -0.19589961716039911 0.1405342722931214 0 -0.1795193575176991 0.1294692331289829 0 -0.19727411993202021 0.1275714443648302 0 -0.19589961716039911 0.1405342722931214 0 -0.21430344731955769 0.133180348277227 0 -0.22923283690869051 0.15925877279446471 0 -0.21430344731955769 0.133180348277227 0 -0.20989634202023699 0.1560844752241346 0 -0.19589961716039911 0.1405342722931214 0 -0.21430344731955769 0.133180348277227 0 -0.20989634202023699 0.1560844752241346 0 -0.23288038931281729 0.23888496135878451 0 -0.21994142138302111 0.22426230620998819 0 -0.21218175950055909 0.24952722652004439 0 -0.22667039518801041 0.25355429459537898 0 -0.23288038931281729 0.23888496135878451 0 -0.21218175950055909 0.24952722652004439 0 -0.2416444700809012 0.25186566196455601 0 -0.22667039518801041 0.25355429459537898 0 -0.23288038931281729 0.23888496135878451 0 -0.2416444700809012 0.25186566196455601 0 -0.23288038931281729 0.23888496135878451 0 -0.2470081454867771 0.2422065880623451 0 -0.25693865295534157 0.25278860643768353 0 -0.2416444700809012 0.25186566196455601 0 -0.2470081454867771 0.2422065880623451 0 -0.25109603964961891 0.234366577265785 0 -0.2470081454867771 0.2422065880623451 0 -0.24424918889796191 0.23342051569475999 0 -0.23288038931281729 0.23888496135878451 0 -0.2470081454867771 0.2422065880623451 0 -0.24424918889796191 0.23342051569475999 0 -0.23288038931281729 0.23888496135878451 0 -0.24424918889796191 0.23342051569475999 0 -0.2396805993576108 0.22455316273993289 0 -0.24424918889796191 0.23342051569475999 0 -0.249817319625419 0.2274340479663062 0 -0.2396805993576108 0.22455316273993289 0 -0.25109603964961891 0.234366577265785 0 -0.24424918889796191 0.23342051569475999 0 -0.249817319625419 0.2274340479663062 0 -0.249817319625419 0.2274340479663062 0 -0.24904636230289101 0.22050689045355901 0 -0.2396805993576108 0.22455316273993289 0 -0.24904636230289101 0.22050689045355901 0 -0.2396805993576108 0.22455316273993289 0 -0.24333230173327219 0.21221501244476959 0 -0.2396805993576108 0.22455316273993289 0 -0.21994142138302111 0.22426230620998819 0 -0.23304733008138001 0.21339205942673259 0 -0.23288038931281729 0.23888496135878451 0 -0.2396805993576108 0.22455316273993289 0 -0.21994142138302111 0.22426230620998819 0 -0.21994142138302111 0.22426230620998819 0 -0.22770108326548311 0.19899738589993199 0 -0.210353022999335 0.20567537760669019 0 -0.21994142138302111 0.22426230620998819 0 -0.23304733008138001 0.21339205942673259 0 -0.22770108326548311 0.19899738589993199 0 -0.21994142138302111 0.22426230620998819 0 -0.22770108326548311 0.19899738589993199 0 -0.23304733008138001 0.21339205942673259 0 -0.2346933251094325 0.20523388649383931 0 -0.22770108326548311 0.19899738589993199 0 -0.25427276080650663 0.20955058897277601 0 -0.23715700367548431 0.1978330431509176 0 -0.2396805993576108 0.22455316273993289 0 -0.23304733008138001 0.21339205942673259 0 -0.24333230173327219 0.21221501244476959 0 -0.25427276080650663 0.20955058897277601 0 -0.24333230173327219 0.21221501244476959 0 -0.23715700367548431 0.1978330431509176 0 -0.25561524088587501 0.21572724177218369 0 -0.24904636230289101 0.22050689045355901 0 -0.24333230173327219 0.21221501244476959 0 -0.24333230173327219 0.21221501244476959 0 -0.2346933251094325 0.20523388649383931 0 -0.23715700367548431 0.1978330431509176 0 -0.23304733008138001 0.21339205942673259 0 -0.24333230173327219 0.21221501244476959 0 -0.2346933251094325 0.20523388649383931 0 -0.25427276080650663 0.20955058897277601 0 -0.24947341468037071 0.1874691479585941 0 -0.23715700367548431 0.1978330431509176 0 -0.24947341468037071 0.1874691479585941 0 -0.2350219134637796 0.18103954803765679 0 -0.23715700367548431 0.1978330431509176 0 -0.22004124654446131 0.18611549732905991 0 -0.23715700367548431 0.1978330431509176 0 -0.22004124654446131 0.18611549732905991 0 -0.23715700367548431 0.1978330431509176 0 -0.22770108326548311 0.19899738589993199 0 -0.2350219134637796 0.18103954803765679 0 -0.22004124654446131 0.18611549732905991 0 -0.23715700367548431 0.1978330431509176 0 -0.2346933251094325 0.20523388649383931 0 -0.23715700367548431 0.1978330431509176 0 -0.22770108326548311 0.19899738589993199 0 -0.22004124654446131 0.18611549732905991 0 -0.22770108326548311 0.19899738589993199 0 -0.21594480206149139 0.19584787550150309 0 -0.22770108326548311 0.19899738589993199 0 -0.21594480206149139 0.19584787550150309 0 -0.210353022999335 0.20567537760669019 0 -0.22004124654446131 0.18611549732905991 0 -0.21594480206149139 0.19584787550150309 0 -0.20568385543668641 0.19260324117033031 0 -0.21594480206149139 0.19584787550150309 0 -0.20568385543668641 0.19260324117033031 0 -0.210353022999335 0.20567537760669019 0 -0.20568385543668641 0.19260324117033031 0 -0.19800517532583911 0.2033181044808495 0 -0.210353022999335 0.20567537760669019 0 -0.20568385543668641 0.19260324117033031 0 -0.1897130520823497 0.19444680225630501 0 -0.19800517532583911 0.2033181044808495 0 -0.1897130520823497 0.19444680225630501 0 -0.19800517532583911 0.2033181044808495 0 -0.1863200837324982 0.20555600776477401 0 -0.19800517532583911 0.2033181044808495 0 -0.19795586237832599 0.21830909360614789 0 -0.210353022999335 0.20567537760669019 0 -0.19800517532583911 0.2033181044808495 0 -0.19795586237832599 0.21830909360614789 0 -0.1863200837324982 0.20555600776477401 0 -0.19795586237832599 0.21830909360614789 0 -0.18240126852579899 0.21930684119835961 0 -0.1863200837324982 0.20555600776477401 0 -0.21994142138302111 0.22426230620998819 0 -0.19795586237832599 0.21830909360614789 0 -0.210353022999335 0.20567537760669019 0 -0.21994142138302111 0.22426230620998819 0 -0.19795586237832599 0.21830909360614789 0 -0.20314208847108339 0.23556135501649109 0 -0.19795586237832599 0.21830909360614789 0 -0.18651378479530609 0.23505073182760211 0 -0.18240126852579899 0.21930684119835961 0 -0.19795586237832599 0.21830909360614789 0 -0.20314208847108339 0.23556135501649109 0 -0.18651378479530609 0.23505073182760211 0 -0.1929026130837673 0.25762258695206858 0 -0.20314208847108339 0.23556135501649109 0 -0.18651378479530609 0.23505073182760211 0 -0.1929026130837673 0.25762258695206858 0 -0.20314208847108339 0.23556135501649109 0 -0.21218175950055909 0.24952722652004439 0 -0.21994142138302111 0.22426230620998819 0 -0.21218175950055909 0.24952722652004439 0 -0.21994142138302111 0.22426230620998819 0 -0.20314208847108339 0.23556135501649109 0 -0.21218175950055909 0.24952722652004439 0 -0.16582228118094081 0.26466105519565358 0 -0.18651378479530609 0.23505073182760211 0 -0.1608218935138386 0.23306973899941771 0 -0.16582228118094081 0.26466105519565358 0 -0.14534546737678511 0.25129379472131641 0 -0.1608218935138386 0.23306973899941771 0 -0.18651378479530609 0.23505073182760211 0 -0.1608218935138386 0.23306973899941771 0 -0.18651378479530609 0.23505073182760211 0 -0.18240126852579899 0.21930684119835961 0 -0.1608218935138386 0.23306973899941771 0 -0.1608218935138386 0.23306973899941771 0 -0.16716432822862029 0.21469463307327219 0 -0.14537567171977789 0.21373021027012479 0 -0.18240126852579899 0.21930684119835961 0 -0.1608218935138386 0.23306973899941771 0 -0.16716432822862029 0.21469463307327219 0 -0.16716432822862029 0.21469463307327219 0 -0.15728284033457929 0.19872471446884221 0 -0.14537567171977789 0.21373021027012479 0 -0.16716432822862029 0.21469463307327219 0 -0.1863200837324982 0.20555600776477401 0 -0.15728284033457929 0.19872471446884221 0 -0.18240126852579899 0.21930684119835961 0 -0.16716432822862029 0.21469463307327219 0 -0.1863200837324982 0.20555600776477401 0 -0.1863200837324982 0.20555600776477401 0 -0.1747365466553682 0.1940095109997643 0 -0.15728284033457929 0.19872471446884221 0 -0.1897130520823497 0.19444680225630501 0 -0.1863200837324982 0.20555600776477401 0 -0.1747365466553682 0.1940095109997643 0 -0.1897130520823497 0.19444680225630501 0 -0.1747365466553682 0.1940095109997643 0 -0.1757122088887666 0.1802711648698879 0 -0.1747365466553682 0.1940095109997643 0 -0.16534449221108169 0.19019064904669619 0 -0.1757122088887666 0.1802711648698879 0 -0.1863200837324982 0.20555600776477401 0 -0.15728284033457929 0.19872471446884221 0 -0.1747365466553682 0.1940095109997643 0 -0.16534449221108169 0.19019064904669619 0 -0.15728284033457929 0.19872471446884221 0 -0.16534449221108169 0.19019064904669619 0 -0.15728284033457929 0.19872471446884221 0 -0.15629575781976141 0.184461654133797 0 -0.15728284033457929 0.19872471446884221 0 -0.12824559693666041 0.19189342117291039 0 -0.15629575781976141 0.184461654133797 0 -0.15728284033457929 0.19872471446884221 0 -0.12824559693666041 0.19189342117291039 0 -0.14537567171977789 0.21373021027012479 0 -0.15728284033457929 0.19872471446884221 0 -0.12824559693666041 0.19189342117291039 0 -0.12824559693666041 0.19189342117291039 0 -0.14537567171977789 0.21373021027012479 0 -0.1242544958201173 0.21504107598638081 0 -0.1608218935138386 0.23306973899941771 0 -0.14537567171977789 0.21373021027012479 0 -0.13513000223237101 0.23108874617123329 0 -0.1608218935138386 0.23306973899941771 0 -0.13513000223237101 0.23108874617123329 0 -0.14537567171977789 0.21373021027012479 0 -0.13513000223237101 0.23108874617123329 0 -0.1242544958201173 0.21504107598638081 0 -0.14534546737678511 0.25129379472131641 0 -0.13513000223237101 0.23108874617123329 0 -0.12470300375741469 0.2457033751303839 0 -0.14534546737678511 0.25129379472131641 0 -0.1608218935138386 0.23306973899941771 0 -0.13513000223237101 0.23108874617123329 0 -0.17833905569944569 0.15756593750779829 0 -0.1561619761378806 0.16047685630827471 0 -0.153752621985453 0.14073392350839439 0 -0.1795193575176991 0.1294692331289829 0 -0.17833905569944569 0.15756593750779829 0 -0.153752621985453 0.14073392350839439 0 -0.17833905569944569 0.15756593750779829 0 -0.153752621985453 0.14073392350839439 0 -0.16393492635195239 0.1245978723337525 0 -0.15311233888185891 0.1152965378839053 0 -0.153752621985453 0.14073392350839439 0 -0.16393492635195239 0.1245978723337525 0 -0.1795193575176991 0.1294692331289829 0 -0.153752621985453 0.14073392350839439 0 -0.19589961716039911 0.1405342722931214 0 -0.1795193575176991 0.1294692331289829 0 -0.17833905569944569 0.15756593750779829 0 -0.20292548941343971 0.17439795150720031 0 -0.17833905569944569 0.15756593750779829 0 -0.1757122088887666 0.1802711648698879 0 -0.1897130520823497 0.19444680225630501 0 -0.1757122088887666 0.1802711648698879 0 -0.16534449221108169 0.19019064904669619 0 -0.1757122088887666 0.1802711648698879 0 -0.15629575781976141 0.184461654133797 0 -0.1757122088887666 0.1802711648698879 0 -0.15629575781976141 0.184461654133797 0 -0.1757122088887666 0.1802711648698879 0 -0.15629575781976141 0.184461654133797 0 -0.1561619761378806 0.16047685630827471 0 -0.17833905569944569 0.15756593750779829 0 -0.1757122088887666 0.1802711648698879 0 -0.1561619761378806 0.16047685630827471 0 -0.1757122088887666 0.1802711648698879 0 -0.1561619761378806 0.16047685630827471 0 -0.1561619761378806 0.16047685630827471 0 -0.14126926821389521 0.17232478353634881 0 -0.1371080151487378 0.15864895140394189 0 -0.15629575781976141 0.184461654133797 0 -0.1561619761378806 0.16047685630827471 0 -0.14126926821389521 0.17232478353634881 0 -0.12824559693666041 0.19189342117291039 0 -0.15629575781976141 0.184461654133797 0 -0.14126926821389521 0.17232478353634881 0 -0.12824559693666041 0.19189342117291039 0 -0.14126926821389521 0.17232478353634881 0 -0.1248941403316576 0.1686438139500778 0 -0.14126926821389521 0.17232478353634881 0 -0.1371080151487378 0.15864895140394189 0 -0.1248941403316576 0.1686438139500778 0 -0.1371080151487378 0.15864895140394189 0 -0.1239269324459726 0.1539154783358255 0 -0.1248941403316576 0.1686438139500778 0 -0.1371080151487378 0.15864895140394189 0 -0.13661174338699569 0.1406825477466605 0 -0.1239269324459726 0.1539154783358255 0 -0.1561619761378806 0.16047685630827471 0 -0.13661174338699569 0.1406825477466605 0 -0.1561619761378806 0.16047685630827471 0 -0.13661174338699569 0.1406825477466605 0 -0.153752621985453 0.14073392350839439 0 -0.1561619761378806 0.16047685630827471 0 -0.1371080151487378 0.15864895140394189 0 -0.13661174338699569 0.1406825477466605 0 -0.12916618827146031 0.12390190950899049 0 -0.153752621985453 0.14073392350839439 0 -0.13930859898956699 0.1145050369687237 0 -0.12916618827146031 0.12390190950899049 0 -0.153752621985453 0.14073392350839439 0 -0.13661174338699569 0.1406825477466605 0 -0.11706151063611089 0.1208882391850464 0 -0.12916618827146031 0.12390190950899049 0 -0.13661174338699569 0.1406825477466605 0 -0.11706151063611089 0.1208882391850464 0 -0.12916618827146031 0.12390190950899049 0 -0.13661174338699569 0.1406825477466605 0 -0.153752621985453 0.14073392350839439 0 -0.13661174338699569 0.1406825477466605 0 -0.11473911200363 0.13153944404780621 0 -0.1132109842275667 0.1430328284895945 0 -0.13661174338699569 0.1406825477466605 0 -0.11473911200363 0.13153944404780621 0 -0.11706151063611089 0.1208882391850464 0 -0.11473911200363 0.13153944404780621 0 -0.1039338124667491 0.13009472872812991 0 -0.1132109842275667 0.1430328284895945 0 -0.11473911200363 0.13153944404780621 0 -0.1039338124667491 0.13009472872812991 0 -0.10601879130899509 0.12208205668825579 0 -0.1039338124667491 0.13009472872812991 0 -0.093398168270057425 0.14218175111966569 0 -0.093946486761182085 0.1175508364221631 0 -0.1039338124667491 0.13009472872812991 0 -0.1132109842275667 0.1430328284895945 0 -0.093398168270057425 0.14218175111966569 0 -0.1078097791349048 0.15856925008885259 0 -0.089544080768145809 0.16137822361845131 0 -0.093398168270057425 0.14218175111966569 0 -0.1132109842275667 0.1430328284895945 0 -0.1078097791349048 0.15856925008885259 0 -0.093398168270057425 0.14218175111966569 0 -0.13661174338699569 0.1406825477466605 0 -0.1132109842275667 0.1430328284895945 0 -0.1239269324459726 0.1539154783358255 0 -0.1132109842275667 0.1430328284895945 0 -0.1239269324459726 0.1539154783358255 0 -0.1078097791349048 0.15856925008885259 0 -0.1248941403316576 0.1686438139500778 0 -0.099208353538741523 0.18506212787697859 0 -0.1078097791349048 0.15856925008885259 0 -0.1239269324459726 0.1539154783358255 0 -0.1248941403316576 0.1686438139500778 0 -0.1078097791349048 0.15856925008885259 0 -0.12824559693666041 0.19189342117291039 0 -0.1248941403316576 0.1686438139500778 0 -0.099208353538741523 0.18506212787697859 0 -0.099208353538741523 0.18506212787697859 0 -0.1078097791349048 0.15856925008885259 0 -0.089544080768145809 0.16137822361845131 0 -0.089544080768145809 0.16137822361845131 0 -0.070171110140822543 0.1782308345810468 0 -0.074669823138777097 0.15727584041375819 0 -0.099208353538741523 0.18506212787697859 0 -0.089544080768145809 0.16137822361845131 0 -0.070171110140822543 0.1782308345810468 0 -0.099208353538741523 0.18506212787697859 0 -0.070171110140822543 0.1782308345810468 0 -0.070171110140822543 0.1782308345810468 0 -0.074669823138777097 0.15727584041375819 0 -0.057722578482997257 0.16273086802879619 0 -0.074669823138777097 0.15727584041375819 0 -0.066369438716585821 0.14892706699039879 0 -0.057722578482997257 0.16273086802879619 0 -0.074669823138777097 0.15727584041375819 0 -0.066369438716585821 0.14892706699039879 0 -0.074733199104357148 0.14603812585323231 0 -0.074669823138777097 0.15727584041375819 0 -0.074733199104357148 0.14603812585323231 0 -0.082756465015383474 0.1492386270883771 0 -0.074733199104357148 0.14603812585323231 0 -0.067315024607703278 0.13662092079142449 0 -0.081437053795579945 0.1393191944367777 0 -0.066369438716585821 0.14892706699039879 0 -0.074733199104357148 0.14603812585323231 0 -0.067315024607703278 0.13662092079142449 0 -0.066369438716585821 0.14892706699039879 0 -0.067315024607703278 0.13662092079142449 0 -0.054361576129613079 0.15178129246158931 0 -0.067315024607703278 0.13662092079142449 0 -0.088852304720190942 0.12644129241805541 0 -0.067315024607703278 0.13662092079142449 0 -0.088852304720190942 0.12644129241805541 0 -0.075786521408142987 0.12443322189858901 0 -0.067315024607703278 0.13662092079142449 0 -0.062016764747578973 0.12884034001808189 0 -0.075786521408142987 0.12443322189858901 0 -0.088852304720190942 0.12644129241805541 0 -0.093398168270057425 0.14218175111966569 0 -0.093946486761182085 0.1175508364221631 0 -0.067315024607703278 0.13662092079142449 0 -0.081437053795579945 0.1393191944367777 0 -0.088852304720190942 0.12644129241805541 0 -0.093398168270057425 0.14218175111966569 0 -0.093946486761182085 0.1175508364221631 0 -0.081437053795579945 0.1393191944367777 0 -0.088852304720190942 0.12644129241805541 0 -0.093398168270057425 0.14218175111966569 0 -0.089544080768145809 0.16137822361845131 0 -0.093398168270057425 0.14218175111966569 0 -0.082756465015383474 0.1492386270883771 0 -0.089544080768145809 0.16137822361845131 0 -0.074669823138777097 0.15727584041375819 0 -0.082756465015383474 0.1492386270883771 0 -0.074733199104357148 0.14603812585323231 0 -0.081437053795579945 0.1393191944367777 0 -0.082756465015383474 0.1492386270883771 0 -0.081437053795579945 0.1393191944367777 0 -0.093398168270057425 0.14218175111966569 0 -0.082756465015383474 0.1492386270883771 0 -0.11076524853809321 0.25238606884059173 0 -0.1094381109509034 0.22910775334304889 0 -0.091345724210048884 0.23566487628332011 0 -0.11076524853809321 0.25238606884059173 0 -0.092391857727521592 0.25884509119311472 0 -0.091345724210048884 0.23566487628332011 0 -0.13513000223237101 0.23108874617123329 0 -0.12470300375741469 0.2457033751303839 0 -0.1094381109509034 0.22910775334304889 0 -0.11076524853809321 0.25238606884059173 0 -0.12470300375741469 0.2457033751303839 0 -0.1094381109509034 0.22910775334304889 0 -0.13513000223237101 0.23108874617123329 0 -0.1094381109509034 0.22910775334304889 0 -0.13513000223237101 0.23108874617123329 0 -0.1094381109509034 0.22910775334304889 0 -0.1242544958201173 0.21504107598638081 0 -0.1094381109509034 0.22910775334304889 0 -0.10308309726087379 0.20938524897458621 0 -0.091345724210048884 0.23566487628332011 0 -0.1094381109509034 0.22910775334304889 0 -0.10308309726087379 0.20938524897458621 0 -0.1242544958201173 0.21504107598638081 0 -0.12824559693666041 0.19189342117291039 0 -0.10308309726087379 0.20938524897458621 0 -0.1242544958201173 0.21504107598638081 0 -0.12824559693666041 0.19189342117291039 0 -0.099208353538741523 0.18506212787697859 0 -0.12824559693666041 0.19189342117291039 0 -0.099208353538741523 0.18506212787697859 0 -0.10308309726087379 0.20938524897458621 0 -0.099208353538741523 0.18506212787697859 0 -0.070171110140822543 0.1782308345810468 0 -0.078220861930521898 0.21057701145176541 0 -0.070171110140822543 0.1782308345810468 0 -0.078220861930521898 0.21057701145176541 0 -0.056949983849450658 0.19269083667038239 0 -0.099208353538741523 0.18506212787697859 0 -0.10308309726087379 0.20938524897458621 0 -0.078220861930521898 0.21057701145176541 0 -0.078220861930521898 0.21057701145176541 0 -0.056178602179823331 0.21732906463454121 0 -0.056949983849450658 0.19269083667038239 0 -0.10308309726087379 0.20938524897458621 0 -0.078220861930521898 0.21057701145176541 0 -0.091345724210048884 0.23566487628332011 0 -0.078220861930521898 0.21057701145176541 0 -0.069221313838413207 0.24642852661517459 0 -0.091345724210048884 0.23566487628332011 0 -0.078220861930521898 0.21057701145176541 0 -0.069221313838413207 0.24642852661517459 0 -0.056178602179823331 0.21732906463454121 0 -0.092391857727521592 0.25884509119311472 0 -0.069221313838413207 0.24642852661517459 0 -0.091345724210048884 0.23566487628332011 0 -0.033382390283993792 0.24359412621706661 0 -0.046050769949304807 0.23401196203723451 0 -0.025866468353912139 0.2289639569827632 0 -0.048126263350958612 0.25465777805589501 0 -0.033382390283993792 0.24359412621706661 0 -0.046050769949304807 0.23401196203723451 0 -0.048126263350958612 0.25465777805589501 0 -0.069221313838413207 0.24642852661517459 0 -0.046050769949304807 0.23401196203723451 0 -0.069221313838413207 0.24642852661517459 0 -0.046050769949304807 0.23401196203723451 0 -0.069221313838413207 0.24642852661517459 0 -0.046050769949304807 0.23401196203723451 0 -0.056178602179823331 0.21732906463454121 0 -0.046050769949304807 0.23401196203723451 0 -0.03692704292774221 0.2147422921961073 0 -0.025866468353912139 0.2289639569827632 0 -0.046050769949304807 0.23401196203723451 0 -0.03692704292774221 0.2147422921961073 0 -0.056178602179823331 0.21732906463454121 0 -0.03692704292774221 0.2147422921961073 0 -0.056178602179823331 0.21732906463454121 0 -0.044221089124866657 0.20193605474889509 0 -0.03692704292774221 0.2147422921961073 0 -0.044221089124866657 0.20193605474889509 0 -0.032331133115066808 0.19858524020914661 0 -0.056178602179823331 0.21732906463454121 0 -0.056949983849450658 0.19269083667038239 0 -0.044221089124866657 0.20193605474889509 0 -0.056949983849450658 0.19269083667038239 0 -0.040360849617421202 0.18777351164107661 0 -0.044221089124866657 0.20193605474889509 0 -0.040360849617421202 0.18777351164107661 0 -0.032331133115066808 0.19858524020914661 0 -0.026751027678188599 0.18229597604057349 0 -0.040360849617421202 0.18777351164107661 0 -0.044221089124866657 0.20193605474889509 0 -0.032331133115066808 0.19858524020914661 0 -0.016914194843479571 0.2076274745640635 0 -0.026751027678188599 0.18229597604057349 0 -0.032331133115066808 0.19858524020914661 0 -0.016914194843479571 0.2076274745640635 0 -0.026751027678188599 0.18229597604057349 0 -0.01405220631290922 0.19352016069679451 0 -0.016914194843479571 0.2076274745640635 0 -0.026751027678188599 0.18229597604057349 0 -0.01405220631290922 0.19352016069679451 0 -0.0012364494800765971 0.1960628175593882 0 -0.01891215499648707 0.1765136475382359 0 -0.01405220631290922 0.19352016069679451 0 -0.0012364494800765971 0.1960628175593882 0 -0.0064787008301582438 0.20475797647738719 0 -0.0012364494800765971 0.1960628175593882 0 -0.0064787008301582438 0.20475797647738719 0 0.003893562275735573 0.2064819102401671 0 -0.01405220631290922 0.19352016069679451 0 -0.0064787008301582438 0.20475797647738719 0 -0.016914194843479571 0.2076274745640635 0 -0.0045317147067566524 0.21522543551468479 0 -0.016914194843479571 0.2076274745640635 0 -0.0070773620087705444 0.23295897308755351 0 -0.0064787008301582438 0.20475797647738719 0 -0.0045317147067566524 0.21522543551468479 0 -0.016914194843479571 0.2076274745640635 0 -0.0064787008301582438 0.20475797647738719 0 -0.0045317147067566524 0.21522543551468479 0 0.003893562275735573 0.2064819102401671 0 -0.03692704292774221 0.2147422921961073 0 -0.016914194843479571 0.2076274745640635 0 -0.025866468353912139 0.2289639569827632 0 -0.03692704292774221 0.2147422921961073 0 -0.032331133115066808 0.19858524020914661 0 -0.016914194843479571 0.2076274745640635 0 -0.016914194843479571 0.2076274745640635 0 -0.025866468353912139 0.2289639569827632 0 -0.0070773620087705444 0.23295897308755351 0 -0.016914194843479571 0.2076274745640635 0 -0.0070773620087705444 0.23295897308755351 0 -0.0045317147067566524 0.21522543551468479 0 -0.0070773620087705444 0.23295897308755351 0 0.0038866256090455522 0.2239579318999283 0 -0.0070773620087705444 0.23295897308755351 0 0.001894876929373096 0.24743045501984201 0 0.0027594708259384838 0.25829047161104352 0 -0.0070773620087705444 0.23295897308755351 0 0.0027594708259384838 0.25829047161104352 0 -0.0087132352456033638 0.25173417187717928 0 -0.0070773620087705444 0.23295897308755351 0 -0.01778818590069102 0.2421293126167848 0 -0.0087132352456033638 0.25173417187717928 0 -0.0070773620087705444 0.23295897308755351 0 0.0027594708259384838 0.25829047161104352 0 -0.025866468353912139 0.2289639569827632 0 -0.0070773620087705444 0.23295897308755351 0 -0.01778818590069102 0.2421293126167848 0 -0.028053557715267439 0.25838243531431121 0 -0.033382390283993792 0.24359412621706661 0 -0.01778818590069102 0.2421293126167848 0 -0.033382390283993792 0.24359412621706661 0 -0.025866468353912139 0.2289639569827632 0 -0.01778818590069102 0.2421293126167848 0 -0.044416936009294992 0.14744373737619401 0 -0.030319635528424791 0.14770209815471691 0 -0.021396469969749188 0.1374028974533886 0 -0.044416936009294992 0.14744373737619401 0 -0.030319635528424791 0.14770209815471691 0 -0.027639103276038759 0.15537380566908321 0 -0.044416936009294992 0.14744373737619401 0 -0.038116788675066252 0.15302723042411279 0 -0.027639103276038759 0.15537380566908321 0 -0.044416936009294992 0.14744373737619401 0 -0.041458398192443832 0.13942314763129199 0 -0.021396469969749188 0.1374028974533886 0 -0.044416936009294992 0.14744373737619401 0 -0.027639103276038759 0.15537380566908321 0 -0.044416936009294992 0.14744373737619401 0 -0.021396469969749188 0.1374028974533886 0 -0.044416936009294992 0.14744373737619401 0 -0.036587860512897558 0.15696447751708351 0 -0.044416936009294992 0.14744373737619401 0 -0.047012455662473793 0.15786975055381819 0 -0.036587860512897558 0.15696447751708351 0 -0.044416936009294992 0.14744373737619401 0 -0.038116788675066252 0.15302723042411279 0 -0.036587860512897558 0.15696447751708351 0 -0.038116788675066252 0.15302723042411279 0 -0.036587860512897558 0.15696447751708351 0 -0.027639103276038759 0.15537380566908321 0 -0.038116788675066252 0.15302723042411279 0 -0.036587860512897558 0.15696447751708351 0 -0.037500573576258918 0.13069979942664511 0 -0.041458398192443832 0.13942314763129199 0 -0.021396469969749188 0.1374028974533886 0 -0.037500573576258918 0.13069979942664511 0 -0.028643554108799551 0.12806760582925611 0 -0.034668926388748328 0.1237436995229996 0 -0.037500573576258918 0.13069979942664511 0 -0.047589673205635397 0.1324549890601831 0 -0.046884900963607742 0.11986348336078891 0 -0.037500573576258918 0.13069979942664511 0 -0.041458398192443832 0.13942314763129199 0 -0.047589673205635397 0.1324549890601831 0 -0.044416936009294992 0.14744373737619401 0 -0.041458398192443832 0.13942314763129199 0 -0.047589673205635397 0.1324549890601831 0 -0.067315024607703278 0.13662092079142449 0 -0.044416936009294992 0.14744373737619401 0 -0.062016764747578973 0.12884034001808189 0 -0.044416936009294992 0.14744373737619401 0 -0.062016764747578973 0.12884034001808189 0 -0.044416936009294992 0.14744373737619401 0 -0.047589673205635397 0.1324549890601831 0 -0.062016764747578973 0.12884034001808189 0 -0.047589673205635397 0.1324549890601831 0 -0.062016764747578973 0.12884034001808189 0 -0.046884900963607742 0.11986348336078891 0 -0.067315024607703278 0.13662092079142449 0 -0.044416936009294992 0.14744373737619401 0 -0.054361576129613079 0.15178129246158931 0 -0.067315024607703278 0.13662092079142449 0 -0.044416936009294992 0.14744373737619401 0 -0.044416936009294992 0.14744373737619401 0 -0.054361576129613079 0.15178129246158931 0 -0.044416936009294992 0.14744373737619401 0 -0.054361576129613079 0.15178129246158931 0 -0.047012455662473793 0.15786975055381819 0 -0.066369438716585821 0.14892706699039879 0 -0.054361576129613079 0.15178129246158931 0 -0.057722578482997257 0.16273086802879619 0 -0.057722578482997257 0.16273086802879619 0 -0.050411583818504503 0.1777900037548745 0 -0.045636115300606919 0.16650756778262649 0 -0.054361576129613079 0.15178129246158931 0 -0.057722578482997257 0.16273086802879619 0 -0.047012455662473793 0.15786975055381819 0 -0.057722578482997257 0.16273086802879619 0 -0.047012455662473793 0.15786975055381819 0 -0.045636115300606919 0.16650756778262649 0 -0.070171110140822543 0.1782308345810468 0 -0.056949983849450658 0.19269083667038239 0 -0.050411583818504503 0.1777900037548745 0 -0.070171110140822543 0.1782308345810468 0 -0.057722578482997257 0.16273086802879619 0 -0.050411583818504503 0.1777900037548745 0 -0.056949983849450658 0.19269083667038239 0 -0.040360849617421202 0.18777351164107661 0 -0.050411583818504503 0.1777900037548745 0 -0.040360849617421202 0.18777351164107661 0 -0.050411583818504503 0.1777900037548745 0 -0.039949487385523758 0.17426630734724691 0 -0.050411583818504503 0.1777900037548745 0 -0.039949487385523758 0.17426630734724691 0 -0.045636115300606919 0.16650756778262649 0 -0.040360849617421202 0.18777351164107661 0 -0.039949487385523758 0.17426630734724691 0 -0.026751027678188599 0.18229597604057349 0 -0.039949487385523758 0.17426630734724691 0 -0.036587860512897558 0.15696447751708351 0 -0.026751027678188599 0.18229597604057349 0 -0.036587860512897558 0.15696447751708351 0 -0.026751027678188599 0.18229597604057349 0 -0.039949487385523758 0.17426630734724691 0 -0.045636115300606919 0.16650756778262649 0 -0.036587860512897558 0.15696447751708351 0 -0.047012455662473793 0.15786975055381819 0 -0.045636115300606919 0.16650756778262649 0 -0.036587860512897558 0.15696447751708351 0 -0.01891215499648707 0.1765136475382359 0 -0.010861270542782259 0.1633038739619718 0 -0.027639103276038759 0.15537380566908321 0 -0.010861270542782259 0.1633038739619718 0 -0.027639103276038759 0.15537380566908321 0 -0.036587860512897558 0.15696447751708351 0 -0.01891215499648707 0.1765136475382359 0 -0.036587860512897558 0.15696447751708351 0 -0.01891215499648707 0.1765136475382359 0 -0.027639103276038759 0.15537380566908321 0 -0.01405220631290922 0.19352016069679451 0 -0.01891215499648707 0.1765136475382359 0 -0.026751027678188599 0.18229597604057349 0 -0.036587860512897558 0.15696447751708351 0 -0.01891215499648707 0.1765136475382359 0 -0.026751027678188599 0.18229597604057349 0 -0.01891215499648707 0.1765136475382359 0 -0.010861270542782259 0.1633038739619718 0 0.00061104658230836653 0.17769045695541219 0 -0.0012364494800765971 0.1960628175593882 0 -0.01891215499648707 0.1765136475382359 0 0.00061104658230836653 0.17769045695541219 0 -0.0012364494800765971 0.1960628175593882 0 -0.01891215499648707 0.1765136475382359 0 -0.010861270542782259 0.1633038739619718 0 0.001788155555331062 0.1557637096651584 0 0.00061104658230836653 0.17769045695541219 0 -0.01542264584752753 0.14956457798035719 0 -0.015783289274076458 0.13495459563681389 0 0.001788155555331062 0.1557637096651584 0 -0.015783289274076458 0.13495459563681389 0 0.001788155555331062 0.1557637096651584 0 0.01185912902997375 0.14130758542593569 0 -0.010861270542782259 0.1633038739619718 0 -0.01542264584752753 0.14956457798035719 0 0.001788155555331062 0.1557637096651584 0 -0.015783289274076458 0.13495459563681389 0 0.001788155555331062 0.1557637096651584 0 -0.01542264584752753 0.14956457798035719 0 -0.023159931299824549 0.14839209377580129 0 -0.027639103276038759 0.15537380566908321 0 -0.010861270542782259 0.1633038739619718 0 -0.01542264584752753 0.14956457798035719 0 -0.027639103276038759 0.15537380566908321 0 -0.01542264584752753 0.14956457798035719 0 -0.023159931299824549 0.14839209377580129 0 -0.021396469969749188 0.1374028974533886 0 -0.01542264584752753 0.14956457798035719 0 -0.021396469969749188 0.1374028974533886 0 -0.015783289274076458 0.13495459563681389 0 -0.030319635528424791 0.14770209815471691 0 -0.021396469969749188 0.1374028974533886 0 -0.023159931299824549 0.14839209377580129 0 -0.030319635528424791 0.14770209815471691 0 -0.021396469969749188 0.1374028974533886 0 -0.023159931299824549 0.14839209377580129 0 -0.030319635528424791 0.14770209815471691 0 -0.027639103276038759 0.15537380566908321 0 -0.028643554108799551 0.12806760582925611 0 -0.017506847497941139 0.13291345901070739 0 -0.032144953111298558 0.1155781737325411 0 -0.037500573576258918 0.13069979942664511 0 -0.028643554108799551 0.12806760582925611 0 -0.021396469969749188 0.1374028974533886 0 -0.021396469969749188 0.1374028974533886 0 -0.015783289274076458 0.13495459563681389 0 -0.017506847497941139 0.13291345901070739 0 -0.021396469969749188 0.1374028974533886 0 -0.015783289274076458 0.13495459563681389 0 -0.021396469969749188 0.1374028974533886 0 -0.017506847497941139 0.13291345901070739 0 -0.015783289274076458 0.13495459563681389 0 -0.017506847497941139 0.13291345901070739 0 -0.028643554108799551 0.12806760582925611 0 -0.021396469969749188 0.1374028974533886 0 -0.017506847497941139 0.13291345901070739 0 -0.015783289274076458 0.13495459563681389 0 -0.017506847497941139 0.13291345901070739 0 -0.0052228475358298988 0.1187351519746004 0 -0.015783289274076458 0.13495459563681389 0 -0.0052228475358298988 0.1187351519746004 0 0.0081407562022233586 0.1245196413435004 0 -0.017506847497941139 0.13291345901070739 0 -0.0052228475358298988 0.1187351519746004 0 -0.015783289274076458 0.13495459563681389 0 0.0081407562022233586 0.1245196413435004 0 -0.0052228475358298988 0.1187351519746004 0 -0.0040597014752050652 0.1051126182356364 0 -0.02761291541641378 0.1090435214711212 0 -0.017506847497941139 0.13291345901070739 0 -0.0052228475358298988 0.1187351519746004 0 -0.019344259015361451 0.119617058157429 0 -0.0040597014752050652 0.1051126182356364 0 -0.01533391803445322 0.09737838425916874 0 0.0051087594610210148 0.080527692295617709 0 -0.0052228475358298988 0.1187351519746004 0 -0.0040597014752050652 0.1051126182356364 0 0.0092582498306486675 0.1020209346744549 0 -0.0040597014752050652 0.1051126182356364 0 -0.01533391803445322 0.09737838425916874 0 -0.02761291541641378 0.1090435214711212 0 -0.01533391803445322 0.09737838425916874 0 -0.027797722535604891 0.095528124355643507 0 -0.02761291541641378 0.1090435214711212 0 -0.0052228475358298988 0.1187351519746004 0 -0.02761291541641378 0.1090435214711212 0 -0.019344259015361451 0.119617058157429 0 -0.017506847497941139 0.13291345901070739 0 -0.019344259015361451 0.119617058157429 0 -0.032144953111298558 0.1155781737325411 0 -0.02761291541641378 0.1090435214711212 0 -0.019344259015361451 0.119617058157429 0 -0.032144953111298558 0.1155781737325411 0 -0.0052228475358298988 0.1187351519746004 0 -0.02761291541641378 0.1090435214711212 0 -0.017506847497941139 0.13291345901070739 0 -0.032144953111298558 0.1155781737325411 0 -0.0012292332505543029 0.06378464068123596 0 -0.011084303888442551 0.081696622097620714 0 -0.018620569400409771 0.06708533464306303 0 -0.0012292332505543029 0.06378464068123596 0 -0.011084303888442551 0.081696622097620714 0 0.0051087594610210148 0.080527692295617709 0 -0.01533391803445322 0.09737838425916874 0 -0.011084303888442551 0.081696622097620714 0 0.0051087594610210148 0.080527692295617709 0 -0.01533391803445322 0.09737838425916874 0 0.0051087594610210148 0.080527692295617709 0 -0.011084303888442551 0.081696622097620714 0 0.0051087594610210148 0.080527692295617709 0 -0.027797722535604891 0.095528124355643507 0 -0.011084303888442551 0.081696622097620714 0 -0.032921925083363349 0.0833654898886593 0 -0.01533391803445322 0.09737838425916874 0 -0.027797722535604891 0.095528124355643507 0 -0.011084303888442551 0.081696622097620714 0 -0.018620569400409771 0.06708533464306303 0 -0.031868141831282552 0.069818555696904067 0 -0.028283535649973771 0.053358049395037133 0 -0.018620569400409771 0.06708533464306303 0 -0.031868141831282552 0.069818555696904067 0 -0.032921925083363349 0.0833654898886593 0 -0.011084303888442551 0.081696622097620714 0 -0.018620569400409771 0.06708533464306303 0 -0.032921925083363349 0.0833654898886593 0 -0.046276495737503101 0.06795068115397529 0 -0.032921925083363349 0.0833654898886593 0 -0.055882409073029139 0.082732437330199013 0 -0.046276495737503101 0.06795068115397529 0 -0.031868141831282552 0.069818555696904067 0 -0.028283535649973771 0.053358049395037133 0 -0.046276495737503101 0.06795068115397529 0 -0.031868141831282552 0.069818555696904067 0 -0.032921925083363349 0.0833654898886593 0 -0.027797722535604891 0.095528124355643507 0 -0.032921925083363349 0.0833654898886593 0 -0.050002983296997462 0.099351890967641507 0 -0.032921925083363349 0.0833654898886593 0 -0.055882409073029139 0.082732437330199013 0 -0.050002983296997462 0.099351890967641507 0 -0.055882409073029139 0.082732437330199013 0 -0.050002983296997462 0.099351890967641507 0 -0.072393051177581158 0.089660260464161839 0 -0.046276495737503101 0.06795068115397529 0 -0.055882409073029139 0.082732437330199013 0 -0.062589921296568873 0.06642957971461419 0 -0.032144953111298558 0.1155781737325411 0 -0.050002983296997462 0.099351890967641507 0 -0.046884900963607742 0.11986348336078891 0 -0.037500573576258918 0.13069979942664511 0 -0.034668926388748328 0.1237436995229996 0 -0.046884900963607742 0.11986348336078891 0 -0.028643554108799551 0.12806760582925611 0 -0.034668926388748328 0.1237436995229996 0 -0.032144953111298558 0.1155781737325411 0 -0.034668926388748328 0.1237436995229996 0 -0.032144953111298558 0.1155781737325411 0 -0.046884900963607742 0.11986348336078891 0 -0.027797722535604891 0.095528124355643507 0 -0.02761291541641378 0.1090435214711212 0 -0.050002983296997462 0.099351890967641507 0 -0.02761291541641378 0.1090435214711212 0 -0.050002983296997462 0.099351890967641507 0 -0.02761291541641378 0.1090435214711212 0 -0.032144953111298558 0.1155781737325411 0 -0.050002983296997462 0.099351890967641507 0 -0.050002983296997462 0.099351890967641507 0 -0.072393051177581158 0.089660260464161839 0 -0.050002983296997462 0.099351890967641507 0 -0.062115440392200259 0.1100516779477724 0 -0.072393051177581158 0.089660260464161839 0 -0.062016764747578973 0.12884034001808189 0 -0.062115440392200259 0.1100516779477724 0 -0.046884900963607742 0.11986348336078891 0 -0.050002983296997462 0.099351890967641507 0 -0.062115440392200259 0.1100516779477724 0 -0.046884900963607742 0.11986348336078891 0 -0.062016764747578973 0.12884034001808189 0 -0.062115440392200259 0.1100516779477724 0 -0.07825578499994286 0.1108801308713713 0 -0.062016764747578973 0.12884034001808189 0 -0.07825578499994286 0.1108801308713713 0 -0.062016764747578973 0.12884034001808189 0 -0.075786521408142987 0.12443322189858901 0 -0.07825578499994286 0.1108801308713713 0 -0.088852304720190942 0.12644129241805541 0 -0.075786521408142987 0.12443322189858901 0 -0.083719546898917335 0.119699814685821 0 -0.083719546898917335 0.119699814685821 0 -0.07825578499994286 0.1108801308713713 0 -0.093946486761182085 0.1175508364221631 0 -0.075786521408142987 0.12443322189858901 0 -0.083719546898917335 0.119699814685821 0 -0.07825578499994286 0.1108801308713713 0 -0.088852304720190942 0.12644129241805541 0 -0.083719546898917335 0.119699814685821 0 -0.093946486761182085 0.1175508364221631 0 -0.07825578499994286 0.1108801308713713 0 -0.072393051177581158 0.089660260464161839 0 -0.094494805252306774 0.092919921724660626 0 -0.07825578499994286 0.1108801308713713 0 -0.094494805252306774 0.092919921724660626 0 -0.093946486761182085 0.1175508364221631 0 -0.07825578499994286 0.1108801308713713 0 -0.094494805252306774 0.092919921724660626 0 -0.062115440392200259 0.1100516779477724 0 -0.07825578499994286 0.1108801308713713 0 -0.072393051177581158 0.089660260464161839 0 -0.055882409073029139 0.082732437330199013 0 -0.072393051177581158 0.089660260464161839 0 -0.062589921296568873 0.06642957971461419 0 -0.072393051177581158 0.089660260464161839 0 -0.062589921296568873 0.06642957971461419 0 -0.079461892795990779 0.070449194571112136 0 -0.062589921296568873 0.06642957971461419 0 -0.079461892795990779 0.070449194571112136 0 -0.072380178782229632 0.053292134703331731 0 -0.079461892795990779 0.070449194571112136 0 -0.094783119058163612 0.079968629960679383 0 -0.095163193665411511 0.062895368012773595 0 -0.072393051177581158 0.089660260464161839 0 -0.079461892795990779 0.070449194571112136 0 -0.094783119058163612 0.079968629960679383 0 -0.072393051177581158 0.089660260464161839 0 -0.094494805252306774 0.092919921724660626 0 -0.094783119058163612 0.079968629960679383 0 -0.072393051177581158 0.089660260464161839 0 -0.094783119058163612 0.079968629960679383 0 -0.094494805252306774 0.092919921724660626 0 -0.1072570836689255 0.074569224449017327 0 -0.1143352617609841 0.070976556735617355 0 -0.094494805252306774 0.092919921724660626 0 -0.094783119058163612 0.079968629960679383 0 -0.1072570836689255 0.074569224449017327 0 -0.094494805252306774 0.092919921724660626 0 -0.094783119058163612 0.079968629960679383 0 -0.094494805252306774 0.092919921724660626 0 -0.1143352617609841 0.070976556735617355 0 -0.11134444788944529 0.091345452974062963 0 -0.094494805252306774 0.092919921724660626 0 -0.1143352617609841 0.070976556735617355 0 -0.094783119058163612 0.079968629960679383 0 -0.095163193665411511 0.062895368012773595 0 -0.094783119058163612 0.079968629960679383 0 -0.095163193665411511 0.062895368012773595 0 -0.1072570836689255 0.074569224449017327 0 -0.095163193665411511 0.062895368012773595 0 -0.1143352617609841 0.070976556735617355 0 -0.1079186055395126 0.059947093390224047 0 -0.095163193665411511 0.062895368012773595 0 -0.1072570836689255 0.074569224449017327 0 -0.1143352617609841 0.070976556735617355 0 -0.095163193665411511 0.062895368012773595 0 -0.1143352617609841 0.070976556735617355 0 -0.094783119058163612 0.079968629960679383 0 -0.1072570836689255 0.074569224449017327 0 -0.1131683311422218 0.062814464837820119 0 -0.1163519950294771 0.068746068028026575 0 -0.1143352617609841 0.070976556735617355 0 -0.1131683311422218 0.062814464837820119 0 -0.1143352617609841 0.070976556735617355 0 -0.1079186055395126 0.059947093390224047 0 -0.1131683311422218 0.062814464837820119 0 -0.1163519950294771 0.068746068028026575 0 -0.1185872066977806 0.063729502839677182 0 -0.1163519950294771 0.068746068028026575 0 -0.1143352617609841 0.070976556735617355 0 -0.12697985749263241 0.07630636069427757 0 -0.1143352617609841 0.070976556735617355 0 -0.12697985749263241 0.07630636069427757 0 -0.1143352617609841 0.070976556735617355 0 -0.1200161930876608 0.081776906418299489 0 -0.12697985749263241 0.07630636069427757 0 -0.1163519950294771 0.068746068028026575 0 -0.1143352617609841 0.070976556735617355 0 -0.12697985749263241 0.07630636069427757 0 -0.12509646681095879 0.065597408261105467 0 -0.1163519950294771 0.068746068028026575 0 -0.12509646681095879 0.065597408261105467 0 -0.1163519950294771 0.068746068028026575 0 -0.1185872066977806 0.063729502839677182 0 -0.13359630628803579 0.098968800084119873 0 -0.12697672020224329 0.087309090757334687 0 -0.11134444788944529 0.091345452974062963 0 -0.1143352617609841 0.070976556735617355 0 -0.11134444788944529 0.091345452974062963 0 -0.1200161930876608 0.081776906418299489 0 -0.12697672020224329 0.087309090757334687 0 -0.11134444788944529 0.091345452974062963 0 -0.1200161930876608 0.081776906418299489 0 -0.12697672020224329 0.087309090757334687 0 -0.12697985749263241 0.07630636069427757 0 -0.1200161930876608 0.081776906418299489 0 -0.12607259725238279 0.11330641960449821 0 -0.13359630628803579 0.098968800084119873 0 -0.11123038207674001 0.1082681122756106 0 -0.13359630628803579 0.098968800084119873 0 -0.11134444788944529 0.091345452974062963 0 -0.11123038207674001 0.1082681122756106 0 -0.13359630628803579 0.098968800084119873 0 -0.11123038207674001 0.1082681122756106 0 -0.11134444788944529 0.091345452974062963 0 -0.11123038207674001 0.1082681122756106 0 -0.1057361510920251 0.099277959283072717 0 -0.12607259725238279 0.11330641960449821 0 -0.11123038207674001 0.1082681122756106 0 -0.11706151063611089 0.1208882391850464 0 -0.12607259725238279 0.11330641960449821 0 -0.12916618827146031 0.12390190950899049 0 -0.11706151063611089 0.1208882391850464 0 -0.11473911200363 0.13153944404780621 0 -0.11706151063611089 0.1208882391850464 0 -0.10601879130899509 0.12208205668825579 0 -0.1036345166478785 0.1154037657297244 0 -0.093946486761182085 0.1175508364221631 0 -0.097511277885226108 0.1010939306234323 0 -0.11123038207674001 0.1082681122756106 0 -0.11706151063611089 0.1208882391850464 0 -0.097511277885226108 0.1010939306234323 0 -0.11706151063611089 0.1208882391850464 0 -0.1036345166478785 0.1154037657297244 0 -0.097511277885226108 0.1010939306234323 0 -0.11706151063611089 0.1208882391850464 0 -0.097511277885226108 0.1010939306234323 0 -0.11706151063611089 0.1208882391850464 0 -0.1036345166478785 0.1154037657297244 0 -0.10601879130899509 0.12208205668825579 0 -0.1039338124667491 0.13009472872812991 0 -0.10601879130899509 0.12208205668825579 0 -0.093946486761182085 0.1175508364221631 0 -0.1036345166478785 0.1154037657297244 0 -0.10601879130899509 0.12208205668825579 0 -0.093946486761182085 0.1175508364221631 0 -0.094494805252306774 0.092919921724660626 0 -0.11134444788944529 0.091345452974062963 0 -0.1057361510920251 0.099277959283072717 0 -0.094494805252306774 0.092919921724660626 0 -0.093946486761182085 0.1175508364221631 0 -0.094494805252306774 0.092919921724660626 0 -0.093946486761182085 0.1175508364221631 0 -0.097511277885226108 0.1010939306234323 0 -0.094494805252306774 0.092919921724660626 0 -0.097511277885226108 0.1010939306234323 0 -0.1057361510920251 0.099277959283072717 0 -0.11123038207674001 0.1082681122756106 0 -0.097511277885226108 0.1010939306234323 0 -0.1057361510920251 0.099277959283072717 0 -0.1001339578063882 0.022436777626384768 0 -0.09536928659882779 0.01424719335382847 0 -0.1128440433065038 0.01636018592503535 0 -0.1001339578063882 0.022436777626384768 0 -0.1128440433065038 0.01636018592503535 0 -0.1012358460944251 0.033108064834657697 0 -0.1128440433065038 0.01636018592503535 0 -0.11393466639619521 0.035004472642448957 0 -0.1012358460944251 0.033108064834657697 0 -0.1128440433065038 0.01636018592503535 0 -0.1012358460944251 0.033108064834657697 0 -0.1001339578063882 0.022436777626384768 0 -0.1012358460944251 0.033108064834657697 0 -0.091086655225796079 0.026031666392017531 0 -0.1001339578063882 0.022436777626384768 0 -0.09536928659882779 0.01424719335382847 0 -0.091086655225796079 0.026031666392017531 0 -0.10394313851700079 0.0020556251079679459 0 -0.09536928659882779 0.01424719335382847 0 -0.085958893623968774 0.001514634656162053 0 -0.10394313851700079 0.0020556251079679459 0 -0.09536928659882779 0.01424719335382847 0 -0.1128440433065038 0.01636018592503535 0 -0.1244522405185825 -0.00038769298458709092 0 -0.12424451236807239 0.027069144312366941 0 -0.1244522405185825 -0.00038769298458709092 0 -0.1128440433065038 0.01636018592503535 0 -0.12424451236807239 0.027069144312366941 0 -0.1244522405185825 -0.00038769298458709092 0 -0.1128440433065038 0.01636018592503535 0 -0.1244522405185825 -0.00038769298458709092 0 -0.10394313851700079 0.0020556251079679459 0 -0.1128440433065038 0.01636018592503535 0 -0.1128440433065038 0.01636018592503535 0 -0.12424451236807239 0.027069144312366941 0 -0.11393466639619521 0.035004472642448957 0 -0.12424451236807239 0.027069144312366941 0 -0.12075472355362291 0.04122338309529356 0 -0.11393466639619521 0.035004472642448957 0 -0.12075472355362291 0.04122338309529356 0 -0.1244920148619628 0.050381604022983993 0 -0.1151670195775447 0.0482238646449 0 -0.11393466639619521 0.035004472642448957 0 -0.1151670195775447 0.0482238646449 0 -0.10635909785250069 0.04125385698526951 0 -0.12075472355362291 0.04122338309529356 0 -0.11393466639619521 0.035004472642448957 0 -0.1151670195775447 0.0482238646449 0 -0.12509646681095879 0.065597408261105467 0 -0.1185872066977806 0.063729502839677182 0 -0.1197320338084647 0.057760070231756527 0 -0.1197320338084647 0.057760070231756527 0 -0.1244920148619628 0.050381604022983993 0 -0.1151670195775447 0.0482238646449 0 -0.1151670195775447 0.0482238646449 0 -0.1125210466915524 0.054978807834542787 0 -0.1051700993263314 0.050476507920077678 0 -0.1197320338084647 0.057760070231756527 0 -0.1151670195775447 0.0482238646449 0 -0.1125210466915524 0.054978807834542787 0 -0.1131683311422218 0.062814464837820119 0 -0.1197320338084647 0.057760070231756527 0 -0.1125210466915524 0.054978807834542787 0 -0.1131683311422218 0.062814464837820119 0 -0.1125210466915524 0.054978807834542787 0 -0.1079186055395126 0.059947093390224047 0 -0.1131683311422218 0.062814464837820119 0 -0.1185872066977806 0.063729502839677182 0 -0.1197320338084647 0.057760070231756527 0 -0.095163193665411511 0.062895368012773595 0 -0.1051700993263314 0.050476507920077678 0 -0.095336714328198874 0.041619114628837717 0 -0.095163193665411511 0.062895368012773595 0 -0.095336714328198874 0.041619114628837717 0 -0.1125210466915524 0.054978807834542787 0 -0.1079186055395126 0.059947093390224047 0 -0.1051700993263314 0.050476507920077678 0 -0.095163193665411511 0.062895368012773595 0 -0.1079186055395126 0.059947093390224047 0 -0.1051700993263314 0.050476507920077678 0 -0.11393466639619521 0.035004472642448957 0 -0.10635909785250069 0.04125385698526951 0 -0.1012358460944251 0.033108064834657697 0 -0.1051700993263314 0.050476507920077678 0 -0.10635909785250069 0.04125385698526951 0 -0.095336714328198874 0.041619114628837717 0 -0.1151670195775447 0.0482238646449 0 -0.1051700993263314 0.050476507920077678 0 -0.10635909785250069 0.04125385698526951 0 -0.095336714328198874 0.041619114628837717 0 -0.1012358460944251 0.033108064834657697 0 -0.08853862327275358 0.036894035852943478 0 -0.10635909785250069 0.04125385698526951 0 -0.095336714328198874 0.041619114628837717 0 -0.1012358460944251 0.033108064834657697 0 -0.095336714328198874 0.041619114628837717 0 -0.1012358460944251 0.033108064834657697 0 -0.1012358460944251 0.033108064834657697 0 -0.08853862327275358 0.036894035852943478 0 -0.091086655225796079 0.026031666392017531 0 -0.08853862327275358 0.036894035852943478 0 -0.081088353484909961 0.032020518526829703 0 -0.091086655225796079 0.026031666392017531 0 -0.08853862327275358 0.036894035852943478 0 -0.079654612676290371 0.043453985766932421 0 -0.089627648882346422 0.049855943744280047 0 -0.095336714328198874 0.041619114628837717 0 -0.08853862327275358 0.036894035852943478 0 -0.089627648882346422 0.049855943744280047 0 -0.095336714328198874 0.041619114628837717 0 -0.089627648882346422 0.049855943744280047 0 -0.08853862327275358 0.036894035852943478 0 -0.079654612676290371 0.043453985766932421 0 -0.081088353484909961 0.032020518526829703 0 -0.095163193665411511 0.062895368012773595 0 -0.089627648882346422 0.049855943744280047 0 -0.072380178782229632 0.053292134703331731 0 -0.095163193665411511 0.062895368012773595 0 -0.095336714328198874 0.041619114628837717 0 -0.089627648882346422 0.049855943744280047 0 -0.095163193665411511 0.062895368012773595 0 -0.072380178782229632 0.053292134703331731 0 -0.079461892795990779 0.070449194571112136 0 -0.095163193665411511 0.062895368012773595 0 -0.072380178782229632 0.053292134703331731 0 -0.079654612676290371 0.043453985766932421 0 -0.089627648882346422 0.049855943744280047 0 -0.072380178782229632 0.053292134703331731 0 -0.079654612676290371 0.043453985766932421 0 -0.072380178782229632 0.053292134703331731 0 -0.065785112224924183 0.037111289768743512 0 -0.072380178782229632 0.053292134703331731 0 -0.065785112224924183 0.037111289768743512 0 -0.049597163899048183 0.043688901393888827 0 -0.079654612676290371 0.043453985766932421 0 -0.081088353484909961 0.032020518526829703 0 -0.065785112224924183 0.037111289768743512 0 -0.081088353484909961 0.032020518526829703 0 -0.065785112224924183 0.037111289768743512 0 -0.069646162847898541 0.026335067629459381 0 -0.069646162847898541 0.026335067629459381 0 -0.076118231742993758 0.01527396050979404 0 -0.05559295393876626 0.02093450171247024 0 -0.065785112224924183 0.037111289768743512 0 -0.069646162847898541 0.026335067629459381 0 -0.05559295393876626 0.02093450171247024 0 -0.081088353484909961 0.032020518526829703 0 -0.069646162847898541 0.026335067629459381 0 -0.076118231742993758 0.01527396050979404 0 -0.081088353484909961 0.032020518526829703 0 -0.091086655225796079 0.026031666392017531 0 -0.076118231742993758 0.01527396050979404 0 -0.09536928659882779 0.01424719335382847 0 -0.091086655225796079 0.026031666392017531 0 -0.076118231742993758 0.01527396050979404 0 -0.09536928659882779 0.01424719335382847 0 -0.085958893623968774 0.001514634656162053 0 -0.076118231742993758 0.01527396050979404 0 -0.076118231742993758 0.01527396050979404 0 -0.065648076432031049 0.00090955339710942099 0 -0.05559295393876626 0.02093450171247024 0 -0.085958893623968774 0.001514634656162053 0 -0.076118231742993758 0.01527396050979404 0 -0.065648076432031049 0.00090955339710942099 0 -0.045118160941850949 -0.00049033847668307538 0 -0.065648076432031049 0.00090955339710942099 0 -0.05559295393876626 0.02093450171247024 0 -0.05559295393876626 0.02093450171247024 0 -0.041197297059898302 0.028587588038626519 0 -0.049597163899048183 0.043688901393888827 0 -0.05559295393876626 0.02093450171247024 0 -0.032784921385912158 0.01564128096370114 0 -0.041197297059898302 0.028587588038626519 0 -0.032784921385912158 0.01564128096370114 0 -0.041197297059898302 0.028587588038626519 0 -0.02681414901586664 0.034085668084445887 0 -0.045118160941850949 -0.00049033847668307538 0 -0.05559295393876626 0.02093450171247024 0 -0.032784921385912158 0.01564128096370114 0 -0.045118160941850949 -0.00049033847668307538 0 -0.027025641752002061 -0.0079319500279313396 0 -0.032784921385912158 0.01564128096370114 0 -0.062589921296568873 0.06642957971461419 0 -0.072380178782229632 0.053292134703331731 0 -0.049597163899048183 0.043688901393888827 0 -0.046276495737503101 0.06795068115397529 0 -0.062589921296568873 0.06642957971461419 0 -0.049597163899048183 0.043688901393888827 0 -0.072380178782229632 0.053292134703331731 0 -0.049597163899048183 0.043688901393888827 0 -0.065785112224924183 0.037111289768743512 0 -0.05559295393876626 0.02093450171247024 0 -0.049597163899048183 0.043688901393888827 0 -0.049597163899048183 0.043688901393888827 0 -0.02681414901586664 0.034085668084445887 0 -0.041197297059898302 0.028587588038626519 0 -0.049597163899048183 0.043688901393888827 0 -0.02681414901586664 0.034085668084445887 0 -0.049597163899048183 0.043688901393888827 0 -0.028283535649973771 0.053358049395037133 0 -0.02681414901586664 0.034085668084445887 0 -0.046276495737503101 0.06795068115397529 0 -0.028283535649973771 0.053358049395037133 0 -0.046276495737503101 0.06795068115397529 0 -0.049597163899048183 0.043688901393888827 0 -0.028283535649973771 0.053358049395037133 0 -0.028283535649973771 0.053358049395037133 0 -0.010290575562444429 0.038765417636098962 0 -0.0097640400442320502 0.053032197103308337 0 -0.018620569400409771 0.06708533464306303 0 -0.028283535649973771 0.053358049395037133 0 -0.0097640400442320502 0.053032197103308337 0 -0.028283535649973771 0.053358049395037133 0 -0.010290575562444429 0.038765417636098962 0 -0.02681414901586664 0.034085668084445887 0 -0.010290575562444429 0.038765417636098962 0 -0.020835528804160591 0.022374223573919171 0 -0.028283535649973771 0.053358049395037133 0 -0.02681414901586664 0.034085668084445887 0 -0.010290575562444429 0.038765417636098962 0 -0.010290575562444429 0.038765417636098962 0 0.0077023845250848884 0.024172785877160811 0 -0.010290575562444429 0.038765417636098962 0 -0.0034349793211087142 0.044893397967285961 0 0.0047272217829380687 0.036246676438490527 0 -0.010290575562444429 0.038765417636098962 0 -0.0034349793211087142 0.044893397967285961 0 -0.0097640400442320502 0.053032197103308337 0 -0.0012292332505543029 0.06378464068123596 0 -0.018620569400409771 0.06708533464306303 0 -0.0097640400442320502 0.053032197103308337 0 -0.0034349793211087142 0.044893397967285961 0 -0.0097640400442320502 0.053032197103308337 0 0.0015874765393035599 0.051529300691246019 0 -0.0012292332505543029 0.06378464068123596 0 -0.0097640400442320502 0.053032197103308337 0 0.0015874765393035599 0.051529300691246019 0 -0.027025641752002061 -0.0079319500279313396 0 -0.032784921385912158 0.01564128096370114 0 -0.01566814095190756 0.010235570601176981 0 -0.032784921385912158 0.01564128096370114 0 -0.02681414901586664 0.034085668084445887 0 -0.020835528804160591 0.022374223573919171 0 -0.032784921385912158 0.01564128096370114 0 -0.01566814095190756 0.010235570601176981 0 -0.020835528804160591 0.022374223573919171 0 -0.010290575562444429 0.038765417636098962 0 -0.020835528804160591 0.022374223573919171 0 -0.0077262750329500059 0.02266504195052366 0 -0.01566814095190756 0.010235570601176981 0 -0.020835528804160591 0.022374223573919171 0 -0.0077262750329500059 0.02266504195052366 0 -0.010290575562444429 0.038765417636098962 0 -0.0077262750329500059 0.02266504195052366 0 0.0077023845250848884 0.024172785877160811 0 -0.0091716063734174208 -0.003332990253060792 0 -0.01566814095190756 0.010235570601176981 0 0.001118487675879971 0.0096665619175221752 0 -0.0091716063734174208 -0.003332990253060792 0 0.001118487675879971 0.0096665619175221752 0 0.006935528729737548 -0.0054826371559186567 0 -0.01566814095190756 0.010235570601176981 0 -0.0077262750329500059 0.02266504195052366 0 0.001118487675879971 0.0096665619175221752 0 0.001118487675879971 0.0096665619175221752 0 0.0077023845250848884 0.024172785877160811 0 0.025695344612614111 0.0095801541182225364 0 0.001118487675879971 0.0096665619175221752 0 0.025695344612614111 0.0095801541182225364 0 0.006935528729737548 -0.0054826371559186567 0 -0.0077262750329500059 0.02266504195052366 0 0.001118487675879971 0.0096665619175221752 0 0.0077023845250848884 0.024172785877160811 0 0.0077023845250848884 0.024172785877160811 0 0.024648998497944961 0.02642224341189468 0 0.015911730558903318 0.034762274935307848 0 0.024648998497944961 0.02642224341189468 0 0.025695344612614111 0.0095801541182225364 0 0.038363400138324961 0.019751697241263279 0 0.0077023845250848884 0.024172785877160811 0 0.024648998497944961 0.02642224341189468 0 0.025695344612614111 0.0095801541182225364 0 0.0077023845250848884 0.024172785877160811 0 0.025695344612614111 0.0095801541182225364 0 0.025695344612614111 0.0095801541182225364 0 0.006935528729737548 -0.0054826371559186567 0 0.01459521235494949 0.061710637509134872 0 0.0047272217829380687 0.036246676438490527 0 -0.0012292332505543029 0.06378464068123596 0 0.01459521235494949 0.061710637509134872 0 0.0015874765393035599 0.051529300691246019 0 0.01459521235494949 0.061710637509134872 0 0.0015874765393035599 0.051529300691246019 0 0.0047272217829380687 0.036246676438490527 0 0.01459521235494949 0.061710637509134872 0 0.0047272217829380687 0.036246676438490527 0 0.016570281580619739 0.045526930476817662 0 -0.010290575562444429 0.038765417636098962 0 0.0077023845250848884 0.024172785877160811 0 0.0047272217829380687 0.036246676438490527 0 -0.0034349793211087142 0.044893397967285961 0 0.0015874765393035599 0.051529300691246019 0 0.0047272217829380687 0.036246676438490527 0 0.0047272217829380687 0.036246676438490527 0 0.015911730558903318 0.034762274935307848 0 0.016570281580619739 0.045526930476817662 0 0.0077023845250848884 0.024172785877160811 0 0.0047272217829380687 0.036246676438490527 0 0.015911730558903318 0.034762274935307848 0 0.024648998497944961 0.02642224341189468 0 0.015911730558903318 0.034762274935307848 0 0.025892041879535671 0.039420421904702428 0 0.024648998497944961 0.02642224341189468 0 0.025892041879535671 0.039420421904702428 0 0.038236142792751733 0.035111405712831077 0 0.015911730558903318 0.034762274935307848 0 0.025892041879535671 0.039420421904702428 0 0.016570281580619739 0.045526930476817662 0 0.025892041879535671 0.039420421904702428 0 0.016570281580619739 0.045526930476817662 0 0.021716339062575678 0.05448348331271597 0 0.01459521235494949 0.061710637509134872 0 0.016570281580619739 0.045526930476817662 0 0.021716339062575678 0.05448348331271597 0 0.01459521235494949 0.061710637509134872 0 0.021716339062575678 0.05448348331271597 0 0.030459386295035529 0.05963142741263059 0 0.01459521235494949 0.061710637509134872 0 0.030459386295035529 0.05963142741263059 0 0.021716339062575678 0.05448348331271597 0 0.030459386295035529 0.05963142741263059 0 0.032703710623893968 0.046893395464013943 0 0.025892041879535671 0.039420421904702428 0 0.021716339062575678 0.05448348331271597 0 0.032703710623893968 0.046893395464013943 0 0.030459386295035529 0.05963142741263059 0 0.032703710623893968 0.046893395464013943 0 0.047214643089571059 0.045820238977188371 0 0.030459386295035529 0.05963142741263059 0 0.04797297407010033 0.057336039788577382 0 0.030459386295035529 0.05963142741263059 0 0.04797297407010033 0.057336039788577382 0 0.027635028654909001 0.06907575978797427 0 0.030459386295035529 0.05963142741263059 0 0.047214643089571059 0.045820238977188371 0 0.04797297407010033 0.057336039788577382 0 0.030459386295035529 0.05963142741263059 0 0.047214643089571059 0.045820238977188371 0 0.038236142792751733 0.035111405712831077 0 0.047214643089571059 0.045820238977188371 0 0.051031455664035288 0.029923240364304559 0 0.032703710623893968 0.046893395464013943 0 0.038236142792751733 0.035111405712831077 0 0.047214643089571059 0.045820238977188371 0 0.025892041879535671 0.039420421904702428 0 0.032703710623893968 0.046893395464013943 0 0.038236142792751733 0.035111405712831077 0 0.062359133547200143 0.040731400683572692 0 0.047214643089571059 0.045820238977188371 0 0.063969899884107562 0.032009050541747332 0 0.047214643089571059 0.045820238977188371 0 0.063969899884107562 0.032009050541747332 0 0.047214643089571059 0.045820238977188371 0 0.051031455664035288 0.029923240364304559 0 0.063969899884107562 0.032009050541747332 0 0.062359133547200143 0.040731400683572692 0 0.04797297407010033 0.057336039788577382 0 0.072379857481358154 0.054137194478101919 0 0.04797297407010033 0.057336039788577382 0 0.072379857481358154 0.054137194478101919 0 0.062359133547200143 0.040731400683572692 0 0.04797297407010033 0.057336039788577382 0 0.062359133547200143 0.040731400683572692 0 0.047214643089571059 0.045820238977188371 0 0.04797297407010033 0.057336039788577382 0 0.04797297407010033 0.057336039788577382 0 0.072379857481358154 0.054137194478101919 0 0.06072113176624426 0.066105246874810966 0 0.040835927619124697 0.0088703260301804514 0 0.038363400138324961 0.019751697241263279 0 0.051939500327619889 0.017318508583630769 0 0.040835927619124697 0.0088703260301804514 0 0.046640351189982193 0.001482106492276504 0 0.040314465242246092 -0.002276229875846851 0 0.025695344612614111 0.0095801541182225364 0 0.040314465242246092 -0.002276229875846851 0 0.025695344612614111 0.0095801541182225364 0 0.040835927619124697 0.0088703260301804514 0 0.040314465242246092 -0.002276229875846851 0 0.025695344612614111 0.0095801541182225364 0 0.040835927619124697 0.0088703260301804514 0 0.038363400138324961 0.019751697241263279 0 0.025695344612614111 0.0095801541182225364 0 0.038363400138324961 0.019751697241263279 0 0.024648998497944961 0.02642224341189468 0 0.038236142792751733 0.035111405712831077 0 0.038363400138324961 0.019751697241263279 0 0.038363400138324961 0.019751697241263279 0 0.051031455664035288 0.029923240364304559 0 0.038236142792751733 0.035111405712831077 0 0.038363400138324961 0.019751697241263279 0 0.051031455664035288 0.029923240364304559 0 0.038363400138324961 0.019751697241263279 0 0.051939500327619889 0.017318508583630769 0 0.051031455664035288 0.029923240364304559 0 0.051031455664035288 0.029923240364304559 0 0.062107590562420073 0.0228568457980407 0 0.063969899884107562 0.032009050541747332 0 0.051939500327619889 0.017318508583630769 0 0.062107590562420073 0.0228568457980407 0 0.064696567818308529 0.01472149906873369 0 0.051939500327619889 0.017318508583630769 0 0.051031455664035288 0.029923240364304559 0 0.062107590562420073 0.0228568457980407 0 0.055514373943813228 0.0067304088365214816 0 0.075461568133428525 0.0044331687040122013 0 0.049896637954744763 -0.0073960790217490677 0 0.051939500327619889 0.017318508583630769 0 0.055514373943813228 0.0067304088365214816 0 0.064696567818308529 0.01472149906873369 0 0.040835927619124697 0.0088703260301804514 0 0.051939500327619889 0.017318508583630769 0 0.055514373943813228 0.0067304088365214816 0 0.046640351189982193 0.001482106492276504 0 0.055514373943813228 0.0067304088365214816 0 0.049896637954744763 -0.0073960790217490677 0 0.040835927619124697 0.0088703260301804514 0 0.046640351189982193 0.001482106492276504 0 0.055514373943813228 0.0067304088365214816 0 0.075461568133428525 0.0044331687040122013 0 0.064696567818308529 0.01472149906873369 0 0.08072515667864405 0.018197862106306289 0 0.055514373943813228 0.0067304088365214816 0 0.075461568133428525 0.0044331687040122013 0 0.064696567818308529 0.01472149906873369 0 0.075461568133428525 0.0044331687040122013 0 0.1010264983121123 0.016262416429773479 0 0.075461568133428525 0.0044331687040122013 0 0.1010264983121123 0.016262416429773479 0 0.098011391193308373 -0.0056982583262641584 0 0.075461568133428525 0.0044331687040122013 0 0.08072515667864405 0.018197862106306289 0 0.1010264983121123 0.016262416429773479 0 0.088041666307225416 0.02743399724937181 0 0.08072515667864405 0.018197862106306289 0 0.1010264983121123 0.016262416429773479 0 0.088041666307225416 0.02743399724937181 0 0.08072515667864405 0.018197862106306289 0 0.076745293024301803 0.02412676157856956 0 0.088041666307225416 0.02743399724937181 0 0.076745293024301803 0.02412676157856956 0 0.082258845210710349 0.03253561428057717 0 0.08072515667864405 0.018197862106306289 0 0.076745293024301803 0.02412676157856956 0 0.063969899884107562 0.032009050541747332 0 0.062107590562420073 0.0228568457980407 0 0.064696567818308529 0.01472149906873369 0 0.08072515667864405 0.018197862106306289 0 0.08072515667864405 0.018197862106306289 0 0.063969899884107562 0.032009050541747332 0 0.062107590562420073 0.0228568457980407 0 0.08072515667864405 0.018197862106306289 0 0.063969899884107562 0.032009050541747332 0 0.062359133547200143 0.040731400683572692 0 0.076745293024301803 0.02412676157856956 0 0.062359133547200143 0.040731400683572692 0 0.076745293024301803 0.02412676157856956 0 0.076375628159171968 0.038405412939545532 0 0.062359133547200143 0.040731400683572692 0 0.076745293024301803 0.02412676157856956 0 0.063969899884107562 0.032009050541747332 0 0.062359133547200143 0.040731400683572692 0 0.076375628159171968 0.038405412939545532 0 0.072379857481358154 0.054137194478101919 0 0.072379857481358154 0.054137194478101919 0 0.087872793352142223 0.040176285354821803 0 0.096786740892615686 0.050938349167624693 0 0.072379857481358154 0.054137194478101919 0 0.096786740892615686 0.050938349167624693 0 0.072379857481358154 0.054137194478101919 0 0.096786740892615686 0.050938349167624693 0 0.089592915186254174 0.067390154600646832 0 0.076375628159171968 0.038405412939545532 0 0.072379857481358154 0.054137194478101919 0 0.087872793352142223 0.040176285354821803 0 0.076375628159171968 0.038405412939545532 0 0.082258845210710349 0.03253561428057717 0 0.087872793352142223 0.040176285354821803 0 0.076745293024301803 0.02412676157856956 0 0.076375628159171968 0.038405412939545532 0 0.082258845210710349 0.03253561428057717 0 0.088041666307225416 0.02743399724937181 0 0.087872793352142223 0.040176285354821803 0 0.098246025398924644 0.032379674771496843 0 0.088041666307225416 0.02743399724937181 0 0.082258845210710349 0.03253561428057717 0 0.087872793352142223 0.040176285354821803 0 0.098246025398924644 0.032379674771496843 0 0.09859813872304253 0.041737690340159041 0 0.1063796333462841 0.038668109643535398 0 0.087872793352142223 0.040176285354821803 0 0.098246025398924644 0.032379674771496843 0 0.09859813872304253 0.041737690340159041 0 0.087872793352142223 0.040176285354821803 0 0.09859813872304253 0.041737690340159041 0 0.096786740892615686 0.050938349167624693 0 0.09859813872304253 0.041737690340159041 0 0.1037055006252459 0.04652603276331644 0 0.096786740892615686 0.050938349167624693 0 0.1037055006252459 0.04652603276331644 0 0.1091701701315707 0.045405346223324289 0 0.1063796333462841 0.038668109643535398 0 0.09859813872304253 0.041737690340159041 0 0.1037055006252459 0.04652603276331644 0 0.1063796333462841 0.038668109643535398 0 0.098246025398924644 0.032379674771496843 0 0.1063796333462841 0.038668109643535398 0 0.1080469394596527 0.029312409717345649 0 0.1063796333462841 0.038668109643535398 0 0.11369005285381351 0.036564640387925021 0 0.1080469394596527 0.029312409717345649 0 0.10140855114010359 0.056741753968867333 0 0.1082136550722141 0.059696613986540442 0 0.089592915186254174 0.067390154600646832 0 0.10140855114010359 0.056741753968867333 0 0.096786740892615686 0.050938349167624693 0 0.089592915186254174 0.067390154600646832 0 0.10140855114010359 0.056741753968867333 0 0.096786740892615686 0.050938349167624693 0 0.1040187002827474 0.052009313231975308 0 0.1037055006252459 0.04652603276331644 0 0.096786740892615686 0.050938349167624693 0 0.1040187002827474 0.052009313231975308 0 0.1037055006252459 0.04652603276331644 0 0.10828434687670541 0.049049973369521209 0 0.1040187002827474 0.052009313231975308 0 0.1037055006252459 0.04652603276331644 0 0.1091701701315707 0.045405346223324289 0 0.10828434687670541 0.049049973369521209 0 0.10828434687670541 0.049049973369521209 0 0.1040187002827474 0.052009313231975308 0 0.1085923347430168 0.054888678040205661 0 0.10140855114010359 0.056741753968867333 0 0.1040187002827474 0.052009313231975308 0 0.1085923347430168 0.054888678040205661 0 0.10140855114010359 0.056741753968867333 0 0.1085923347430168 0.054888678040205661 0 0.1082136550722141 0.059696613986540442 0 0.1082136550722141 0.059696613986540442 0 0.12683439495817461 0.052003073372435288 0 0.1085923347430168 0.054888678040205661 0 0.1082136550722141 0.059696613986540442 0 0.12683439495817461 0.052003073372435288 0 0.1082136550722141 0.059696613986540442 0 0.1213053233293625 0.063977455960140386 0 0.12683439495817461 0.052003073372435288 0 0.1085923347430168 0.054888678040205661 0 0.11545296983014219 0.044674578582556468 0 0.12683439495817461 0.052003073372435288 0 0.1085923347430168 0.054888678040205661 0 0.11545296983014219 0.044674578582556468 0 0.10828434687670541 0.049049973369521209 0 0.1085923347430168 0.054888678040205661 0 0.11545296983014219 0.044674578582556468 0 0.11545296983014219 0.044674578582556468 0 0.12683439495817461 0.052003073372435288 0 0.11545296983014219 0.044674578582556468 0 0.12659142849079691 0.028091664155532971 0 0.13015300311198849 0.040381385354086502 0 0.11369005285381351 0.036564640387925021 0 0.11545296983014219 0.044674578582556468 0 0.12659142849079691 0.028091664155532971 0 0.11369005285381351 0.036564640387925021 0 0.1080469394596527 0.029312409717345649 0 0.12659142849079691 0.028091664155532971 0 0.11545296983014219 0.044674578582556468 0 0.12659142849079691 0.028091664155532971 0 0.1091701701315707 0.045405346223324289 0 0.1063796333462841 0.038668109643535398 0 0.11316657253878901 0.043202368340974628 0 0.11369005285381351 0.036564640387925021 0 0.11316657253878901 0.043202368340974628 0 0.11545296983014219 0.044674578582556468 0 0.1063796333462841 0.038668109643535398 0 0.11369005285381351 0.036564640387925021 0 0.11316657253878901 0.043202368340974628 0 0.1091701701315707 0.045405346223324289 0 0.10828434687670541 0.049049973369521209 0 0.11545296983014219 0.044674578582556468 0 0.1091701701315707 0.045405346223324289 0 0.11316657253878901 0.043202368340974628 0 0.11545296983014219 0.044674578582556468 0 0.11316657253878901 0.043202368340974628 0 0.11545296983014219 0.044674578582556468 0 0.11545296983014219 0.044674578582556468 0 0.13015300311198849 0.040381385354086502 0 0.12683439495817461 0.052003073372435288 0 0.11882011836095251 0.0065886106746579649 0 0.1010264983121123 0.016262416429773479 0 0.12659142849079691 0.028091664155532971 0 0.1010264983121123 0.016262416429773479 0 0.12659142849079691 0.028091664155532971 0 0.1010264983121123 0.016262416429773479 0 0.1080469394596527 0.029312409717345649 0 0.12659142849079691 0.028091664155532971 0 0.11882011836095251 0.0065886106746579649 0 0.1010264983121123 0.016262416429773479 0 0.098011391193308373 -0.0056982583262641584 0 0.088041666307225416 0.02743399724937181 0 0.098246025398924644 0.032379674771496843 0 0.1010264983121123 0.016262416429773479 0 0.098246025398924644 0.032379674771496843 0 0.1010264983121123 0.016262416429773479 0 0.1080469394596527 0.029312409717345649 0 0.102028599401492 0.1079210482782756 0 0.1185648575779607 0.095458187827811403 0 0.097454497296707604 0.093489332089851121 0 0.102028599401492 0.1079210482782756 0 0.094862282777670462 0.1196438628042634 0 0.1117522404438802 0.12667258555115829 0 0.123281054128593 0.11724462113534739 0 0.1117522404438802 0.12667258555115829 0 0.13947052033133081 0.1245003570974072 0 0.102028599401492 0.1079210482782756 0 0.123281054128593 0.11724462113534739 0 0.1117522404438802 0.12667258555115829 0 0.102028599401492 0.1079210482782756 0 0.123281054128593 0.11724462113534739 0 0.102028599401492 0.1079210482782756 0 0.123281054128593 0.11724462113534739 0 0.1185648575779607 0.095458187827811403 0 0.1185648575779607 0.095458187827811403 0 0.10766661625946521 0.081617344394697103 0 0.12679961534922851 0.075073796793526271 0 0.1127439035567581 0.069567645006608142 0 0.10766661625946521 0.081617344394697103 0 0.12679961534922851 0.075073796793526271 0 0.1213053233293625 0.063977455960140386 0 0.1127439035567581 0.069567645006608142 0 0.12679961534922851 0.075073796793526271 0 0.1082136550722141 0.059696613986540442 0 0.1213053233293625 0.063977455960140386 0 0.1127439035567581 0.069567645006608142 0 0.1082136550722141 0.059696613986540442 0 0.089592915186254174 0.067390154600646832 0 0.1014387622560044 0.070574023901201433 0 0.10766661625946521 0.081617344394697103 0 0.08998097741878798 0.081820185866337797 0 0.1082136550722141 0.059696613986540442 0 0.1014387622560044 0.070574023901201433 0 0.089592915186254174 0.067390154600646832 0 0.1082136550722141 0.059696613986540442 0 0.1127439035567581 0.069567645006608142 0 0.1014387622560044 0.070574023901201433 0 0.1127439035567581 0.069567645006608142 0 0.1014387622560044 0.070574023901201433 0 0.10766661625946521 0.081617344394697103 0 0.1185648575779607 0.095458187827811403 0 0.097454497296707604 0.093489332089851121 0 0.10766661625946521 0.081617344394697103 0 0.097454497296707604 0.093489332089851121 0 0.10766661625946521 0.081617344394697103 0 0.08998097741878798 0.081820185866337797 0 0.097454497296707604 0.093489332089851121 0 0.08998097741878798 0.081820185866337797 0 0.080776144674391009 0.098597475421203867 0 0.08998097741878798 0.081820185866337797 0 0.071888117261322881 0.075707086101057836 0 0.080776144674391009 0.098597475421203867 0 0.08998097741878798 0.081820185866337797 0 0.089592915186254174 0.067390154600646832 0 0.071888117261322881 0.075707086101057836 0 0.1014387622560044 0.070574023901201433 0 0.08998097741878798 0.081820185866337797 0 0.089592915186254174 0.067390154600646832 0 0.072379857481358154 0.054137194478101919 0 0.089592915186254174 0.067390154600646832 0 0.071888117261322881 0.075707086101057836 0 0.072379857481358154 0.054137194478101919 0 0.071888117261322881 0.075707086101057836 0 0.06072113176624426 0.066105246874810966 0 0.071888117261322881 0.075707086101057836 0 0.080776144674391009 0.098597475421203867 0 0.059523689947290133 0.089273902564132146 0 0.069834633883481517 0.1065625652268001 0 0.059315065316452309 0.1025539410383776 0 0.059523689947290133 0.089273902564132146 0 0.080776144674391009 0.098597475421203867 0 0.059523689947290133 0.089273902564132146 0 0.069834633883481517 0.1065625652268001 0 0.080776144674391009 0.098597475421203867 0 0.081634330708880196 0.1151370033827101 0 0.069834633883481517 0.1065625652268001 0 0.080776144674391009 0.098597475421203867 0 0.059523689947290133 0.089273902564132146 0 0.069834633883481517 0.1065625652268001 0 0.064307476710745728 0.1098785041095611 0 0.059315065316452309 0.1025539410383776 0 0.102028599401492 0.1079210482782756 0 0.080776144674391009 0.098597475421203867 0 0.081634330708880196 0.1151370033827101 0 0.102028599401492 0.1079210482782756 0 0.080776144674391009 0.098597475421203867 0 0.102028599401492 0.1079210482782756 0 0.097454497296707604 0.093489332089851121 0 0.080776144674391009 0.098597475421203867 0 0.102028599401492 0.1079210482782756 0 0.094862282777670462 0.1196438628042634 0 0.081634330708880196 0.1151370033827101 0 0.094862282777670462 0.1196438628042634 0 0.081634330708880196 0.1151370033827101 0 0.084033960556429532 0.12884481400490949 0 0.081634330708880196 0.1151370033827101 0 0.071861500007931359 0.1232467005620789 0 0.084033960556429532 0.12884481400490949 0 0.081634330708880196 0.1151370033827101 0 0.071861500007931359 0.1232467005620789 0 0.068543873750645412 0.1149277749384955 0 0.069834633883481517 0.1065625652268001 0 0.081634330708880196 0.1151370033827101 0 0.068543873750645412 0.1149277749384955 0 0.068543873750645412 0.1149277749384955 0 0.064307476710745728 0.1098785041095611 0 0.059536333892403683 0.1154697352345713 0 0.069834633883481517 0.1065625652268001 0 0.068543873750645412 0.1149277749384955 0 0.064307476710745728 0.1098785041095611 0 0.071861500007931359 0.1232467005620789 0 0.068543873750645412 0.1149277749384955 0 0.059536333892403683 0.1154697352345713 0 0.056458373241313059 0.1220229844831647 0 0.046980594318971967 0.103944553472415 0 0.044984286063853948 0.1144984098979744 0 0.056458373241313059 0.1220229844831647 0 0.059536333892403683 0.1154697352345713 0 0.047111977694586651 0.095143209078012936 0 0.056458373241313059 0.1220229844831647 0 0.047823074661834691 0.1229743903388081 0 0.044984286063853948 0.1144984098979744 0 0.056458373241313059 0.1220229844831647 0 0.047111977694586651 0.095143209078012936 0 0.056458373241313059 0.1220229844831647 0 0.047111977694586651 0.095143209078012936 0 0.046980594318971967 0.103944553472415 0 0.059536333892403683 0.1154697352345713 0 0.059315065316452309 0.1025539410383776 0 0.048250118395506067 0.092934788779969885 0 0.064307476710745728 0.1098785041095611 0 0.059536333892403683 0.1154697352345713 0 0.059315065316452309 0.1025539410383776 0 0.059536333892403683 0.1154697352345713 0 0.047111977694586651 0.095143209078012936 0 0.048250118395506067 0.092934788779969885 0 0.059536333892403683 0.1154697352345713 0 0.048250118395506067 0.092934788779969885 0 0.059315065316452309 0.1025539410383776 0 0.059523689947290133 0.089273902564132146 0 0.048250118395506067 0.092934788779969885 0 0.046980594318971967 0.103944553472415 0 0.031997015267580219 0.10661530464401089 0 0.044984286063853948 0.1144984098979744 0 0.046980594318971967 0.103944553472415 0 0.039592722901722707 0.099159129702000026 0 0.031997015267580219 0.10661530464401089 0 0.047111977694586651 0.095143209078012936 0 0.046980594318971967 0.103944553472415 0 0.044236279529428407 0.098362398272746204 0 0.043259823202432338 0.095202700838556822 0 0.039592722901722707 0.099159129702000026 0 0.040006298791842428 0.091064350555588536 0 0.047111977694586651 0.095143209078012936 0 0.043259823202432338 0.095202700838556822 0 0.043326765309194368 0.091114650811160686 0 0.047111977694586651 0.095143209078012936 0 0.043259823202432338 0.095202700838556822 0 0.044236279529428407 0.098362398272746204 0 0.046980594318971967 0.103944553472415 0 0.044236279529428407 0.098362398272746204 0 0.039592722901722707 0.099159129702000026 0 0.043259823202432338 0.095202700838556822 0 0.044236279529428407 0.098362398272746204 0 0.039592722901722707 0.099159129702000026 0 0.039592722901722707 0.099159129702000026 0 0.040006298791842428 0.091064350555588536 0 0.033999193661208522 0.092549709374426317 0 0.039592722901722707 0.099159129702000026 0 0.031997015267580219 0.10661530464401089 0 0.033999193661208522 0.092549709374426317 0 0.031997015267580219 0.10661530464401089 0 0.044984286063853948 0.1144984098979744 0 0.040254683338031831 0.12792389191371131 0 0.031997015267580219 0.10661530464401089 0 0.027418588341799281 0.11951208787462859 0 0.040254683338031831 0.12792389191371131 0 0.031997015267580219 0.10661530464401089 0 0.040254683338031831 0.12792389191371131 0 0.047823074661834691 0.1229743903388081 0 0.044984286063853948 0.1144984098979744 0 0.040254683338031831 0.12792389191371131 0 0.071888117261322881 0.075707086101057836 0 0.050643578252195447 0.077240667131504986 0 0.06072113176624426 0.066105246874810966 0 0.071888117261322881 0.075707086101057836 0 0.050643578252195447 0.077240667131504986 0 0.04797297407010033 0.057336039788577382 0 0.050643578252195447 0.077240667131504986 0 0.06072113176624426 0.066105246874810966 0 0.059523689947290133 0.089273902564132146 0 0.048250118395506067 0.092934788779969885 0 0.038271235220189187 0.079950329707060411 0 0.050643578252195447 0.077240667131504986 0 0.059523689947290133 0.089273902564132146 0 0.038271235220189187 0.079950329707060411 0 0.059523689947290133 0.089273902564132146 0 0.038271235220189187 0.079950329707060411 0 0.071888117261322881 0.075707086101057836 0 0.050643578252195447 0.077240667131504986 0 0.059523689947290133 0.089273902564132146 0 0.050643578252195447 0.077240667131504986 0 0.038271235220189187 0.079950329707060411 0 0.029399039243067929 0.078774248161950916 0 0.043326765309194368 0.091114650811160686 0 0.040006298791842428 0.091064350555588536 0 0.038271235220189187 0.079950329707060411 0 0.048250118395506067 0.092934788779969885 0 0.043326765309194368 0.091114650811160686 0 0.038271235220189187 0.079950329707060411 0 0.047111977694586651 0.095143209078012936 0 0.048250118395506067 0.092934788779969885 0 0.043326765309194368 0.091114650811160686 0 0.043259823202432338 0.095202700838556822 0 0.043326765309194368 0.091114650811160686 0 0.040006298791842428 0.091064350555588536 0 0.040006298791842428 0.091064350555588536 0 0.033999193661208522 0.092549709374426317 0 0.035112272261912547 0.085996705185296951 0 0.033999193661208522 0.092549709374426317 0 0.035112272261912547 0.085996705185296951 0 0.030562463090829231 0.085656845023995995 0 0.040006298791842428 0.091064350555588536 0 0.035112272261912547 0.085996705185296951 0 0.038271235220189187 0.079950329707060411 0 0.035112272261912547 0.085996705185296951 0 0.038271235220189187 0.079950329707060411 0 0.029399039243067929 0.078774248161950916 0 0.035112272261912547 0.085996705185296951 0 0.029399039243067929 0.078774248161950916 0 0.030562463090829231 0.085656845023995995 0 0.04797297407010033 0.057336039788577382 0 0.027635028654909001 0.06907575978797427 0 0.029399039243067929 0.078774248161950916 0 0.04797297407010033 0.057336039788577382 0 0.050643578252195447 0.077240667131504986 0 0.029399039243067929 0.078774248161950916 0 0.050643578252195447 0.077240667131504986 0 0.029399039243067929 0.078774248161950916 0 0.04797297407010033 0.057336039788577382 0 0.029399039243067929 0.078774248161950916 0 0.01459521235494949 0.061710637509134872 0 0.030459386295035529 0.05963142741263059 0 0.017825248683011649 0.070045619055208203 0 0.01459521235494949 0.061710637509134872 0 0.017825248683011649 0.070045619055208203 0 0.030459386295035529 0.05963142741263059 0 0.017825248683011649 0.070045619055208203 0 0.030459386295035529 0.05963142741263059 0 0.017825248683011649 0.070045619055208203 0 0.027635028654909001 0.06907575978797427 0 0.027635028654909001 0.06907575978797427 0 0.021430743364398389 0.07934945609652827 0 0.029399039243067929 0.078774248161950916 0 0.017825248683011649 0.070045619055208203 0 0.027635028654909001 0.06907575978797427 0 0.021430743364398389 0.07934945609652827 0 0.017825248683011649 0.070045619055208203 0 0.021430743364398389 0.07934945609652827 0 0.023739347197128589 0.085306717374310406 0 0.0092582498306486675 0.1020209346744549 0 0.021430743364398389 0.07934945609652827 0 0.023739347197128589 0.085306717374310406 0 0.01369104835205702 0.085774757015682671 0 0.021430743364398389 0.07934945609652827 0 0.023739347197128589 0.085306717374310406 0 0.021430743364398389 0.07934945609652827 0 0.029399039243067929 0.078774248161950916 0 0.023739347197128589 0.085306717374310406 0 0.021430743364398389 0.07934945609652827 0 0.029399039243067929 0.078774248161950916 0 0.029399039243067929 0.078774248161950916 0 0.030562463090829231 0.085656845023995995 0 0.023739347197128589 0.085306717374310406 0 0.029399039243067929 0.078774248161950916 0 0.023739347197128589 0.085306717374310406 0 0.033999193661208522 0.092549709374426317 0 0.030562463090829231 0.085656845023995995 0 0.023739347197128589 0.085306717374310406 0 0.023739347197128589 0.085306717374310406 0 0.01369104835205702 0.085774757015682671 0 0.0092582498306486675 0.1020209346744549 0 0.0051087594610210148 0.080527692295617709 0 0.01369104835205702 0.085774757015682671 0 0.0092582498306486675 0.1020209346744549 0 0.021430743364398389 0.07934945609652827 0 0.0051087594610210148 0.080527692295617709 0 0.021430743364398389 0.07934945609652827 0 0.0051087594610210148 0.080527692295617709 0 0.01369104835205702 0.085774757015682671 0 -0.0012292332505543029 0.06378464068123596 0 0.01459521235494949 0.061710637509134872 0 -0.0012292332505543029 0.06378464068123596 0 0.01459521235494949 0.061710637509134872 0 0.0080955592782806732 0.069159055867407046 0 0.017825248683011649 0.070045619055208203 0 0.021430743364398389 0.07934945609652827 0 0.0051087594610210148 0.080527692295617709 0 -0.0012292332505543029 0.06378464068123596 0 0.0051087594610210148 0.080527692295617709 0 0.0080955592782806732 0.069159055867407046 0 0.017825248683011649 0.070045619055208203 0 0.0051087594610210148 0.080527692295617709 0 0.0080955592782806732 0.069159055867407046 0 0.017825248683011649 0.070045619055208203 0 0.0051087594610210148 0.080527692295617709 0 0.01459521235494949 0.061710637509134872 0 0.017825248683011649 0.070045619055208203 0 0.0080955592782806732 0.069159055867407046 0 0.019482067178466251 0.1107491432724047 0 0.017356945103072018 0.1204998149293544 0 0.027418588341799281 0.11951208787462859 0 0.017356945103072018 0.1204998149293544 0 0.027418588341799281 0.11951208787462859 0 0.028136896369567631 0.1331750506540591 0 0.031997015267580219 0.10661530464401089 0 0.019482067178466251 0.1107491432724047 0 0.027418588341799281 0.11951208787462859 0 0.031997015267580219 0.10661530464401089 0 0.033999193661208522 0.092549709374426317 0 0.023739347197128589 0.085306717374310406 0 0.023739347197128589 0.085306717374310406 0 0.02108550348152554 0.10082233348119581 0 0.0092582498306486675 0.1020209346744549 0 0.031997015267580219 0.10661530464401089 0 0.023739347197128589 0.085306717374310406 0 0.031997015267580219 0.10661530464401089 0 0.023739347197128589 0.085306717374310406 0 0.02108550348152554 0.10082233348119581 0 0.031997015267580219 0.10661530464401089 0 0.019482067178466251 0.1107491432724047 0 0.02108550348152554 0.10082233348119581 0 0.019482067178466251 0.1107491432724047 0 0.02108550348152554 0.10082233348119581 0 0.0092582498306486675 0.1020209346744549 0 -0.0040597014752050652 0.1051126182356364 0 0.0051087594610210148 0.080527692295617709 0 0.0092582498306486675 0.1020209346744549 0 0.019482067178466251 0.1107491432724047 0 0.0092582498306486675 0.1020209346744549 0 0.0097761010461718117 0.1150243840307837 0 -0.0052228475358298988 0.1187351519746004 0 0.0092582498306486675 0.1020209346744549 0 -0.0052228475358298988 0.1187351519746004 0 0.0092582498306486675 0.1020209346744549 0 0.0097761010461718117 0.1150243840307837 0 0.019482067178466251 0.1107491432724047 0 0.017356945103072018 0.1204998149293544 0 0.0097761010461718117 0.1150243840307837 0 0.017356945103072018 0.1204998149293544 0 0.0081407562022233586 0.1245196413435004 0 0.017356945103072018 0.1204998149293544 0 0.0097761010461718117 0.1150243840307837 0 0.0081407562022233586 0.1245196413435004 0 -0.0052228475358298988 0.1187351519746004 0 0.0097761010461718117 0.1150243840307837 0 0.0081407562022233586 0.1245196413435004 0 -0.0052228475358298988 0.1187351519746004 0 0.0081407562022233586 0.1245196413435004 0 -0.015783289274076458 0.13495459563681389 0 0.0081407562022233586 0.1245196413435004 0 0.01185912902997375 0.14130758542593569 0 0.017356945103072018 0.1204998149293544 0 0.0081407562022233586 0.1245196413435004 0 0.028136896369567631 0.1331750506540591 0 0.0081407562022233586 0.1245196413435004 0 0.028136896369567631 0.1331750506540591 0 0.0081407562022233586 0.1245196413435004 0 0.028136896369567631 0.1331750506540591 0 0.01185912902997375 0.14130758542593569 0 0.028136896369567631 0.1331750506540591 0 0.0267736462585265 0.15269096182544131 0 0.035919394343652343 0.14075559589415579 0 0.028136896369567631 0.1331750506540591 0 0.0267736462585265 0.15269096182544131 0 0.01185912902997375 0.14130758542593569 0 0.0267736462585265 0.15269096182544131 0 0.001788155555331062 0.1557637096651584 0 0.01185912902997375 0.14130758542593569 0 0.001788155555331062 0.1557637096651584 0 0.00061104658230836653 0.17769045695541219 0 0.019359600384737739 0.17657282369350361 0 0.001788155555331062 0.1557637096651584 0 0.019359600384737739 0.17657282369350361 0 0.00061104658230836653 0.17769045695541219 0 0.019359600384737739 0.17657282369350361 0 0.017852612557627559 0.19656860209324539 0 0.019359600384737739 0.17657282369350361 0 0.036931045214144441 0.19738193772184889 0 0.0267736462585265 0.15269096182544131 0 0.001788155555331062 0.1557637096651584 0 0.019359600384737739 0.17657282369350361 0 0.0267736462585265 0.15269096182544131 0 0.019359600384737739 0.17657282369350361 0 0.038399134829123632 0.17159850230738899 0 0.0267736462585265 0.15269096182544131 0 0.038399134829123632 0.17159850230738899 0 0.048512351408483409 0.1492324791834117 0 0.019359600384737739 0.17657282369350361 0 0.038399134829123632 0.17159850230738899 0 0.036931045214144441 0.19738193772184889 0 0.038399134829123632 0.17159850230738899 0 0.053915020648589329 0.181809847856817 0 0.036931045214144441 0.19738193772184889 0 0.053915020648589329 0.181809847856817 0 0.056298621576963533 0.16595151756685289 0 0.075151164334765874 0.17578253529346821 0 0.038399134829123632 0.17159850230738899 0 0.053915020648589329 0.181809847856817 0 0.056298621576963533 0.16595151756685289 0 0.038399134829123632 0.17159850230738899 0 0.056298621576963533 0.16595151756685289 0 0.048512351408483409 0.1492324791834117 0 0.048512351408483409 0.1492324791834117 0 0.055211699142625699 0.13746009370018761 0 0.065804768788039439 0.14890275988831639 0 0.056298621576963533 0.16595151756685289 0 0.048512351408483409 0.1492324791834117 0 0.065804768788039439 0.14890275988831639 0 0.048512351408483409 0.1492324791834117 0 0.055211699142625699 0.13746009370018761 0 0.049904412172306151 0.13036597214331841 0 0.056458373241313059 0.1220229844831647 0 0.059536333892403683 0.1154697352345713 0 0.070822549389301243 0.1380046816891726 0 0.056458373241313059 0.1220229844831647 0 0.055211699142625699 0.13746009370018761 0 0.065804768788039439 0.14890275988831639 0 0.056458373241313059 0.1220229844831647 0 0.065804768788039439 0.14890275988831639 0 0.056458373241313059 0.1220229844831647 0 0.047823074661834691 0.1229743903388081 0 0.049904412172306151 0.13036597214331841 0 0.056458373241313059 0.1220229844831647 0 0.055211699142625699 0.13746009370018761 0 0.049904412172306151 0.13036597214331841 0 0.048512351408483409 0.1492324791834117 0 0.040254683338031831 0.12792389191371131 0 0.048512351408483409 0.1492324791834117 0 0.040254683338031831 0.12792389191371131 0 0.035919394343652343 0.14075559589415579 0 0.048512351408483409 0.1492324791834117 0 0.049904412172306151 0.13036597214331841 0 0.040254683338031831 0.12792389191371131 0 0.047823074661834691 0.1229743903388081 0 0.049904412172306151 0.13036597214331841 0 0.040254683338031831 0.12792389191371131 0 0.027418588341799281 0.11951208787462859 0 0.028136896369567631 0.1331750506540591 0 0.040254683338031831 0.12792389191371131 0 0.028136896369567631 0.1331750506540591 0 0.040254683338031831 0.12792389191371131 0 0.035919394343652343 0.14075559589415579 0 0.0267736462585265 0.15269096182544131 0 0.048512351408483409 0.1492324791834117 0 0.035919394343652343 0.14075559589415579 0 0.020197736684044801 0.2291273398277828 0 0.034114961552744377 0.23516115760169301 0 0.036501911092354018 0.25177276941539839 0 0.018629400856135309 0.24429501886194191 0 0.020197736684044801 0.2291273398277828 0 0.02692674034290404 0.25134916217479408 0 0.020197736684044801 0.2291273398277828 0 0.02692674034290404 0.25134916217479408 0 0.036501911092354018 0.25177276941539839 0 0.020197736684044801 0.2291273398277828 0 0.036501911092354018 0.25177276941539839 0 0.018629400856135309 0.24429501886194191 0 0.0082785766384091443 0.23618007315607359 0 0.020197736684044801 0.2291273398277828 0 0.018629400856135309 0.24429501886194191 0 0.012944211518790589 0.24639919126045251 0 0.0082785766384091443 0.23618007315607359 0 0.012944211518790589 0.24639919126045251 0 0.001894876929373096 0.24743045501984201 0 0.0082785766384091443 0.23618007315607359 0 -0.0070773620087705444 0.23295897308755351 0 0.001894876929373096 0.24743045501984201 0 0.0082785766384091443 0.23618007315607359 0 0.0082785766384091443 0.23618007315607359 0 0.0038866256090455522 0.2239579318999283 0 0.020197736684044801 0.2291273398277828 0 0.0038866256090455522 0.2239579318999283 0 0.020197736684044801 0.2291273398277828 0 0.003893562275735573 0.2064819102401671 0 -0.0070773620087705444 0.23295897308755351 0 0.0082785766384091443 0.23618007315607359 0 0.0038866256090455522 0.2239579318999283 0 0.01643925603633389 0.21561198758054059 0 0.035370792182188207 0.216260201755786 0 0.034114961552744377 0.23516115760169301 0 0.020197736684044801 0.2291273398277828 0 0.01643925603633389 0.21561198758054059 0 0.034114961552744377 0.23516115760169301 0 0.01643925603633389 0.21561198758054059 0 0.034114961552744377 0.23516115760169301 0 0.017852612557627559 0.19656860209324539 0 0.036931045214144441 0.19738193772184889 0 0.035370792182188207 0.216260201755786 0 0.01643925603633389 0.21561198758054059 0 0.017852612557627559 0.19656860209324539 0 0.035370792182188207 0.216260201755786 0 0.020197736684044801 0.2291273398277828 0 0.003893562275735573 0.2064819102401671 0 -0.0045317147067566524 0.21522543551468479 0 0.0038866256090455522 0.2239579318999283 0 0.003893562275735573 0.2064819102401671 0 -0.0012364494800765971 0.1960628175593882 0 0.01643925603633389 0.21561198758054059 0 -0.0012364494800765971 0.1960628175593882 0 0.01643925603633389 0.21561198758054059 0 0.003893562275735573 0.2064819102401671 0 0.020197736684044801 0.2291273398277828 0 0.01643925603633389 0.21561198758054059 0 0.003893562275735573 0.2064819102401671 0 -0.0012364494800765971 0.1960628175593882 0 0.01643925603633389 0.21561198758054059 0 0.017852612557627559 0.19656860209324539 0 -0.0012364494800765971 0.1960628175593882 0 0.00061104658230836653 0.17769045695541219 0 0.017852612557627559 0.19656860209324539 0 0.019359600384737739 0.17657282369350361 0 0.017852612557627559 0.19656860209324539 0 0.036931045214144441 0.19738193772184889 0 0.053915020648589329 0.181809847856817 0 0.036931045214144441 0.19738193772184889 0 0.062795137287949193 0.19833474639452611 0 0.036931045214144441 0.19738193772184889 0 0.054502490043551163 0.2181910517501941 0 0.062795137287949193 0.19833474639452611 0 0.036931045214144441 0.19738193772184889 0 0.054502490043551163 0.2181910517501941 0 0.036931045214144441 0.19738193772184889 0 0.054502490043551163 0.2181910517501941 0 0.035370792182188207 0.216260201755786 0 0.054502490043551163 0.2181910517501941 0 0.035370792182188207 0.216260201755786 0 0.034114961552744377 0.23516115760169301 0 0.054502490043551163 0.2181910517501941 0 0.055174909047777811 0.2396291133956362 0 0.034114961552744377 0.23516115760169301 0 0.054502490043551163 0.2181910517501941 0 0.055174909047777811 0.2396291133956362 0 0.072073934872957782 0.23900016577853919 0 0.055174909047777811 0.2396291133956362 0 0.034114961552744377 0.23516115760169301 0 0.051790667069154861 0.2547103276228454 0 0.055174909047777811 0.2396291133956362 0 0.051790667069154861 0.2547103276228454 0 0.063392491700480919 0.2510828642249095 0 0.034114961552744377 0.23516115760169301 0 0.036501911092354018 0.25177276941539839 0 0.051790667069154861 0.2547103276228454 0 0.034114961552744377 0.23516115760169301 0 0.051790667069154861 0.2547103276228454 0 0.072073934872957782 0.23900016577853919 0 0.093843955428218759 0.229542086103772 0 0.089645379702363526 0.25980927980688501 0 0.072073934872957782 0.23900016577853919 0 0.089645379702363526 0.25980927980688501 0 0.055174909047777811 0.2396291133956362 0 0.072073934872957782 0.23900016577853919 0 0.063392491700480919 0.2510828642249095 0 0.072073934872957782 0.23900016577853919 0 0.063392491700480919 0.2510828642249095 0 0.074261774750864804 0.25289133929391111 0 0.054502490043551163 0.2181910517501941 0 0.072073934872957782 0.23900016577853919 0 0.054502490043551163 0.2181910517501941 0 0.072073934872957782 0.23900016577853919 0 0.07691655231929137 0.22036312128655 0 0.072073934872957782 0.23900016577853919 0 0.07691655231929137 0.22036312128655 0 0.093843955428218759 0.229542086103772 0 0.084497559881492323 0.20266231069862009 0 0.1011551627426199 0.2154511434485995 0 0.093843955428218759 0.229542086103772 0 0.084497559881492323 0.20266231069862009 0 0.093843955428218759 0.229542086103772 0 0.07691655231929137 0.22036312128655 0 0.084497559881492323 0.20266231069862009 0 0.093843955428218759 0.229542086103772 0 0.07691655231929137 0.22036312128655 0 0.062795137287949193 0.19833474639452611 0 0.084497559881492323 0.20266231069862009 0 0.054502490043551163 0.2181910517501941 0 0.07691655231929137 0.22036312128655 0 0.062795137287949193 0.19833474639452611 0 0.062795137287949193 0.19833474639452611 0 0.084497559881492323 0.20266231069862009 0 0.075151164334765874 0.17578253529346821 0 0.084497559881492323 0.20266231069862009 0 0.075151164334765874 0.17578253529346821 0 0.084497559881492323 0.20266231069862009 0 0.10184565838461331 0.1924014028594688 0 0.093394980383096363 0.18307457459837531 0 0.084497559881492323 0.20266231069862009 0 0.10184565838461331 0.1924014028594688 0 0.10260278643249959 0.20376756124449391 0 0.10184565838461331 0.1924014028594688 0 0.1105875138732399 0.1994169567440035 0 0.10260278643249959 0.20376756124449391 0 0.10184565838461331 0.1924014028594688 0 0.1131184160342838 0.18994185980391479 0 0.1105875138732399 0.1994169567440035 0 0.10184565838461331 0.1924014028594688 0 0.1131184160342838 0.18994185980391479 0 0.1054525685194168 0.18020148819897211 0 0.1131184160342838 0.18994185980391479 0 0.1210814068145178 0.19423580856195369 0 0.1131184160342838 0.18994185980391479 0 0.1210814068145178 0.19423580856195369 0 0.1196286990311512 0.18236386641526309 0 0.1210814068145178 0.19423580856195369 0 0.11958782189190099 0.20227867846385961 0 0.13241563583181001 0.2003476577346209 0 0.1131184160342838 0.18994185980391479 0 0.1210814068145178 0.19423580856195369 0 0.11958782189190099 0.20227867846385961 0 0.1131184160342838 0.18994185980391479 0 0.11958782189190099 0.20227867846385961 0 0.1105875138732399 0.1994169567440035 0 0.11958782189190099 0.20227867846385961 0 0.1105875138732399 0.1994169567440035 0 0.11467542950451071 0.21015036581969679 0 0.11958782189190099 0.20227867846385961 0 0.11467542950451071 0.21015036581969679 0 0.12714211421566091 0.2115365522170618 0 0.11467542950451071 0.21015036581969679 0 0.1287590091161889 0.22454109023782651 0 0.12714211421566091 0.2115365522170618 0 0.11467542950451071 0.21015036581969679 0 0.1011551627426199 0.2154511434485995 0 0.1117838155087727 0.22779371718329239 0 0.084497559881492323 0.20266231069862009 0 0.10260278643249959 0.20376756124449391 0 0.1011551627426199 0.2154511434485995 0 0.1105875138732399 0.1994169567440035 0 0.11467542950451071 0.21015036581969679 0 0.10260278643249959 0.20376756124449391 0 0.11467542950451071 0.21015036581969679 0 0.10260278643249959 0.20376756124449391 0 0.1011551627426199 0.2154511434485995 0 0.1011551627426199 0.2154511434485995 0 0.093843955428218759 0.229542086103772 0 0.1117838155087727 0.22779371718329239 0 0.11467542950451071 0.21015036581969679 0 0.1117838155087727 0.22779371718329239 0 0.1287590091161889 0.22454109023782651 0 0.1117838155087727 0.22779371718329239 0 0.1287590091161889 0.22454109023782651 0 0.116065923487036 0.25155424759680489 0 0.093843955428218759 0.229542086103772 0 0.089645379702363526 0.25980927980688501 0 0.116065923487036 0.25155424759680489 0 0.093843955428218759 0.229542086103772 0 0.1117838155087727 0.22779371718329239 0 0.116065923487036 0.25155424759680489 0 0.085867858697711436 0.14453522140638461 0 0.070822549389301243 0.1380046816891726 0 0.082108764886198796 0.1605396281437739 0 0.085867858697711436 0.14453522140638461 0 0.082108764886198796 0.1605396281437739 0 0.098061838006449922 0.1524476624703702 0 0.085867858697711436 0.14453522140638461 0 0.084033960556429532 0.12884481400490949 0 0.098019367542785563 0.1407790739484335 0 0.085867858697711436 0.14453522140638461 0 0.084033960556429532 0.12884481400490949 0 0.070822549389301243 0.1380046816891726 0 0.071861500007931359 0.1232467005620789 0 0.059536333892403683 0.1154697352345713 0 0.070822549389301243 0.1380046816891726 0 0.059536333892403683 0.1154697352345713 0 0.070822549389301243 0.1380046816891726 0 0.056458373241313059 0.1220229844831647 0 0.070822549389301243 0.1380046816891726 0 0.065804768788039439 0.14890275988831639 0 0.071861500007931359 0.1232467005620789 0 0.084033960556429532 0.12884481400490949 0 0.070822549389301243 0.1380046816891726 0 0.070822549389301243 0.1380046816891726 0 0.082108764886198796 0.1605396281437739 0 0.070822549389301243 0.1380046816891726 0 0.065804768788039439 0.14890275988831639 0 0.082108764886198796 0.1605396281437739 0 0.056298621576963533 0.16595151756685289 0 0.065804768788039439 0.14890275988831639 0 0.075151164334765874 0.17578253529346821 0 0.065804768788039439 0.14890275988831639 0 0.075151164334765874 0.17578253529346821 0 0.082108764886198796 0.1605396281437739 0 0.065804768788039439 0.14890275988831639 0 0.075151164334765874 0.17578253529346821 0 0.053915020648589329 0.181809847856817 0 0.062795137287949193 0.19833474639452611 0 0.075151164334765874 0.17578253529346821 0 0.075151164334765874 0.17578253529346821 0 0.093394980383096363 0.18307457459837531 0 0.082108764886198796 0.1605396281437739 0 0.084497559881492323 0.20266231069862009 0 0.075151164334765874 0.17578253529346821 0 0.093394980383096363 0.18307457459837531 0 0.093394980383096363 0.18307457459837531 0 0.082108764886198796 0.1605396281437739 0 0.1017810834163356 0.16778327145988009 0 0.093394980383096363 0.18307457459837531 0 0.082108764886198796 0.1605396281437739 0 0.082108764886198796 0.1605396281437739 0 0.1017810834163356 0.16778327145988009 0 0.098061838006449922 0.1524476624703702 0 0.1017810834163356 0.16778327145988009 0 0.1094413004412432 0.1568441156191657 0 0.098061838006449922 0.1524476624703702 0 0.10184565838461331 0.1924014028594688 0 0.093394980383096363 0.18307457459837531 0 0.1054525685194168 0.18020148819897211 0 0.093394980383096363 0.18307457459837531 0 0.1017810834163356 0.16778327145988009 0 0.1054525685194168 0.18020148819897211 0 0.1017810834163356 0.16778327145988009 0 0.1054525685194168 0.18020148819897211 0 0.1143103312636523 0.17467474260035151 0 0.1131184160342838 0.18994185980391479 0 0.1132877880089454 0.18182979361660931 0 0.1196286990311512 0.18236386641526309 0 0.1131184160342838 0.18994185980391479 0 0.1054525685194168 0.18020148819897211 0 0.1132877880089454 0.18182979361660931 0 0.1054525685194168 0.18020148819897211 0 0.1132877880089454 0.18182979361660931 0 0.1143103312636523 0.17467474260035151 0 0.1132877880089454 0.18182979361660931 0 0.1143103312636523 0.17467474260035151 0 0.1196286990311512 0.18236386641526309 0 0.1143103312636523 0.17467474260035151 0 0.1229466648353691 0.17360959233997481 0 0.1196286990311512 0.18236386641526309 0 0.1229466648353691 0.17360959233997481 0 0.1196286990311512 0.18236386641526309 0 0.1315359285025598 0.17914174819028489 0 0.1210814068145178 0.19423580856195369 0 0.1196286990311512 0.18236386641526309 0 0.1315359285025598 0.17914174819028489 0 0.1017810834163356 0.16778327145988009 0 0.1143103312636523 0.17467474260035151 0 0.11826309888899959 0.1638296446882945 0 0.1017810834163356 0.16778327145988009 0 0.1094413004412432 0.1568441156191657 0 0.11826309888899959 0.1638296446882945 0 0.1094413004412432 0.1568441156191657 0 0.11826309888899959 0.1638296446882945 0 0.12116198843957229 0.15461983439099389 0 0.1143103312636523 0.17467474260035151 0 0.1229466648353691 0.17360959233997481 0 0.11826309888899959 0.1638296446882945 0 0.1229466648353691 0.17360959233997481 0 0.11826309888899959 0.1638296446882945 0 0.1286748755814317 0.16568949079043779 0 0.11826309888899959 0.1638296446882945 0 0.12116198843957229 0.15461983439099389 0 0.1286748755814317 0.16568949079043779 0 0.12116198843957229 0.15461983439099389 0 0.1235319134973574 0.14279740261083959 0 0.11069945258584669 0.14552439304262721 0 0.1094413004412432 0.1568441156191657 0 0.12116198843957229 0.15461983439099389 0 0.11069945258584669 0.14552439304262721 0 0.1094413004412432 0.1568441156191657 0 0.11069945258584669 0.14552439304262721 0 0.098061838006449922 0.1524476624703702 0 0.11069945258584669 0.14552439304262721 0 0.098019367542785563 0.1407790739484335 0 0.098061838006449922 0.1524476624703702 0 0.085867858697711436 0.14453522140638461 0 0.098019367542785563 0.1407790739484335 0 0.098061838006449922 0.1524476624703702 0 0.084033960556429532 0.12884481400490949 0 0.1117522404438802 0.12667258555115829 0 0.094862282777670462 0.1196438628042634 0 0.084033960556429532 0.12884481400490949 0 0.1117522404438802 0.12667258555115829 0 0.084033960556429532 0.12884481400490949 0 0.098019367542785563 0.1407790739484335 0 0.1117522404438802 0.12667258555115829 0 0.11069945258584669 0.14552439304262721 0 0.098019367542785563 0.1407790739484335 0 0.1117522404438802 0.12667258555115829 0 0.1235319134973574 0.14279740261083959 0 0.11069945258584669 0.14552439304262721 0 0.1117522404438802 0.12667258555115829 0 0.1235319134973574 0.14279740261083959 0 0.1117522404438802 0.12667258555115829 0 0.1338250830151082 0.13680555700437169 0 0.1117522404438802 0.12667258555115829 0 0.1338250830151082 0.13680555700437169 0 0.13947052033133081 0.1245003570974072 0 0.1117522404438802 0.12667258555115829 0 0.13947052033133081 0.1245003570974072 0 0.1338250830151082 0.13680555700437169 0 0.14773514824261011 0.13994704674368119 0 0.13947052033133081 0.1245003570974072 0 0.14773514824261011 0.13994704674368119 0 0.13947052033133081 0.1245003570974072 0 0.16718880021878149 0.12232812864365609 0 0.14773514824261011 0.13994704674368119 0 0.1492794596183103 0.15557552201751701 0 0.16307655427518189 0.1461583771030025 0 0.14773514824261011 0.13994704674368119 0 0.1492794596183103 0.15557552201751701 0 0.13636128964255501 0.15303395959459851 0 0.1235319134973574 0.14279740261083959 0 0.1338250830151082 0.13680555700437169 0 0.13636128964255501 0.15303395959459851 0 0.1338250830151082 0.13680555700437169 0 0.14773514824261011 0.13994704674368119 0 0.13636128964255501 0.15303395959459851 0 0.12116198843957229 0.15461983439099389 0 0.1235319134973574 0.14279740261083959 0 0.13636128964255501 0.15303395959459851 0 0.12116198843957229 0.15461983439099389 0 0.13636128964255501 0.15303395959459851 0 0.1286748755814317 0.16568949079043779 0 0.13636128964255501 0.15303395959459851 0 0.1286748755814317 0.16568949079043779 0 0.1402599975996246 0.1687496010839549 0 0.1286748755814317 0.16568949079043779 0 0.1402599975996246 0.1687496010839549 0 0.1315359285025598 0.17914174819028489 0 0.1210814068145178 0.19423580856195369 0 0.1315359285025598 0.17914174819028489 0 0.14172685770208041 0.18088834424850889 0 0.1229466648353691 0.17360959233997481 0 0.1286748755814317 0.16568949079043779 0 0.1315359285025598 0.17914174819028489 0 0.1402599975996246 0.1687496010839549 0 0.1315359285025598 0.17914174819028489 0 0.14172685770208041 0.18088834424850889 0 0.1315359285025598 0.17914174819028489 0 0.14172685770208041 0.18088834424850889 0 0.14172685770208041 0.18088834424850889 0 0.1589643083315804 0.1699886255623487 0 0.15664227980061579 0.1834446584897341 0 0.14172685770208041 0.18088834424850889 0 0.1589643083315804 0.1699886255623487 0 0.1402599975996246 0.1687496010839549 0 0.14172685770208041 0.18088834424850889 0 0.1589643083315804 0.1699886255623487 0 0.14172685770208041 0.18088834424850889 0 0.15664227980061579 0.1834446584897341 0 0.14735069213281321 0.19092796682168489 0 0.14172685770208041 0.18088834424850889 0 0.15664227980061579 0.1834446584897341 0 0.1492794596183103 0.15557552201751701 0 0.1402599975996246 0.1687496010839549 0 0.1589643083315804 0.1699886255623487 0 0.1492794596183103 0.15557552201751701 0 0.13636128964255501 0.15303395959459851 0 0.1402599975996246 0.1687496010839549 0 0.1492794596183103 0.15557552201751701 0 0.1589643083315804 0.1699886255623487 0 0.16307655427518189 0.1461583771030025 0 0.1589643083315804 0.1699886255623487 0 0.1832181015668064 0.15465227861531949 0 0.16307655427518189 0.1461583771030025 0 0.1589643083315804 0.1699886255623487 0 0.16307655427518189 0.1461583771030025 0 0.1589643083315804 0.1699886255623487 0 0.1832181015668064 0.15465227861531949 0 0.1589643083315804 0.1699886255623487 0 0.15664227980061579 0.1834446584897341 0 0.17367876449497299 0.17356388092826039 0 0.15664227980061579 0.1834446584897341 0 0.17803712215301101 0.18711146321258301 0 0.15664227980061579 0.1834446584897341 0 0.17367876449497299 0.17356388092826039 0 0.17803712215301101 0.18711146321258301 0 0.1589643083315804 0.1699886255623487 0 0.15664227980061579 0.1834446584897341 0 0.17367876449497299 0.17356388092826039 0 0.17803712215301101 0.18711146321258301 0 0.1915320106228488 0.17262237876131631 0 0.1589643083315804 0.1699886255623487 0 0.17367876449497299 0.17356388092826039 0 0.1832181015668064 0.15465227861531949 0 0.17367876449497299 0.17356388092826039 0 0.1832181015668064 0.15465227861531949 0 0.1915320106228488 0.17262237876131631 0 0.1832181015668064 0.15465227861531949 0 0.18154761934540289 0.13534417850528041 0 0.16307655427518189 0.1461583771030025 0 0.18154761934540289 0.13534417850528041 0 0.19370351113240411 0.1202502215829211 0 0.16718880021878149 0.12232812864365609 0 0.16307655427518189 0.1461583771030025 0 0.16718880021878149 0.12232812864365609 0 0.14773514824261011 0.13994704674368119 0 0.16307655427518189 0.1461583771030025 0 0.16718880021878149 0.12232812864365609 0 0.18154761934540289 0.13534417850528041 0 0.16307655427518189 0.1461583771030025 0 0.16718880021878149 0.12232812864365609 0 0.14248646727170791 0.24329921538672239 0 0.16890701105638031 0.23504418317664161 0 0.14248646727170791 0.24329921538672239 0 0.116065923487036 0.25155424759680489 0 0.14248646727170791 0.24329921538672239 0 0.1287590091161889 0.22454109023782651 0 0.116065923487036 0.25155424759680489 0 0.14248646727170791 0.24329921538672239 0 0.1287590091161889 0.22454109023782651 0 0.14216045677169509 0.2226427774354276 0 0.1287590091161889 0.22454109023782651 0 0.14216045677169509 0.2226427774354276 0 0.13903299807830019 0.21154409335764149 0 0.14248646727170791 0.24329921538672239 0 0.14216045677169509 0.2226427774354276 0 0.16890701105638031 0.23504418317664161 0 0.14216045677169509 0.2226427774354276 0 0.1513137794066001 0.21432303737238931 0 0.16890701105638031 0.23504418317664161 0 0.15183105921464751 0.210852851725322 0 0.13241563583181001 0.2003476577346209 0 0.15183105921464751 0.210852851725322 0 0.13903299807830019 0.21154409335764149 0 0.13241563583181001 0.2003476577346209 0 0.1513137794066001 0.21432303737238931 0 0.15183105921464751 0.210852851725322 0 0.14522842943996589 0.21534193400985699 0 0.1513137794066001 0.21432303737238931 0 0.15183105921464751 0.210852851725322 0 0.15183105921464751 0.210852851725322 0 0.14522842943996589 0.21534193400985699 0 0.13903299807830019 0.21154409335764149 0 0.14216045677169509 0.2226427774354276 0 0.1513137794066001 0.21432303737238931 0 0.14522842943996589 0.21534193400985699 0 0.14216045677169509 0.2226427774354276 0 0.14522842943996589 0.21534193400985699 0 0.13903299807830019 0.21154409335764149 0 0.1287590091161889 0.22454109023782651 0 0.13903299807830019 0.21154409335764149 0 0.12714211421566091 0.2115365522170618 0 0.11958782189190099 0.20227867846385961 0 0.12714211421566091 0.2115365522170618 0 0.13241563583181001 0.2003476577346209 0 0.13903299807830019 0.21154409335764149 0 0.12714211421566091 0.2115365522170618 0 0.13241563583181001 0.2003476577346209 0 0.1210814068145178 0.19423580856195369 0 0.13241563583181001 0.2003476577346209 0 0.13808072668616231 0.19149491569441959 0 0.1210814068145178 0.19423580856195369 0 0.14172685770208041 0.18088834424850889 0 0.13808072668616231 0.19149491569441959 0 0.1210814068145178 0.19423580856195369 0 0.14172685770208041 0.18088834424850889 0 0.1210814068145178 0.19423580856195369 0 0.13241563583181001 0.2003476577346209 0 0.15664227980061579 0.1834446584897341 0 0.15183105921464751 0.210852851725322 0 0.14735069213281321 0.19092796682168489 0 0.14172685770208041 0.18088834424850889 0 0.13808072668616231 0.19149491569441959 0 0.14735069213281321 0.19092796682168489 0 0.15183105921464751 0.210852851725322 0 0.13808072668616231 0.19149491569441959 0 0.14735069213281321 0.19092796682168489 0 0.15664227980061579 0.1834446584897341 0 0.15183105921464751 0.210852851725322 0 0.15183105921464751 0.210852851725322 0 0.13241563583181001 0.2003476577346209 0 0.13808072668616231 0.19149491569441959 0 0.15183105921464751 0.210852851725322 0 0.13808072668616231 0.19149491569441959 0 0.15664227980061579 0.1834446584897341 0 0.17803712215301101 0.18711146321258301 0 0.17078007948547791 0.20461318166966591 0 0.15664227980061579 0.1834446584897341 0 0.15183105921464751 0.210852851725322 0 0.17078007948547791 0.20461318166966591 0 0.17803712215301101 0.18711146321258301 0 0.18699821765939811 0.20575379358823331 0 0.17078007948547791 0.20461318166966591 0 0.18699821765939811 0.20575379358823331 0 0.18150256540618689 0.21619068467845909 0 0.17078007948547791 0.20461318166966591 0 0.18150256540618689 0.21619068467845909 0 0.17078007948547791 0.20461318166966591 0 0.1696832039875637 0.2204437538389574 0 0.15183105921464751 0.210852851725322 0 0.1696832039875637 0.2204437538389574 0 0.15183105921464751 0.210852851725322 0 0.17078007948547791 0.20461318166966591 0 0.1696832039875637 0.2204437538389574 0 0.15183105921464751 0.210852851725322 0 0.16890701105638031 0.23504418317664161 0 0.15183105921464751 0.210852851725322 0 0.1696832039875637 0.2204437538389574 0 0.16890701105638031 0.23504418317664161 0 0.1513137794066001 0.21432303737238931 0 0.15183105921464751 0.210852851725322 0 0.16890701105638031 0.23504418317664161 0 0.1696832039875637 0.2204437538389574 0 0.1730962958839812 0.23373525170759399 0 0.16890701105638031 0.23504418317664161 0 0.18150256540618689 0.21619068467845909 0 0.1696832039875637 0.2204437538389574 0 0.1874551123034256 0.23002704556275291 0 0.1696832039875637 0.2204437538389574 0 0.1874551123034256 0.23002704556275291 0 0.1730962958839812 0.23373525170759399 0 0.1696832039875637 0.2204437538389574 0 0.1874551123034256 0.23002704556275291 0 0.16890701105638031 0.23504418317664161 0 0.18564289691528729 0.25868749876629671 0 0.1821848497420967 0.24129823675235251 0 0.16890701105638031 0.23504418317664161 0 0.18564289691528729 0.25868749876629671 0 0.1730962958839812 0.23373525170759399 0 0.1821848497420967 0.24129823675235251 0 0.16890701105638031 0.23504418317664161 0 0.1874551123034256 0.23002704556275291 0 0.1730962958839812 0.23373525170759399 0 0.1821848497420967 0.24129823675235251 0 0.14248646727170791 0.24329921538672239 0 0.16890701105638031 0.23504418317664161 0 0.1631161995596529 0.25657386530356069 0 0.1730962958839812 0.23373525170759399 0 0.16890701105638031 0.23504418317664161 0 0.2052270206192876 0.23961033728654851 0 0.2245441737887168 0.23093760545441711 0 0.21458810326103989 0.25029177234766842 0 0.2052270206192876 0.23961033728654851 0 0.2050239072751949 0.2492833193895482 0 0.21458810326103989 0.25029177234766842 0 0.2052270206192876 0.23961033728654851 0 0.2050239072751949 0.2492833193895482 0 0.1956251304139873 0.24830732682566101 0 0.1874551123034256 0.23002704556275291 0 0.1821848497420967 0.24129823675235251 0 0.1956251304139873 0.24830732682566101 0 0.1874551123034256 0.23002704556275291 0 0.2052270206192876 0.23961033728654851 0 0.1821848497420967 0.24129823675235251 0 0.1956251304139873 0.24830732682566101 0 0.18564289691528729 0.25868749876629671 0 0.1874551123034256 0.23002704556275291 0 0.2052270206192876 0.23961033728654851 0 0.1956251304139873 0.24830732682566101 0 0.1874551123034256 0.23002704556275291 0 0.2052270206192876 0.23961033728654851 0 0.20110338325899621 0.22697869990708769 0 0.18150256540618689 0.21619068467845909 0 0.1874551123034256 0.23002704556275291 0 0.19422843088031849 0.2167901493339745 0 0.1874551123034256 0.23002704556275291 0 0.20110338325899621 0.22697869990708769 0 0.19422843088031849 0.2167901493339745 0 0.20110338325899621 0.22697869990708769 0 0.2086865974780466 0.21738525977654841 0 0.19422843088031849 0.2167901493339745 0 0.2052270206192876 0.23961033728654851 0 0.21155197229915221 0.22775520817690251 0 0.2245441737887168 0.23093760545441711 0 0.20110338325899621 0.22697869990708769 0 0.21155197229915221 0.22775520817690251 0 0.2086865974780466 0.21738525977654841 0 0.2052270206192876 0.23961033728654851 0 0.20110338325899621 0.22697869990708769 0 0.21155197229915221 0.22775520817690251 0 0.21155197229915221 0.22775520817690251 0 0.2086865974780466 0.21738525977654841 0 0.22156171208109349 0.2232889965660497 0 0.211417792929007 0.20448623071467029 0 0.2086865974780466 0.21738525977654841 0 0.22411523440486891 0.2128525325182862 0 0.2086865974780466 0.21738525977654841 0 0.22411523440486891 0.2128525325182862 0 0.22156171208109349 0.2232889965660497 0 0.211417792929007 0.20448623071467029 0 0.2086865974780466 0.21738525977654841 0 0.19996516513116139 0.20542151256053021 0 0.2086865974780466 0.21738525977654841 0 0.19422843088031849 0.2167901493339745 0 0.19996516513116139 0.20542151256053021 0 0.18699821765939811 0.20575379358823331 0 0.18150256540618689 0.21619068467845909 0 0.19422843088031849 0.2167901493339745 0 0.18699821765939811 0.20575379358823331 0 0.19422843088031849 0.2167901493339745 0 0.19996516513116139 0.20542151256053021 0 0.18699821765939811 0.20575379358823331 0 0.19996516513116139 0.20542151256053021 0 0.19943196450540629 0.19077826793543179 0 0.17803712215301101 0.18711146321258301 0 0.19943196450540629 0.19077826793543179 0 0.17803712215301101 0.18711146321258301 0 0.18699821765939811 0.20575379358823331 0 0.19943196450540629 0.19077826793543179 0 0.211417792929007 0.20448623071467029 0 0.19943196450540629 0.19077826793543179 0 0.22082680685780151 0.19444507265828059 0 0.19943196450540629 0.19077826793543179 0 0.22082680685780151 0.19444507265828059 0 0.211417792929007 0.20448623071467029 0 0.19996516513116139 0.20542151256053021 0 0.19943196450540629 0.19077826793543179 0 0.22082680685780151 0.19444507265828059 0 0.2418323282778008 0.1922485172988235 0 0.23200417938957321 0.20455559625434991 0 0.22082680685780151 0.19444507265828059 0 0.2418323282778008 0.1922485172988235 0 0.2298041727050075 0.1787595393801808 0 0.2418323282778008 0.1922485172988235 0 0.24124234801782149 0.21867626254200909 0 0.2418323282778008 0.1922485172988235 0 0.24124234801782149 0.21867626254200909 0 0.25471258750952741 0.20148162901819469 0 0.2418323282778008 0.1922485172988235 0 0.24124234801782149 0.21867626254200909 0 0.23200417938957321 0.20455559625434991 0 0.24124234801782149 0.21867626254200909 0 0.25357276657721323 0.21641202867955539 0 0.25471258750952741 0.20148162901819469 0 0.24124234801782149 0.21867626254200909 0 0.22411523440486891 0.2128525325182862 0 0.2303270751280653 0.22194856436908961 0 0.211417792929007 0.20448623071467029 0 0.22082680685780151 0.19444507265828059 0 0.22411523440486891 0.2128525325182862 0 0.22082680685780151 0.19444507265828059 0 0.23200417938957321 0.20455559625434991 0 0.22411523440486891 0.2128525325182862 0 0.24124234801782149 0.21867626254200909 0 0.23200417938957321 0.20455559625434991 0 0.22411523440486891 0.2128525325182862 0 0.22411523440486891 0.2128525325182862 0 0.22156171208109349 0.2232889965660497 0 0.2303270751280653 0.22194856436908961 0 0.22156171208109349 0.2232889965660497 0 0.2245441737887168 0.23093760545441711 0 0.2301452193877111 0.22885480910105491 0 0.21155197229915221 0.22775520817690251 0 0.22156171208109349 0.2232889965660497 0 0.2245441737887168 0.23093760545441711 0 0.2301452193877111 0.22885480910105491 0 0.23408043491912681 0.23335190051361199 0 0.23787356880598759 0.22384871304106421 0 0.2301452193877111 0.22885480910105491 0 0.23408043491912681 0.23335190051361199 0 0.2258394828391487 0.23585902185418811 0 0.2245441737887168 0.23093760545441711 0 0.2301452193877111 0.22885480910105491 0 0.2258394828391487 0.23585902185418811 0 0.2301452193877111 0.22885480910105491 0 0.2303270751280653 0.22194856436908961 0 0.23787356880598759 0.22384871304106421 0 0.22156171208109349 0.2232889965660497 0 0.2301452193877111 0.22885480910105491 0 0.2303270751280653 0.22194856436908961 0 0.24124234801782149 0.21867626254200909 0 0.2303270751280653 0.22194856436908961 0 0.23787356880598759 0.22384871304106421 0 0.24124234801782149 0.21867626254200909 0 0.23787356880598759 0.22384871304106421 0 0.25357276657721323 0.21641202867955539 0 0.23408043491912681 0.23335190051361199 0 0.24868260911088891 0.2303107595792985 0 0.25357276657721323 0.21641202867955539 0 0.23408043491912681 0.23335190051361199 0 0.23787356880598759 0.22384871304106421 0 0.25357276657721323 0.21641202867955539 0 0.23408043491912681 0.23335190051361199 0 0.25357276657721323 0.21641202867955539 0 0.24868260911088891 0.2303107595792985 0 0.2392512687495113 0.23539683186585869 0 0.2471090749199483 0.2357199094212839 0 0.23408043491912681 0.23335190051361199 0 0.24868260911088891 0.2303107595792985 0 0.2392512687495113 0.23539683186585869 0 0.23408043491912681 0.23335190051361199 0 0.2356673672060029 0.23553231024254659 0 0.23369101455560959 0.23545012385447089 0 0.2356673672060029 0.23553231024254659 0 0.23652425047500741 0.24096462129343871 0 0.23369101455560959 0.23545012385447089 0 0.23652425047500741 0.24096462129343871 0 0.2392512687495113 0.23539683186585869 0 0.24523436150048811 0.24199469982198529 0 0.2356673672060029 0.23553231024254659 0 0.23652425047500741 0.24096462129343871 0 0.2392512687495113 0.23539683186585869 0 0.23408043491912681 0.23335190051361199 0 0.2356673672060029 0.23553231024254659 0 0.2392512687495113 0.23539683186585869 0 0.24523436150048811 0.24199469982198529 0 0.2471090749199483 0.2357199094212839 0 0.25452501640087027 0.2374112721999547 0 0.2392512687495113 0.23539683186585869 0 0.24523436150048811 0.24199469982198529 0 0.2471090749199483 0.2357199094212839 0 0.24523436150048811 0.24199469982198529 0 0.23995652529561701 0.25039133628829258 0 0.25404003316197471 0.25208422786308371 0 0.23652425047500741 0.24096462129343871 0 0.24523436150048811 0.24199469982198529 0 0.23995652529561701 0.25039133628829258 0 0.23652425047500741 0.24096462129343871 0 0.23169913173193779 0.25404958449575432 0 0.23995652529561701 0.25039133628829258 0 0.23369101455560959 0.23545012385447089 0 0.2170338530129477 0.25958452376210089 0 0.21458810326103989 0.25029177234766842 0 0.23408043491912681 0.23335190051361199 0 0.23369101455560959 0.23545012385447089 0 0.21458810326103989 0.25029177234766842 0 0.23408043491912681 0.23335190051361199 0 0.21458810326103989 0.25029177234766842 0 0.2245441737887168 0.23093760545441711 0 0.21458810326103989 0.25029177234766842 0 0.23408043491912681 0.23335190051361199 0 0.2258394828391487 0.23585902185418811 0 0.21458810326103989 0.25029177234766842 0 0.23369101455560959 0.23545012385447089 0 0.2170338530129477 0.25958452376210089 0 0.23169913173193779 0.25404958449575432 0 0.23652425047500741 0.24096462129343871 0 0.23369101455560959 0.23545012385447089 0 0.23169913173193779 0.25404958449575432 0 0.23369101455560959 0.23545012385447089 0 0.2170338530129477 0.25958452376210089 0 0.2245441737887168 0.23093760545441711 0 0.2258394828391487 0.23585902185418811 0 0.21458810326103989 0.25029177234766842 0 0.2074718948020329 0.13931593166829101 0 0.2035930282546865 0.1573108976369578 0 0.22801201431925219 0.15227861461809999 0 0.2074718948020329 0.13931593166829101 0 0.22815060196587239 0.13250420183309389 0 0.2202182220460269 0.1181723145221887 0 0.2074718948020329 0.13931593166829101 0 0.2202182220460269 0.1181723145221887 0 0.19370351113240411 0.1202502215829211 0 0.18154761934540289 0.13534417850528041 0 0.2074718948020329 0.13931593166829101 0 0.19370351113240411 0.1202502215829211 0 0.1832181015668064 0.15465227861531949 0 0.2074718948020329 0.13931593166829101 0 0.1832181015668064 0.15465227861531949 0 0.18154761934540289 0.13534417850528041 0 0.2074718948020329 0.13931593166829101 0 0.1832181015668064 0.15465227861531949 0 0.2074718948020329 0.13931593166829101 0 0.2035930282546865 0.1573108976369578 0 0.1832181015668064 0.15465227861531949 0 0.1915320106228488 0.17262237876131631 0 0.2035930282546865 0.1573108976369578 0 0.1915320106228488 0.17262237876131631 0 0.21309098299550949 0.1707274381193544 0 0.2035930282546865 0.1573108976369578 0 0.19943196450540629 0.19077826793543179 0 0.1915320106228488 0.17262237876131631 0 0.21309098299550949 0.1707274381193544 0 0.17803712215301101 0.18711146321258301 0 0.19943196450540629 0.19077826793543179 0 0.1915320106228488 0.17262237876131631 0 0.19943196450540629 0.19077826793543179 0 0.22082680685780151 0.19444507265828059 0 0.21309098299550949 0.1707274381193544 0 0.21309098299550949 0.1707274381193544 0 0.2035930282546865 0.1573108976369578 0 0.22801201431925219 0.15227861461809999 0 0.2298041727050075 0.1787595393801808 0 0.2424223085377801 0.16582077205563811 0 0.22801201431925219 0.15227861461809999 0 0.21309098299550949 0.1707274381193544 0 0.2298041727050075 0.1787595393801808 0 0.22801201431925219 0.15227861461809999 0 0.22082680685780151 0.19444507265828059 0 0.21309098299550949 0.1707274381193544 0 0.2298041727050075 0.1787595393801808 0 0.2418323282778008 0.1922485172988235 0 0.2424223085377801 0.16582077205563811 0 0.2418323282778008 0.1922485172988235 0 0.2424223085377801 0.16582077205563811 0 0.26032431562704572 0.18342712708893841 0 0.2418323282778008 0.1922485172988235 0 0.2298041727050075 0.1787595393801808 0 0.2424223085377801 0.16582077205563811 0 0.2424223085377801 0.16582077205563811 0 0.24301228879775941 0.13939302681245261 0 0.2424223085377801 0.16582077205563811 0 0.24301228879775941 0.13939302681245261 0 0.25486404381895789 0.1523024957907583 0 0.22801201431925219 0.15227861461809999 0 0.23648687609860089 0.13476882232929049 0 0.24301228879775941 0.13939302681245261 0 0.2424223085377801 0.16582077205563811 0 0.22801201431925219 0.15227861461809999 0 0.24301228879775941 0.13939302681245261 0 0.2074718948020329 0.13931593166829101 0 0.22801201431925219 0.15227861461809999 0 0.22815060196587239 0.13250420183309389 0 0.22815060196587239 0.13250420183309389 0 0.24420216851797599 0.1292372680552665 0 0.2202182220460269 0.1181723145221887 0 0.22801201431925219 0.15227861461809999 0 0.22815060196587239 0.13250420183309389 0 0.23648687609860089 0.13476882232929049 0 0.22815060196587239 0.13250420183309389 0 0.23648687609860089 0.13476882232929049 0 0.24420216851797599 0.1292372680552665 0 0.23648687609860089 0.13476882232929049 0 0.24301228879775941 0.13939302681245261 0 0.24420216851797599 0.1292372680552665 0 0.24646482385440791 0.1109165710353929 0 0.23770217468454991 0.11680213067385049 0 0.255186127323073 0.11543194682551421 0 0.24420216851797599 0.1292372680552665 0 0.23770217468454991 0.11680213067385049 0 0.255186127323073 0.11543194682551421 0 0.23770217468454991 0.11680213067385049 0 0.255186127323073 0.11543194682551421 0 0.23770217468454991 0.11680213067385049 0 0.24055722746134861 0.1095612663226197 0 0.23538797832625211 0.10692464088038291 0 0.24646482385440791 0.1109165710353929 0 0.23770217468454991 0.11680213067385049 0 0.24055722746134861 0.1095612663226197 0 0.24174744587836799 0.1033548466348798 0 0.22816008327650389 0.097918375238235045 0 0.24736227196270541 0.090270970101712061 0 0.22816008327650389 0.097918375238235045 0 0.24736227196270541 0.090270970101712061 0 0.24174744587836799 0.1033548466348798 0 0.24736227196270541 0.090270970101712061 0 0.25459763100830068 0.096141582858552177 0 0.24174744587836799 0.1033548466348798 0 0.25459763100830068 0.096141582858552177 0 0.24646482385440791 0.1109165710353929 0 0.24174744587836799 0.1033548466348798 0 0.25655208948606423 0.10927836717886751 0 0.24174744587836799 0.1033548466348798 0 0.25655208948606423 0.10927836717886751 0 0.24646482385440791 0.1109165710353929 0 0.24055722746134861 0.1095612663226197 0 0.24174744587836799 0.1033548466348798 0 0.23538797832625211 0.10692464088038291 0 0.24174744587836799 0.1033548466348798 0 0.22816008327650389 0.097918375238235045 0 0.24055722746134861 0.1095612663226197 0 0.23538797832625211 0.10692464088038291 0 0.24174744587836799 0.1033548466348798 0 0.23538797832625211 0.10692464088038291 0 0.24174744587836799 0.1033548466348798 0 0.24174744587836799 0.1033548466348798 0 0.22816008327650389 0.097918375238235045 0 0.23538797832625211 0.10692464088038291 0 0.22816008327650389 0.097918375238235045 0 0.22436085098549791 0.1097634104313145 0 0.23770217468454991 0.11680213067385049 0 0.2202182220460269 0.1181723145221887 0 0.23770217468454991 0.11680213067385049 0 0.2202182220460269 0.1181723145221887 0 0.22436085098549791 0.1097634104313145 0 0.24420216851797599 0.1292372680552665 0 0.23770217468454991 0.11680213067385049 0 0.2202182220460269 0.1181723145221887 0 0.24420216851797599 0.1292372680552665 0 0.2202182220460269 0.1181723145221887 0 0.23770217468454991 0.11680213067385049 0 0.23538797832625211 0.10692464088038291 0 0.22436085098549791 0.1097634104313145 0 0.2202182220460269 0.1181723145221887 0 0.20033579659415629 0.10899959084191641 0 0.19370351113240411 0.1202502215829211 0 0.2202182220460269 0.1181723145221887 0 0.20033579659415629 0.10899959084191641 0 0.2202182220460269 0.1181723145221887 0 0.19370351113240411 0.1202502215829211 0 0.2202182220460269 0.1181723145221887 0 0.22436085098549791 0.1097634104313145 0 0.20033579659415629 0.10899959084191641 0 0.22816008327650389 0.097918375238235045 0 0.22436085098549791 0.1097634104313145 0 0.20033579659415629 0.10899959084191641 0 0.22816008327650389 0.097918375238235045 0 0.20033579659415629 0.10899959084191641 0 0.2016134769563831 0.087296750559026068 0 0.22816008327650389 0.097918375238235045 0 0.20033579659415629 0.10899959084191641 0 0.20033579659415629 0.10899959084191641 0 0.18422746814952201 0.1154148446289336 0 0.1860496622757298 0.1024087067025775 0 0.20033579659415629 0.10899959084191641 0 0.2016134769563831 0.087296750559026068 0 0.1860496622757298 0.1024087067025775 0 0.20033579659415629 0.10899959084191641 0 0.1860496622757298 0.1024087067025775 0 0.20033579659415629 0.10899959084191641 0 0.19370351113240411 0.1202502215829211 0 0.18422746814952201 0.1154148446289336 0 0.20033579659415629 0.10899959084191641 0 0.18422746814952201 0.1154148446289336 0 0.19220101611619109 0.069455466931817506 0 0.2016134769563831 0.087296750559026068 0 0.22553753830923129 0.072562856517635971 0 0.19220101611619109 0.069455466931817506 0 0.22553753830923129 0.072562856517635971 0 0.20371280465575431 0.054854742933563613 0 0.19220101611619109 0.069455466931817506 0 0.2016134769563831 0.087296750559026068 0 0.17506687063626211 0.076675125879817507 0 0.2016134769563831 0.087296750559026068 0 0.17506687063626211 0.076675125879817507 0 0.2016134769563831 0.087296750559026068 0 0.1860496622757298 0.1024087067025775 0 0.17954517331912459 0.085943521096986275 0 0.22816008327650389 0.097918375238235045 0 0.2016134769563831 0.087296750559026068 0 0.22553753830923129 0.072562856517635971 0 0.22816008327650389 0.097918375238235045 0 0.2016134769563831 0.087296750559026068 0 0.22553753830923129 0.072562856517635971 0 0.20371280465575431 0.054854742933563613 0 0.22816008327650389 0.097918375238235045 0 0.22553753830923129 0.072562856517635971 0 0.24736227196270541 0.090270970101712061 0 0.22553753830923129 0.072562856517635971 0 0.24736227196270541 0.090270970101712061 0 0.22553753830923129 0.072562856517635971 0 0.24736227196270541 0.090270970101712061 0 0.24874122334595 0.07170785510379532 0 0.22553753830923129 0.072562856517635971 0 0.24874122334595 0.07170785510379532 0 0.24629062771517271 0.052820950830226497 0 0.24629062771517271 0.052820950830226497 0 0.22540450977275331 0.044226989078737088 0 0.24629062771517271 0.052820950830226497 0 0.2492733855269578 0.041579555173777823 0 0.22540450977275331 0.044226989078737088 0 0.2492733855269578 0.041579555173777823 0 0.23050941707716249 0.025621187905106171 0 0.2492733855269578 0.041579555173777823 0 0.22540450977275331 0.044226989078737088 0 0.23050941707716249 0.025621187905106171 0 0.22540450977275331 0.044226989078737088 0 0.23050941707716249 0.025621187905106171 0 0.21805144048265651 0.031797176764528597 0 0.22553753830923129 0.072562856517635971 0 0.24629062771517271 0.052820950830226497 0 0.22540450977275331 0.044226989078737088 0 0.23790413247208811 0.0091049515404343275 0 0.25322369798355371 0.0032948183560677501 0 0.2464198669495459 -0.012097030270161889 0 0.23790413247208811 0.0091049515404343275 0 0.25442723867738032 0.016379625870619269 0 0.25322369798355371 0.0032948183560677501 0 0.2492733855269578 0.041579555173777823 0 0.24818833723327199 0.02644705719899533 0 0.23050941707716249 0.025621187905106171 0 0.23790413247208811 0.0091049515404343275 0 0.24818833723327199 0.02644705719899533 0 0.25442723867738032 0.016379625870619269 0 0.23790413247208811 0.0091049515404343275 0 0.24818833723327199 0.02644705719899533 0 0.23050941707716249 0.025621187905106171 0 0.23050941707716249 0.025621187905106171 0 0.2117734432503762 0.02170750274702346 0 0.21805144048265651 0.031797176764528597 0 0.23050941707716249 0.025621187905106171 0 0.21174544862736719 0.0096628206364345465 0 0.23050941707716249 0.025621187905106171 0 0.22518260227175371 0.0072623370788317187 0 0.21174544862736719 0.0096628206364345465 0 0.23790413247208811 0.0091049515404343275 0 0.22518260227175371 0.0072623370788317187 0 0.2300866381754704 -0.0072438550720441714 0 0.23790413247208811 0.0091049515404343275 0 0.23050941707716249 0.025621187905106171 0 0.22518260227175371 0.0072623370788317187 0 0.21174544862736719 0.0096628206364345465 0 0.2117734432503762 0.02170750274702346 0 0.20589386385567829 -0.0063134785331596111 0 0.2117734432503762 0.02170750274702346 0 0.19985428483697371 0.01027601627170664 0 0.20589386385567829 -0.0063134785331596111 0 0.2117734432503762 0.02170750274702346 0 0.20589386385567829 -0.0063134785331596111 0 0.22518260227175371 0.0072623370788317187 0 0.21174544862736719 0.0096628206364345465 0 0.2185782736923042 -0.0038367730406402641 0 0.23050941707716249 0.025621187905106171 0 0.21174544862736719 0.0096628206364345465 0 0.2117734432503762 0.02170750274702346 0 0.2117734432503762 0.02170750274702346 0 0.19994459845139961 0.023663902980434019 0 0.19985428483697371 0.01027601627170664 0 0.2117734432503762 0.02170750274702346 0 0.21805144048265651 0.031797176764528597 0 0.20451839183033399 0.035633027327247678 0 0.2117734432503762 0.02170750274702346 0 0.19994459845139961 0.023663902980434019 0 0.20451839183033399 0.035633027327247678 0 0.19994459845139961 0.023663902980434019 0 0.20451839183033399 0.035633027327247678 0 0.1836322738879155 0.027039065575756291 0 0.19994459845139961 0.023663902980434019 0 0.19985428483697371 0.01027601627170664 0 0.1836322738879155 0.027039065575756291 0 0.19985428483697371 0.01027601627170664 0 0.20589386385567829 -0.0063134785331596111 0 0.18863989258252481 -0.001979820774580698 0 0.19985428483697371 0.01027601627170664 0 0.1836322738879155 0.027039065575756291 0 0.18863989258252481 -0.001979820774580698 0 0.22553753830923129 0.072562856517635971 0 0.22540450977275331 0.044226989078737088 0 0.20371280465575431 0.054854742933563613 0 0.22540450977275331 0.044226989078737088 0 0.20451839183033399 0.035633027327247678 0 0.22540450977275331 0.044226989078737088 0 0.21805144048265651 0.031797176764528597 0 0.20451839183033399 0.035633027327247678 0 0.22540450977275331 0.044226989078737088 0 0.20371280465575431 0.054854742933563613 0 0.20451839183033399 0.035633027327247678 0 0.20451839183033399 0.035633027327247678 0 0.1818880710022803 0.03714662934948755 0 0.1836322738879155 0.027039065575756291 0 0.20371280465575431 0.054854742933563613 0 0.20451839183033399 0.035633027327247678 0 0.1818880710022803 0.03714662934948755 0 0.20371280465575431 0.054854742933563613 0 0.1818880710022803 0.03714662934948755 0 0.20451839183033399 0.035633027327247678 0 0.1836322738879155 0.027039065575756291 0 0.20371280465575431 0.054854742933563613 0 0.17847747081927551 0.05691087761465332 0 0.1818880710022803 0.03714662934948755 0 0.19220101611619109 0.069455466931817506 0 0.20371280465575431 0.054854742933563613 0 0.17847747081927551 0.05691087761465332 0 0.17847747081927551 0.05691087761465332 0 0.1818880710022803 0.03714662934948755 0 0.17847747081927551 0.05691087761465332 0 0.1818880710022803 0.03714662934948755 0 0.1636569447874848 0.036789081642687432 0 0.1818880710022803 0.03714662934948755 0 0.1836322738879155 0.027039065575756291 0 0.1818880710022803 0.03714662934948755 0 0.1636569447874848 0.036789081642687432 0 0.1620242678869008 0.02102957209859084 0 0.17847747081927551 0.05691087761465332 0 0.1636569447874848 0.036789081642687432 0 0.15962551614652079 0.053115759904931073 0 0.17847747081927551 0.05691087761465332 0 0.15962551614652079 0.053115759904931073 0 0.16641746421004469 0.065589342706300277 0 0.15962551614652079 0.053115759904931073 0 0.15045482833334159 0.067212260357143019 0 0.16641746421004469 0.065589342706300277 0 0.1716695151525548 0.011722155214289249 0 0.17506184651935949 -0.0021247232161890161 0 0.18863989258252481 -0.001979820774580698 0 0.1836322738879155 0.027039065575756291 0 0.18863989258252481 -0.001979820774580698 0 0.1836322738879155 0.027039065575756291 0 0.1716695151525548 0.011722155214289249 0 0.18863989258252481 -0.001979820774580698 0 0.1818880710022803 0.03714662934948755 0 0.1730573255808272 0.02268781650565178 0 0.1620242678869008 0.02102957209859084 0 0.1818880710022803 0.03714662934948755 0 0.1620242678869008 0.02102957209859084 0 0.1730573255808272 0.02268781650565178 0 0.1836322738879155 0.027039065575756291 0 0.1716695151525548 0.011722155214289249 0 0.1730573255808272 0.02268781650565178 0 0.1836322738879155 0.027039065575756291 0 0.1818880710022803 0.03714662934948755 0 0.1730573255808272 0.02268781650565178 0 0.1836322738879155 0.027039065575756291 0 0.1636569447874848 0.036789081642687432 0 0.1620242678869008 0.02102957209859084 0 0.15032019737810451 0.03113296745297477 0 0.1730573255808272 0.02268781650565178 0 0.1620242678869008 0.02102957209859084 0 0.1716695151525548 0.011722155214289249 0 0.1620242678869008 0.02102957209859084 0 0.1716695151525548 0.011722155214289249 0 0.15871689523486121 0.010399441389301141 0 0.1716695151525548 0.011722155214289249 0 0.15871689523486121 0.010399441389301141 0 0.1628037813635097 0.0015330777282007481 0 0.15871689523486121 0.010399441389301141 0 0.1628037813635097 0.0015330777282007481 0 0.15453230216132671 0.0032055715019124438 0 0.1716695151525548 0.011722155214289249 0 0.1628037813635097 0.0015330777282007481 0 0.17506184651935949 -0.0021247232161890161 0 0.1620242678869008 0.02102957209859084 0 0.14216046477152491 0.0049125148476896544 0 0.15871689523486121 0.010399441389301141 0 0.14216046477152491 0.0049125148476896544 0 0.15453230216132671 0.0032055715019124438 0 0.14216046477152491 0.0049125148476896544 0 0.15453230216132671 0.0032055715019124438 0 0.15849764294065671 -0.0060544572746906826 0 0.1620242678869008 0.02102957209859084 0 0.15871689523486121 0.010399441389301141 0 0.14216046477152491 0.0049125148476896544 0 0.1620242678869008 0.02102957209859084 0 0.14216046477152491 0.0049125148476896544 0 0.1432298655490542 0.02239521632663263 0 0.1620242678869008 0.02102957209859084 0 0.1432298655490542 0.02239521632663263 0 0.15032019737810451 0.03113296745297477 0 0.1432298655490542 0.02239521632663263 0 0.15032019737810451 0.03113296745297477 0 0.1366405524080008 0.032741533152345258 0 0.1432298655490542 0.02239521632663263 0 0.12659142849079691 0.028091664155532971 0 0.1366405524080008 0.032741533152345258 0 0.14216046477152491 0.0049125148476896544 0 0.1432298655490542 0.02239521632663263 0 0.12659142849079691 0.028091664155532971 0 0.14216046477152491 0.0049125148476896544 0 0.12659142849079691 0.028091664155532971 0 0.1323442420055404 0.014884056975098 0 0.14216046477152491 0.0049125148476896544 0 0.12659142849079691 0.028091664155532971 0 0.11882011836095251 0.0065886106746579649 0 0.12659142849079691 0.028091664155532971 0 0.1323442420055404 0.014884056975098 0 0.12659142849079691 0.028091664155532971 0 0.1366405524080008 0.032741533152345258 0 0.11882011836095251 0.0065886106746579649 0 0.1323442420055404 0.014884056975098 0 0.13735218555535891 0.001011181807127467 0 0.1323442420055404 0.014884056975098 0 0.13735218555535891 0.001011181807127467 0 0.14216046477152491 0.0049125148476896544 0 0.1323442420055404 0.014884056975098 0 0.13735218555535891 0.001011181807127467 0 0.14216046477152491 0.0049125148476896544 0 0.13735218555535891 0.001011181807127467 0 0.15962551614652079 0.053115759904931073 0 0.1452456698728295 0.044396077507560729 0 0.15045482833334159 0.067212260357143019 0 0.1452456698728295 0.044396077507560729 0 0.12683439495817461 0.052003073372435288 0 0.15045482833334159 0.067212260357143019 0 0.1636569447874848 0.036789081642687432 0 0.15032019737810451 0.03113296745297477 0 0.1452456698728295 0.044396077507560729 0 0.1636569447874848 0.036789081642687432 0 0.15962551614652079 0.053115759904931073 0 0.1452456698728295 0.044396077507560729 0 0.1636569447874848 0.036789081642687432 0 0.1452456698728295 0.044396077507560729 0 0.15032019737810451 0.03113296745297477 0 0.1452456698728295 0.044396077507560729 0 0.1366405524080008 0.032741533152345258 0 0.1452456698728295 0.044396077507560729 0 0.13015300311198849 0.040381385354086502 0 0.12683439495817461 0.052003073372435288 0 0.1452456698728295 0.044396077507560729 0 0.1366405524080008 0.032741533152345258 0 0.13015300311198849 0.040381385354086502 0 0.12659142849079691 0.028091664155532971 0 0.1366405524080008 0.032741533152345258 0 0.13015300311198849 0.040381385354086502 0 0.12683439495817461 0.052003073372435288 0 0.13134854049252651 0.064566646620811727 0 0.15045482833334159 0.067212260357143019 0 0.1452456698728295 0.044396077507560729 0 0.12683439495817461 0.052003073372435288 0 0.12683439495817461 0.052003073372435288 0 0.15045482833334159 0.067212260357143019 0 0.1213053233293625 0.063977455960140386 0 0.12683439495817461 0.052003073372435288 0 0.13134854049252651 0.064566646620811727 0 0.13134854049252651 0.064566646620811727 0 0.12679961534922851 0.075073796793526271 0 0.15045482833334159 0.067212260357143019 0 0.1213053233293625 0.063977455960140386 0 0.13134854049252651 0.064566646620811727 0 0.12679961534922851 0.075073796793526271 0 0.12679961534922851 0.075073796793526271 0 0.15045482833334159 0.067212260357143019 0 0.1492815716532653 0.085445809678383625 0 0.1185648575779607 0.095458187827811403 0 0.12679961534922851 0.075073796793526271 0 0.13332649773741079 0.089989738391902788 0 0.1492815716532653 0.085445809678383625 0 0.13332649773741079 0.089989738391902788 0 0.13865994636918871 0.10398115926788989 0 0.12679961534922851 0.075073796793526271 0 0.1492815716532653 0.085445809678383625 0 0.12679961534922851 0.075073796793526271 0 0.1492815716532653 0.085445809678383625 0 0.13332649773741079 0.089989738391902788 0 0.123281054128593 0.11724462113534739 0 0.1185648575779607 0.095458187827811403 0 0.13865994636918871 0.10398115926788989 0 0.1185648575779607 0.095458187827811403 0 0.13332649773741079 0.089989738391902788 0 0.13865994636918871 0.10398115926788989 0 0.123281054128593 0.11724462113534739 0 0.13865994636918871 0.10398115926788989 0 0.13947052033133081 0.1245003570974072 0 0.13947052033133081 0.1245003570974072 0 0.15026369300765779 0.1129544164764977 0 0.16718880021878149 0.12232812864365609 0 0.13947052033133081 0.1245003570974072 0 0.16718880021878149 0.12232812864365609 0 0.13865994636918871 0.10398115926788989 0 0.13947052033133081 0.1245003570974072 0 0.15026369300765779 0.1129544164764977 0 0.1492815716532653 0.085445809678383625 0 0.13865994636918871 0.10398115926788989 0 0.15573550511132991 0.1010080208970377 0 0.13865994636918871 0.10398115926788989 0 0.15026369300765779 0.1129544164764977 0 0.15573550511132991 0.1010080208970377 0 0.15573550511132991 0.1010080208970377 0 0.17176352795730221 0.095817822563241214 0 0.16718880021878149 0.12232812864365609 0 0.17176352795730221 0.095817822563241214 0 0.16718880021878149 0.12232812864365609 0 0.1492815716532653 0.085445809678383625 0 0.15573550511132991 0.1010080208970377 0 0.17176352795730221 0.095817822563241214 0 0.15026369300765779 0.1129544164764977 0 0.15573550511132991 0.1010080208970377 0 0.16718880021878149 0.12232812864365609 0 0.16718880021878149 0.12232812864365609 0 0.18422746814952201 0.1154148446289336 0 0.17176352795730221 0.095817822563241214 0 0.16718880021878149 0.12232812864365609 0 0.18422746814952201 0.1154148446289336 0 0.19370351113240411 0.1202502215829211 0 0.16718880021878149 0.12232812864365609 0 0.19370351113240411 0.1202502215829211 0 0.16718880021878149 0.12232812864365609 0 0.18422746814952201 0.1154148446289336 0 0.17176352795730221 0.095817822563241214 0 0.18422746814952201 0.1154148446289336 0 0.1860496622757298 0.1024087067025775 0 0.17176352795730221 0.095817822563241214 0 0.1860496622757298 0.1024087067025775 0 0.17954517331912459 0.085943521096986275 0 0.17176352795730221 0.095817822563241214 0 0.1860496622757298 0.1024087067025775 0 0.2016134769563831 0.087296750559026068 0 0.17954517331912459 0.085943521096986275 0 0.17506687063626211 0.076675125879817507 0 0.17176352795730221 0.095817822563241214 0 0.17407526170850959 0.082421447341849294 0 0.17176352795730221 0.095817822563241214 0 0.17954517331912459 0.085943521096986275 0 0.17407526170850959 0.082421447341849294 0 0.17954517331912459 0.085943521096986275 0 0.17407526170850959 0.082421447341849294 0 0.17506687063626211 0.076675125879817507 0 0.17407526170850959 0.082421447341849294 0 0.17506687063626211 0.076675125879817507 0 0.17954517331912459 0.085943521096986275 0 0.17407526170850959 0.082421447341849294 0 0.17847747081927551 0.05691087761465332 0 0.17506687063626211 0.076675125879817507 0 0.19220101611619109 0.069455466931817506 0 0.17847747081927551 0.05691087761465332 0 0.17506687063626211 0.076675125879817507 0 0.17847747081927551 0.05691087761465332 0 0.17506687063626211 0.076675125879817507 0 0.16641746421004469 0.065589342706300277 0 0.17407526170850959 0.082421447341849294 0 0.17506687063626211 0.076675125879817507 0 0.16846263511482451 0.074032689774956653 0 0.15045482833334159 0.067212260357143019 0 0.16846263511482451 0.074032689774956653 0 0.16641746421004469 0.065589342706300277 0 0.17506687063626211 0.076675125879817507 0 0.16846263511482451 0.074032689774956653 0 0.16641746421004469 0.065589342706300277 0 0.15045482833334159 0.067212260357143019 0 0.17407526170850959 0.082421447341849294 0 0.16846263511482451 0.074032689774956653 0 0.17506687063626211 0.076675125879817507 0 0.16846263511482451 0.074032689774956653 0 0.15045482833334159 0.067212260357143019 0 0.17407526170850959 0.082421447341849294 0 0.1492815716532653 0.085445809678383625 0 0.17176352795730221 0.095817822563241214 0 0.1492815716532653 0.085445809678383625 0 0.17176352795730221 0.095817822563241214 0 0.17407526170850959 0.082421447341849294 0 0.15045482833334159 0.067212260357143019 0 0.1492815716532653 0.085445809678383625 0 0.17407526170850959 0.082421447341849294 0 0.094789198081262169 0.47221984895451657 0 0.09870107108427445 0.5 0 0.1248616532684987 0.47476888169724352 0 0.09870107108427445 0.5 0 0.1248616532684987 0.47476888169724352 0 0.1287333349596296 0.50000000000000233 0 0.1248616532684987 0.47476888169724352 0 0.1154926134483955 0.45328817880533262 0 0.094789198081262169 0.47221984895451657 0 0.1248616532684987 0.47476888169724352 0 0.1154926134483955 0.45328817880533262 0 0.1248616532684987 0.47476888169724352 0 0.1205619018159948 0.44674810255646558 0 0.1248616532684987 0.47476888169724352 0 0.1154926134483955 0.45328817880533262 0 0.1205619018159948 0.44674810255646558 0 0.1154926134483955 0.45328817880533262 0 0.106123573628292 0.43180747591342172 0 0.1154926134483955 0.45328817880533262 0 0.1205619018159948 0.44674810255646558 0 0.106123573628292 0.43180747591342172 0 0.1154926134483955 0.45328817880533262 0 0.096722182691352548 0.44869154901932268 0 0.106123573628292 0.43180747591342172 0 0.094789198081262169 0.47221984895451657 0 0.1154926134483955 0.45328817880533262 0 0.096722182691352548 0.44869154901932268 0 0.094789198081262169 0.47221984895451657 0 0.077453222292990773 0.45016302493177879 0 0.067202034968243438 0.47028323083424428 0 0.094789198081262169 0.47221984895451657 0 0.096722182691352548 0.44869154901932268 0 0.077453222292990773 0.45016302493177879 0 0.096722182691352548 0.44869154901932268 0 0.077453222292990773 0.45016302493177879 0 0.085233479690329184 0.42595657570789891 0 0.077453222292990773 0.45016302493177879 0 0.085233479690329184 0.42595657570789891 0 0.077453222292990773 0.45016302493177879 0 0.055846149836862702 0.43889490050586683 0 0.065639666334966471 0.42409002317344818 0 0.077453222292990773 0.45016302493177879 0 0.067202034968243438 0.47028323083424428 0 0.051776939420019832 0.45519588853091181 0 0.094789198081262169 0.47221984895451657 0 0.067202034968243438 0.47028323083424428 0 0.068668807208919325 0.5 0 0.094789198081262169 0.47221984895451657 0 0.09870107108427445 0.5 0 0.068668807208919325 0.5 0 0.068668807208919325 0.5 0 0.043814234576468783 0.4752156274217324 0 0.038636543333564137 0.5 0 0.067202034968243438 0.47028323083424428 0 0.068668807208919325 0.5 0 0.043814234576468783 0.4752156274217324 0 0.038636543333564137 0.5 0 0.0095498935665802413 0.47810272379952351 0 0.0086042794582089632 0.5 0 0.043814234576468783 0.4752156274217324 0 0.038636543333564137 0.5 0 0.0095498935665802413 0.47810272379952351 0 0.043814234576468783 0.4752156274217324 0 0.0095498935665802413 0.47810272379952351 0 0.02936257191825143 0.45548825099001988 0 -0.0044763741368290672 0.43313315307665529 0 0.006403582431216831 0.45126676372832991 0 0.01131617767293759 0.43066417693356068 0 0.006403582431216831 0.45126676372832991 0 0.024585063983693121 0.43937755350337049 0 0.01131617767293759 0.43066417693356068 0 -0.0062093312902834459 0.46527566221073008 0 0.0095498935665802413 0.47810272379952351 0 0.006403582431216831 0.45126676372832991 0 0.0095498935665802413 0.47810272379952351 0 0.006403582431216831 0.45126676372832991 0 0.02936257191825143 0.45548825099001988 0 0.02936257191825143 0.45548825099001988 0 0.024585063983693121 0.43937755350337049 0 0.039439570502417587 0.44016889882154447 0 0.006403582431216831 0.45126676372832991 0 0.02936257191825143 0.45548825099001988 0 0.024585063983693121 0.43937755350337049 0 0.02936257191825143 0.45548825099001988 0 0.039439570502417587 0.44016889882154447 0 0.051776939420019832 0.45519588853091181 0 0.043814234576468783 0.4752156274217324 0 0.02936257191825143 0.45548825099001988 0 0.051776939420019832 0.45519588853091181 0 0.067202034968243438 0.47028323083424428 0 0.043814234576468783 0.4752156274217324 0 0.051776939420019832 0.45519588853091181 0 0.039439570502417587 0.44016889882154447 0 0.051776939420019832 0.45519588853091181 0 0.055846149836862702 0.43889490050586683 0 0.077453222292990773 0.45016302493177879 0 0.051776939420019832 0.45519588853091181 0 0.055846149836862702 0.43889490050586683 0 0.055846149836862702 0.43889490050586683 0 0.044352211855280779 0.42435697566478181 0 0.065639666334966471 0.42409002317344818 0 0.054179592762823331 0.4124556941646933 0 0.065774511826563423 0.40583773171119408 0 0.065639666334966471 0.42409002317344818 0 0.054179592762823331 0.4124556941646933 0 0.044352211855280779 0.42435697566478181 0 0.042551786202842029 0.40583695196884878 0 0.054179592762823331 0.4124556941646933 0 0.044352211855280779 0.42435697566478181 0 0.065639666334966471 0.42409002317344818 0 0.054179592762823331 0.4124556941646933 0 0.052579787594463898 0.40215678830519391 0 0.065774511826563423 0.40583773171119408 0 0.054179592762823331 0.4124556941646933 0 0.042551786202842029 0.40583695196884878 0 0.052579787594463898 0.40215678830519391 0 0.031615607723292562 0.41237007764590089 0 0.044352211855280779 0.42435697566478181 0 0.042551786202842029 0.40583695196884878 0 0.031615607723292562 0.41237007764590089 0 0.044352211855280779 0.42435697566478181 0 0.029348552931666359 0.42650056435783129 0 0.039439570502417587 0.44016889882154447 0 0.055846149836862702 0.43889490050586683 0 0.044352211855280779 0.42435697566478181 0 0.039439570502417587 0.44016889882154447 0 0.044352211855280779 0.42435697566478181 0 0.029348552931666359 0.42650056435783129 0 0.024585063983693121 0.43937755350337049 0 0.039439570502417587 0.44016889882154447 0 0.029348552931666359 0.42650056435783129 0 0.024585063983693121 0.43937755350337049 0 0.029348552931666359 0.42650056435783129 0 0.01131617767293759 0.43066417693356068 0 0.029348552931666359 0.42650056435783129 0 0.019479081626689841 0.41692126840220728 0 0.01131617767293759 0.43066417693356068 0 0.031615607723292562 0.41237007764590089 0 0.029348552931666359 0.42650056435783129 0 0.019479081626689841 0.41692126840220728 0 0.031615607723292562 0.41237007764590089 0 0.019479081626689841 0.41692126840220728 0 0.02210553341445062 0.40298972327242938 0 0.019479081626689841 0.41692126840220728 0 0.0046995574085186929 0.41194005205042061 0 0.02210553341445062 0.40298972327242938 0 0.019479081626689841 0.41692126840220728 0 0.0046995574085186929 0.41194005205042061 0 0.01131617767293759 0.43066417693356068 0 -0.0044763741368290672 0.43313315307665529 0 0.0046995574085186929 0.41194005205042061 0 0.01131617767293759 0.43066417693356068 0 -0.0068648610501423502 0.39382000907293813 0 0.0053185270157129726 0.37689571945341471 0 0.0079727676898529512 0.39395805239723503 0 0.0053185270157129726 0.37689571945341471 0 0.0079727676898529512 0.39395805239723503 0 0.017055050774382831 0.3783760363496293 0 0.0053185270157129726 0.37689571945341471 0 0.017055050774382831 0.3783760363496293 0 0.014905446519761849 0.37011919055753012 0 -0.0068648610501423502 0.39382000907293813 0 0.0046995574085186929 0.41194005205042061 0 0.0079727676898529512 0.39395805239723503 0 0.0046995574085186929 0.41194005205042061 0 0.0079727676898529512 0.39395805239723503 0 0.02210553341445062 0.40298972327242938 0 0.0079727676898529512 0.39395805239723503 0 0.02210553341445062 0.40298972327242938 0 0.02735486101880703 0.39232044610694311 0 0.031615607723292562 0.41237007764590089 0 0.02210553341445062 0.40298972327242938 0 0.03492587150599015 0.39714318271575322 0 0.02210553341445062 0.40298972327242938 0 0.02735486101880703 0.39232044610694311 0 0.03492587150599015 0.39714318271575322 0 0.0079727676898529512 0.39395805239723503 0 0.02735486101880703 0.39232044610694311 0 0.033420514628485373 0.38302977191180709 0 0.017055050774382831 0.3783760363496293 0 0.033420514628485373 0.38302977191180709 0 0.023779055828078009 0.37097747554075361 0 0.0079727676898529512 0.39395805239723503 0 0.017055050774382831 0.3783760363496293 0 0.033420514628485373 0.38302977191180709 0 0.0079727676898529512 0.39395805239723503 0 0.033420514628485373 0.38302977191180709 0 0.02735486101880703 0.39232044610694311 0 0.032859848824407727 0.38560668074253002 0 0.033420514628485373 0.38302977191180709 0 0.02735486101880703 0.39232044610694311 0 0.032859848824407727 0.38560668074253002 0 0.032844630049655758 0.3911952656019041 0 0.033420514628485373 0.38302977191180709 0 0.040531910439000007 0.38820627445006711 0 0.055078026168592691 0.37372917012189599 0 0.033420514628485373 0.38302977191180709 0 0.055078026168592691 0.37372917012189599 0 0.032859848824407727 0.38560668074253002 0 0.033420514628485373 0.38302977191180709 0 0.032859848824407727 0.38560668074253002 0 0.040531910439000007 0.38820627445006711 0 0.032844630049655758 0.3911952656019041 0 0.032859848824407727 0.38560668074253002 0 0.033420514628485373 0.38302977191180709 0 0.040531910439000007 0.38820627445006711 0 0.031615607723292562 0.41237007764590089 0 0.03492587150599015 0.39714318271575322 0 0.042551786202842029 0.40583695196884878 0 0.040531910439000007 0.38820627445006711 0 0.03492587150599015 0.39714318271575322 0 0.032844630049655758 0.3911952656019041 0 0.02735486101880703 0.39232044610694311 0 0.03492587150599015 0.39714318271575322 0 0.032844630049655758 0.3911952656019041 0 0.040531910439000007 0.38820627445006711 0 0.03492587150599015 0.39714318271575322 0 0.044409534997012647 0.39663533348309749 0 0.040531910439000007 0.38820627445006711 0 0.044409534997012647 0.39663533348309749 0 0.05145831924276717 0.38983346997562462 0 0.044409534997012647 0.39663533348309749 0 0.042551786202842029 0.40583695196884878 0 0.052579787594463898 0.40215678830519391 0 0.03492587150599015 0.39714318271575322 0 0.044409534997012647 0.39663533348309749 0 0.042551786202842029 0.40583695196884878 0 0.052579787594463898 0.40215678830519391 0 0.065929237187869999 0.38841376689227869 0 0.065774511826563423 0.40583773171119408 0 0.044409534997012647 0.39663533348309749 0 0.052579787594463898 0.40215678830519391 0 0.05145831924276717 0.38983346997562462 0 0.052579787594463898 0.40215678830519391 0 0.05145831924276717 0.38983346997562462 0 0.065929237187869999 0.38841376689227869 0 0.05145831924276717 0.38983346997562462 0 0.065929237187869999 0.38841376689227869 0 0.055078026168592691 0.37372917012189599 0 0.040531910439000007 0.38820627445006711 0 0.05145831924276717 0.38983346997562462 0 0.055078026168592691 0.37372917012189599 0 0.065929237187869999 0.38841376689227869 0 0.07065435961583541 0.37741521318853999 0 0.055078026168592691 0.37372917012189599 0 0.065929237187869999 0.38841376689227869 0 0.07065435961583541 0.37741521318853999 0 0.084874637398179506 0.3830893474080016 0 0.065929237187869999 0.38841376689227869 0 0.084874637398179506 0.3830893474080016 0 0.078183007061163587 0.39730645121706609 0 0.084874637398179506 0.3830893474080016 0 0.09301373708766289 0.40175012648401748 0 0.1017514530376761 0.37456476915266362 0 0.084874637398179506 0.3830893474080016 0 0.1017514530376761 0.37456476915266362 0 0.089894590955766338 0.37016501712229671 0 0.084874637398179506 0.3830893474080016 0 0.09301373708766289 0.40175012648401748 0 0.084874637398179506 0.3830893474080016 0 0.09301373708766289 0.40175012648401748 0 0.078183007061163587 0.39730645121706609 0 0.09301373708766289 0.40175012648401748 0 0.078183007061163587 0.39730645121706609 0 0.0779125114683729 0.4107996813321716 0 0.065929237187869999 0.38841376689227869 0 0.078183007061163587 0.39730645121706609 0 0.065774511826563423 0.40583773171119408 0 0.078183007061163587 0.39730645121706609 0 0.065774511826563423 0.40583773171119408 0 0.0779125114683729 0.4107996813321716 0 0.065774511826563423 0.40583773171119408 0 0.0779125114683729 0.4107996813321716 0 0.065639666334966471 0.42409002317344818 0 0.0779125114683729 0.4107996813321716 0 0.065639666334966471 0.42409002317344818 0 0.085233479690329184 0.42595657570789891 0 0.077453222292990773 0.45016302493177879 0 0.065639666334966471 0.42409002317344818 0 0.085233479690329184 0.42595657570789891 0 0.09301373708766289 0.40175012648401748 0 0.085233479690329184 0.42595657570789891 0 0.09301373708766289 0.40175012648401748 0 0.0779125114683729 0.4107996813321716 0 0.085233479690329184 0.42595657570789891 0 0.09301373708766289 0.40175012648401748 0 0.085233479690329184 0.42595657570789891 0 0.096641093798834857 0.4103746730739769 0 0.096641093798834857 0.4103746730739769 0 0.106123573628292 0.43180747591342172 0 0.096641093798834857 0.4103746730739769 0 0.1162621503634904 0.41872732341568758 0 0.11303311796937431 0.39768424579749467 0 0.096641093798834857 0.4103746730739769 0 0.106123573628292 0.43180747591342172 0 0.1162621503634904 0.41872732341568758 0 0.096641093798834857 0.4103746730739769 0 0.1162621503634904 0.41872732341568758 0 0.085233479690329184 0.42595657570789891 0 0.096641093798834857 0.4103746730739769 0 0.106123573628292 0.43180747591342172 0 0.096722182691352548 0.44869154901932268 0 0.085233479690329184 0.42595657570789891 0 0.106123573628292 0.43180747591342172 0 0.1205619018159948 0.44674810255646558 0 0.1162621503634904 0.41872732341568758 0 0.1205619018159948 0.44674810255646558 0 0.106123573628292 0.43180747591342172 0 0.1162621503634904 0.41872732341568758 0 0.1162621503634904 0.41872732341568758 0 0.11303311796937431 0.39768424579749467 0 0.11303311796937431 0.39768424579749467 0 0.1231373165426977 0.3806134049577457 0 0.1271742827044339 0.39597619803598749 0 0.1162621503634904 0.41872732341568758 0 0.11303311796937431 0.39768424579749467 0 0.1271742827044339 0.39597619803598749 0 0.11303311796937431 0.39768424579749467 0 0.1098040855752573 0.37664116817930182 0 0.11303311796937431 0.39768424579749467 0 0.1098040855752573 0.37664116817930182 0 0.1231373165426977 0.3806134049577457 0 0.09301373708766289 0.40175012648401748 0 0.10162794664532369 0.38287681265592 0 0.1017514530376761 0.37456476915266362 0 0.11303311796937431 0.39768424579749467 0 0.1098040855752573 0.37664116817930182 0 0.10162794664532369 0.38287681265592 0 0.09301373708766289 0.40175012648401748 0 0.1017514530376761 0.37456476915266362 0 0.09301373708766289 0.40175012648401748 0 0.096641093798834857 0.4103746730739769 0 0.10162794664532369 0.38287681265592 0 0.096641093798834857 0.4103746730739769 0 0.10162794664532369 0.38287681265592 0 0.096641093798834857 0.4103746730739769 0 0.11303311796937431 0.39768424579749467 0 0.10162794664532369 0.38287681265592 0 0.09301373708766289 0.40175012648401748 0 0.096641093798834857 0.4103746730739769 0 0.10657505318114149 0.3555980905611088 0 0.1040837309638282 0.33936254988137232 0 0.10657505318114149 0.3555980905611088 0 0.096269577202366938 0.34885221845001108 0 0.090674694454237537 0.35844253683721511 0 0.10657505318114149 0.3555980905611088 0 0.1081370103155585 0.34698533999968961 0 0.1040837309638282 0.33936254988137232 0 0.10657505318114149 0.3555980905611088 0 0.096269577202366938 0.34885221845001108 0 0.1040837309638282 0.33936254988137232 0 0.10657505318114149 0.3555980905611088 0 0.1081370103155585 0.34698533999968961 0 0.1081370103155585 0.34698533999968961 0 0.1105857944332822 0.35159063999376577 0 0.10657505318114149 0.3555980905611088 0 0.1081370103155585 0.34698533999968961 0 0.1105857944332822 0.35159063999376577 0 0.10657505318114149 0.3555980905611088 0 0.097223947907205094 0.36469260341832099 0 0.090674694454237537 0.35844253683721511 0 0.1098040855752573 0.37664116817930182 0 0.10657505318114149 0.3555980905611088 0 0.1098040855752573 0.37664116817930182 0 0.10162794664532369 0.38287681265592 0 0.10657505318114149 0.3555980905611088 0 0.10657505318114149 0.3555980905611088 0 0.097223947907205094 0.36469260341832099 0 0.1017514530376761 0.37456476915266362 0 0.10162794664532369 0.38287681265592 0 0.10657505318114149 0.3555980905611088 0 0.10162794664532369 0.38287681265592 0 0.10657505318114149 0.3555980905611088 0 0.1017514530376761 0.37456476915266362 0 0.097223947907205094 0.36469260341832099 0 0.1017514530376761 0.37456476915266362 0 0.089894590955766338 0.37016501712229671 0 0.1231373165426977 0.3806134049577457 0 0.1176766025370503 0.36283148293627721 0 0.13271547193899449 0.36524458735671972 0 0.1098040855752573 0.37664116817930182 0 0.10657505318114149 0.3555980905611088 0 0.1176766025370503 0.36283148293627721 0 0.1098040855752573 0.37664116817930182 0 0.1231373165426977 0.3806134049577457 0 0.1176766025370503 0.36283148293627721 0 0.1176766025370503 0.36283148293627721 0 0.1232256624926347 0.35239419723674059 0 0.13271547193899449 0.36524458735671972 0 0.10657505318114149 0.3555980905611088 0 0.1176766025370503 0.36283148293627721 0 0.1105857944332822 0.35159063999376577 0 0.1176766025370503 0.36283148293627721 0 0.1232256624926347 0.35239419723674059 0 0.1105857944332822 0.35159063999376577 0 0.1081370103155585 0.34698533999968961 0 0.1105857944332822 0.35159063999376577 0 0.1168368962248217 0.34531303274388031 0 0.1232256624926347 0.35239419723674059 0 0.1105857944332822 0.35159063999376577 0 0.1168368962248217 0.34531303274388031 0 0.1232256624926347 0.35239419723674059 0 0.1168368962248217 0.34531303274388031 0 0.1260676383484185 0.3399282146226113 0 0.1081370103155585 0.34698533999968961 0 0.1173014636805894 0.33730338313169689 0 0.1117137236550247 0.32726307032677399 0 0.1081370103155585 0.34698533999968961 0 0.1117137236550247 0.32726307032677399 0 0.1168368962248217 0.34531303274388031 0 0.1173014636805894 0.33730338313169689 0 0.1260676383484185 0.3399282146226113 0 0.1173014636805894 0.33730338313169689 0 0.12375204985912221 0.32702725796552912 0 0.1260676383484185 0.3399282146226113 0 0.1173014636805894 0.33730338313169689 0 0.12375204985912221 0.32702725796552912 0 0.1117137236550247 0.32726307032677399 0 0.1081370103155585 0.34698533999968961 0 0.1168368962248217 0.34531303274388031 0 0.1173014636805894 0.33730338313169689 0 0.1117137236550247 0.32726307032677399 0 0.11529043699448981 0.30754080065385803 0 0.1117137236550247 0.32726307032677399 0 0.1095765413243488 0.31862098055757049 0 0.11529043699448981 0.30754080065385803 0 0.1214195525311879 0.31440901896845502 0 0.1117137236550247 0.32726307032677399 0 0.11529043699448981 0.30754080065385803 0 0.1214195525311879 0.31440901896845502 0 0.12375204985912221 0.32702725796552912 0 0.12817088130983889 0.317450689473041 0 0.1214195525311879 0.31440901896845502 0 0.12375204985912221 0.32702725796552912 0 0.1117137236550247 0.32726307032677399 0 0.1040837309638282 0.33936254988137232 0 0.090103400857782137 0.31307047550514489 0 0.1040837309638282 0.33936254988137232 0 0.1025673515982234 0.32948055280164651 0 0.090103400857782137 0.31307047550514489 0 0.10278173829001019 0.3206216626476312 0 0.1025673515982234 0.32948055280164651 0 0.090103400857782137 0.31307047550514489 0 0.1095765413243488 0.31862098055757049 0 0.10278173829001019 0.3206216626476312 0 0.099947674014671917 0.31467323404701991 0 0.1095765413243488 0.31862098055757049 0 0.099947674014671917 0.31467323404701991 0 0.09732687347400408 0.30507295899279041 0 0.1117137236550247 0.32726307032677399 0 0.1095765413243488 0.31862098055757049 0 0.10278173829001019 0.3206216626476312 0 0.1117137236550247 0.32726307032677399 0 0.10278173829001019 0.3206216626476312 0 0.1025673515982234 0.32948055280164651 0 0.10278173829001019 0.3206216626476312 0 0.099947674014671917 0.31467323404701991 0 0.090103400857782137 0.31307047550514489 0 0.096269577202366938 0.34885221845001108 0 0.1040837309638282 0.33936254988137232 0 0.085896102217652828 0.34083244099607402 0 0.1081370103155585 0.34698533999968961 0 0.1117137236550247 0.32726307032677399 0 0.1040837309638282 0.33936254988137232 0 0.1081370103155585 0.34698533999968961 0 0.1040837309638282 0.33936254988137232 0 0.1117137236550247 0.32726307032677399 0 0.1040837309638282 0.33936254988137232 0 0.1025673515982234 0.32948055280164651 0 0.1040837309638282 0.33936254988137232 0 0.1025673515982234 0.32948055280164651 0 0.1040837309638282 0.33936254988137232 0 0.085896102217652828 0.34083244099607402 0 0.090103400857782137 0.31307047550514489 0 0.085896102217652828 0.34083244099607402 0 0.090103400857782137 0.31307047550514489 0 0.073944851781294785 0.32640562720437011 0 0.073944851781294785 0.32640562720437011 0 0.05926959110604698 0.32438382341666039 0 0.066452600317618793 0.30933520022964911 0 0.090103400857782137 0.31307047550514489 0 0.073944851781294785 0.32640562720437011 0 0.066452600317618793 0.30933520022964911 0 0.068002564407373206 0.3444061958743222 0 0.05926959110604698 0.32438382341666039 0 0.085896102217652828 0.34083244099607402 0 0.073944851781294785 0.32640562720437011 0 0.068002564407373206 0.3444061958743222 0 0.073944851781294785 0.32640562720437011 0 0.068002564407373206 0.3444061958743222 0 0.05926959110604698 0.32438382341666039 0 0.068002564407373206 0.3444061958743222 0 0.081709153938225559 0.35166937446406898 0 0.076735537708699481 0.364428568331984 0 0.068002564407373206 0.3444061958743222 0 0.076735537708699481 0.364428568331984 0 0.068002564407373206 0.3444061958743222 0 0.076735537708699481 0.364428568331984 0 0.058880509289504487 0.35752542115937253 0 0.085896102217652828 0.34083244099607402 0 0.068002564407373206 0.3444061958743222 0 0.081709153938225559 0.35166937446406898 0 0.081709153938225559 0.35166937446406898 0 0.090674694454237537 0.35844253683721511 0 0.076735537708699481 0.364428568331984 0 0.096269577202366938 0.34885221845001108 0 0.081709153938225559 0.35166937446406898 0 0.090674694454237537 0.35844253683721511 0 0.096269577202366938 0.34885221845001108 0 0.085896102217652828 0.34083244099607402 0 0.081709153938225559 0.35166937446406898 0 0.084874637398179506 0.3830893474080016 0 0.089894590955766338 0.37016501712229671 0 0.076735537708699481 0.364428568331984 0 0.084874637398179506 0.3830893474080016 0 0.076735537708699481 0.364428568331984 0 0.097223947907205094 0.36469260341832099 0 0.090674694454237537 0.35844253683721511 0 0.089894590955766338 0.37016501712229671 0 0.090674694454237537 0.35844253683721511 0 0.089894590955766338 0.37016501712229671 0 0.076735537708699481 0.364428568331984 0 0.090674694454237537 0.35844253683721511 0 0.076735537708699481 0.364428568331984 0 0.076735537708699481 0.364428568331984 0 0.055078026168592691 0.37372917012189599 0 0.058880509289504487 0.35752542115937253 0 0.07065435961583541 0.37741521318853999 0 0.084874637398179506 0.3830893474080016 0 0.076735537708699481 0.364428568331984 0 0.07065435961583541 0.37741521318853999 0 0.076735537708699481 0.364428568331984 0 0.055078026168592691 0.37372917012189599 0 0.076735537708699481 0.364428568331984 0 0.055078026168592691 0.37372917012189599 0 0.055078026168592691 0.37372917012189599 0 0.058880509289504487 0.35752542115937253 0 0.039125882353897343 0.35680699826087081 0 0.068002564407373206 0.3444061958743222 0 0.058880509289504487 0.35752542115937253 0 0.05148455776782021 0.34576385860545072 0 0.058880509289504487 0.35752542115937253 0 0.05148455776782021 0.34576385860545072 0 0.039125882353897343 0.35680699826087081 0 0.039125882353897343 0.35680699826087081 0 0.031548662582759998 0.36398682567210089 0 0.025752053585936779 0.33511492304397028 0 0.05148455776782021 0.34576385860545072 0 0.039125882353897343 0.35680699826087081 0 0.044831250079309708 0.3305842246099347 0 0.033420514628485373 0.38302977191180709 0 0.039125882353897343 0.35680699826087081 0 0.031548662582759998 0.36398682567210089 0 0.033420514628485373 0.38302977191180709 0 0.055078026168592691 0.37372917012189599 0 0.039125882353897343 0.35680699826087081 0 0.033420514628485373 0.38302977191180709 0 0.039125882353897343 0.35680699826087081 0 0.033420514628485373 0.38302977191180709 0 0.031548662582759998 0.36398682567210089 0 0.023779055828078009 0.37097747554075361 0 0.017055050774382831 0.3783760363496293 0 0.023779055828078009 0.37097747554075361 0 0.014905446519761849 0.37011919055753012 0 0.023779055828078009 0.37097747554075361 0 0.019349684376360511 0.36318206543595072 0 0.014905446519761849 0.37011919055753012 0 0.031548662582759998 0.36398682567210089 0 0.019349684376360511 0.36318206543595072 0 0.019690074755218789 0.35178644121934483 0 0.031548662582759998 0.36398682567210089 0 0.023779055828078009 0.37097747554075361 0 0.019349684376360511 0.36318206543595072 0 0.031548662582759998 0.36398682567210089 0 0.025752053585936779 0.33511492304397028 0 0.031548662582759998 0.36398682567210089 0 0.019690074755218789 0.35178644121934483 0 0.025752053585936779 0.33511492304397028 0 0.019349684376360511 0.36318206543595072 0 0.019690074755218789 0.35178644121934483 0 0.0119730942360182 0.35563939605115702 0 0.0119730942360182 0.35563939605115702 0 0.0038095970876644218 0.35606187191015221 0 0.0077169544749549623 0.36306791211952738 0 -0.0077202170519437719 0.34710906184019069 0 0.0082446038140756572 0.34376242611402219 0 0.0038095970876644218 0.35606187191015221 0 0.0119730942360182 0.35563939605115702 0 0.0082446038140756572 0.34376242611402219 0 0.0038095970876644218 0.35606187191015221 0 0.019690074755218789 0.35178644121934483 0 0.0119730942360182 0.35563939605115702 0 0.0082446038140756572 0.34376242611402219 0 -0.0045677851665312944 0.36532665559408428 0 0.0038095970876644218 0.35606187191015221 0 0.0077169544749549623 0.36306791211952738 0 -0.0087141207398781558 0.37710904293520409 0 0.0053185270157129726 0.37689571945341471 0 0.0077169544749549623 0.36306791211952738 0 0.0053185270157129726 0.37689571945341471 0 0.0077169544749549623 0.36306791211952738 0 0.014905446519761849 0.37011919055753012 0 0.019349684376360511 0.36318206543595072 0 0.0077169544749549623 0.36306791211952738 0 0.014905446519761849 0.37011919055753012 0 0.019349684376360511 0.36318206543595072 0 0.0119730942360182 0.35563939605115702 0 0.0077169544749549623 0.36306791211952738 0 -0.009249588209606344 0.30814111102660002 0 0.0094307060340404689 0.32376070079746733 0 0.01995544458911469 0.30624302041583928 0 -0.005758602284471958 0.33512988219008361 0 0.0082446038140756572 0.34376242611402219 0 0.0094307060340404689 0.32376070079746733 0 0.0082446038140756572 0.34376242611402219 0 0.0094307060340404689 0.32376070079746733 0 0.025752053585936779 0.33511492304397028 0 0.019690074755218789 0.35178644121934483 0 0.0082446038140756572 0.34376242611402219 0 0.025752053585936779 0.33511492304397028 0 0.025752053585936779 0.33511492304397028 0 0.01995544458911469 0.30624302041583928 0 0.025752053585936779 0.33511492304397028 0 0.034898059553693392 0.31581284699138767 0 0.01995544458911469 0.30624302041583928 0 0.0094307060340404689 0.32376070079746733 0 0.025752053585936779 0.33511492304397028 0 0.01995544458911469 0.30624302041583928 0 0.034898059553693392 0.31581284699138767 0 0.044831250079309708 0.3305842246099347 0 0.05053661780472133 0.30436145095899841 0 0.025752053585936779 0.33511492304397028 0 0.034898059553693392 0.31581284699138767 0 0.044831250079309708 0.3305842246099347 0 0.039125882353897343 0.35680699826087081 0 0.025752053585936779 0.33511492304397028 0 0.044831250079309708 0.3305842246099347 0 0.039125882353897343 0.35680699826087081 0 0.044831250079309708 0.3305842246099347 0 0.068002564407373206 0.3444061958743222 0 0.05148455776782021 0.34576385860545072 0 0.05926959110604698 0.32438382341666039 0 0.05148455776782021 0.34576385860545072 0 0.044831250079309708 0.3305842246099347 0 0.05926959110604698 0.32438382341666039 0 0.044831250079309708 0.3305842246099347 0 0.05053661780472133 0.30436145095899841 0 0.044831250079309708 0.3305842246099347 0 0.05926959110604698 0.32438382341666039 0 0.05053661780472133 0.30436145095899841 0 0.05926959110604698 0.32438382341666039 0 0.05053661780472133 0.30436145095899841 0 0.05926959110604698 0.32438382341666039 0 0.05053661780472133 0.30436145095899841 0 0.066452600317618793 0.30933520022964911 0 0.059204269303370749 0.30137448027593422 0 0.05053661780472133 0.30436145095899841 0 0.066452600317618793 0.30933520022964911 0 0.04765756321016474 0.29776054867416191 0 0.05053661780472133 0.30436145095899841 0 0.052561166870736087 0.29505630281458828 0 0.059204269303370749 0.30137448027593422 0 0.05053661780472133 0.30436145095899841 0 0.052561166870736087 0.29505630281458828 0 0.05053661780472133 0.30436145095899841 0 0.052561166870736087 0.29505630281458828 0 0.04765756321016474 0.29776054867416191 0 0.05053661780472133 0.30436145095899841 0 0.052561166870736087 0.29505630281458828 0 0.036977033779240318 0.28312664447104818 0 0.062988366650143207 0.29302398426469728 0 0.036977033779240318 0.28312664447104818 0 0.048149862160842181 0.27985089866820428 0 0.062988366650143207 0.29302398426469728 0 0.036977033779240318 0.28312664447104818 0 0.062988366650143207 0.29302398426469728 0 0.048149862160842181 0.27985089866820428 0 0.054778979573680928 0.27715841955607551 0 0.062988366650143207 0.29302398426469728 0 0.059204269303370749 0.30137448027593422 0 0.052561166870736087 0.29505630281458828 0 0.062988366650143207 0.29302398426469728 0 0.04765756321016474 0.29776054867416191 0 0.036186098738389023 0.29603891009636157 0 0.036977033779240318 0.28312664447104818 0 0.04765756321016474 0.29776054867416191 0 0.052561166870736087 0.29505630281458828 0 0.036977033779240318 0.28312664447104818 0 0.036186098738389023 0.29603891009636157 0 0.036977033779240318 0.28312664447104818 0 0.027757552790527541 0.29644954410470781 0 0.034898059553693392 0.31581284699138767 0 0.05053661780472133 0.30436145095899841 0 0.039754971674175903 0.30430037111620312 0 0.04765756321016474 0.29776054867416191 0 0.05053661780472133 0.30436145095899841 0 0.039754971674175903 0.30430037111620312 0 0.04765756321016474 0.29776054867416191 0 0.036186098738389023 0.29603891009636157 0 0.039754971674175903 0.30430037111620312 0 0.036186098738389023 0.29603891009636157 0 0.039754971674175903 0.30430037111620312 0 0.028740536311392211 0.30567206060121932 0 0.034898059553693392 0.31581284699138767 0 0.039754971674175903 0.30430037111620312 0 0.028740536311392211 0.30567206060121932 0 0.034898059553693392 0.31581284699138767 0 0.028740536311392211 0.30567206060121932 0 0.01995544458911469 0.30624302041583928 0 0.028740536311392211 0.30567206060121932 0 0.01995544458911469 0.30624302041583928 0 0.01995544458911469 0.30624302041583928 0 0.027757552790527541 0.29644954410470781 0 0.016928650534501429 0.29116708493907051 0 0.01995544458911469 0.30624302041583928 0 0.016928650534501429 0.29116708493907051 0 0.036186098738389023 0.29603891009636157 0 0.028740536311392211 0.30567206060121932 0 0.027757552790527541 0.29644954410470781 0 0.028740536311392211 0.30567206060121932 0 0.01995544458911469 0.30624302041583928 0 0.027757552790527541 0.29644954410470781 0 0.036977033779240318 0.28312664447104818 0 0.016928650534501429 0.29116708493907051 0 0.013901856479889301 0.2760911494623014 0 0.036977033779240318 0.28312664447104818 0 0.027757552790527541 0.29644954410470781 0 0.016928650534501429 0.29116708493907051 0 0.016928650534501429 0.29116708493907051 0 0.0075090435902615098 0.27971283806045072 0 0.013901856479889301 0.2760911494623014 0 0.016928650534501429 0.29116708493907051 0 0.013901856479889301 0.2760911494623014 0 0.016928650534501429 0.29116708493907051 0 0.002380999114604244 0.28599596302517022 0 0.0075090435902615098 0.27971283806045072 0 0.016928650534501429 0.29116708493907051 0 0.002380999114604244 0.28599596302517022 0 0.0038021096493471361 0.29689124930627131 0 0.01995544458911469 0.30624302041583928 0 0.016928650534501429 0.29116708493907051 0 0.0038021096493471361 0.29689124930627131 0 -0.009249588209606344 0.30814111102660002 0 0.01995544458911469 0.30624302041583928 0 -0.009249588209606344 0.30814111102660002 0 0.01995544458911469 0.30624302041583928 0 0.0038021096493471361 0.29689124930627131 0 0.012944211518790589 0.24639919126045251 0 0.001894876929373096 0.24743045501984201 0 0.027350481215018482 0.26092432701142793 0 0.001894876929373096 0.24743045501984201 0 0.01235577794179212 0.26160751525750708 0 0.027350481215018482 0.26092432701142793 0 0.001894876929373096 0.24743045501984201 0 0.027350481215018482 0.26092432701142793 0 0.01235577794179212 0.26160751525750708 0 0.0066431973405819862 0.26423936680728111 0 0.01332705073189009 0.26743114199411 0 0.001894876929373096 0.24743045501984201 0 0.01235577794179212 0.26160751525750708 0 0.0027594708259384838 0.25829047161104352 0 0.01235577794179212 0.26160751525750708 0 0.0027594708259384838 0.25829047161104352 0 0.0066431973405819862 0.26423936680728111 0 -0.00067809962666212902 0.26216505597133072 0 0.0027594708259384838 0.25829047161104352 0 0.0066431973405819862 0.26423936680728111 0 -0.00067809962666212902 0.26216505597133072 0 0.0066431973405819862 0.26423936680728111 0 0.010965700908337589 0.27322930467739909 0 -0.001267499687089951 0.2776013217203892 0 0.0075090435902615098 0.27971283806045072 0 0.010965700908337589 0.27322930467739909 0 -0.001267499687089951 0.2776013217203892 0 0.002380999114604244 0.28599596302517022 0 0.0075090435902615098 0.27971283806045072 0 0.0075090435902615098 0.27971283806045072 0 0.013901856479889301 0.2760911494623014 0 0.010965700908337589 0.27322930467739909 0 0.010965700908337589 0.27322930467739909 0 0.01332705073189009 0.26743114199411 0 0.022419763759722669 0.26962443384228668 0 0.0066431973405819862 0.26423936680728111 0 0.010965700908337589 0.27322930467739909 0 0.01332705073189009 0.26743114199411 0 0.036977033779240318 0.28312664447104818 0 0.010965700908337589 0.27322930467739909 0 0.022419763759722669 0.26962443384228668 0 0.01235577794179212 0.26160751525750708 0 0.01332705073189009 0.26743114199411 0 0.022419763759722669 0.26962443384228668 0 0.036977033779240318 0.28312664447104818 0 0.013901856479889301 0.2760911494623014 0 0.010965700908337589 0.27322930467739909 0 0.036977033779240318 0.28312664447104818 0 0.010965700908337589 0.27322930467739909 0 0.036977033779240318 0.28312664447104818 0 0.022419763759722669 0.26962443384228668 0 0.032397819765571212 0.27218151163944088 0 0.022419763759722669 0.26962443384228668 0 0.027350481215018482 0.26092432701142793 0 0.032397819765571212 0.27218151163944088 0 0.018629400856135309 0.24429501886194191 0 0.012944211518790589 0.24639919126045251 0 0.027350481215018482 0.26092432701142793 0 0.018629400856135309 0.24429501886194191 0 0.027350481215018482 0.26092432701142793 0 0.02692674034290404 0.25134916217479408 0 0.01235577794179212 0.26160751525750708 0 0.022419763759722669 0.26962443384228668 0 0.027350481215018482 0.26092432701142793 0 0.027350481215018482 0.26092432701142793 0 0.02692674034290404 0.25134916217479408 0 0.036501911092354018 0.25177276941539839 0 0.027350481215018482 0.26092432701142793 0 0.036501911092354018 0.25177276941539839 0 0.052806085500663583 0.27441819900301412 0 0.036501911092354018 0.25177276941539839 0 0.052806085500663583 0.27441819900301412 0 0.027350481215018482 0.26092432701142793 0 0.039536256484267153 0.27410031615862712 0 0.052806085500663583 0.27441819900301412 0 0.027350481215018482 0.26092432701142793 0 0.052806085500663583 0.27441819900301412 0 0.036977033779240318 0.28312664447104818 0 0.032397819765571212 0.27218151163944088 0 0.039536256484267153 0.27410031615862712 0 0.027350481215018482 0.26092432701142793 0 0.032397819765571212 0.27218151163944088 0 0.039536256484267153 0.27410031615862712 0 0.039536256484267153 0.27410031615862712 0 0.048149862160842181 0.27985089866820428 0 0.052806085500663583 0.27441819900301412 0 0.036977033779240318 0.28312664447104818 0 0.039536256484267153 0.27410031615862712 0 0.048149862160842181 0.27985089866820428 0 0.052806085500663583 0.27441819900301412 0 0.051790667069154861 0.2547103276228454 0 0.069466372585565969 0.27425949764399721 0 0.052806085500663583 0.27441819900301412 0 0.054778979573680928 0.27715841955607551 0 0.076123070751733898 0.28677840112891878 0 0.048149862160842181 0.27985089866820428 0 0.052806085500663583 0.27441819900301412 0 0.054778979573680928 0.27715841955607551 0 0.052806085500663583 0.27441819900301412 0 0.054778979573680928 0.27715841955607551 0 0.051790667069154861 0.2547103276228454 0 0.069466372585565969 0.27425949764399721 0 0.036501911092354018 0.25177276941539839 0 0.052806085500663583 0.27441819900301412 0 0.051790667069154861 0.2547103276228454 0 0.051790667069154861 0.2547103276228454 0 0.062472563593505302 0.26110660749064829 0 0.069466372585565969 0.27425949764399721 0 0.051790667069154861 0.2547103276228454 0 0.062472563593505302 0.26110660749064829 0 0.063392491700480919 0.2510828642249095 0 0.07090317009537217 0.25886987532900169 0 0.089645379702363526 0.25980927980688501 0 0.066829182329119829 0.26693814307945207 0 0.063392491700480919 0.2510828642249095 0 0.07090317009537217 0.25886987532900169 0 0.074261774750864804 0.25289133929391111 0 0.062472563593505302 0.26110660749064829 0 0.063392491700480919 0.2510828642249095 0 0.07090317009537217 0.25886987532900169 0 0.062472563593505302 0.26110660749064829 0 0.07090317009537217 0.25886987532900169 0 0.066829182329119829 0.26693814307945207 0 0.07090317009537217 0.25886987532900169 0 0.074261774750864804 0.25289133929391111 0 0.089645379702363526 0.25980927980688501 0 0.072073934872957782 0.23900016577853919 0 0.074261774750864804 0.25289133929391111 0 0.089645379702363526 0.25980927980688501 0 0.089645379702363526 0.25980927980688501 0 0.066829182329119829 0.26693814307945207 0 0.089645379702363526 0.25980927980688501 0 0.084738505220855201 0.27427167124983992 0 0.066829182329119829 0.26693814307945207 0 0.084738505220855201 0.27427167124983992 0 0.069466372585565969 0.27425949764399721 0 0.085077205623658711 0.29152493742801078 0 0.084738505220855201 0.27427167124983992 0 0.095910340366493346 0.28464594086445177 0 0.099818528257267281 0.27185690653089678 0 0.089645379702363526 0.25980927980688501 0 0.084738505220855201 0.27427167124983992 0 0.099818528257267281 0.27185690653089678 0 0.084738505220855201 0.27427167124983992 0 0.066829182329119829 0.26693814307945207 0 0.069466372585565969 0.27425949764399721 0 0.052806085500663583 0.27441819900301412 0 0.069466372585565969 0.27425949764399721 0 0.076123070751733898 0.28677840112891878 0 0.052806085500663583 0.27441819900301412 0 0.076123070751733898 0.28677840112891878 0 0.069466372585565969 0.27425949764399721 0 0.076123070751733898 0.28677840112891878 0 0.062472563593505302 0.26110660749064829 0 0.069466372585565969 0.27425949764399721 0 0.062472563593505302 0.26110660749064829 0 0.066829182329119829 0.26693814307945207 0 0.069466372585565969 0.27425949764399721 0 0.069466372585565969 0.27425949764399721 0 0.085077205623658711 0.29152493742801078 0 0.069466372585565969 0.27425949764399721 0 0.076123070751733898 0.28677840112891878 0 0.085077205623658711 0.29152493742801078 0 0.062988366650143207 0.29302398426469728 0 0.076123070751733898 0.28677840112891878 0 0.066452600317618793 0.30933520022964911 0 0.054778979573680928 0.27715841955607551 0 0.062988366650143207 0.29302398426469728 0 0.076123070751733898 0.28677840112891878 0 0.090103400857782137 0.31307047550514489 0 0.076123070751733898 0.28677840112891878 0 0.066452600317618793 0.30933520022964911 0 0.059204269303370749 0.30137448027593422 0 0.062988366650143207 0.29302398426469728 0 0.066452600317618793 0.30933520022964911 0 0.090103400857782137 0.31307047550514489 0 0.076123070751733898 0.28677840112891878 0 0.085077205623658711 0.29152493742801078 0 0.090103400857782137 0.31307047550514489 0 0.076123070751733898 0.28677840112891878 0 0.090103400857782137 0.31307047550514489 0 0.085077205623658711 0.29152493742801078 0 0.09732687347400408 0.30507295899279041 0 0.085077205623658711 0.29152493742801078 0 0.09732687347400408 0.30507295899279041 0 0.084738505220855201 0.27427167124983992 0 0.085077205623658711 0.29152493742801078 0 0.095910340366493346 0.28464594086445177 0 0.076123070751733898 0.28677840112891878 0 0.085077205623658711 0.29152493742801078 0 0.085077205623658711 0.29152493742801078 0 0.095910340366493346 0.28464594086445177 0 0.10018382130907411 0.29953286904093468 0 0.085077205623658711 0.29152493742801078 0 0.10018382130907411 0.29953286904093468 0 0.095910340366493346 0.28464594086445177 0 0.10809736708577181 0.28553666446189058 0 0.10018382130907411 0.29953286904093468 0 0.10809736708577181 0.28553666446189058 0 0.10018382130907411 0.29953286904093468 0 0.10959494141679089 0.29761357018739809 0 0.099947674014671917 0.31467323404701991 0 0.090103400857782137 0.31307047550514489 0 0.09732687347400408 0.30507295899279041 0 0.085077205623658711 0.29152493742801078 0 0.09732687347400408 0.30507295899279041 0 0.10018382130907411 0.29953286904093468 0 0.09732687347400408 0.30507295899279041 0 0.10018382130907411 0.29953286904093468 0 0.1055944182754792 0.3076919023112884 0 0.10018382130907411 0.29953286904093468 0 0.11529043699448981 0.30754080065385803 0 0.10959494141679089 0.29761357018739809 0 0.10018382130907411 0.29953286904093468 0 0.11529043699448981 0.30754080065385803 0 0.1095765413243488 0.31862098055757049 0 0.09732687347400408 0.30507295899279041 0 0.1055944182754792 0.3076919023112884 0 0.10018382130907411 0.29953286904093468 0 0.1055944182754792 0.3076919023112884 0 0.11529043699448981 0.30754080065385803 0 0.1095765413243488 0.31862098055757049 0 0.09732687347400408 0.30507295899279041 0 0.1095765413243488 0.31862098055757049 0 0.1055944182754792 0.3076919023112884 0 0.11529043699448981 0.30754080065385803 0 0.11529043699448981 0.30754080065385803 0 0.11637637905870279 0.30155283343175482 0 0.11810871752106521 0.30621928700195911 0 0.11529043699448981 0.30754080065385803 0 0.10959494141679089 0.29761357018739809 0 0.11637637905870279 0.30155283343175482 0 0.10959494141679089 0.29761357018739809 0 0.11637637905870279 0.30155283343175482 0 0.1164892219926046 0.29243334627748818 0 0.11529043699448981 0.30754080065385803 0 0.11637637905870279 0.30155283343175482 0 0.11637637905870279 0.30155283343175482 0 0.1222906650571363 0.2985709440566281 0 0.1164892219926046 0.29243334627748818 0 0.1222906650571363 0.2985709440566281 0 0.1206025954822835 0.30378795350269022 0 0.1243783730770044 0.30485679470236721 0 0.11637637905870279 0.30155283343175482 0 0.1222906650571363 0.2985709440566281 0 0.1206025954822835 0.30378795350269022 0 0.11637637905870279 0.30155283343175482 0 0.1206025954822835 0.30378795350269022 0 0.11810871752106521 0.30621928700195911 0 0.1206025954822835 0.30378795350269022 0 0.11810871752106521 0.30621928700195911 0 0.1213521300308707 0.30775440284793348 0 0.11529043699448981 0.30754080065385803 0 0.11810871752106521 0.30621928700195911 0 0.11930841490252821 0.30912172642276631 0 0.11810871752106521 0.30621928700195911 0 0.1213521300308707 0.30775440284793348 0 0.11930841490252821 0.30912172642276631 0 0.1243783730770044 0.30485679470236721 0 0.1213521300308707 0.30775440284793348 0 0.1244342991148414 0.30898461385241399 0 0.1206025954822835 0.30378795350269022 0 0.1243783730770044 0.30485679470236721 0 0.1213521300308707 0.30775440284793348 0 0.1214195525311879 0.31440901896845502 0 0.1244342991148414 0.30898461385241399 0 0.12900107104525951 0.30968741412501871 0 0.1214195525311879 0.31440901896845502 0 0.1213521300308707 0.30775440284793348 0 0.1244342991148414 0.30898461385241399 0 0.1214195525311879 0.31440901896845502 0 0.11529043699448981 0.30754080065385803 0 0.11930841490252821 0.30912172642276631 0 0.1214195525311879 0.31440901896845502 0 0.1213521300308707 0.30775440284793348 0 0.11930841490252821 0.30912172642276631 0 0.10809736708577181 0.28553666446189058 0 0.1164892219926046 0.29243334627748818 0 0.1210835213650209 0.28058702695229848 0 0.10809736708577181 0.28553666446189058 0 0.10959494141679089 0.29761357018739809 0 0.1164892219926046 0.29243334627748818 0 0.1222906650571363 0.2985709440566281 0 0.1164892219926046 0.29243334627748818 0 0.12596292383497329 0.28976449579057961 0 0.1164892219926046 0.29243334627748818 0 0.1210835213650209 0.28058702695229848 0 0.12596292383497329 0.28976449579057961 0 0.10809736708577181 0.28553666446189058 0 0.1210835213650209 0.28058702695229848 0 0.1147979612748997 0.2707881575742877 0 0.1210835213650209 0.28058702695229848 0 0.1147979612748997 0.2707881575742877 0 0.12791172371537049 0.26609555254785411 0 0.1147979612748997 0.2707881575742877 0 0.116065923487036 0.25155424759680489 0 0.099818528257267281 0.27185690653089678 0 0.1147979612748997 0.2707881575742877 0 0.116065923487036 0.25155424759680489 0 0.12791172371537049 0.26609555254785411 0 0.089645379702363526 0.25980927980688501 0 0.116065923487036 0.25155424759680489 0 0.089645379702363526 0.25980927980688501 0 0.116065923487036 0.25155424759680489 0 0.099818528257267281 0.27185690653089678 0 0.089645379702363526 0.25980927980688501 0 0.099818528257267281 0.27185690653089678 0 0.095910340366493346 0.28464594086445177 0 0.10809736708577181 0.28553666446189058 0 0.099818528257267281 0.27185690653089678 0 0.10809736708577181 0.28553666446189058 0 0.1147979612748997 0.2707881575742877 0 0.099818528257267281 0.27185690653089678 0 0.14627836463393121 0.26809473379089088 0 0.14256315404166739 0.2804585798755338 0 0.1332419302865058 0.27890394506169119 0 0.14627836463393121 0.26809473379089088 0 0.14256315404166739 0.2804585798755338 0 0.15383705453569649 0.27951082009548711 0 0.14627836463393121 0.26809473379089088 0 0.15383705453569649 0.27951082009548711 0 0.1609818760820641 0.2708255403471686 0 0.14248646727170791 0.24329921538672239 0 0.14627836463393121 0.26809473379089088 0 0.1631161995596529 0.25657386530356069 0 0.14248646727170791 0.24329921538672239 0 0.116065923487036 0.25155424759680489 0 0.12791172371537049 0.26609555254785411 0 0.14248646727170791 0.24329921538672239 0 0.14627836463393121 0.26809473379089088 0 0.12791172371537049 0.26609555254785411 0 0.14627836463393121 0.26809473379089088 0 0.12791172371537049 0.26609555254785411 0 0.1332419302865058 0.27890394506169119 0 0.1210835213650209 0.28058702695229848 0 0.12791172371537049 0.26609555254785411 0 0.1332419302865058 0.27890394506169119 0 0.1332419302865058 0.27890394506169119 0 0.12596292383497329 0.28976449579057961 0 0.13463915166403909 0.29011289163129678 0 0.1210835213650209 0.28058702695229848 0 0.1332419302865058 0.27890394506169119 0 0.12596292383497329 0.28976449579057961 0 0.1222906650571363 0.2985709440566281 0 0.12596292383497329 0.28976449579057961 0 0.12923992476061211 0.29615108028493942 0 0.12596292383497329 0.28976449579057961 0 0.12923992476061211 0.29615108028493942 0 0.13463915166403909 0.29011289163129678 0 0.13463915166403909 0.29011289163129678 0 0.13544399911061031 0.29845687749894129 0 0.1416447250157222 0.29544082675589128 0 0.12923992476061211 0.29615108028493942 0 0.13463915166403909 0.29011289163129678 0 0.13544399911061031 0.29845687749894129 0 0.14256315404166739 0.2804585798755338 0 0.1332419302865058 0.27890394506169119 0 0.13463915166403909 0.29011289163129678 0 0.1243783730770044 0.30485679470236721 0 0.1244342991148414 0.30898461385241399 0 0.12900107104525951 0.30968741412501871 0 0.1243783730770044 0.30485679470236721 0 0.12900107104525951 0.30968741412501871 0 0.1290658347258283 0.30205966601357243 0 0.12900107104525951 0.30968741412501871 0 0.1290658347258283 0.30205966601357243 0 0.1340409753043473 0.30463488541353972 0 0.1222906650571363 0.2985709440566281 0 0.1243783730770044 0.30485679470236721 0 0.1290658347258283 0.30205966601357243 0 0.1222906650571363 0.2985709440566281 0 0.12923992476061211 0.29615108028493942 0 0.1290658347258283 0.30205966601357243 0 0.12923992476061211 0.29615108028493942 0 0.1290658347258283 0.30205966601357243 0 0.13544399911061031 0.29845687749894129 0 0.13544399911061031 0.29845687749894129 0 0.14170706289926879 0.30357921339911909 0 0.1416447250157222 0.29544082675589128 0 0.13544399911061031 0.29845687749894129 0 0.1340409753043473 0.30463488541353972 0 0.14170706289926879 0.30357921339911909 0 0.1290658347258283 0.30205966601357243 0 0.13544399911061031 0.29845687749894129 0 0.1340409753043473 0.30463488541353972 0 0.13598458437900529 0.30983158877234418 0 0.14130712994747449 0.31140798331507108 0 0.14170706289926879 0.30357921339911909 0 0.12900107104525951 0.30968741412501871 0 0.1340409753043473 0.30463488541353972 0 0.13598458437900529 0.30983158877234418 0 0.1340409753043473 0.30463488541353972 0 0.13598458437900529 0.30983158877234418 0 0.14170706289926879 0.30357921339911909 0 0.13598458437900529 0.30983158877234418 0 0.14130712994747449 0.31140798331507108 0 0.13528824775885559 0.3155805734405937 0 0.12900107104525951 0.30968741412501871 0 0.13598458437900529 0.30983158877234418 0 0.13528824775885559 0.3155805734405937 0 0.1483486037307668 0.31106151759990119 0 0.14130712994747449 0.31140798331507108 0 0.14170706289926879 0.30357921339911909 0 0.1483486037307668 0.31106151759990119 0 0.14170706289926879 0.30357921339911909 0 0.1513591925520972 0.30423422291399321 0 0.14170706289926879 0.30357921339911909 0 0.14924189349128261 0.29698436464102829 0 0.1513591925520972 0.30423422291399321 0 0.14170706289926879 0.30357921339911909 0 0.14924189349128261 0.29698436464102829 0 0.1416447250157222 0.29544082675589128 0 0.1513591925520972 0.30423422291399321 0 0.15847128754916129 0.30901971199088751 0 0.1567398971697517 0.30020769771567818 0 0.14924189349128261 0.29698436464102829 0 0.1513591925520972 0.30423422291399321 0 0.1567398971697517 0.30020769771567818 0 0.1483486037307668 0.31106151759990119 0 0.1513591925520972 0.30423422291399321 0 0.15847128754916129 0.30901971199088751 0 0.1483486037307668 0.31106151759990119 0 0.15847128754916129 0.30901971199088751 0 0.1531779528472626 0.31690967251270458 0 0.14256315404166739 0.2804585798755338 0 0.15383705453569649 0.27951082009548711 0 0.14728728951424691 0.28871625735014939 0 0.14256315404166739 0.2804585798755338 0 0.13463915166403909 0.29011289163129678 0 0.14728728951424691 0.28871625735014939 0 0.14924189349128261 0.29698436464102829 0 0.14728728951424691 0.28871625735014939 0 0.1416447250157222 0.29544082675589128 0 0.13463915166403909 0.29011289163129678 0 0.14728728951424691 0.28871625735014939 0 0.1416447250157222 0.29544082675589128 0 0.14924189349128261 0.29698436464102829 0 0.1576814993112734 0.29111844862325259 0 0.1567398971697517 0.30020769771567818 0 0.14924189349128261 0.29698436464102829 0 0.14728728951424691 0.28871625735014939 0 0.1576814993112734 0.29111844862325259 0 0.15383705453569649 0.27951082009548711 0 0.14728728951424691 0.28871625735014939 0 0.1576814993112734 0.29111844862325259 0 0.15383705453569649 0.27951082009548711 0 0.1576814993112734 0.29111844862325259 0 0.16532030222413041 0.28061774918364429 0 0.1576814993112734 0.29111844862325259 0 0.1689979645595176 0.28949488405725932 0 0.16532030222413041 0.28061774918364429 0 0.1576814993112734 0.29111844862325259 0 0.1689979645595176 0.28949488405725932 0 0.16694561294494401 0.29968174040922901 0 0.1689979645595176 0.28949488405725932 0 0.16694561294494401 0.29968174040922901 0 0.17866142019044989 0.29199773726540068 0 0.1689979645595176 0.28949488405725932 0 0.17498255083596301 0.28300150235233201 0 0.16532030222413041 0.28061774918364429 0 0.1576814993112734 0.29111844862325259 0 0.1567398971697517 0.30020769771567818 0 0.16694561294494401 0.29968174040922901 0 0.15847128754916129 0.30901971199088751 0 0.1567398971697517 0.30020769771567818 0 0.16694561294494401 0.29968174040922901 0 0.16694561294494401 0.29968174040922901 0 0.17666858027807311 0.3015349886251833 0 0.1707678241303611 0.31259989648156872 0 0.15847128754916129 0.30901971199088751 0 0.16694561294494401 0.29968174040922901 0 0.1707678241303611 0.31259989648156872 0 0.17666858027807311 0.3015349886251833 0 0.18371952992762389 0.30785332357736089 0 0.1707678241303611 0.31259989648156872 0 0.16694561294494401 0.29968174040922901 0 0.17666858027807311 0.3015349886251833 0 0.17866142019044989 0.29199773726540068 0 0.17666858027807311 0.3015349886251833 0 0.18371952992762389 0.30785332357736089 0 0.1898902111984884 0.29891268329407239 0 0.18371952992762389 0.30785332357736089 0 0.1898902111984884 0.29891268329407239 0 0.17666858027807311 0.3015349886251833 0 0.17866142019044989 0.29199773726540068 0 0.1898902111984884 0.29891268329407239 0 0.17498255083596301 0.28300150235233201 0 0.17866142019044989 0.29199773726540068 0 0.1849298445554361 0.28099903695767547 0 0.1689979645595176 0.28949488405725932 0 0.17498255083596301 0.28300150235233201 0 0.17866142019044989 0.29199773726540068 0 0.17866142019044989 0.29199773726540068 0 0.18677859260729601 0.28760164196875848 0 0.1898902111984884 0.29891268329407239 0 0.17866142019044989 0.29199773726540068 0 0.18677859260729601 0.28760164196875848 0 0.1849298445554361 0.28099903695767547 0 0.1849298445554361 0.28099903695767547 0 0.17528279401001801 0.2714166079934146 0 0.19094745617081291 0.27038549871767581 0 0.17528279401001801 0.2714166079934146 0 0.18564289691528729 0.25868749876629671 0 0.19094745617081291 0.27038549871767581 0 0.17498255083596301 0.28300150235233201 0 0.1849298445554361 0.28099903695767547 0 0.17528279401001801 0.2714166079934146 0 0.17528279401001801 0.2714166079934146 0 0.16532030222413041 0.28061774918364429 0 0.1609818760820641 0.2708255403471686 0 0.17498255083596301 0.28300150235233201 0 0.17528279401001801 0.2714166079934146 0 0.16532030222413041 0.28061774918364429 0 0.17528279401001801 0.2714166079934146 0 0.1609818760820641 0.2708255403471686 0 0.1631161995596529 0.25657386530356069 0 0.15383705453569649 0.27951082009548711 0 0.16532030222413041 0.28061774918364429 0 0.1609818760820641 0.2708255403471686 0 0.14627836463393121 0.26809473379089088 0 0.1609818760820641 0.2708255403471686 0 0.1631161995596529 0.25657386530356069 0 0.16890701105638031 0.23504418317664161 0 0.1631161995596529 0.25657386530356069 0 0.18564289691528729 0.25868749876629671 0 0.17528279401001801 0.2714166079934146 0 0.1631161995596529 0.25657386530356069 0 0.18564289691528729 0.25868749876629671 0 0.1956251304139873 0.24830732682566101 0 0.18564289691528729 0.25868749876629671 0 0.20465537480646501 0.25892384109831479 0 0.18564289691528729 0.25868749876629671 0 0.19094745617081291 0.27038549871767581 0 0.20465537480646501 0.25892384109831479 0 0.2050239072751949 0.2492833193895482 0 0.1956251304139873 0.24830732682566101 0 0.20465537480646501 0.25892384109831479 0 0.19094745617081291 0.27038549871767581 0 0.20212350544635149 0.27452240688285762 0 0.1917381003592612 0.28136787577326228 0 0.1849298445554361 0.28099903695767547 0 0.19094745617081291 0.27038549871767581 0 0.1917381003592612 0.28136787577326228 0 0.19094745617081291 0.27038549871767581 0 0.20212350544635149 0.27452240688285762 0 0.20465537480646501 0.25892384109831479 0 0.21559138507808229 0.27635001083075639 0 0.2170338530129477 0.25958452376210089 0 0.2223889939606305 0.26849190584137572 0 0.20212350544635149 0.27452240688285762 0 0.2170338530129477 0.25958452376210089 0 0.20037669147028589 0.28371892366973078 0 0.2170338530129477 0.25958452376210089 0 0.20037669147028589 0.28371892366973078 0 0.21559138507808229 0.27635001083075639 0 0.2170338530129477 0.25958452376210089 0 0.20037669147028589 0.28371892366973078 0 0.20212350544635149 0.27452240688285762 0 0.20465537480646501 0.25892384109831479 0 0.21458810326103989 0.25029177234766842 0 0.20212350544635149 0.27452240688285762 0 0.2170338530129477 0.25958452376210089 0 0.21458810326103989 0.25029177234766842 0 0.20212350544635149 0.27452240688285762 0 0.21458810326103989 0.25029177234766842 0 0.2050239072751949 0.2492833193895482 0 0.20465537480646501 0.25892384109831479 0 0.21458810326103989 0.25029177234766842 0 0.20465537480646501 0.25892384109831479 0 0.21458810326103989 0.25029177234766842 0 0.23169913173193779 0.25404958449575432 0 0.22942687348362151 0.26728355318502178 0 0.24090080429007341 0.26281353644332878 0 0.23169913173193779 0.25404958449575432 0 0.2249153238939712 0.26221153605608138 0 0.22942687348362151 0.26728355318502178 0 0.2170338530129477 0.25958452376210089 0 0.2249153238939712 0.26221153605608138 0 0.2223889939606305 0.26849190584137572 0 0.2170338530129477 0.25958452376210089 0 0.23169913173193779 0.25404958449575432 0 0.2249153238939712 0.26221153605608138 0 0.2223889939606305 0.26849190584137572 0 0.2255322572178127 0.27738204478537232 0 0.22942687348362151 0.26728355318502178 0 0.2249153238939712 0.26221153605608138 0 0.2223889939606305 0.26849190584137572 0 0.22942687348362151 0.26728355318502178 0 0.21559138507808229 0.27635001083075639 0 0.2255322572178127 0.27738204478537232 0 0.21985426169801439 0.28935406669317137 0 0.21559138507808229 0.27635001083075639 0 0.2223889939606305 0.26849190584137572 0 0.2255322572178127 0.27738204478537232 0 0.2255322572178127 0.27738204478537232 0 0.23621117140834261 0.27732665952701641 0 0.23095623596381579 0.2876536505458 0 0.2255322572178127 0.27738204478537232 0 0.22942687348362151 0.26728355318502178 0 0.23621117140834261 0.27732665952701641 0 0.23621117140834261 0.27732665952701641 0 0.24818821145747599 0.27522177653690871 0 0.24090080429007341 0.26281353644332878 0 0.22942687348362151 0.26728355318502178 0 0.23621117140834261 0.27732665952701641 0 0.24090080429007341 0.26281353644332878 0 0.24818821145747599 0.27522177653690871 0 0.24090080429007341 0.26281353644332878 0 0.25530776412370298 0.26639583896058622 0 0.23995652529561701 0.25039133628829258 0 0.24090080429007341 0.26281353644332878 0 0.25404003316197471 0.25208422786308371 0 0.23169913173193779 0.25404958449575432 0 0.23995652529561701 0.25039133628829258 0 0.24090080429007341 0.26281353644332878 0 0.23765651747073049 0.31117848176507701 0 0.2454028482605469 0.29267792886045368 0 0.25114017462525878 0.31153615041935723 0 0.23765651747073049 0.31117848176507701 0 0.2454028482605469 0.29267792886045368 0 0.2283396740985745 0.30195705682751389 0 0.2454028482605469 0.29267792886045368 0 0.23095623596381579 0.2876536505458 0 0.2283396740985745 0.30195705682751389 0 0.23621117140834261 0.27732665952701641 0 0.24818821145747599 0.27522177653690871 0 0.2454028482605469 0.29267792886045368 0 0.23621117140834261 0.27732665952701641 0 0.2454028482605469 0.29267792886045368 0 0.23095623596381579 0.2876536505458 0 0.2255322572178127 0.27738204478537232 0 0.23095623596381579 0.2876536505458 0 0.21985426169801439 0.28935406669317137 0 0.23095623596381579 0.2876536505458 0 0.21985426169801439 0.28935406669317137 0 0.2283396740985745 0.30195705682751389 0 0.2283396740985745 0.30195705682751389 0 0.2184758680590754 0.31184724711422762 0 0.22801070301179061 0.32060690690137728 0 0.21985426169801439 0.28935406669317137 0 0.2283396740985745 0.30195705682751389 0 0.21670572119465931 0.30172893354768798 0 0.23765651747073049 0.31117848176507701 0 0.2283396740985745 0.30195705682751389 0 0.22801070301179061 0.32060690690137728 0 0.2283396740985745 0.30195705682751389 0 0.2184758680590754 0.31184724711422762 0 0.21670572119465931 0.30172893354768798 0 0.2184758680590754 0.31184724711422762 0 0.21670572119465931 0.30172893354768798 0 0.20632342479934371 0.30585855598863948 0 0.21670572119465931 0.30172893354768798 0 0.20632342479934371 0.30585855598863948 0 0.21141614329998781 0.29390938293380992 0 0.20632342479934371 0.30585855598863948 0 0.21141614329998781 0.29390938293380992 0 0.2042452804315445 0.29308429151921322 0 0.21559138507808229 0.27635001083075639 0 0.21985426169801439 0.28935406669317137 0 0.2104384150331686 0.28649738738125968 0 0.21985426169801439 0.28935406669317137 0 0.21141614329998781 0.29390938293380992 0 0.2104384150331686 0.28649738738125968 0 0.21985426169801439 0.28935406669317137 0 0.21670572119465931 0.30172893354768798 0 0.21141614329998781 0.29390938293380992 0 0.21141614329998781 0.29390938293380992 0 0.2042452804315445 0.29308429151921322 0 0.2104384150331686 0.28649738738125968 0 0.2042452804315445 0.29308429151921322 0 0.2104384150331686 0.28649738738125968 0 0.20037669147028589 0.28371892366973078 0 0.21559138507808229 0.27635001083075639 0 0.2104384150331686 0.28649738738125968 0 0.20037669147028589 0.28371892366973078 0 0.20212350544635149 0.27452240688285762 0 0.20037669147028589 0.28371892366973078 0 0.1898902111984884 0.29891268329407239 0 0.18677859260729601 0.28760164196875848 0 0.1917381003592612 0.28136787577326228 0 0.1898902111984884 0.29891268329407239 0 0.20037669147028589 0.28371892366973078 0 0.1976595376627992 0.29976589533378561 0 0.1898902111984884 0.29891268329407239 0 0.2042452804315445 0.29308429151921322 0 0.20037669147028589 0.28371892366973078 0 0.1976595376627992 0.29976589533378561 0 0.20212350544635149 0.27452240688285762 0 0.1898902111984884 0.29891268329407239 0 0.20212350544635149 0.27452240688285762 0 0.1917381003592612 0.28136787577326228 0 0.1898902111984884 0.29891268329407239 0 0.20037669147028589 0.28371892366973078 0 0.1898902111984884 0.29891268329407239 0 0.18677859260729601 0.28760164196875848 0 0.1849298445554361 0.28099903695767547 0 0.1917381003592612 0.28136787577326228 0 0.20632342479934371 0.30585855598863948 0 0.19412409721151189 0.30848045781950378 0 0.19635424873152091 0.31866253726922511 0 0.20632342479934371 0.30585855598863948 0 0.1976595376627992 0.29976589533378561 0 0.19412409721151189 0.30848045781950378 0 0.20632342479934371 0.30585855598863948 0 0.2042452804315445 0.29308429151921322 0 0.1976595376627992 0.29976589533378561 0 0.18371952992762389 0.30785332357736089 0 0.1976595376627992 0.29976589533378561 0 0.1898902111984884 0.29891268329407239 0 0.18371952992762389 0.30785332357736089 0 0.19412409721151189 0.30848045781950378 0 0.19635424873152091 0.31866253726922511 0 0.18371952992762389 0.30785332357736089 0 0.1976595376627992 0.29976589533378561 0 0.19412409721151189 0.30848045781950378 0 0.19635424873152091 0.31866253726922511 0 0.19329834396814641 0.33328399686629978 0 0.21150607161232149 0.3245036863190196 0 0.19635424873152091 0.31866253726922511 0 0.19329834396814641 0.33328399686629978 0 0.1818581672390053 0.32281790922797782 0 0.19329834396814641 0.33328399686629978 0 0.20841238186686439 0.34472105417207632 0 0.1876990638134575 0.35190483133425488 0 0.19329834396814641 0.33328399686629978 0 0.21150607161232149 0.3245036863190196 0 0.20841238186686439 0.34472105417207632 0 0.21150607161232149 0.3245036863190196 0 0.22736457019319431 0.33776348264759248 0 0.20841238186686439 0.34472105417207632 0 0.20632342479934371 0.30585855598863948 0 0.19635424873152091 0.31866253726922511 0 0.21150607161232149 0.3245036863190196 0 0.2184758680590754 0.31184724711422762 0 0.20632342479934371 0.30585855598863948 0 0.21150607161232149 0.3245036863190196 0 0.21150607161232149 0.3245036863190196 0 0.22801070301179061 0.32060690690137728 0 0.22736457019319431 0.33776348264759248 0 0.2184758680590754 0.31184724711422762 0 0.21150607161232149 0.3245036863190196 0 0.22801070301179061 0.32060690690137728 0 0.22801070301179061 0.32060690690137728 0 0.22736457019319431 0.33776348264759248 0 0.24490867605631639 0.32967072069511189 0 0.22736457019319431 0.33776348264759248 0 0.24490867605631639 0.32967072069511189 0 0.24521693247762111 0.35027114815259558 0 0.23765651747073049 0.31117848176507701 0 0.22801070301179061 0.32060690690137728 0 0.24490867605631639 0.32967072069511189 0 0.23765651747073049 0.31117848176507701 0 0.24490867605631639 0.32967072069511189 0 0.25114017462525878 0.31153615041935723 0 0.24305895760768401 0.36641304215893011 0 0.24521693247762111 0.35027114815259558 0 0.22613265613425179 0.35680737964537468 0 0.22736457019319431 0.33776348264759248 0 0.24521693247762111 0.35027114815259558 0 0.22613265613425179 0.35680737964537468 0 0.22736457019319431 0.33776348264759248 0 0.22613265613425179 0.35680737964537468 0 0.20841238186686439 0.34472105417207632 0 0.22613265613425179 0.35680737964537468 0 0.20200890290724041 0.36500873302905812 0 0.22860253219506471 0.37841014948266538 0 0.24305895760768401 0.36641304215893011 0 0.22613265613425179 0.35680737964537468 0 0.22860253219506471 0.37841014948266538 0 0.20200890290724041 0.36500873302905812 0 0.22860253219506471 0.37841014948266538 0 0.22613265613425179 0.35680737964537468 0 0.20841238186686439 0.34472105417207632 0 0.20200890290724041 0.36500873302905812 0 0.20841238186686439 0.34472105417207632 0 0.1876990638134575 0.35190483133425488 0 0.20200890290724041 0.36500873302905812 0 0.1876990638134575 0.35190483133425488 0 0.20200890290724041 0.36500873302905812 0 0.17637045729064621 0.37495278481954358 0 0.1876990638134575 0.35190483133425488 0 0.17637045729064621 0.37495278481954358 0 0.16909864488713719 0.35514267549568418 0 0.15975417249048229 0.36968310563447321 0 0.16909864488713719 0.35514267549568418 0 0.14990537096685039 0.36070173528474042 0 0.17637045729064621 0.37495278481954358 0 0.15975417249048229 0.36968310563447321 0 0.16909864488713719 0.35514267549568418 0 0.16909864488713719 0.35514267549568418 0 0.1770056519607103 0.33831974362286749 0 0.1619384281755652 0.34052596047808847 0 0.16909864488713719 0.35514267549568418 0 0.14990537096685039 0.36070173528474042 0 0.15416632756111201 0.34898696826244741 0 0.16909864488713719 0.35514267549568418 0 0.1619384281755652 0.34052596047808847 0 0.15416632756111201 0.34898696826244741 0 0.1876990638134575 0.35190483133425488 0 0.16909864488713719 0.35514267549568418 0 0.1770056519607103 0.33831974362286749 0 0.19329834396814641 0.33328399686629978 0 0.1770056519607103 0.33831974362286749 0 0.1818581672390053 0.32281790922797782 0 0.19329834396814641 0.33328399686629978 0 0.1876990638134575 0.35190483133425488 0 0.1770056519607103 0.33831974362286749 0 0.1770056519607103 0.33831974362286749 0 0.1818581672390053 0.32281790922797782 0 0.1657389141743941 0.32607447656151611 0 0.1818581672390053 0.32281790922797782 0 0.1707678241303611 0.31259989648156872 0 0.1657389141743941 0.32607447656151611 0 0.18371952992762389 0.30785332357736089 0 0.19635424873152091 0.31866253726922511 0 0.1818581672390053 0.32281790922797782 0 0.18371952992762389 0.30785332357736089 0 0.1818581672390053 0.32281790922797782 0 0.1707678241303611 0.31259989648156872 0 0.1707678241303611 0.31259989648156872 0 0.1657389141743941 0.32607447656151611 0 0.16084478468494731 0.31759224325908281 0 0.1657389141743941 0.32607447656151611 0 0.15632698434060879 0.32309477146443721 0 0.16084478468494731 0.31759224325908281 0 0.1657389141743941 0.32607447656151611 0 0.15632698434060879 0.32309477146443721 0 0.1534459738215358 0.33116830427909388 0 0.15847128754916129 0.30901971199088751 0 0.1707678241303611 0.31259989648156872 0 0.16084478468494731 0.31759224325908281 0 0.15847128754916129 0.30901971199088751 0 0.16084478468494731 0.31759224325908281 0 0.1531779528472626 0.31690967251270458 0 0.15632698434060879 0.32309477146443721 0 0.16084478468494731 0.31759224325908281 0 0.1531779528472626 0.31690967251270458 0 0.1770056519607103 0.33831974362286749 0 0.1657389141743941 0.32607447656151611 0 0.1619384281755652 0.34052596047808847 0 0.1657389141743941 0.32607447656151611 0 0.1619384281755652 0.34052596047808847 0 0.1534459738215358 0.33116830427909388 0 0.1619384281755652 0.34052596047808847 0 0.14537830609435001 0.34101383565047871 0 0.15416632756111201 0.34898696826244741 0 0.1619384281755652 0.34052596047808847 0 0.1534459738215358 0.33116830427909388 0 0.14537830609435001 0.34101383565047871 0 0.1534459738215358 0.33116830427909388 0 0.1427633336259623 0.33140140495610498 0 0.14842729617490411 0.32372916070978858 0 0.1534459738215358 0.33116830427909388 0 0.1427633336259623 0.33140140495610498 0 0.14537830609435001 0.34101383565047871 0 0.1427633336259623 0.33140140495610498 0 0.14537830609435001 0.34101383565047871 0 0.13654253772275141 0.33890423694427602 0 0.1483486037307668 0.31106151759990119 0 0.1531779528472626 0.31690967251270458 0 0.14487070829517959 0.31682928085866202 0 0.1531779528472626 0.31690967251270458 0 0.14842729617490411 0.32372916070978858 0 0.14487070829517959 0.31682928085866202 0 0.15632698434060879 0.32309477146443721 0 0.1534459738215358 0.33116830427909388 0 0.14842729617490411 0.32372916070978858 0 0.15632698434060879 0.32309477146443721 0 0.1531779528472626 0.31690967251270458 0 0.14842729617490411 0.32372916070978858 0 0.1427633336259623 0.33140140495610498 0 0.14842729617490411 0.32372916070978858 0 0.1402378637359267 0.32270884290342983 0 0.14842729617490411 0.32372916070978858 0 0.14487070829517959 0.31682928085866202 0 0.1402378637359267 0.32270884290342983 0 0.1483486037307668 0.31106151759990119 0 0.14130712994747449 0.31140798331507108 0 0.14487070829517959 0.31682928085866202 0 0.14130712994747449 0.31140798331507108 0 0.14487070829517959 0.31682928085866202 0 0.13528824775885559 0.3155805734405937 0 0.14487070829517959 0.31682928085866202 0 0.13528824775885559 0.3155805734405937 0 0.1402378637359267 0.32270884290342983 0 0.13528824775885559 0.3155805734405937 0 0.1330765722643745 0.32249408610517011 0 0.1402378637359267 0.32270884290342983 0 0.1330765722643745 0.32249408610517011 0 0.1402378637359267 0.32270884290342983 0 0.13309473665224339 0.33072661256584468 0 0.12375204985912221 0.32702725796552912 0 0.1330765722643745 0.32249408610517011 0 0.13309473665224339 0.33072661256584468 0 0.12375204985912221 0.32702725796552912 0 0.1330765722643745 0.32249408610517011 0 0.12817088130983889 0.317450689473041 0 0.13528824775885559 0.3155805734405937 0 0.1330765722643745 0.32249408610517011 0 0.12817088130983889 0.317450689473041 0 0.1214195525311879 0.31440901896845502 0 0.12900107104525951 0.30968741412501871 0 0.12817088130983889 0.317450689473041 0 0.12900107104525951 0.30968741412501871 0 0.13528824775885559 0.3155805734405937 0 0.12817088130983889 0.317450689473041 0 0.14537830609435001 0.34101383565047871 0 0.13654253772275141 0.33890423694427602 0 0.13685475473781181 0.34959577292381833 0 0.13654253772275141 0.33890423694427602 0 0.1260676383484185 0.3399282146226113 0 0.13685475473781181 0.34959577292381833 0 0.1427633336259623 0.33140140495610498 0 0.13654253772275141 0.33890423694427602 0 0.13309473665224339 0.33072661256584468 0 0.1427633336259623 0.33140140495610498 0 0.1402378637359267 0.32270884290342983 0 0.13309473665224339 0.33072661256584468 0 0.12375204985912221 0.32702725796552912 0 0.13309473665224339 0.33072661256584468 0 0.1260676383484185 0.3399282146226113 0 0.13654253772275141 0.33890423694427602 0 0.13309473665224339 0.33072661256584468 0 0.1260676383484185 0.3399282146226113 0 0.1232256624926347 0.35239419723674059 0 0.13685475473781181 0.34959577292381833 0 0.13271547193899449 0.36524458735671972 0 0.1232256624926347 0.35239419723674059 0 0.1260676383484185 0.3399282146226113 0 0.13685475473781181 0.34959577292381833 0 0.13685475473781181 0.34959577292381833 0 0.13271547193899449 0.36524458735671972 0 0.14990537096685039 0.36070173528474042 0 0.13271547193899449 0.36524458735671972 0 0.14727668153694909 0.37350977329143831 0 0.1384203385310763 0.3853027474406937 0 0.13271547193899449 0.36524458735671972 0 0.14727668153694909 0.37350977329143831 0 0.14990537096685039 0.36070173528474042 0 0.15975417249048229 0.36968310563447321 0 0.14727668153694909 0.37350977329143831 0 0.14990537096685039 0.36070173528474042 0 0.14537830609435001 0.34101383565047871 0 0.13685475473781181 0.34959577292381833 0 0.15416632756111201 0.34898696826244741 0 0.13685475473781181 0.34959577292381833 0 0.14990537096685039 0.36070173528474042 0 0.15416632756111201 0.34898696826244741 0 0.15196678808574959 0.39634912392256672 0 0.1402717845598023 0.40641241395674649 0 0.16129649351817349 0.40676751558544272 0 0.15196678808574959 0.39634912392256672 0 0.1384203385310763 0.3853027474406937 0 0.1402717845598023 0.40641241395674649 0 0.15196678808574959 0.39634912392256672 0 0.15611970777082879 0.38410855928095938 0 0.1384203385310763 0.3853027474406937 0 0.14727668153694909 0.37350977329143831 0 0.15611970777082879 0.38410855928095938 0 0.1384203385310763 0.3853027474406937 0 0.15975417249048229 0.36968310563447321 0 0.14727668153694909 0.37350977329143831 0 0.15611970777082879 0.38410855928095938 0 0.1231373165426977 0.3806134049577457 0 0.13271547193899449 0.36524458735671972 0 0.1384203385310763 0.3853027474406937 0 0.1231373165426977 0.3806134049577457 0 0.1384203385310763 0.3853027474406937 0 0.1271742827044339 0.39597619803598749 0 0.1384203385310763 0.3853027474406937 0 0.1271742827044339 0.39597619803598749 0 0.1402717845598023 0.40641241395674649 0 0.1162621503634904 0.41872732341568758 0 0.1271742827044339 0.39597619803598749 0 0.1402717845598023 0.40641241395674649 0 0.1162621503634904 0.41872732341568758 0 0.1402717845598023 0.40641241395674649 0 0.14380353536204241 0.43078456768362461 0 0.1162621503634904 0.41872732341568758 0 0.14380353536204241 0.43078456768362461 0 0.1205619018159948 0.44674810255646558 0 0.1162621503634904 0.41872732341568758 0 0.13914808732176639 0.43525501877606959 0 0.1162621503634904 0.41872732341568758 0 0.13914808732176639 0.43525501877606959 0 0.14380353536204241 0.43078456768362461 0 0.1402717845598023 0.40641241395674649 0 0.16129649351817349 0.40676751558544272 0 0.1583102357697074 0.42239552662274649 0 0.1402717845598023 0.40641241395674649 0 0.14380353536204241 0.43078456768362461 0 0.1583102357697074 0.42239552662274649 0 0.16129649351817349 0.40676751558544272 0 0.17483444504792359 0.42517132393635743 0 0.1767108048052333 0.40648620419478521 0 0.16129649351817349 0.40676751558544272 0 0.1583102357697074 0.42239552662274649 0 0.17483444504792359 0.42517132393635743 0 0.1583102357697074 0.42239552662274649 0 0.17483444504792359 0.42517132393635743 0 0.1713449203605947 0.44284181195156158 0 0.14380353536204241 0.43078456768362461 0 0.1713449203605947 0.44284181195156158 0 0.14380353536204241 0.43078456768362461 0 0.1583102357697074 0.42239552662274649 0 0.1713449203605947 0.44284181195156158 0 0.17483444504792359 0.42517132393635743 0 0.18216746451451801 0.43740730714955978 0 0.1713449203605947 0.44284181195156158 0 0.17483444504792359 0.42517132393635743 0 0.1713449203605947 0.44284181195156158 0 0.17483444504792359 0.42517132393635743 0 0.1894098998784805 0.41329321868770491 0 0.19020123220431809 0.42989189963497759 0 0.17483444504792359 0.42517132393635743 0 0.18216746451451801 0.43740730714955978 0 0.19020123220431809 0.42989189963497759 0 0.17483444504792359 0.42517132393635743 0 0.1767108048052333 0.40648620419478521 0 0.1894098998784805 0.41329321868770491 0 0.1767108048052333 0.40648620419478521 0 0.16971698500113649 0.39319336099264368 0 0.18829620058045249 0.39400560177177729 0 0.1767108048052333 0.40648620419478521 0 0.18829620058045249 0.39400560177177729 0 0.1894098998784805 0.41329321868770491 0 0.15196678808574959 0.39634912392256672 0 0.15611970777082879 0.38410855928095938 0 0.16971698500113649 0.39319336099264368 0 0.15196678808574959 0.39634912392256672 0 0.16129649351817349 0.40676751558544272 0 0.16971698500113649 0.39319336099264368 0 0.16129649351817349 0.40676751558544272 0 0.1767108048052333 0.40648620419478521 0 0.16971698500113649 0.39319336099264368 0 0.17637045729064621 0.37495278481954358 0 0.15975417249048229 0.36968310563447321 0 0.15611970777082879 0.38410855928095938 0 0.17637045729064621 0.37495278481954358 0 0.15611970777082879 0.38410855928095938 0 0.16971698500113649 0.39319336099264368 0 0.17637045729064621 0.37495278481954358 0 0.16971698500113649 0.39319336099264368 0 0.18829620058045249 0.39400560177177729 0 0.20200890290724041 0.36500873302905812 0 0.18829620058045249 0.39400560177177729 0 0.21022739730807871 0.38998636848418261 0 0.20200890290724041 0.36500873302905812 0 0.17637045729064621 0.37495278481954358 0 0.18829620058045249 0.39400560177177729 0 0.18829620058045249 0.39400560177177729 0 0.21022739730807871 0.38998636848418261 0 0.20498907662426999 0.40636669370009521 0 0.18829620058045249 0.39400560177177729 0 0.20498907662426999 0.40636669370009521 0 0.1894098998784805 0.41329321868770491 0 0.21022739730807871 0.38998636848418261 0 0.225418264115859 0.4045632601918206 0 0.20498907662426999 0.40636669370009521 0 0.20200890290724041 0.36500873302905812 0 0.21022739730807871 0.38998636848418261 0 0.22860253219506471 0.37841014948266538 0 0.21022739730807871 0.38998636848418261 0 0.22860253219506471 0.37841014948266538 0 0.225418264115859 0.4045632601918206 0 0.225418264115859 0.4045632601918206 0 0.2490748840761759 0.41447913741323361 0 0.25519616148288887 0.39181156593627298 0 0.22860253219506471 0.37841014948266538 0 0.225418264115859 0.4045632601918206 0 0.25519616148288887 0.39181156593627298 0 0.22860253219506471 0.37841014948266538 0 0.25519616148288887 0.39181156593627298 0 0.24305895760768401 0.36641304215893011 0 0.22860253219506471 0.37841014948266538 0 0.25519616148288887 0.39181156593627298 0 0.2490748840761759 0.41447913741323361 0 0.23040520055063371 0.42472223384156732 0 0.24517769652138269 0.43868647355565088 0 0.225418264115859 0.4045632601918206 0 0.2490748840761759 0.41447913741323361 0 0.23040520055063371 0.42472223384156732 0 0.225418264115859 0.4045632601918206 0 0.23040520055063371 0.42472223384156732 0 0.20794960100346549 0.42683021087399747 0 0.23040520055063371 0.42472223384156732 0 0.20794960100346549 0.42683021087399747 0 0.2229924843016429 0.43948176305630821 0 0.23040520055063371 0.42472223384156732 0 0.2229924843016429 0.43948176305630821 0 0.24517769652138269 0.43868647355565088 0 0.225418264115859 0.4045632601918206 0 0.20794960100346549 0.42683021087399747 0 0.20498907662426999 0.40636669370009521 0 0.20794960100346549 0.42683021087399747 0 0.20498907662426999 0.40636669370009521 0 0.1894098998784805 0.41329321868770491 0 0.20794960100346549 0.42683021087399747 0 0.19020123220431809 0.42989189963497759 0 0.19426067079655579 0.44330707928475449 0 0.20794960100346549 0.42683021087399747 0 0.1894098998784805 0.41329321868770491 0 0.19020123220431809 0.42989189963497759 0 0.18216746451451801 0.43740730714955978 0 0.19020123220431809 0.42989189963497759 0 0.19426067079655579 0.44330707928475449 0 0.19426067079655579 0.44330707928475449 0 0.1940681668251448 0.45640187690020761 0 0.18254949088188149 0.4477470207382499 0 0.19426067079655579 0.44330707928475449 0 0.1940681668251448 0.45640187690020761 0 0.20814429074563079 0.44944136850783811 0 0.1940681668251448 0.45640187690020761 0 0.20814429074563079 0.44944136850783811 0 0.2039949308663013 0.472197178379127 0 0.1940681668251448 0.45640187690020761 0 0.2039949308663013 0.472197178379127 0 0.18608081776579821 0.46867989557539208 0 0.1940681668251448 0.45640187690020761 0 0.18608081776579821 0.46867989557539208 0 0.18254949088188149 0.4477470207382499 0 0.20814429074563079 0.44944136850783811 0 0.22852149564367849 0.45772005811557609 0 0.2039949308663013 0.472197178379127 0 0.20794960100346549 0.42683021087399747 0 0.19426067079655579 0.44330707928475449 0 0.20814429074563079 0.44944136850783811 0 0.20794960100346549 0.42683021087399747 0 0.20814429074563079 0.44944136850783811 0 0.2229924843016429 0.43948176305630821 0 0.2229924843016429 0.43948176305630821 0 0.22852149564367849 0.45772005811557609 0 0.24517769652138269 0.43868647355565088 0 0.20814429074563079 0.44944136850783811 0 0.2229924843016429 0.43948176305630821 0 0.22852149564367849 0.45772005811557609 0 0.22852149564367849 0.45772005811557609 0 0.2480713074063006 0.45455858161591112 0 0.2508124586903176 0.47172026355836871 0 0.22852149564367849 0.45772005811557609 0 0.2480713074063006 0.45455858161591112 0 0.24517769652138269 0.43868647355565088 0 0.24658834009167641 0.5 0 0.2268462464291012 0.47913099520174052 0 0.2508124586903176 0.47172026355836871 0 0.22852149564367849 0.45772005811557609 0 0.2268462464291012 0.47913099520174052 0 0.2508124586903176 0.47172026355836871 0 0.22852149564367849 0.45772005811557609 0 0.2268462464291012 0.47913099520174052 0 0.2039949308663013 0.472197178379127 0 0.24658834009167641 0.5 0 0.2268462464291012 0.47913099520174052 0 0.21774471386125249 0.5 0 0.2039949308663013 0.472197178379127 0 0.18890108763082861 0.5 0 0.18608081776579821 0.46867989557539208 0 0.21774471386125249 0.5 0 0.2039949308663013 0.472197178379127 0 0.18890108763082861 0.5 0 0.2268462464291012 0.47913099520174052 0 0.21774471386125249 0.5 0 0.2039949308663013 0.472197178379127 0 0.18890108763082861 0.5 0 0.16570119088049859 0.47142090597577962 0 0.18608081776579821 0.46867989557539208 0 0.18890108763082861 0.5 0 0.1600574614004048 0.499999999999998 0 0.16570119088049859 0.47142090597577962 0 0.1600574614004048 0.499999999999998 0 0.16570119088049859 0.47142090597577962 0 0.1600574614004048 0.499999999999998 0 0.16570119088049859 0.47142090597577962 0 0.1473140710794911 0.47841155746419622 0 0.16570119088049859 0.47142090597577962 0 0.18608081776579821 0.46867989557539208 0 0.18254949088188149 0.4477470207382499 0 0.16570119088049859 0.47142090597577962 0 0.18254949088188149 0.4477470207382499 0 0.1713449203605947 0.44284181195156158 0 0.18216746451451801 0.43740730714955978 0 0.19426067079655579 0.44330707928475449 0 0.18254949088188149 0.4477470207382499 0 0.18254949088188149 0.4477470207382499 0 0.1713449203605947 0.44284181195156158 0 0.18216746451451801 0.43740730714955978 0 0.18254949088188149 0.4477470207382499 0 0.1713449203605947 0.44284181195156158 0 0.16570119088049859 0.47142090597577962 0 0.1713449203605947 0.44284181195156158 0 0.16570119088049859 0.47142090597577962 0 0.1713449203605947 0.44284181195156158 0 0.15076126992746861 0.45128164001408699 0 0.16570119088049859 0.47142090597577962 0 0.14979107830043681 0.4659705410046826 0 0.15076126992746861 0.45128164001408699 0 0.14979107830043681 0.4659705410046826 0 0.15076126992746861 0.45128164001408699 0 0.13538778131428869 0.46276806056466779 0 0.13914808732176639 0.43525501877606959 0 0.14380353536204241 0.43078456768362461 0 0.15076126992746861 0.45128164001408699 0 0.14380353536204241 0.43078456768362461 0 0.1713449203605947 0.44284181195156158 0 0.15076126992746861 0.45128164001408699 0 0.13914808732176639 0.43525501877606959 0 0.15076126992746861 0.45128164001408699 0 0.13538778131428869 0.46276806056466779 0 0.13914808732176639 0.43525501877606959 0 0.13538778131428869 0.46276806056466779 0 0.1205619018159948 0.44674810255646558 0 0.13914808732176639 0.43525501877606959 0 0.13538778131428869 0.46276806056466779 0 0.1248616532684987 0.47476888169724352 0 0.1205619018159948 0.44674810255646558 0 0.13538778131428869 0.46276806056466779 0 0.13538778131428869 0.46276806056466779 0 0.13162747530681079 0.49028110235326611 0 0.1248616532684987 0.47476888169724352 0 0.13538778131428869 0.46276806056466779 0 0.13162747530681079 0.49028110235326611 0 0.13538778131428869 0.46276806056466779 0 0.13162747530681079 0.49028110235326611 0 0.1473140710794911 0.47841155746419622 0 0.1248616532684987 0.47476888169724352 0 0.13162747530681079 0.49028110235326611 0 0.1248616532684987 0.47476888169724352 0 0.1287333349596296 0.50000000000000233 0 0.1248616532684987 0.47476888169724352 0 0.13162747530681079 0.49028110235326611 0 0.1287333349596296 0.50000000000000233 0 0.13162747530681079 0.49028110235326611 0 0.1302991587401483 0.50000000000000044 0 0.13162747530681079 0.49028110235326611 0 0.1302991587401483 0.50000000000000044 0 0.13586647714571501 0.50000000000000044 0 0.13162747530681079 0.49028110235326611 0 0.1287333349596296 0.50000000000000233 0 0.1302991587401483 0.50000000000000044 0 0.13162747530681079 0.49028110235326611 0 0.13586647714571501 0.50000000000000044 0 0.14406777576738011 0.49099847585001533 0 0.13162747530681079 0.49028110235326611 0 0.13586647714571501 0.50000000000000044 0 0.1600574614004048 0.499999999999998 0 0.13586647714571501 0.50000000000000044 0 0.14406777576738011 0.49099847585001533 0 0.1600574614004048 0.499999999999998 0 0.14406777576738011 0.49099847585001533 0 0.1473140710794911 0.47841155746419622 0 0.13162747530681079 0.49028110235326611 0 0.14406777576738011 0.49099847585001533 0 0.1473140710794911 0.47841155746419622 0 0.16570119088049859 0.47142090597577962 0 0.14979107830043681 0.4659705410046826 0 0.1473140710794911 0.47841155746419622 0 0.14979107830043681 0.4659705410046826 0 0.13538778131428869 0.46276806056466779 0 0.1473140710794911 0.47841155746419622 0 0.3484716028812469 0.46927922019571022 0 0.3639431844790027 0.47792576209206161 0 0.36215729707138089 0.45952194433731441 0 0.3484716028812469 0.46927922019571022 0 0.34825454286986979 0.4866410253547736 0 0.3639431844790027 0.47792576209206161 0 0.34825454286986979 0.4866410253547736 0 0.36196284501337178 0.5 0 0.3639431844790027 0.47792576209206161 0 0.34825454286986979 0.4866410253547736 0 0.36196284501337178 0.5 0 0.33311921878294798 0.5 0 0.36196284501337178 0.5 0 0.3639431844790027 0.47792576209206161 0 0.38120033573297152 0.48442634992442057 0 0.3639431844790027 0.47792576209206161 0 0.37844435483634198 0.4675903904274426 0 0.38120033573297152 0.48442634992442057 0 0.3639431844790027 0.47792576209206161 0 0.36215729707138089 0.45952194433731441 0 0.37844435483634198 0.4675903904274426 0 0.36215729707138089 0.45952194433731441 0 0.37809165231809289 0.44568724501072521 0 0.37844435483634198 0.4675903904274426 0 0.36215729707138089 0.45952194433731441 0 0.35494335133579169 0.44207750056399991 0 0.37809165231809289 0.44568724501072521 0 0.35494335133579169 0.44207750056399991 0 0.365542703577178 0.42914551292816783 0 0.37809165231809289 0.44568724501072521 0 0.35494335133579169 0.44207750056399991 0 0.33746945485668051 0.4332718215327816 0 0.35494335133579169 0.44207750056399991 0 0.33933393763431879 0.44574212964051668 0 0.33746945485668051 0.4332718215327816 0 0.36215729707138089 0.45952194433731441 0 0.35494335133579169 0.44207750056399991 0 0.34904963657780902 0.45457154773394731 0 0.35494335133579169 0.44207750056399991 0 0.34904963657780902 0.45457154773394731 0 0.33933393763431879 0.44574212964051668 0 0.3484716028812469 0.46927922019571022 0 0.36215729707138089 0.45952194433731441 0 0.34904963657780902 0.45457154773394731 0 0.3484716028812469 0.46927922019571022 0 0.34904963657780902 0.45457154773394731 0 0.33768006752307722 0.45817683321967928 0 0.33768006752307722 0.45817683321967928 0 0.32516604183334019 0.44948070643492349 0 0.3263791186886712 0.4718105620932988 0 0.3484716028812469 0.46927922019571022 0 0.33768006752307722 0.45817683321967928 0 0.3263791186886712 0.4718105620932988 0 0.33933393763431879 0.44574212964051668 0 0.32516604183334019 0.44948070643492349 0 0.33457771181584611 0.43369686048393857 0 0.32516604183334019 0.44948070643492349 0 0.33457771181584611 0.43369686048393857 0 0.33933393763431879 0.44574212964051668 0 0.33457771181584611 0.43369686048393857 0 0.33746945485668051 0.4332718215327816 0 0.34904963657780902 0.45457154773394731 0 0.33768006752307722 0.45817683321967928 0 0.33933393763431879 0.44574212964051668 0 0.33768006752307722 0.45817683321967928 0 0.33933393763431879 0.44574212964051668 0 0.32516604183334019 0.44948070643492349 0 0.32516604183334019 0.44948070643492349 0 0.30610823095482448 0.43788140873538328 0 0.33457771181584611 0.43369686048393857 0 0.32516604183334019 0.44948070643492349 0 0.30909376894118562 0.45443190325323968 0 0.30610823095482448 0.43788140873538328 0 0.32516604183334019 0.44948070643492349 0 0.3263791186886712 0.4718105620932988 0 0.30909376894118562 0.45443190325323968 0 0.3263791186886712 0.4718105620932988 0 0.30059931196992168 0.47005809262963882 0 0.31153103284441203 0.48323920778459489 0 0.3484716028812469 0.46927922019571022 0 0.34825454286986979 0.4866410253547736 0 0.3263791186886712 0.4718105620932988 0 0.34825454286986979 0.4866410253547736 0 0.3263791186886712 0.4718105620932988 0 0.33311921878294798 0.5 0 0.3263791186886712 0.4718105620932988 0 0.33311921878294798 0.5 0 0.31153103284441203 0.48323920778459489 0 0.33311921878294798 0.5 0 0.30427559255252412 0.5 0 0.31153103284441203 0.48323920778459489 0 0.30427559255252412 0.5 0 0.31153103284441203 0.48323920778459489 0 0.29110307967174748 0.48580921065493432 0 0.30059931196992168 0.47005809262963882 0 0.31153103284441203 0.48323920778459489 0 0.29110307967174748 0.48580921065493432 0 0.30059931196992168 0.47005809262963882 0 0.29110307967174748 0.48580921065493432 0 0.27585954767988607 0.47408041721782612 0 0.30427559255252412 0.5 0 0.29110307967174748 0.48580921065493432 0 0.27543196632210021 0.5 0 0.27543196632210021 0.5 0 0.27585954767988607 0.47408041721782612 0 0.26198527678341299 0.48673919500437729 0 0.29110307967174748 0.48580921065493432 0 0.27543196632210021 0.5 0 0.27585954767988607 0.47408041721782612 0 0.27585954767988607 0.47408041721782612 0 0.2508124586903176 0.47172026355836871 0 0.26198527678341299 0.48673919500437729 0 0.24658834009167641 0.5 0 0.2508124586903176 0.47172026355836871 0 0.26198527678341299 0.48673919500437729 0 0.24658834009167641 0.5 0 0.27543196632210021 0.5 0 0.26198527678341299 0.48673919500437729 0 0.2480713074063006 0.45455858161591112 0 0.24517769652138269 0.43868647355565088 0 0.26777357876982372 0.45010753123404867 0 0.24517769652138269 0.43868647355565088 0 0.26777357876982372 0.45010753123404867 0 0.26600993858745892 0.42808938636359573 0 0.2480713074063006 0.45455858161591112 0 0.2508124586903176 0.47172026355836871 0 0.26777357876982372 0.45010753123404867 0 0.27585954767988607 0.47408041721782612 0 0.2508124586903176 0.47172026355836871 0 0.26777357876982372 0.45010753123404867 0 0.27585954767988607 0.47408041721782612 0 0.26777357876982372 0.45010753123404867 0 0.28975077836376328 0.45156795454144122 0 0.26777357876982372 0.45010753123404867 0 0.28975077836376328 0.45156795454144122 0 0.28607917402868899 0.43188291486824332 0 0.28975077836376328 0.45156795454144122 0 0.30610823095482448 0.43788140873538328 0 0.28607917402868899 0.43188291486824332 0 0.30059931196992168 0.47005809262963882 0 0.27585954767988607 0.47408041721782612 0 0.28975077836376328 0.45156795454144122 0 0.3263791186886712 0.4718105620932988 0 0.30059931196992168 0.47005809262963882 0 0.30909376894118562 0.45443190325323968 0 0.30059931196992168 0.47005809262963882 0 0.28975077836376328 0.45156795454144122 0 0.30909376894118562 0.45443190325323968 0 0.28975077836376328 0.45156795454144122 0 0.30909376894118562 0.45443190325323968 0 0.30610823095482448 0.43788140873538328 0 0.30610823095482448 0.43788140873538328 0 0.30869255759955722 0.41877018355733042 0 0.28607917402868899 0.43188291486824332 0 0.3075810200549029 0.4073564129674252 0 0.30869255759955722 0.41877018355733042 0 0.30232024370737348 0.40459188745546998 0 0.31142364564813352 0.41093370315849659 0 0.3075810200549029 0.4073564129674252 0 0.31015955469665918 0.40201373970895371 0 0.31142364564813352 0.41093370315849659 0 0.3075810200549029 0.4073564129674252 0 0.30869255759955722 0.41877018355733042 0 0.30869255759955722 0.41877018355733042 0 0.29605666041485018 0.40551048050067168 0 0.30232024370737348 0.40459188745546998 0 0.30869255759955722 0.41877018355733042 0 0.2819443595412231 0.40529087474680159 0 0.30869255759955722 0.41877018355733042 0 0.2819443595412231 0.40529087474680159 0 0.29605666041485018 0.40551048050067168 0 0.30869255759955722 0.41877018355733042 0 0.28607917402868899 0.43188291486824332 0 0.2819443595412231 0.40529087474680159 0 0.2490748840761759 0.41447913741323361 0 0.26600993858745892 0.42808938636359573 0 0.2819443595412231 0.40529087474680159 0 0.26777357876982372 0.45010753123404867 0 0.28607917402868899 0.43188291486824332 0 0.26600993858745892 0.42808938636359573 0 0.28607917402868899 0.43188291486824332 0 0.26600993858745892 0.42808938636359573 0 0.2819443595412231 0.40529087474680159 0 0.2490748840761759 0.41447913741323361 0 0.24517769652138269 0.43868647355565088 0 0.26600993858745892 0.42808938636359573 0 0.2490748840761759 0.41447913741323361 0 0.25519616148288887 0.39181156593627298 0 0.2819443595412231 0.40529087474680159 0 0.25519616148288887 0.39181156593627298 0 0.2618259464583832 0.36726095095448358 0 0.25519616148288887 0.39181156593627298 0 0.27405714121884811 0.38409687161834088 0 0.2618259464583832 0.36726095095448358 0 0.24305895760768401 0.36641304215893011 0 0.25519616148288887 0.39181156593627298 0 0.2618259464583832 0.36726095095448358 0 0.2490748840761759 0.41447913741323361 0 0.25519616148288887 0.39181156593627298 0 0.27405714121884811 0.38409687161834088 0 0.2819443595412231 0.40529087474680159 0 0.28762179706039948 0.39125587461843808 0 0.25519616148288887 0.39181156593627298 0 0.2819443595412231 0.40529087474680159 0 0.25519616148288887 0.39181156593627298 0 0.27405714121884811 0.38409687161834088 0 0.2819443595412231 0.40529087474680159 0 0.27405714121884811 0.38409687161834088 0 0.28403056220722062 0.37531448917755911 0 0.2737626695690904 0.37327007608818358 0 0.27405714121884811 0.38409687161834088 0 0.28403056220722062 0.37531448917755911 0 0.28762179706039948 0.39125587461843808 0 0.29405085274881382 0.37834813740539031 0 0.28762179706039948 0.39125587461843808 0 0.30049862001061489 0.39881078008944609 0 0.28403056220722062 0.37531448917755911 0 0.29405085274881382 0.37834813740539031 0 0.28762179706039948 0.39125587461843808 0 0.2819443595412231 0.40529087474680159 0 0.28762179706039948 0.39125587461843808 0 0.29316512877403511 0.40022580951085568 0 0.28762179706039948 0.39125587461843808 0 0.29316512877403511 0.40022580951085568 0 0.30049862001061489 0.39881078008944609 0 0.2819443595412231 0.40529087474680159 0 0.29316512877403511 0.40022580951085568 0 0.29605666041485018 0.40551048050067168 0 0.29316512877403511 0.40022580951085568 0 0.29605666041485018 0.40551048050067168 0 0.30042223720462058 0.4004666581126537 0 0.29605666041485018 0.40551048050067168 0 0.30232024370737348 0.40459188745546998 0 0.30042223720462058 0.4004666581126537 0 0.29316512877403511 0.40022580951085568 0 0.30042223720462058 0.4004666581126537 0 0.30049862001061489 0.39881078008944609 0 0.30042223720462058 0.4004666581126537 0 0.30049862001061489 0.39881078008944609 0 0.30232024370737348 0.40459188745546998 0 0.30049862001061489 0.39881078008944609 0 0.30232024370737348 0.40459188745546998 0 0.30049862001061489 0.39881078008944609 0 0.30430913302558388 0.40020258685778032 0 0.30232024370737348 0.40459188745546998 0 0.30042223720462058 0.4004666581126537 0 0.30049862001061489 0.39881078008944609 0 0.30049862001061489 0.39881078008944609 0 0.30098622665836988 0.38824011406760628 0 0.30049862001061489 0.39881078008944609 0 0.30430913302558388 0.40020258685778032 0 0.30098622665836988 0.38824011406760628 0 0.30098622665836988 0.38824011406760628 0 0.30110064445947421 0.38575968774854158 0 0.31262554991773928 0.39787599139405988 0 0.31015955469665918 0.40201373970895371 0 0.30098622665836988 0.38824011406760628 0 0.30110064445947421 0.38575968774854158 0 0.31262554991773928 0.39787599139405988 0 0.30430913302558388 0.40020258685778032 0 0.31015955469665918 0.40201373970895371 0 0.30098622665836988 0.38824011406760628 0 0.31015955469665918 0.40201373970895371 0 0.30098622665836988 0.38824011406760628 0 0.31262554991773928 0.39787599139405988 0 0.3075810200549029 0.4073564129674252 0 0.30232024370737348 0.40459188745546998 0 0.30430913302558388 0.40020258685778032 0 0.3075810200549029 0.4073564129674252 0 0.30430913302558388 0.40020258685778032 0 0.31015955469665918 0.40201373970895371 0 0.29405085274881382 0.37834813740539031 0 0.30049862001061489 0.39881078008944609 0 0.29405085274881382 0.37834813740539031 0 0.30049862001061489 0.39881078008944609 0 0.30098622665836988 0.38824011406760628 0 0.30110064445947421 0.38575968774854158 0 0.30177514978199971 0.3711373061071076 0 0.30110064445947421 0.38575968774854158 0 0.3104817065657739 0.3858680532317833 0 0.30177514978199971 0.3711373061071076 0 0.29405085274881382 0.37834813740539031 0 0.30110064445947421 0.38575968774854158 0 0.30177514978199971 0.3711373061071076 0 0.29405085274881382 0.37834813740539031 0 0.30110064445947421 0.38575968774854158 0 0.29405085274881382 0.37834813740539031 0 0.30098622665836988 0.38824011406760628 0 0.30110064445947421 0.38575968774854158 0 0.29405085274881382 0.37834813740539031 0 0.30098622665836988 0.38824011406760628 0 0.30098622665836988 0.38824011406760628 0 0.30110064445947421 0.38575968774854158 0 0.30110064445947421 0.38575968774854158 0 0.3104817065657739 0.3858680532317833 0 0.31262554991773928 0.39787599139405988 0 0.3104817065657739 0.3858680532317833 0 0.30177514978199971 0.3711373061071076 0 0.3104817065657739 0.3858680532317833 0 0.31717345926189522 0.3709258031848055 0 0.30177514978199971 0.3711373061071076 0 0.3104817065657739 0.3858680532317833 0 0.3376156911696272 0.37620073599141618 0 0.3104817065657739 0.3858680532317833 0 0.3376156911696272 0.37620073599141618 0 0.31717345926189522 0.3709258031848055 0 0.3104817065657739 0.3858680532317833 0 0.3376156911696272 0.37620073599141618 0 0.3351802944883514 0.39738750443412002 0 0.3376156911696272 0.37620073599141618 0 0.3351802944883514 0.39738750443412002 0 0.34879159400795012 0.38769315231290841 0 0.3351802944883514 0.39738750443412002 0 0.33658962428999861 0.41133204962483783 0 0.34988972217452752 0.40801784569160632 0 0.3351802944883514 0.39738750443412002 0 0.32415045537600512 0.40999229503957763 0 0.33658962428999861 0.41133204962483783 0 0.3351802944883514 0.39738750443412002 0 0.31909953512109351 0.40044867980609039 0 0.32415045537600512 0.40999229503957763 0 0.3104817065657739 0.3858680532317833 0 0.3351802944883514 0.39738750443412002 0 0.31909953512109351 0.40044867980609039 0 0.3104817065657739 0.3858680532317833 0 0.31909953512109351 0.40044867980609039 0 0.3104817065657739 0.3858680532317833 0 0.31262554991773928 0.39787599139405988 0 0.31909953512109351 0.40044867980609039 0 0.31262554991773928 0.39787599139405988 0 0.32415045537600512 0.40999229503957763 0 0.31015955469665918 0.40201373970895371 0 0.31262554991773928 0.39787599139405988 0 0.32415045537600512 0.40999229503957763 0 0.31262554991773928 0.39787599139405988 0 0.31909953512109351 0.40044867980609039 0 0.32415045537600512 0.40999229503957763 0 0.31015955469665918 0.40201373970895371 0 0.31933288273494848 0.41578736535030097 0 0.32415045537600512 0.40999229503957763 0 0.31142364564813352 0.41093370315849659 0 0.31015955469665918 0.40201373970895371 0 0.31933288273494848 0.41578736535030097 0 0.30869255759955722 0.41877018355733042 0 0.31933288273494848 0.41578736535030097 0 0.32906281765607392 0.42006619542527468 0 0.31015955469665918 0.40201373970895371 0 0.31933288273494848 0.41578736535030097 0 0.31142364564813352 0.41093370315849659 0 0.30869255759955722 0.41877018355733042 0 0.31933288273494848 0.41578736535030097 0 0.31933288273494848 0.41578736535030097 0 0.32415045537600512 0.40999229503957763 0 0.32906281765607392 0.42006619542527468 0 0.30869255759955722 0.41877018355733042 0 0.33457771181584611 0.43369686048393857 0 0.33544075565789128 0.43224949236785898 0 0.30869255759955722 0.41877018355733042 0 0.33544075565789128 0.43224949236785898 0 0.30610823095482448 0.43788140873538328 0 0.30869255759955722 0.41877018355733042 0 0.33457771181584611 0.43369686048393857 0 0.30869255759955722 0.41877018355733042 0 0.33544075565789128 0.43224949236785898 0 0.32906281765607392 0.42006619542527468 0 0.30610823095482448 0.43788140873538328 0 0.33457771181584611 0.43369686048393857 0 0.33457771181584611 0.43369686048393857 0 0.33544075565789128 0.43224949236785898 0 0.33746945485668051 0.4332718215327816 0 0.33457771181584611 0.43369686048393857 0 0.33544075565789128 0.43224949236785898 0 0.33544075565789128 0.43224949236785898 0 0.33746945485668051 0.4332718215327816 0 0.35001853239939229 0.42365555934674631 0 0.33544075565789128 0.43224949236785898 0 0.33746945485668051 0.4332718215327816 0 0.33457771181584611 0.43369686048393857 0 0.33746945485668051 0.4332718215327816 0 0.33544075565789128 0.43224949236785898 0 0.33658962428999861 0.41133204962483783 0 0.34988972217452752 0.40801784569160632 0 0.33544075565789128 0.43224949236785898 0 0.32906281765607392 0.42006619542527468 0 0.33658962428999861 0.41133204962483783 0 0.33544075565789128 0.43224949236785898 0 0.34988972217452752 0.40801784569160632 0 0.32415045537600512 0.40999229503957763 0 0.32906281765607392 0.42006619542527468 0 0.33658962428999861 0.41133204962483783 0 0.33544075565789128 0.43224949236785898 0 0.34988972217452752 0.40801784569160632 0 0.35001853239939229 0.42365555934674631 0 0.34988972217452752 0.40801784569160632 0 0.36165970526353591 0.41519797525725338 0 0.36412400085156282 0.39702719229323191 0 0.34988972217452752 0.40801784569160632 0 0.35001853239939229 0.42365555934674631 0 0.36165970526353591 0.41519797525725338 0 0.35494335133579169 0.44207750056399991 0 0.33746945485668051 0.4332718215327816 0 0.365542703577178 0.42914551292816783 0 0.33746945485668051 0.4332718215327816 0 0.35001853239939229 0.42365555934674631 0 0.365542703577178 0.42914551292816783 0 0.33746945485668051 0.4332718215327816 0 0.365542703577178 0.42914551292816783 0 0.35001853239939229 0.42365555934674631 0 0.365542703577178 0.42914551292816783 0 0.36165970526353591 0.41519797525725338 0 0.365542703577178 0.42914551292816783 0 0.36165970526353591 0.41519797525725338 0 0.37744029411777058 0.41252948965876268 0 0.36165970526353591 0.41519797525725338 0 0.36412400085156282 0.39702719229323191 0 0.37744029411777058 0.41252948965876268 0 0.36412400085156282 0.39702719229323191 0 0.38026367080056678 0.39066664182047522 0 0.37744029411777058 0.41252948965876268 0 0.34988972217452752 0.40801784569160632 0 0.36412400085156282 0.39702719229323191 0 0.36433868869116592 0.38378619901535488 0 0.36433868869116592 0.38378619901535488 0 0.3773824667175657 0.37546563606013739 0 0.38026367080056678 0.39066664182047522 0 0.36433868869116592 0.38378619901535488 0 0.36474967577348072 0.36653341875104961 0 0.3773824667175657 0.37546563606013739 0 0.36412400085156282 0.39702719229323191 0 0.36433868869116592 0.38378619901535488 0 0.38026367080056678 0.39066664182047522 0 0.36433868869116592 0.38378619901535488 0 0.36474967577348072 0.36653341875104961 0 0.36412400085156282 0.39702719229323191 0 0.36433868869116592 0.38378619901535488 0 0.3376156911696272 0.37620073599141618 0 0.34879159400795012 0.38769315231290841 0 0.36474967577348072 0.36653341875104961 0 0.36433868869116592 0.38378619901535488 0 0.34879159400795012 0.38769315231290841 0 0.36474967577348072 0.36653341875104961 0 0.3351802944883514 0.39738750443412002 0 0.34988972217452752 0.40801784569160632 0 0.34879159400795012 0.38769315231290841 0 0.34988972217452752 0.40801784569160632 0 0.36433868869116592 0.38378619901535488 0 0.34988972217452752 0.40801784569160632 0 0.36433868869116592 0.38378619901535488 0 0.34879159400795012 0.38769315231290841 0 0.34699100967064078 0.35539672769273539 0 0.36474967577348072 0.36653341875104961 0 0.36518945593320651 0.34509967395937191 0 0.34699100967064078 0.35539672769273539 0 0.36518945593320651 0.34509967395937191 0 0.348137396692076 0.34077307725183559 0 0.3376156911696272 0.37620073599141618 0 0.34699100967064078 0.35539672769273539 0 0.36474967577348072 0.36653341875104961 0 0.3376156911696272 0.37620073599141618 0 0.36474967577348072 0.36653341875104961 0 0.36474967577348072 0.36653341875104961 0 0.36518945593320651 0.34509967395937191 0 0.36474967577348072 0.36653341875104961 0 0.36518945593320651 0.34509967395937191 0 0.3855881021147175 0.35910908792858098 0 0.36518945593320651 0.34509967395937191 0 0.36562923609293069 0.32366592916769399 0 0.36518945593320651 0.34509967395937191 0 0.36562923609293069 0.32366592916769399 0 0.348137396692076 0.34077307725183559 0 0.36518945593320651 0.34509967395937191 0 0.36562923609293069 0.32366592916769399 0 0.38128435600444488 0.32837669887387311 0 0.36562923609293069 0.32366592916769399 0 0.36606901625265492 0.30223218437601618 0 0.38242981621443428 0.31397380775534678 0 0.36562923609293069 0.32366592916769399 0 0.36606901625265492 0.30223218437601618 0 0.36562923609293069 0.32366592916769399 0 0.34238706329751362 0.32476320095938682 0 0.35183379698966949 0.31056891257481539 0 0.36562923609293069 0.32366592916769399 0 0.348137396692076 0.34077307725183559 0 0.34238706329751362 0.32476320095938682 0 0.348137396692076 0.34077307725183559 0 0.33072504187423118 0.34237289876026822 0 0.34238706329751362 0.32476320095938682 0 0.33072504187423118 0.34237289876026822 0 0.34238706329751362 0.32476320095938682 0 0.32122702449841589 0.32177081607522939 0 0.34238706329751362 0.32476320095938682 0 0.33644502425256478 0.30910566618648461 0 0.35183379698966949 0.31056891257481539 0 0.34238706329751362 0.32476320095938682 0 0.32122702449841589 0.32177081607522939 0 0.33644502425256478 0.30910566618648461 0 0.32122702449841589 0.32177081607522939 0 0.31445651652981632 0.33878768779705848 0 0.30372390616191358 0.32889084998335888 0 0.33072504187423118 0.34237289876026822 0 0.32122702449841589 0.32177081607522939 0 0.31445651652981632 0.33878768779705848 0 0.33072504187423118 0.34237289876026822 0 0.31445651652981632 0.33878768779705848 0 0.31594857135045817 0.35062531106266931 0 0.33072504187423118 0.34237289876026822 0 0.31594857135045817 0.35062531106266931 0 0.32442852787466708 0.36030442639367111 0 0.31594857135045817 0.35062531106266931 0 0.32442852787466708 0.36030442639367111 0 0.31156622091740832 0.36111849420004938 0 0.34699100967064078 0.35539672769273539 0 0.348137396692076 0.34077307725183559 0 0.33072504187423118 0.34237289876026822 0 0.34699100967064078 0.35539672769273539 0 0.33072504187423118 0.34237289876026822 0 0.32442852787466708 0.36030442639367111 0 0.3376156911696272 0.37620073599141618 0 0.34699100967064078 0.35539672769273539 0 0.32442852787466708 0.36030442639367111 0 0.3376156911696272 0.37620073599141618 0 0.32442852787466708 0.36030442639367111 0 0.31717345926189522 0.3709258031848055 0 0.32442852787466708 0.36030442639367111 0 0.31717345926189522 0.3709258031848055 0 0.31156622091740832 0.36111849420004938 0 0.30177514978199971 0.3711373061071076 0 0.30274952797195698 0.35001407804523332 0 0.31717345926189522 0.3709258031848055 0 0.31156622091740832 0.36111849420004938 0 0.30177514978199971 0.3711373061071076 0 0.31156622091740832 0.36111849420004938 0 0.30177514978199971 0.3711373061071076 0 0.30274952797195698 0.35001407804523332 0 0.30177514978199971 0.3711373061071076 0 0.30274952797195698 0.35001407804523332 0 0.29106955940472562 0.3530243656434488 0 0.31445651652981632 0.33878768779705848 0 0.31594857135045817 0.35062531106266931 0 0.30274952797195698 0.35001407804523332 0 0.31594857135045817 0.35062531106266931 0 0.31156622091740832 0.36111849420004938 0 0.30274952797195698 0.35001407804523332 0 0.29106955940472562 0.3530243656434488 0 0.28705150305193838 0.35613499197806497 0 0.28036396902745148 0.33491142517978989 0 0.28705150305193838 0.35613499197806497 0 0.28036396902745148 0.33491142517978989 0 0.28705150305193838 0.35613499197806497 0 0.27644360280618341 0.34191623842927221 0 0.28036396902745148 0.33491142517978989 0 0.29106955940472562 0.3530243656434488 0 0.28036396902745148 0.33491142517978989 0 0.30274952797195698 0.35001407804523332 0 0.29106955940472562 0.3530243656434488 0 0.29374099595638509 0.3392252011883215 0 0.28705150305193838 0.35613499197806497 0 0.28458867991473008 0.36361942358965982 0 0.27543832275303448 0.34988028840297991 0 0.29405085274881382 0.37834813740539031 0 0.28705150305193838 0.35613499197806497 0 0.28458867991473008 0.36361942358965982 0 0.29405085274881382 0.37834813740539031 0 0.28705150305193838 0.35613499197806497 0 0.30177514978199971 0.3711373061071076 0 0.29106955940472562 0.3530243656434488 0 0.29405085274881382 0.37834813740539031 0 0.30177514978199971 0.3711373061071076 0 0.28705150305193838 0.35613499197806497 0 0.30177514978199971 0.3711373061071076 0 0.29106955940472562 0.3530243656434488 0 0.28705150305193838 0.35613499197806497 0 0.29405085274881382 0.37834813740539031 0 0.28458867991473008 0.36361942358965982 0 0.28403056220722062 0.37531448917755911 0 0.2815017213106239 0.3651550498314205 0 0.27898286169525299 0.37041503512408969 0 0.29405085274881382 0.37834813740539031 0 0.2815017213106239 0.3651550498314205 0 0.28403056220722062 0.37531448917755911 0 0.29405085274881382 0.37834813740539031 0 0.2815017213106239 0.3651550498314205 0 0.29405085274881382 0.37834813740539031 0 0.28458867991473008 0.36361942358965982 0 0.2815017213106239 0.3651550498314205 0 0.28403056220722062 0.37531448917755911 0 0.27898286169525299 0.37041503512408969 0 0.2737626695690904 0.37327007608818358 0 0.27663649369407689 0.36792052539919551 0 0.2737626695690904 0.37327007608818358 0 0.27125000512352843 0.36234153133647429 0 0.27405714121884811 0.38409687161834088 0 0.2737626695690904 0.37327007608818358 0 0.2618259464583832 0.36726095095448358 0 0.2815017213106239 0.3651550498314205 0 0.27898286169525299 0.37041503512408969 0 0.27663649369407689 0.36792052539919551 0 0.27898286169525299 0.37041503512408969 0 0.27663649369407689 0.36792052539919551 0 0.2737626695690904 0.37327007608818358 0 0.2737626695690904 0.37327007608818358 0 0.27125000512352843 0.36234153133647429 0 0.2618259464583832 0.36726095095448358 0 0.27125000512352843 0.36234153133647429 0 0.26895258987243392 0.3519619622574508 0 0.2618259464583832 0.36726095095448358 0 0.2815017213106239 0.3651550498314205 0 0.27125000512352843 0.36234153133647429 0 0.26895258987243392 0.3519619622574508 0 0.2815017213106239 0.3651550498314205 0 0.27663649369407689 0.36792052539919551 0 0.27125000512352843 0.36234153133647429 0 0.28458867991473008 0.36361942358965982 0 0.2815017213106239 0.3651550498314205 0 0.27543832275303448 0.34988028840297991 0 0.2815017213106239 0.3651550498314205 0 0.26895258987243392 0.3519619622574508 0 0.28458867991473008 0.36361942358965982 0 0.27543832275303448 0.34988028840297991 0 0.26895258987243392 0.3519619622574508 0 0.2618259464583832 0.36726095095448358 0 0.2684557314338783 0.34271033597269462 0 0.2815017213106239 0.3651550498314205 0 0.27543832275303448 0.34988028840297991 0 0.26895258987243392 0.3519619622574508 0 0.28705150305193838 0.35613499197806497 0 0.27543832275303448 0.34988028840297991 0 0.27644360280618341 0.34191623842927221 0 0.27543832275303448 0.34988028840297991 0 0.2684557314338783 0.34271033597269462 0 0.27644360280618341 0.34191623842927221 0 0.27543832275303448 0.34988028840297991 0 0.26895258987243392 0.3519619622574508 0 0.2684557314338783 0.34271033597269462 0 0.2618259464583832 0.36726095095448358 0 0.2684557314338783 0.34271033597269462 0 0.24521693247762111 0.35027114815259558 0 0.2618259464583832 0.36726095095448358 0 0.2684557314338783 0.34271033597269462 0 0.24305895760768401 0.36641304215893011 0 0.24521693247762111 0.35027114815259558 0 0.2618259464583832 0.36726095095448358 0 0.24490867605631639 0.32967072069511189 0 0.26050839607327853 0.32387463406168998 0 0.25114017462525878 0.31153615041935723 0 0.26050839607327853 0.32387463406168998 0 0.25114017462525878 0.31153615041935723 0 0.26342424027676908 0.31148804944983333 0 0.24490867605631639 0.32967072069511189 0 0.26050839607327853 0.32387463406168998 0 0.2684557314338783 0.34271033597269462 0 0.24490867605631639 0.32967072069511189 0 0.24521693247762111 0.35027114815259558 0 0.2684557314338783 0.34271033597269462 0 0.26050839607327853 0.32387463406168998 0 0.2684557314338783 0.34271033597269462 0 0.27508551640937329 0.31815972099090539 0 0.2684557314338783 0.34271033597269462 0 0.27508551640937329 0.31815972099090539 0 0.2684557314338783 0.34271033597269462 0 0.27787730485363338 0.33070420273373929 0 0.27508551640937329 0.31815972099090539 0 0.2684557314338783 0.34271033597269462 0 0.27644360280618341 0.34191623842927221 0 0.27787730485363338 0.33070420273373929 0 0.27644360280618341 0.34191623842927221 0 0.28036396902745148 0.33491142517978989 0 0.27787730485363338 0.33070420273373929 0 0.28036396902745148 0.33491142517978989 0 0.27787730485363338 0.33070420273373929 0 0.28036396902745148 0.33491142517978989 0 0.27787730485363338 0.33070420273373929 0 0.27508551640937329 0.31815972099090539 0 0.28036396902745148 0.33491142517978989 0 0.27508551640937329 0.31815972099090539 0 0.26050839607327853 0.32387463406168998 0 0.27508551640937329 0.31815972099090539 0 0.26342424027676908 0.31148804944983333 0 0.27584787744150779 0.31533663815394608 0 0.27508551640937329 0.31815972099090539 0 0.2839587577339367 0.31315639516335231 0 0.27584787744150779 0.31533663815394608 0 0.27508551640937329 0.31815972099090539 0 0.28036396902745148 0.33491142517978989 0 0.27508551640937329 0.31815972099090539 0 0.28884331716543121 0.32432796479040632 0 0.27508551640937329 0.31815972099090539 0 0.2839587577339367 0.31315639516335231 0 0.28884331716543121 0.32432796479040632 0 0.2839587577339367 0.31315639516335231 0 0.28884331716543121 0.32432796479040632 0 0.29436859405188742 0.31561290386725788 0 0.28884331716543121 0.32432796479040632 0 0.29436859405188742 0.31561290386725788 0 0.30372390616191358 0.32889084998335888 0 0.29106955940472562 0.3530243656434488 0 0.28036396902745148 0.33491142517978989 0 0.29374099595638509 0.3392252011883215 0 0.28036396902745148 0.33491142517978989 0 0.28884331716543121 0.32432796479040632 0 0.29374099595638509 0.3392252011883215 0 0.28884331716543121 0.32432796479040632 0 0.29374099595638509 0.3392252011883215 0 0.30372390616191358 0.32889084998335888 0 0.30274952797195698 0.35001407804523332 0 0.29374099595638509 0.3392252011883215 0 0.30372390616191358 0.32889084998335888 0 0.31445651652981632 0.33878768779705848 0 0.30274952797195698 0.35001407804523332 0 0.30372390616191358 0.32889084998335888 0 0.30274952797195698 0.35001407804523332 0 0.30372390616191358 0.32889084998335888 0 0.29436859405188742 0.31561290386725788 0 0.30372390616191358 0.32889084998335888 0 0.30469828435187041 0.30776762192148471 0 0.32122702449841589 0.32177081607522939 0 0.30372390616191358 0.32889084998335888 0 0.30469828435187041 0.30776762192148471 0 0.30372390616191358 0.32889084998335888 0 0.30469828435187041 0.30776762192148471 0 0.30469828435187041 0.30776762192148471 0 0.29887142377560671 0.29447355700322281 0 0.31975384086217118 0.29390073052843008 0 0.30469828435187041 0.30776762192148471 0 0.29887142377560671 0.29447355700322281 0 0.29061870484628499 0.30392168747768772 0 0.29887142377560671 0.29447355700322281 0 0.29803417524575498 0.27809430922643119 0 0.31975384086217118 0.29390073052843008 0 0.29887142377560671 0.29447355700322281 0 0.28125211357195179 0.28868343586208051 0 0.29803417524575498 0.27809430922643119 0 0.29887142377560671 0.29447355700322281 0 0.28125211357195179 0.28868343586208051 0 0.29061870484628499 0.30392168747768772 0 0.29436859405188742 0.31561290386725788 0 0.30469828435187041 0.30776762192148471 0 0.29061870484628499 0.30392168747768772 0 0.2839587577339367 0.31315639516335231 0 0.29436859405188742 0.31561290386725788 0 0.29061870484628499 0.30392168747768772 0 0.28125211357195179 0.28868343586208051 0 0.29061870484628499 0.30392168747768772 0 0.27979091010679558 0.3031930520058399 0 0.2839587577339367 0.31315639516335231 0 0.29061870484628499 0.30392168747768772 0 0.27979091010679558 0.3031930520058399 0 0.27584787744150779 0.31533663815394608 0 0.2839587577339367 0.31315639516335231 0 0.27979091010679558 0.3031930520058399 0 0.27584787744150779 0.31533663815394608 0 0.27979091010679558 0.3031930520058399 0 0.26696287399916629 0.2923816923273807 0 0.27508551640937329 0.31815972099090539 0 0.26696287399916629 0.2923816923273807 0 0.27508551640937329 0.31815972099090539 0 0.26696287399916629 0.2923816923273807 0 0.26342424027676908 0.31148804944983333 0 0.27584787744150779 0.31533663815394608 0 0.27508551640937329 0.31815972099090539 0 0.26696287399916629 0.2923816923273807 0 0.28125211357195179 0.28868343586208051 0 0.26696287399916629 0.2923816923273807 0 0.26185531842249993 0.2787869231154117 0 0.28125211357195179 0.28868343586208051 0 0.27979091010679558 0.3031930520058399 0 0.26696287399916629 0.2923816923273807 0 0.2454028482605469 0.29267792886045368 0 0.26696287399916629 0.2923816923273807 0 0.26185531842249993 0.2787869231154117 0 0.24818821145747599 0.27522177653690871 0 0.2454028482605469 0.29267792886045368 0 0.26185531842249993 0.2787869231154117 0 0.26696287399916629 0.2923816923273807 0 0.25114017462525878 0.31153615041935723 0 0.26342424027676908 0.31148804944983333 0 0.2454028482605469 0.29267792886045368 0 0.26696287399916629 0.2923816923273807 0 0.25114017462525878 0.31153615041935723 0 0.25404003316197471 0.25208422786308371 0 0.25530776412370298 0.26639583896058622 0 0.27103688063193948 0.26427270241964718 0 0.24090080429007341 0.26281353644332878 0 0.25404003316197471 0.25208422786308371 0 0.25530776412370298 0.26639583896058622 0 0.25530776412370298 0.26639583896058622 0 0.26185531842249993 0.2787869231154117 0 0.27103688063193948 0.26427270241964718 0 0.24818821145747599 0.27522177653690871 0 0.25530776412370298 0.26639583896058622 0 0.26185531842249993 0.2787869231154117 0 0.28125211357195179 0.28868343586208051 0 0.26185531842249993 0.2787869231154117 0 0.27103688063193948 0.26427270241964718 0 0.25404003316197471 0.25208422786308371 0 0.27103688063193948 0.26427270241964718 0 0.27355486584907379 0.24364475180805101 0 0.27103688063193948 0.26427270241964718 0 0.29692855903906679 0.25537037528416417 0 0.27355486584907379 0.24364475180805101 0 0.27103688063193948 0.26427270241964718 0 0.29803417524575498 0.27809430922643119 0 0.29692855903906679 0.25537037528416417 0 0.28125211357195179 0.28868343586208051 0 0.27103688063193948 0.26427270241964718 0 0.29803417524575498 0.27809430922643119 0 0.29803417524575498 0.27809430922643119 0 0.29692855903906679 0.25537037528416417 0 0.32239972953691409 0.26902358330948362 0 0.29692855903906679 0.25537037528416417 0 0.32239972953691409 0.26902358330948362 0 0.32448256229391081 0.244023600812113 0 0.34859232732963041 0.2656914204712259 0 0.32448256229391081 0.244023600812113 0 0.35052125483258301 0.2434514759103418 0 0.32239972953691409 0.26902358330948362 0 0.34859232732963041 0.2656914204712259 0 0.32448256229391081 0.244023600812113 0 0.32239972953691409 0.26902358330948362 0 0.34580587121379802 0.29027056413174801 0 0.34859232732963041 0.2656914204712259 0 0.32239972953691409 0.26902358330948362 0 0.34859232732963041 0.2656914204712259 0 0.29803417524575498 0.27809430922643119 0 0.32239972953691409 0.26902358330948362 0 0.31975384086217118 0.29390073052843008 0 0.32122702449841589 0.32177081607522939 0 0.30469828435187041 0.30776762192148471 0 0.31975384086217118 0.29390073052843008 0 0.32122702449841589 0.32177081607522939 0 0.31975384086217118 0.29390073052843008 0 0.33644502425256478 0.30910566618648461 0 0.31975384086217118 0.29390073052843008 0 0.33644502425256478 0.30910566618648461 0 0.34580587121379802 0.29027056413174801 0 0.32239972953691409 0.26902358330948362 0 0.31975384086217118 0.29390073052843008 0 0.34580587121379802 0.29027056413174801 0 0.34580587121379802 0.29027056413174801 0 0.35183379698966949 0.31056891257481539 0 0.36606901625265492 0.30223218437601618 0 0.33644502425256478 0.30910566618648461 0 0.34580587121379802 0.29027056413174801 0 0.35183379698966949 0.31056891257481539 0 0.36562923609293069 0.32366592916769399 0 0.35183379698966949 0.31056891257481539 0 0.36606901625265492 0.30223218437601618 0 0.36606901625265492 0.30223218437601618 0 0.37288852905391068 0.28307277276217568 0 0.38313639778678782 0.29894980138166888 0 0.34580587121379802 0.29027056413174801 0 0.36606901625265492 0.30223218437601618 0 0.37288852905391068 0.28307277276217568 0 0.37288852905391068 0.28307277276217568 0 0.37478492512234668 0.26235925763296819 0 0.34859232732963041 0.2656914204712259 0 0.37478492512234668 0.26235925763296819 0 0.34859232732963041 0.2656914204712259 0 0.37478492512234668 0.26235925763296819 0 0.34859232732963041 0.2656914204712259 0 0.35052125483258301 0.2434514759103418 0 0.34580587121379802 0.29027056413174801 0 0.37288852905391068 0.28307277276217568 0 0.34859232732963041 0.2656914204712259 0 0.40237095019481112 0.27711100542787093 0 0.40097752291506289 0.25902709479471048 0 0.38795285511664351 0.27501277358291848 0 0.40237095019481112 0.27711100542787093 0 0.38795285511664351 0.27501277358291848 0 0.39245341439736259 0.28869000139839213 0 0.37478492512234668 0.26235925763296819 0 0.40097752291506289 0.25902709479471048 0 0.37478492512234668 0.26235925763296819 0 0.40097752291506289 0.25902709479471048 0 0.38795285511664351 0.27501277358291848 0 0.37478492512234668 0.26235925763296819 0 0.40097752291506289 0.25902709479471048 0 0.39333580902427501 0.24081282939082621 0 0.37288852905391068 0.28307277276217568 0 0.37478492512234668 0.26235925763296819 0 0.38795285511664351 0.27501277358291848 0 0.37288852905391068 0.28307277276217568 0 0.38795285511664351 0.27501277358291848 0 0.39245341439736259 0.28869000139839213 0 0.37288852905391068 0.28307277276217568 0 0.38313639778678782 0.29894980138166888 0 0.39245341439736259 0.28869000139839213 0 0.38313639778678782 0.29894980138166888 0 0.40184121301557668 0.30678024061641418 0 0.38242981621443428 0.31397380775534678 0 0.36606901625265492 0.30223218437601618 0 0.38313639778678782 0.29894980138166888 0 0.38242981621443428 0.31397380775534678 0 0.38313639778678782 0.29894980138166888 0 0.40184121301557668 0.30678024061641418 0 0.39245341439736259 0.28869000139839213 0 0.40184121301557668 0.30678024061641418 0 0.39245341439736259 0.28869000139839213 0 0.4080647950624654 0.29173952990842672 0 0.40237095019481112 0.27711100542787093 0 0.39245341439736259 0.28869000139839213 0 0.4080647950624654 0.29173952990842672 0 0.4080647950624654 0.29173952990842672 0 0.42111158276914429 0.29961990628964941 0 0.41801819212357011 0.2740782959756311 0 0.42111158276914429 0.29961990628964941 0 0.41801819212357011 0.2740782959756311 0 0.42111158276914429 0.29961990628964941 0 0.41431845905081632 0.31211616404088999 0 0.42420497341471841 0.32516151660366771 0 0.40184121301557668 0.30678024061641418 0 0.41169384258873692 0.3030193229363472 0 0.41431845905081632 0.31211616404088999 0 0.4080647950624654 0.29173952990842672 0 0.41169384258873692 0.3030193229363472 0 0.42111158276914429 0.29961990628964941 0 0.40184121301557668 0.30678024061641418 0 0.4080647950624654 0.29173952990842672 0 0.41169384258873692 0.3030193229363472 0 0.41169384258873692 0.3030193229363472 0 0.42111158276914429 0.29961990628964941 0 0.41431845905081632 0.31211616404088999 0 0.42111158276914429 0.29961990628964941 0 0.42420497341471841 0.32516151660366771 0 0.42111158276914429 0.29961990628964941 0 0.42968026012840121 0.30115694743242971 0 0.43130474666914309 0.31304161877190062 0 0.42968026012840121 0.30115694743242971 0 0.44258646999382029 0.30990113159980692 0 0.42968026012840121 0.30115694743242971 0 0.44258646999382029 0.30990113159980692 0 0.43130474666914309 0.31304161877190062 0 0.42111158276914429 0.29961990628964941 0 0.42800801910193731 0.28582653817902792 0 0.41801819212357011 0.2740782959756311 0 0.42968026012840121 0.30115694743242971 0 0.42800801910193731 0.28582653817902792 0 0.44797459424715858 0.28113195035900113 0 0.42111158276914429 0.29961990628964941 0 0.42968026012840121 0.30115694743242971 0 0.42800801910193731 0.28582653817902792 0 0.4349067289361882 0.26981889711766149 0 0.41801819212357011 0.2740782959756311 0 0.42717012070777932 0.25569493195645271 0 0.42800801910193731 0.28582653817902792 0 0.4349067289361882 0.26981889711766149 0 0.44797459424715858 0.28113195035900113 0 0.42800801910193731 0.28582653817902792 0 0.4349067289361882 0.26981889711766149 0 0.41801819212357011 0.2740782959756311 0 0.40237095019481112 0.27711100542787093 0 0.4080647950624654 0.29173952990842672 0 0.41801819212357011 0.2740782959756311 0 0.40237095019481112 0.27711100542787093 0 0.40097752291506289 0.25902709479471048 0 0.41801819212357011 0.2740782959756311 0 0.40097752291506289 0.25902709479471048 0 0.42717012070777932 0.25569493195645271 0 0.40097752291506289 0.25902709479471048 0 0.41801819212357011 0.2740782959756311 0 0.42717012070777932 0.25569493195645271 0 0.40097752291506289 0.25902709479471048 0 0.42717012070777932 0.25569493195645271 0 0.41286841049430861 0.24788583003777651 0 0.42717012070777932 0.25569493195645271 0 0.45336271850049548 0.25236276911819511 0 0.42717012070777932 0.25569493195645271 0 0.45336271850049548 0.25236276911819511 0 0.44134696414428898 0.24814556957704689 0 0.4349067289361882 0.26981889711766149 0 0.42717012070777932 0.25569493195645271 0 0.45336271850049548 0.25236276911819511 0 0.44797459424715858 0.28113195035900113 0 0.45336271850049548 0.25236276911819511 0 0.4349067289361882 0.26981889711766149 0 0.44797459424715858 0.28113195035900113 0 0.45336271850049548 0.25236276911819511 0 0.44797459424715858 0.28113195035900113 0 0.46860043072286323 0.26090172283992602 0 0.47518926652314969 0.27560515809727743 0 0.44797459424715858 0.28113195035900113 0 0.45336271850049548 0.25236276911819511 0 0.46860043072286323 0.26090172283992602 0 0.45336271850049548 0.25236276911819511 0 0.46860043072286323 0.26090172283992602 0 0.48180965237011408 0.2487438147612096 0 0.45336271850049548 0.25236276911819511 0 0.48180965237011408 0.2487438147612096 0 0.46860043072286323 0.26090172283992602 0 0.48241006781490819 0.26268970127635521 0 0.48180965237011408 0.2487438147612096 0 0.46860043072286323 0.26090172283992602 0 0.48241006781490819 0.26268970127635521 0 0.47518926652314969 0.27560515809727743 0 0.48241006781490819 0.26268970127635521 0 0.47518926652314969 0.27560515809727743 0 0.48864569132575902 0.27555399191102209 0 0.48864569132575902 0.27555399191102209 0 0.5 0.25788891558126559 0 0.5 0.28784398070901179 0 0.48241006781490819 0.26268970127635521 0 0.5 0.25788891558126559 0 0.48180965237011408 0.2487438147612096 0 0.48241006781490819 0.26268970127635521 0 0.48864569132575902 0.27555399191102209 0 0.5 0.25788891558126559 0 0.49687855588093471 0.30562269631142192 0 0.5 0.28784398070901179 0 0.5 0.31779904583675789 0 0.48491490847636098 0.30901068293115042 0 0.49687855588093471 0.30562269631142192 0 0.48562912229073679 0.29374220389120048 0 0.48491490847636098 0.30901068293115042 0 0.49687855588093471 0.30562269631142192 0 0.48893996521802741 0.32077530068026477 0 0.48864569132575902 0.27555399191102209 0 0.5 0.28784398070901179 0 0.48562912229073679 0.29374220389120048 0 0.49687855588093471 0.30562269631142192 0 0.5 0.28784398070901179 0 0.48562912229073679 0.29374220389120048 0 0.47518926652314969 0.27560515809727743 0 0.48864569132575902 0.27555399191102209 0 0.48562912229073679 0.29374220389120048 0 0.47518926652314969 0.27560515809727743 0 0.48562912229073679 0.29374220389120048 0 0.46816558308298489 0.29083511245767268 0 0.48562912229073679 0.29374220389120048 0 0.47222103054853309 0.30536857664361422 0 0.46816558308298489 0.29083511245767268 0 0.48491490847636098 0.30901068293115042 0 0.48562912229073679 0.29374220389120048 0 0.47222103054853309 0.30536857664361422 0 0.48491490847636098 0.30901068293115042 0 0.47222103054853309 0.30536857664361422 0 0.47648252662976798 0.31886183994020412 0 0.47222103054853309 0.30536857664361422 0 0.45866337291811637 0.30169365927876157 0 0.46179392227446953 0.32291451832445861 0 0.45866337291811637 0.30169365927876157 0 0.44258646999382029 0.30990113159980692 0 0.46179392227446953 0.32291451832445861 0 0.47222103054853309 0.30536857664361422 0 0.45866337291811637 0.30169365927876157 0 0.46816558308298489 0.29083511245767268 0 0.44797459424715858 0.28113195035900113 0 0.45866337291811637 0.30169365927876157 0 0.46816558308298489 0.29083511245767268 0 0.44797459424715858 0.28113195035900113 0 0.47518926652314969 0.27560515809727743 0 0.46816558308298489 0.29083511245767268 0 0.44797459424715858 0.28113195035900113 0 0.44258646999382029 0.30990113159980692 0 0.42968026012840121 0.30115694743242971 0 0.44797459424715858 0.28113195035900113 0 0.44258646999382029 0.30990113159980692 0 0.44797459424715858 0.28113195035900113 0 0.45866337291811637 0.30169365927876157 0 0.44258646999382029 0.30990113159980692 0 0.44258646999382029 0.30990113159980692 0 0.46179392227446953 0.32291451832445861 0 0.44258646999382029 0.30990113159980692 0 0.43894044703962998 0.32936859193394902 0 0.46179392227446953 0.32291451832445861 0 0.44258646999382029 0.30990113159980692 0 0.43894044703962998 0.32936859193394902 0 0.44258646999382029 0.30990113159980692 0 0.43894044703962998 0.32936859193394902 0 0.43130474666914309 0.31304161877190062 0 0.43894044703962998 0.32936859193394902 0 0.45181909328986353 0.33594590439129729 0 0.43529442408543872 0.34883605226809089 0 0.43894044703962998 0.32936859193394902 0 0.45181909328986353 0.33594590439129729 0 0.46179392227446953 0.32291451832445861 0 0.45181909328986353 0.33594590439129729 0 0.46495921083649527 0.33796731498031379 0 0.45493863887308472 0.34850758154427958 0 0.45181909328986353 0.33594590439129729 0 0.46495921083649527 0.33796731498031379 0 0.46179392227446953 0.32291451832445861 0 0.47648252662976798 0.31886183994020412 0 0.48100137455512032 0.33592790504910791 0 0.48893996521802741 0.32077530068026477 0 0.46179392227446953 0.32291451832445861 0 0.47648252662976798 0.31886183994020412 0 0.48100137455512032 0.33592790504910791 0 0.47222103054853309 0.30536857664361422 0 0.46179392227446953 0.32291451832445861 0 0.47648252662976798 0.31886183994020412 0 0.48491490847636098 0.30901068293115042 0 0.47648252662976798 0.31886183994020412 0 0.48893996521802741 0.32077530068026477 0 0.46179392227446953 0.32291451832445861 0 0.48100137455512032 0.33592790504910791 0 0.46495921083649527 0.33796731498031379 0 0.48100137455512032 0.33592790504910791 0 0.47458285366073072 0.34817911082046721 0 0.46495921083649527 0.33796731498031379 0 0.46179392227446953 0.32291451832445861 0 0.48100137455512032 0.33592790504910791 0 0.48100137455512032 0.33592790504910791 0 0.47458285366073072 0.34817911082046721 0 0.48100137455512032 0.33592790504910791 0 0.48893996521802741 0.32077530068026477 0 0.48100137455512032 0.33592790504910791 0 0.4984937498586452 0.34777929695842291 0 0.5 0.31779904583675789 0 0.48893996521802741 0.32077530068026477 0 0.4984937498586452 0.34777929695842291 0 0.5 0.31779904583675789 0 0.4984937498586452 0.34777929695842291 0 0.50000000000000433 0.34775411096450393 0 0.48100137455512032 0.33592790504910791 0 0.48893996521802741 0.32077530068026477 0 0.4984937498586452 0.34777929695842291 0 0.49687855588093471 0.30562269631142192 0 0.48893996521802741 0.32077530068026477 0 0.49687855588093471 0.30562269631142192 0 0.5 0.31779904583675789 0 0.48893996521802741 0.32077530068026477 0 0.5 0.37175840028027313 0 0.48688174284785979 0.35971936811564431 0 0.50000000000000433 0.34775411096450393 0 0.5 0.37175840028027313 0 0.48688174284785979 0.35971936811564431 0 0.48177296974371542 0.3780796821533936 0 0.48100137455512032 0.33592790504910791 0 0.4984937498586452 0.34777929695842291 0 0.47458285366073072 0.34817911082046721 0 0.48688174284785979 0.35971936811564431 0 0.4984937498586452 0.34777929695842291 0 0.47458285366073072 0.34817911082046721 0 0.48688174284785979 0.35971936811564431 0 0.4984937498586452 0.34777929695842291 0 0.50000000000000433 0.34775411096450393 0 0.4984937498586452 0.34777929695842291 0 0.47458285366073072 0.34817911082046721 0 0.4984937498586452 0.34777929695842291 0 0.50000000000000433 0.34775411096450393 0 0.48688174284785979 0.35971936811564431 0 0.47458285366073072 0.34817911082046721 0 0.46644088382406917 0.36371991056145853 0 0.47458285366073072 0.34817911082046721 0 0.46644088382406917 0.36371991056145853 0 0.46644088382406917 0.36371991056145853 0 0.45829891398740957 0.37926071030245079 0 0.48177296974371542 0.3780796821533936 0 0.48688174284785979 0.35971936811564431 0 0.46644088382406917 0.36371991056145853 0 0.48177296974371542 0.3780796821533936 0 0.46644088382406917 0.36371991056145853 0 0.45829891398740957 0.37926071030245079 0 0.46644088382406917 0.36371991056145853 0 0.45450488254489102 0.36219879314378839 0 0.45829891398740957 0.37926071030245079 0 0.46495921083649527 0.33796731498031379 0 0.47458285366073072 0.34817911082046721 0 0.45493863887308472 0.34850758154427958 0 0.47458285366073072 0.34817911082046721 0 0.45493863887308472 0.34850758154427958 0 0.47458285366073072 0.34817911082046721 0 0.46644088382406917 0.36371991056145853 0 0.45493863887308472 0.34850758154427958 0 0.46644088382406917 0.36371991056145853 0 0.45450488254489102 0.36219879314378839 0 0.45493863887308472 0.34850758154427958 0 0.45181909328986353 0.33594590439129729 0 0.45493863887308472 0.34850758154427958 0 0.43529442408543872 0.34883605226809089 0 0.45493863887308472 0.34850758154427958 0 0.44448268479035308 0.35511800724889642 0 0.43529442408543872 0.34883605226809089 0 0.45493863887308472 0.34850758154427958 0 0.43529442408543872 0.34883605226809089 0 0.45450488254489102 0.36219879314378839 0 0.45493863887308472 0.34850758154427958 0 0.44448268479035308 0.35511800724889642 0 0.44448268479035308 0.35511800724889642 0 0.44279863902385319 0.36498191861006751 0 0.43487683942449812 0.35106569067825599 0 0.44448268479035308 0.35511800724889642 0 0.43529442408543872 0.34883605226809089 0 0.43487683942449812 0.35106569067825599 0 0.45450488254489102 0.36219879314378839 0 0.44279863902385319 0.36498191861006751 0 0.45829891398740957 0.37926071030245079 0 0.44279863902385319 0.36498191861006751 0 0.45829891398740957 0.37926071030245079 0 0.45450488254489102 0.36219879314378839 0 0.44448268479035308 0.35511800724889642 0 0.44279863902385319 0.36498191861006751 0 0.42892444364691579 0.3641293946929936 0 0.42225433889660879 0.37545697575276449 0 0.43605286711449009 0.38080977408974359 0 0.44279863902385319 0.36498191861006751 0 0.42892444364691579 0.3641293946929936 0 0.43605286711449009 0.38080977408974359 0 0.44279863902385319 0.36498191861006751 0 0.42892444364691579 0.3641293946929936 0 0.42729836406029548 0.35070312691768563 0 0.42892444364691579 0.3641293946929936 0 0.41660844069210962 0.35988002802349189 0 0.42225433889660879 0.37545697575276449 0 0.41660844069210962 0.35988002802349189 0 0.40918213701441342 0.3736144609854074 0 0.42225433889660879 0.37545697575276449 0 0.41660844069210962 0.35988002802349189 0 0.40918213701441342 0.3736144609854074 0 0.40205795884979889 0.36380219258680641 0 0.40642652845595439 0.35168475710611302 0 0.41593005466970517 0.35003896004439389 0 0.41338688547046137 0.33788792813028518 0 0.41660844069210962 0.35988002802349189 0 0.40642652845595439 0.35168475710611302 0 0.40205795884979889 0.36380219258680641 0 0.41660844069210962 0.35988002802349189 0 0.40642652845595439 0.35168475710611302 0 0.41593005466970517 0.35003896004439389 0 0.41660844069210962 0.35988002802349189 0 0.41593005466970517 0.35003896004439389 0 0.42729836406029548 0.35070312691768563 0 0.42729836406029548 0.35070312691768563 0 0.41338688547046137 0.33788792813028518 0 0.41593005466970517 0.35003896004439389 0 0.42729836406029548 0.35070312691768563 0 0.41338688547046137 0.33788792813028518 0 0.42892444364691579 0.3641293946929936 0 0.41660844069210962 0.35988002802349189 0 0.42729836406029548 0.35070312691768563 0 0.42892444364691579 0.3641293946929936 0 0.42729836406029548 0.35070312691768563 0 0.44279863902385319 0.36498191861006751 0 0.42729836406029548 0.35070312691768563 0 0.43487683942449812 0.35106569067825599 0 0.44279863902385319 0.36498191861006751 0 0.42729836406029548 0.35070312691768563 0 0.43109136567724748 0.3489063315667284 0 0.43529442408543872 0.34883605226809089 0 0.42729836406029548 0.35070312691768563 0 0.43109136567724748 0.3489063315667284 0 0.43487683942449812 0.35106569067825599 0 0.43109136567724748 0.3489063315667284 0 0.43529442408543872 0.34883605226809089 0 0.43487683942449812 0.35106569067825599 0 0.43529442408543872 0.34883605226809089 0 0.43487683942449812 0.35106569067825599 0 0.42729836406029548 0.35070312691768563 0 0.42420497341471841 0.32516151660366771 0 0.43894044703962998 0.32936859193394902 0 0.43529442408543872 0.34883605226809089 0 0.43894044703962998 0.32936859193394902 0 0.43109136567724748 0.3489063315667284 0 0.43529442408543872 0.34883605226809089 0 0.42729836406029548 0.35070312691768563 0 0.43109136567724748 0.3489063315667284 0 0.42420497341471841 0.32516151660366771 0 0.43894044703962998 0.32936859193394902 0 0.43109136567724748 0.3489063315667284 0 0.42420497341471841 0.32516151660366771 0 0.43894044703962998 0.32936859193394902 0 0.43130474666914309 0.31304161877190062 0 0.42420497341471841 0.32516151660366771 0 0.42111158276914429 0.29961990628964941 0 0.43130474666914309 0.31304161877190062 0 0.42420497341471841 0.32516151660366771 0 0.40184121301557668 0.30678024061641418 0 0.41431845905081632 0.31211616404088999 0 0.41140534993910638 0.32360132811636988 0 0.41431845905081632 0.31211616404088999 0 0.42420497341471841 0.32516151660366771 0 0.41140534993910638 0.32360132811636988 0 0.42729836406029548 0.35070312691768563 0 0.42420497341471841 0.32516151660366771 0 0.41338688547046137 0.33788792813028518 0 0.42420497341471841 0.32516151660366771 0 0.41140534993910638 0.32360132811636988 0 0.41338688547046137 0.33788792813028518 0 0.41140534993910638 0.32360132811636988 0 0.41338688547046137 0.33788792813028518 0 0.39947540688062583 0.32507272934288628 0 0.41338688547046137 0.33788792813028518 0 0.39947540688062583 0.32507272934288628 0 0.40642652845595439 0.35168475710611302 0 0.41338688547046137 0.33788792813028518 0 0.39105145014164849 0.3414869239971704 0 0.41338688547046137 0.33788792813028518 0 0.39105145014164849 0.3414869239971704 0 0.39947540688062583 0.32507272934288628 0 0.40184121301557668 0.30678024061641418 0 0.41140534993910638 0.32360132811636988 0 0.39947540688062583 0.32507272934288628 0 0.40184121301557668 0.30678024061641418 0 0.39947540688062583 0.32507272934288628 0 0.38242981621443428 0.31397380775534678 0 0.36562923609293069 0.32366592916769399 0 0.38242981621443428 0.31397380775534678 0 0.38128435600444488 0.32837669887387311 0 0.39947540688062583 0.32507272934288628 0 0.38242981621443428 0.31397380775534678 0 0.38128435600444488 0.32837669887387311 0 0.39105145014164849 0.3414869239971704 0 0.39947540688062583 0.32507272934288628 0 0.38128435600444488 0.32837669887387311 0 0.36518945593320651 0.34509967395937191 0 0.39105145014164849 0.3414869239971704 0 0.38128435600444488 0.32837669887387311 0 0.36518945593320651 0.34509967395937191 0 0.39105145014164849 0.3414869239971704 0 0.3855881021147175 0.35910908792858098 0 0.36474967577348072 0.36653341875104961 0 0.3855881021147175 0.35910908792858098 0 0.3855881021147175 0.35910908792858098 0 0.39248458597179969 0.37472262889043839 0 0.3773824667175657 0.37546563606013739 0 0.36474967577348072 0.36653341875104961 0 0.3855881021147175 0.35910908792858098 0 0.3773824667175657 0.37546563606013739 0 0.40918213701441342 0.3736144609854074 0 0.39248458597179969 0.37472262889043839 0 0.40205795884979889 0.36380219258680641 0 0.3855881021147175 0.35910908792858098 0 0.39248458597179969 0.37472262889043839 0 0.40205795884979889 0.36380219258680641 0 0.40642652845595439 0.35168475710611302 0 0.39105145014164849 0.3414869239971704 0 0.3855881021147175 0.35910908792858098 0 0.40642652845595439 0.35168475710611302 0 0.3855881021147175 0.35910908792858098 0 0.40642652845595439 0.35168475710611302 0 0.3855881021147175 0.35910908792858098 0 0.40205795884979889 0.36380219258680641 0 0.39221066862400811 0.40518894945558848 0 0.39940032860097008 0.38986983405391068 0 0.41033309730305728 0.40785957742124029 0 0.40918213701441342 0.3736144609854074 0 0.39248458597179969 0.37472262889043839 0 0.39940032860097008 0.38986983405391068 0 0.39248458597179969 0.37472262889043839 0 0.39940032860097008 0.38986983405391068 0 0.38026367080056678 0.39066664182047522 0 0.39248458597179969 0.37472262889043839 0 0.3773824667175657 0.37546563606013739 0 0.38026367080056678 0.39066664182047522 0 0.39221066862400811 0.40518894945558848 0 0.39940032860097008 0.38986983405391068 0 0.38026367080056678 0.39066664182047522 0 0.39221066862400811 0.40518894945558848 0 0.38026367080056678 0.39066664182047522 0 0.37744029411777058 0.41252948965876268 0 0.39221066862400811 0.40518894945558848 0 0.37744029411777058 0.41252948965876268 0 0.39361595229767549 0.42501920432355378 0 0.365542703577178 0.42914551292816783 0 0.39361595229767549 0.42501920432355378 0 0.37809165231809289 0.44568724501072521 0 0.365542703577178 0.42914551292816783 0 0.37744029411777058 0.41252948965876268 0 0.39361595229767549 0.42501920432355378 0 0.365542703577178 0.42914551292816783 0 0.39361595229767549 0.42501920432355378 0 0.39361595229767549 0.42501920432355378 0 0.41035062152962531 0.4256058815429955 0 0.40092741287151468 0.44093224530230651 0 0.39361595229767549 0.42501920432355378 0 0.40092741287151468 0.44093224530230651 0 0.37809165231809289 0.44568724501072521 0 0.39361595229767549 0.42501920432355378 0 0.41033309730305728 0.40785957742124029 0 0.41035062152962531 0.4256058815429955 0 0.39221066862400811 0.40518894945558848 0 0.39361595229767549 0.42501920432355378 0 0.41033309730305728 0.40785957742124029 0 0.41033309730305728 0.40785957742124029 0 0.41035062152962531 0.4256058815429955 0 0.42646345733135449 0.42088686527347441 0 0.41035062152962531 0.4256058815429955 0 0.4216403136361262 0.43569606407888728 0 0.42646345733135449 0.42088686527347441 0 0.41035062152962531 0.4256058815429955 0 0.4216403136361262 0.43569606407888728 0 0.40092741287151468 0.44093224530230651 0 0.43504649219903713 0.43385430946487219 0 0.42646345733135449 0.42088686527347441 0 0.44292677264660579 0.42392515796168401 0 0.4216403136361262 0.43569606407888728 0 0.43504649219903713 0.43385430946487219 0 0.42646345733135449 0.42088686527347441 0 0.4216403136361262 0.43569606407888728 0 0.43504649219903713 0.43385430946487219 0 0.4309855774719657 0.44262377444488737 0 0.41033309730305728 0.40785957742124029 0 0.42646345733135449 0.42088686527347441 0 0.43473852811684172 0.40482082561786309 0 0.42646345733135449 0.42088686527347441 0 0.43473852811684172 0.40482082561786309 0 0.44292677264660579 0.42392515796168401 0 0.43473852811684172 0.40482082561786309 0 0.42003555557297712 0.38799376876492359 0 0.43605286711449009 0.38080977408974359 0 0.41033309730305728 0.40785957742124029 0 0.43473852811684172 0.40482082561786309 0 0.42003555557297712 0.38799376876492359 0 0.39940032860097008 0.38986983405391068 0 0.41033309730305728 0.40785957742124029 0 0.42003555557297712 0.38799376876492359 0 0.40918213701441342 0.3736144609854074 0 0.39940032860097008 0.38986983405391068 0 0.42003555557297712 0.38799376876492359 0 0.40918213701441342 0.3736144609854074 0 0.42003555557297712 0.38799376876492359 0 0.42225433889660879 0.37545697575276449 0 0.42003555557297712 0.38799376876492359 0 0.42225433889660879 0.37545697575276449 0 0.43605286711449009 0.38080977408974359 0 0.44279863902385319 0.36498191861006751 0 0.43605286711449009 0.38080977408974359 0 0.45829891398740957 0.37926071030245079 0 0.43605286711449009 0.38080977408974359 0 0.44916269767969552 0.39669925538146661 0 0.45829891398740957 0.37926071030245079 0 0.43473852811684172 0.40482082561786309 0 0.43605286711449009 0.38080977408974359 0 0.44916269767969552 0.39669925538146661 0 0.43473852811684172 0.40482082561786309 0 0.44916269767969552 0.39669925538146661 0 0.45819524916971172 0.41557138043250991 0 0.44916269767969552 0.39669925538146661 0 0.47914945699370431 0.3984681476517854 0 0.45819524916971172 0.41557138043250991 0 0.44916269767969552 0.39669925538146661 0 0.45829891398740957 0.37926071030245079 0 0.47914945699370431 0.3984681476517854 0 0.45829891398740957 0.37926071030245079 0 0.47914945699370431 0.3984681476517854 0 0.44916269767969552 0.39669925538146661 0 0.45829891398740957 0.37926071030245079 0 0.45829891398740957 0.37926071030245079 0 0.48177296974371542 0.3780796821533936 0 0.47914945699370431 0.3984681476517854 0 0.47914945699370431 0.3984681476517854 0 0.5 0.39471699264069632 0 0.49999999999999928 0.41767558500111929 0 0.48177296974371542 0.3780796821533936 0 0.47914945699370431 0.3984681476517854 0 0.5 0.39471699264069632 0 0.5 0.37175840028027313 0 0.48177296974371542 0.3780796821533936 0 0.5 0.39471699264069632 0 0.48950419912568011 0.43203648207583117 0 0.49999999999999928 0.41767558500111929 0 0.47941257652712138 0.42859526255965119 0 0.48950419912568011 0.43203648207583117 0 0.49999999999999928 0.41767558500111929 0 0.50000000000000022 0.44212157098762489 0 0.49999999999999928 0.41767558500111929 0 0.47638758820359789 0.4177788365799131 0 0.47941257652712138 0.42859526255965119 0 0.47914945699370431 0.3984681476517854 0 0.49999999999999928 0.41767558500111929 0 0.47638758820359789 0.4177788365799131 0 0.47914945699370431 0.3984681476517854 0 0.49999999999999928 0.41767558500111929 0 0.47914945699370431 0.3984681476517854 0 0.47638758820359789 0.4177788365799131 0 0.45819524916971172 0.41557138043250991 0 0.47638758820359789 0.4177788365799131 0 0.46959145424244531 0.42892785421681912 0 0.47941257652712138 0.42859526255965119 0 0.48950419912568011 0.43203648207583117 0 0.47941257652712138 0.42859526255965119 0 0.47860421997559988 0.43975350975492877 0 0.46959145424244531 0.42892785421681912 0 0.47941257652712138 0.42859526255965119 0 0.47860421997559988 0.43975350975492877 0 0.46959145424244531 0.42892785421681912 0 0.45720843995119947 0.43738544852223271 0 0.45819524916971172 0.41557138043250991 0 0.46959145424244531 0.42892785421681912 0 0.45720843995119947 0.43738544852223271 0 0.47860421997559988 0.43975350975492877 0 0.47638758820359789 0.4177788365799131 0 0.46959145424244531 0.42892785421681912 0 0.45819524916971172 0.41557138043250991 0 0.43473852811684172 0.40482082561786309 0 0.45819524916971172 0.41557138043250991 0 0.44292677264660579 0.42392515796168401 0 0.45720843995119947 0.43738544852223271 0 0.45819524916971172 0.41557138043250991 0 0.44292677264660579 0.42392515796168401 0 0.45720843995119947 0.43738544852223271 0 0.44292677264660579 0.42392515796168401 0 0.44501475256406542 0.43710487641451851 0 0.43504649219903713 0.43385430946487219 0 0.44292677264660579 0.42392515796168401 0 0.44501475256406542 0.43710487641451851 0 0.44501475256406542 0.43710487641451851 0 0.44086930591740259 0.443703986550611 0 0.44426520485267701 0.44828521544284999 0 0.43504649219903713 0.43385430946487219 0 0.44501475256406542 0.43710487641451851 0 0.44086930591740259 0.443703986550611 0 0.44576605402647751 0.45131382091928901 0 0.43097115028835131 0.45382894378787952 0 0.4371491165808723 0.44919465112914592 0 0.44086930591740259 0.443703986550611 0 0.44106718496795649 0.44783878756079798 0 0.4371491165808723 0.44919465112914592 0 0.44106718496795649 0.44783878756079798 0 0.44576605402647751 0.45131382091928901 0 0.4371491165808723 0.44919465112914592 0 0.44086930591740259 0.443703986550611 0 0.44426520485267701 0.44828521544284999 0 0.44106718496795649 0.44783878756079798 0 0.44426520485267701 0.44828521544284999 0 0.44576605402647751 0.45131382091928901 0 0.44086930591740259 0.443703986550611 0 0.44106718496795649 0.44783878756079798 0 0.44426520485267701 0.44828521544284999 0 0.45720843995119947 0.43738544852223271 0 0.44501475256406542 0.43710487641451851 0 0.44426520485267701 0.44828521544284999 0 0.44576605402647751 0.45131382091928901 0 0.44334270512280699 0.46695283516179431 0 0.45751300038554987 0.46615712058798953 0 0.44426520485267701 0.44828521544284999 0 0.45751300038554987 0.46615712058798953 0 0.44576605402647751 0.45131382091928901 0 0.44334270512280699 0.46695283516179431 0 0.42744619309891668 0.4675425472795256 0 0.44426520485267701 0.44828521544284999 0 0.44576605402647751 0.45131382091928901 0 0.45751300038554987 0.46615712058798953 0 0.44426520485267701 0.44828521544284999 0 0.45751300038554987 0.46615712058798953 0 0.47213260242633898 0.44992772785007767 0 0.44426520485267701 0.44828521544284999 0 0.47213260242633898 0.44992772785007767 0 0.45720843995119947 0.43738544852223271 0 0.47860421997559988 0.43975350975492877 0 0.45720843995119947 0.43738544852223271 0 0.44426520485267701 0.44828521544284999 0 0.47213260242633898 0.44992772785007767 0 0.47213260242633898 0.44992772785007767 0 0.47860421997559988 0.43975350975492877 0 0.50000000000000067 0.45157024025730719 0 0.45720843995119947 0.43738544852223271 0 0.47213260242633898 0.44992772785007767 0 0.47860421997559988 0.43975350975492877 0 0.47213260242633898 0.44992772785007767 0 0.48064266697128027 0.4673483066551633 0 0.50000000000000067 0.45157024025730719 0 0.45751300038554987 0.46615712058798953 0 0.47213260242633898 0.44992772785007767 0 0.48064266697128027 0.4673483066551633 0 0.48064266697128027 0.4673483066551633 0 0.5 0.46843982966384828 0 0.50000000000000067 0.45157024025730719 0 0.47860421997559988 0.43975350975492877 0 0.50000000000000022 0.44212157098762489 0 0.47860421997559988 0.43975350975492877 0 0.50000000000000067 0.45157024025730719 0 0.50000000000000022 0.44212157098762489 0 0.47213260242633898 0.44992772785007767 0 0.50000000000000067 0.45157024025730719 0 0.48950419912568011 0.43203648207583117 0 0.47860421997559988 0.43975350975492877 0 0.50000000000000022 0.44212157098762489 0 0.48834007405180069 0.49233461120087918 0 0.50000000000000222 0.48530941907038949 0 0.47076079591842229 0.48402902573312923 0 0.48834007405180069 0.49233461120087918 0 0.5 0.5 0 0.48259950028877657 0.49999999999999922 0 0.50000000000000222 0.48530941907038949 0 0.47076079591842229 0.48402902573312923 0 0.48834007405180069 0.49233461120087918 0 0.5 0.5 0 0.50000000000000222 0.48530941907038949 0 0.50000000000000222 0.48530941907038949 0 0.48785086572242647 0.47628164528063233 0 0.47076079591842229 0.48402902573312923 0 0.48064266697128027 0.4673483066551633 0 0.5 0.46843982966384828 0 0.48785086572242647 0.47628164528063233 0 0.5 0.46843982966384828 0 0.50000000000000222 0.48530941907038949 0 0.48785086572242647 0.47628164528063233 0 0.45751300038554987 0.46615712058798953 0 0.48064266697128027 0.4673483066551633 0 0.47076079591842229 0.48402902573312923 0 0.48064266697128027 0.4673483066551633 0 0.48785086572242647 0.47628164528063233 0 0.47076079591842229 0.48402902573312923 0 0.47076079591842229 0.48402902573312923 0 0.48259950028877657 0.49999999999999922 0 0.45965124302753141 0.5 0 0.48834007405180069 0.49233461120087918 0 0.47076079591842229 0.48402902573312923 0 0.48259950028877657 0.49999999999999922 0 0.47076079591842229 0.48402902573312923 0 0.48259950028877657 0.49999999999999922 0 0.47076079591842229 0.48402902573312923 0 0.45965124302753141 0.5 0 0.44264557298028417 0.48279785186037327 0 0.45751300038554987 0.46615712058798953 0 0.47076079591842229 0.48402902573312923 0 0.47076079591842229 0.48402902573312923 0 0.44264557298028417 0.48279785186037327 0 0.45751300038554987 0.46615712058798953 0 0.47076079591842229 0.48402902573312923 0 0.44264557298028417 0.48279785186037327 0 0.44334270512280699 0.46695283516179431 0 0.44264557298028417 0.48279785186037327 0 0.42744619309891668 0.4675425472795256 0 0.44334270512280699 0.46695283516179431 0 0.45751300038554987 0.46615712058798953 0 0.44264557298028417 0.48279785186037327 0 0.45965124302753141 0.5 0 0.44264557298028417 0.48279785186037327 0 0.43670298576628619 0.5 0 0.44264557298028417 0.48279785186037327 0 0.42814010978677508 0.48883471415535268 0 0.41453035004214622 0.48156667798761449 0 0.43670298576628619 0.5 0 0.42814010978677508 0.48883471415535268 0 0.41868153035838401 0.49097432677342312 0 0.44264557298028417 0.48279785186037327 0 0.43670298576628619 0.5 0 0.42814010978677508 0.48883471415535268 0 0.43670298576628619 0.5 0 0.41375472850504103 0.5 0 0.41868153035838401 0.49097432677342312 0 0.41375472850504103 0.5 0 0.41868153035838401 0.49097432677342312 0 0.40912633217135602 0.48377127363976219 0 0.42814010978677508 0.48883471415535268 0 0.41868153035838401 0.49097432677342312 0 0.41453035004214622 0.48156667798761449 0 0.41868153035838401 0.49097432677342312 0 0.40912633217135602 0.48377127363976219 0 0.41453035004214622 0.48156667798761449 0 0.40882198151684829 0.470458307354371 0 0.40912633217135602 0.48377127363976219 0 0.42744619309891668 0.4675425472795256 0 0.40912633217135602 0.48377127363976219 0 0.42744619309891668 0.4675425472795256 0 0.40912633217135602 0.48377127363976219 0 0.41453035004214622 0.48156667798761449 0 0.42744619309891668 0.4675425472795256 0 0.40882198151684829 0.470458307354371 0 0.40912633217135602 0.48377127363976219 0 0.40257181831080802 0.47789339995616598 0 0.44264557298028417 0.48279785186037327 0 0.41453035004214622 0.48156667798761449 0 0.44264557298028417 0.48279785186037327 0 0.41453035004214622 0.48156667798761449 0 0.42744619309891668 0.4675425472795256 0 0.44576605402647751 0.45131382091928901 0 0.42744619309891668 0.4675425472795256 0 0.44576605402647751 0.45131382091928901 0 0.43097115028835131 0.45382894378787952 0 0.42744619309891668 0.4675425472795256 0 0.43097115028835131 0.45382894378787952 0 0.42744619309891668 0.4675425472795256 0 0.41709851720120961 0.46055572465752248 0 0.44086930591740259 0.443703986550611 0 0.4309855774719657 0.44262377444488737 0 0.4371491165808723 0.44919465112914592 0 0.43504649219903713 0.43385430946487219 0 0.44086930591740259 0.443703986550611 0 0.4309855774719657 0.44262377444488737 0 0.43097115028835131 0.45382894378787952 0 0.4309855774719657 0.44262377444488737 0 0.4371491165808723 0.44919465112914592 0 0.43097115028835131 0.45382894378787952 0 0.4309855774719657 0.44262377444488737 0 0.41665312800777271 0.44940921386284588 0 0.4216403136361262 0.43569606407888728 0 0.4309855774719657 0.44262377444488737 0 0.41665312800777271 0.44940921386284588 0 0.41665312800777271 0.44940921386284588 0 0.4029362549212489 0.45832899449672349 0 0.40092741287151468 0.44093224530230651 0 0.4216403136361262 0.43569606407888728 0 0.41665312800777271 0.44940921386284588 0 0.40092741287151468 0.44093224530230651 0 0.40882198151684829 0.470458307354371 0 0.42744619309891668 0.4675425472795256 0 0.41709851720120961 0.46055572465752248 0 0.43097115028835131 0.45382894378787952 0 0.41665312800777271 0.44940921386284588 0 0.41709851720120961 0.46055572465752248 0 0.41665312800777271 0.44940921386284588 0 0.41709851720120961 0.46055572465752248 0 0.4029362549212489 0.45832899449672349 0 0.40882198151684829 0.470458307354371 0 0.41709851720120961 0.46055572465752248 0 0.4029362549212489 0.45832899449672349 0 0.40882198151684829 0.470458307354371 0 0.4029362549212489 0.45832899449672349 0 0.3944208343110962 0.47305259584339332 0 0.4029362549212489 0.45832899449672349 0 0.38943508825963058 0.45629052964312111 0 0.3944208343110962 0.47305259584339332 0 0.4029362549212489 0.45832899449672349 0 0.40092741287151468 0.44093224530230651 0 0.38943508825963058 0.45629052964312111 0 0.40092741287151468 0.44093224530230651 0 0.37809165231809289 0.44568724501072521 0 0.38943508825963058 0.45629052964312111 0 0.37809165231809289 0.44568724501072521 0 0.38943508825963058 0.45629052964312111 0 0.37844435483634198 0.4675903904274426 0 0.38943508825963058 0.45629052964312111 0 0.37844435483634198 0.4675903904274426 0 0.3944208343110962 0.47305259584339332 0 0.37844435483634198 0.4675903904274426 0 0.38120033573297152 0.48442634992442057 0 0.3944208343110962 0.47305259584339332 0 0.38120033573297152 0.48442634992442057 0 0.3944208343110962 0.47305259584339332 0 0.39562515835400552 0.48382872387274839 0 0.36196284501337178 0.5 0 0.38120033573297152 0.48442634992442057 0 0.39080647124379558 0.49999999999999922 0 0.38120033573297152 0.48442634992442057 0 0.39080647124379558 0.49999999999999922 0 0.39562515835400552 0.48382872387274839 0 0.40912633217135602 0.48377127363976219 0 0.39080647124379558 0.49999999999999922 0 0.40912633217135602 0.48377127363976219 0 0.39080647124379558 0.49999999999999922 0 0.39562515835400552 0.48382872387274839 0 0.41375472850504103 0.5 0 0.40912633217135602 0.48377127363976219 0 0.39080647124379558 0.49999999999999922 0 0.40912633217135602 0.48377127363976219 0 0.40257181831080802 0.47789339995616598 0 0.39562515835400552 0.48382872387274839 0 0.40882198151684829 0.470458307354371 0 0.40257181831080802 0.47789339995616598 0 0.3944208343110962 0.47305259584339332 0 0.40257181831080802 0.47789339995616598 0 0.3944208343110962 0.47305259584339332 0 0.39562515835400552 0.48382872387274839 0 0.34137977846588119 0.091947059702449957 0 0.3184977734976509 0.082531855017860187 0 0.34137977846588119 0.091947059702449957 0 0.33853514524224232 0.092154422351098803 0 0.3184977734976509 0.082531855017860187 0 0.33853514524224232 0.092154422351098803 0 0.3184977734976509 0.082531855017860187 0 0.3305269393921435 0.093893314460775035 0 0.34137977846588119 0.091947059702449957 0 0.33488127772135701 0.070909675734900868 0 0.3184977734976509 0.082531855017860187 0 0.33488127772135701 0.070909675734900868 0 0.35624300874513559 0.071190975121652081 0 0.33828509493208109 0.051113002016081502 0 0.3184977734976509 0.082531855017860187 0 0.31750720709783492 0.060828210965220328 0 0.30506359630307739 0.067813250175554993 0 0.33488127772135701 0.070909675734900868 0 0.32846421329825382 0.059059627678852658 0 0.31750720709783492 0.060828210965220328 0 0.33488127772135701 0.070909675734900868 0 0.3184977734976509 0.082531855017860187 0 0.31750720709783492 0.060828210965220328 0 0.3184977734976509 0.082531855017860187 0 0.3254096333834442 0.096971455496547829 0 0.3305269393921435 0.093893314460775035 0 0.3184977734976509 0.082531855017860187 0 0.3254096333834442 0.096971455496547829 0 0.31111548734401751 0.094174984339189319 0 0.3254096333834442 0.096971455496547829 0 0.33219394353324039 0.1121017755840282 0 0.31111548734401751 0.094174984339189319 0 0.33219394353324039 0.1121017755840282 0 0.31111548734401751 0.094174984339189319 0 0.33219394353324039 0.1121017755840282 0 0.31151194808720201 0.1150643222194616 0 0.31111548734401751 0.094174984339189319 0 0.33219394353324039 0.1121017755840282 0 0.31151194808720201 0.1150643222194616 0 0.32387679174541939 0.1297141718462434 0 0.33219394353324039 0.1121017755840282 0 0.32387679174541939 0.1297141718462434 0 0.35327239972246333 0.1300285668288671 0 0.33219394353324039 0.1121017755840282 0 0.35327239972246333 0.1300285668288671 0 0.33219394353324039 0.1121017755840282 0 0.34279585490336462 0.1026082003979065 0 0.35159211237321392 0.11222190062690381 0 0.33853514524224232 0.092154422351098803 0 0.3305269393921435 0.093893314460775035 0 0.33650548478629722 0.09727411407467923 0 0.3254096333834442 0.096971455496547829 0 0.33351858274250701 0.1005678965871936 0 0.3305269393921435 0.093893314460775035 0 0.33351858274250701 0.1005678965871936 0 0.3305269393921435 0.093893314460775035 0 0.33650548478629722 0.09727411407467923 0 0.3254096333834442 0.096971455496547829 0 0.33219394353324039 0.1121017755840282 0 0.33351858274250701 0.1005678965871936 0 0.33219394353324039 0.1121017755840282 0 0.33351858274250701 0.1005678965871936 0 0.34279585490336462 0.1026082003979065 0 0.33351858274250701 0.1005678965871936 0 0.34279585490336462 0.1026082003979065 0 0.33650548478629722 0.09727411407467923 0 0.33853514524224232 0.092154422351098803 0 0.34279585490336462 0.1026082003979065 0 0.33650548478629722 0.09727411407467923 0 0.34279585490336462 0.1026082003979065 0 0.35159211237321392 0.11222190062690381 0 0.36426178343411147 0.1013622643870397 0 0.33853514524224232 0.092154422351098803 0 0.34279585490336462 0.1026082003979065 0 0.36426178343411147 0.1013622643870397 0 0.34137977846588119 0.091947059702449957 0 0.33853514524224232 0.092154422351098803 0 0.36426178343411147 0.1013622643870397 0 0.33853514524224232 0.092154422351098803 0 0.36426178343411147 0.1013622643870397 0 0.34137977846588119 0.091947059702449957 0 0.36426178343411147 0.1013622643870397 0 0.33219394353324039 0.1121017755840282 0 0.35159211237321392 0.11222190062690381 0 0.35327239972246333 0.1300285668288671 0 0.35159211237321392 0.11222190062690381 0 0.36649271172908648 0.1176987398754743 0 0.35327239972246333 0.1300285668288671 0 0.35159211237321392 0.11222190062690381 0 0.36649271172908648 0.1176987398754743 0 0.36426178343411147 0.1013622643870397 0 0.36649271172908648 0.1176987398754743 0 0.36938385952287339 0.13266757129752671 0 0.38138511069115272 0.12353481432135879 0 0.36649271172908648 0.1176987398754743 0 0.36426178343411147 0.1013622643870397 0 0.3795225325030368 0.1068242515199407 0 0.36426178343411147 0.1013622643870397 0 0.3795225325030368 0.1068242515199407 0 0.36426178343411147 0.1013622643870397 0 0.3742009225581896 0.091268948227223284 0 0.3795225325030368 0.1068242515199407 0 0.3742009225581896 0.091268948227223284 0 0.35754778501084228 0.087847667021068221 0 0.35624300874513559 0.071190975121652081 0 0.36426178343411147 0.1013622643870397 0 0.3742009225581896 0.091268948227223284 0 0.35754778501084228 0.087847667021068221 0 0.3742009225581896 0.091268948227223284 0 0.35624300874513559 0.071190975121652081 0 0.34137977846588119 0.091947059702449957 0 0.35754778501084228 0.087847667021068221 0 0.35624300874513559 0.071190975121652081 0 0.34137977846588119 0.091947059702449957 0 0.36426178343411147 0.1013622643870397 0 0.35754778501084228 0.087847667021068221 0 0.34137977846588119 0.091947059702449957 0 0.33488127772135701 0.070909675734900868 0 0.35624300874513559 0.071190975121652081 0 0.3742009225581896 0.091268948227223284 0 0.35624300874513559 0.071190975121652081 0 0.37575225644292037 0.071709270247263784 0 0.35624300874513559 0.071190975121652081 0 0.36737709041569239 0.056764699852256018 0 0.37575225644292037 0.071709270247263784 0 0.36737709041569239 0.056764699852256018 0 0.36443667806580698 0.054513224756226962 0 0.39058826119953283 0.057913447496371839 0 0.36443667806580698 0.054513224756226962 0 0.36984281421283938 0.03924660656396721 0 0.37608467898805159 0.048096788967416412 0 0.36984281421283938 0.03924660656396721 0 0.35576481933353549 0.041718099984820838 0 0.3798040161112804 0.028996110171619349 0 0.35576481933353549 0.041718099984820838 0 0.36136411866671431 0.026161729739540451 0 0.37786156531075732 0.02725125369877367 0 0.35576481933353549 0.041718099984820838 0 0.3798040161112804 0.028996110171619349 0 0.37786156531075732 0.02725125369877367 0 0.35576481933353549 0.041718099984820838 0 0.3798040161112804 0.028996110171619349 0 0.36984281421283938 0.03924660656396721 0 0.37726993283737248 0.041439113600633092 0 0.37608467898805159 0.048096788967416412 0 0.36984281421283938 0.03924660656396721 0 0.37675727284589372 0.036323400775862158 0 0.37726993283737248 0.041439113600633092 0 0.36443667806580698 0.054513224756226962 0 0.36984281421283938 0.03924660656396721 0 0.35576481933353549 0.041718099984820838 0 0.35576481933353549 0.041718099984820838 0 0.36136411866671431 0.026161729739540451 0 0.34099279295720591 0.031691385536231111 0 0.35576481933353549 0.041718099984820838 0 0.34539840685914608 0.044617690611648012 0 0.34099279295720591 0.031691385536231111 0 0.35624300874513559 0.071190975121652081 0 0.34416591963185211 0.055615952208139578 0 0.33828509493208109 0.051113002016081502 0 0.36443667806580698 0.054513224756226962 0 0.34416591963185211 0.055615952208139578 0 0.33828509493208109 0.051113002016081502 0 0.36737709041569239 0.056764699852256018 0 0.34416591963185211 0.055615952208139578 0 0.35624300874513559 0.071190975121652081 0 0.33828509493208109 0.051113002016081502 0 0.35624300874513559 0.071190975121652081 0 0.36737709041569239 0.056764699852256018 0 0.34416591963185211 0.055615952208139578 0 0.36443667806580698 0.054513224756226962 0 0.33828509493208109 0.051113002016081502 0 0.36443667806580698 0.054513224756226962 0 0.34539840685914608 0.044617690611648012 0 0.33828509493208109 0.051113002016081502 0 0.36443667806580698 0.054513224756226962 0 0.35576481933353549 0.041718099984820838 0 0.34539840685914608 0.044617690611648012 0 0.36737709041569239 0.056764699852256018 0 0.36443667806580698 0.054513224756226962 0 0.34416591963185211 0.055615952208139578 0 0.35686418876597309 0.010252504770385159 0 0.37537418671591988 0.012891754799621079 0 0.3700201466167648 -0.002195575246397889 0 0.35686418876597309 0.010252504770385159 0 0.37786156531075732 0.02725125369877367 0 0.36136411866671431 0.026161729739540451 0 0.35686418876597309 0.010252504770385159 0 0.37786156531075732 0.02725125369877367 0 0.35686418876597309 0.010252504770385159 0 0.37537418671591988 0.012891754799621079 0 0.37786156531075732 0.02725125369877367 0 0.36136411866671431 0.026161729739540451 0 0.35686418876597309 0.010252504770385159 0 0.34167945108238768 0.015605415956853899 0 0.36136411866671431 0.026161729739540451 0 0.34167945108238768 0.015605415956853899 0 0.34099279295720591 0.031691385536231111 0 0.35686418876597309 0.010252504770385159 0 0.34167945108238768 0.015605415956853899 0 0.33586681222118892 -0.0067462441580033658 0 0.35686418876597309 0.010252504770385159 0 0.33586681222118892 -0.0067462441580033658 0 0.34167945108238768 0.015605415956853899 0 0.32490055802469708 0.021190940670656921 0 0.33586681222118892 -0.0067462441580033658 0 0.34167945108238768 0.015605415956853899 0 0.32490055802469708 0.021190940670656921 0 0.34099279295720591 0.031691385536231111 0 0.32490055802469708 0.021190940670656921 0 0.34099279295720591 0.031691385536231111 0 0.32801258046435111 0.036170166979635328 0 0.32490055802469708 0.021190940670656921 0 0.31497710433926901 0.036033128519756527 0 0.30595588987094691 0.026092456194660541 0 0.32490055802469708 0.021190940670656921 0 0.31046320235639918 0.0067575729804437252 0 0.30595588987094691 0.026092456194660541 0 0.32490055802469708 0.021190940670656921 0 0.32801258046435111 0.036170166979635328 0 0.31497710433926901 0.036033128519756527 0 0.32490055802469708 0.021190940670656921 0 0.31046320235639918 0.0067575729804437252 0 0.33586681222118892 -0.0067462441580033658 0 0.33488127772135701 0.070909675734900868 0 0.32846421329825382 0.059059627678852658 0 0.33828509493208109 0.051113002016081502 0 0.33828509493208109 0.051113002016081502 0 0.33632782521092219 0.048924662700562782 0 0.31456469921871788 0.048028881697348168 0 0.34539840685914608 0.044617690611648012 0 0.33828509493208109 0.051113002016081502 0 0.33632782521092219 0.048924662700562782 0 0.33828509493208109 0.051113002016081502 0 0.33632782521092219 0.048924662700562782 0 0.34539840685914608 0.044617690611648012 0 0.33609782728063148 0.04111054955314445 0 0.34099279295720591 0.031691385536231111 0 0.34539840685914608 0.044617690611648012 0 0.33632782521092219 0.048924662700562782 0 0.33609782728063148 0.04111054955314445 0 0.33609782728063148 0.04111054955314445 0 0.34099279295720591 0.031691385536231111 0 0.32801258046435111 0.036170166979635328 0 0.33632782521092219 0.048924662700562782 0 0.33609782728063148 0.04111054955314445 0 0.33051084790212298 0.042529329228536181 0 0.33632782521092219 0.048924662700562782 0 0.33051084790212298 0.042529329228536181 0 0.32327528761916352 0.043108517346294839 0 0.33609782728063148 0.04111054955314445 0 0.33051084790212298 0.042529329228536181 0 0.32801258046435111 0.036170166979635328 0 0.33632782521092219 0.048924662700562782 0 0.32327528761916352 0.043108517346294839 0 0.31456469921871788 0.048028881697348168 0 0.33051084790212298 0.042529329228536181 0 0.32327528761916352 0.043108517346294839 0 0.32801258046435111 0.036170166979635328 0 0.32327528761916352 0.043108517346294839 0 0.32801258046435111 0.036170166979635328 0 0.31497710433926901 0.036033128519756527 0 0.32327528761916352 0.043108517346294839 0 0.31497710433926901 0.036033128519756527 0 0.31456469921871788 0.048028881697348168 0 0.33828509493208109 0.051113002016081502 0 0.31456469921871788 0.048028881697348168 0 0.32846421329825382 0.059059627678852658 0 0.33828509493208109 0.051113002016081502 0 0.31456469921871788 0.048028881697348168 0 0.32846421329825382 0.059059627678852658 0 0.31456469921871788 0.048028881697348168 0 0.31750720709783492 0.060828210965220328 0 0.31456469921871788 0.048028881697348168 0 0.31750720709783492 0.060828210965220328 0 0.30386903740065402 0.05697431224277244 0 0.31750720709783492 0.060828210965220328 0 0.30386903740065402 0.05697431224277244 0 0.30506359630307739 0.067813250175554993 0 0.31456469921871788 0.048028881697348168 0 0.30386903740065402 0.05697431224277244 0 0.29084430350535467 0.044944761378613682 0 0.30386903740065402 0.05697431224277244 0 0.29325963230024937 0.057606978803657879 0 0.29690158384745241 0.06457818982176422 0 0.31456469921871788 0.048028881697348168 0 0.30257644158749403 0.037675663858353942 0 0.29084430350535467 0.044944761378613682 0 0.31456469921871788 0.048028881697348168 0 0.29084430350535467 0.044944761378613682 0 0.30257644158749403 0.037675663858353942 0 0.28728110375769011 0.032980092644635972 0 0.30595588987094691 0.026092456194660541 0 0.31497710433926901 0.036033128519756527 0 0.31456469921871788 0.048028881697348168 0 0.30257644158749403 0.037675663858353942 0 0.31497710433926901 0.036033128519756527 0 0.30257644158749403 0.037675663858353942 0 0.30595588987094691 0.026092456194660541 0 0.28728110375769011 0.032980092644635972 0 0.28354425329012439 0.021068516806879451 0 0.27754771987688809 0.040797440569893019 0 0.30257644158749403 0.037675663858353942 0 0.29084430350535467 0.044944761378613682 0 0.28728110375769011 0.032980092644635972 0 0.28728110375769011 0.032980092644635972 0 0.2844924432277231 0.043204628682168907 0 0.27754771987688809 0.040797440569893019 0 0.29084430350535467 0.044944761378613682 0 0.28728110375769011 0.032980092644635972 0 0.2844924432277231 0.043204628682168907 0 0.2844924432277231 0.043204628682168907 0 0.28229664577095948 0.054096220135532967 0 0.27754771987688809 0.040797440569893019 0 0.29084430350535467 0.044944761378613682 0 0.2844924432277231 0.043204628682168907 0 0.28229664577095948 0.054096220135532967 0 0.29084430350535467 0.044944761378613682 0 0.28229664577095948 0.054096220135532967 0 0.29325963230024937 0.057606978803657879 0 0.28229664577095948 0.054096220135532967 0 0.28695696052130792 0.062426000594819037 0 0.29325963230024937 0.057606978803657879 0 0.28229664577095948 0.054096220135532967 0 0.28695696052130792 0.062426000594819037 0 0.27961998430175328 0.060695812266760227 0 0.28695696052130792 0.062426000594819037 0 0.29325963230024937 0.057606978803657879 0 0.29690158384745241 0.06457818982176422 0 0.30386903740065402 0.05697431224277244 0 0.29084430350535467 0.044944761378613682 0 0.29325963230024937 0.057606978803657879 0 0.31046320235639918 0.0067575729804437252 0 0.29633736445586178 0.016145334388179639 0 0.2895407867033607 0.0013395930438658619 0 0.31046320235639918 0.0067575729804437252 0 0.30595588987094691 0.026092456194660541 0 0.29633736445586178 0.016145334388179639 0 0.28728110375769011 0.032980092644635972 0 0.29633736445586178 0.016145334388179639 0 0.28354425329012439 0.021068516806879451 0 0.28728110375769011 0.032980092644635972 0 0.30595588987094691 0.026092456194660541 0 0.29633736445586178 0.016145334388179639 0 0.29633736445586178 0.016145334388179639 0 0.28354425329012439 0.021068516806879451 0 0.2895407867033607 0.0013395930438658619 0 0.28354425329012439 0.021068516806879451 0 0.2895407867033607 0.0013395930438658619 0 0.27605408581287011 0.0090157940159830471 0 0.28354425329012439 0.021068516806879451 0 0.2895407867033607 0.0013395930438658619 0 0.2895407867033607 0.0013395930438658619 0 0.27605408581287011 0.0090157940159830471 0 0.26778398551549509 -0.0036893303100333872 0 0.27605408581287011 0.0090157940159830471 0 0.26417056773795178 0.0090152440179189393 0 0.26778398551549509 -0.0036893303100333872 0 0.27605408581287011 0.0090157940159830471 0 0.26936383070045983 0.02007531215695801 0 0.26417056773795178 0.0090152440179189393 0 0.28354425329012439 0.021068516806879451 0 0.27754771987688809 0.040797440569893019 0 0.28354425329012439 0.021068516806879451 0 0.27605408581287011 0.0090157940159830471 0 0.26936383070045983 0.02007531215695801 0 0.28354425329012439 0.021068516806879451 0 0.26936383070045983 0.02007531215695801 0 0.27332262009486957 0.033728107725222278 0 0.26936383070045983 0.02007531215695801 0 0.26667678125960848 0.028969541142501901 0 0.27332262009486957 0.033728107725222278 0 0.26936383070045983 0.02007531215695801 0 0.26667678125960848 0.028969541142501901 0 0.25978705670837199 0.02772172808684556 0 0.26667678125960848 0.028969541142501901 0 0.25978705670837199 0.02772172808684556 0 0.26423361753473251 0.034353016600981737 0 0.24818833723327199 0.02644705719899533 0 0.25978705670837199 0.02772172808684556 0 0.25442723867738032 0.016379625870619269 0 0.24818833723327199 0.02644705719899533 0 0.25978705670837199 0.02772172808684556 0 0.25704478259505842 0.035809011079610743 0 0.26936383070045983 0.02007531215695801 0 0.25978705670837199 0.02772172808684556 0 0.25442723867738032 0.016379625870619269 0 0.26936383070045983 0.02007531215695801 0 0.25442723867738032 0.016379625870619269 0 0.26417056773795178 0.0090152440179189393 0 0.25442723867738032 0.016379625870619269 0 0.26417056773795178 0.0090152440179189393 0 0.25322369798355371 0.0032948183560677501 0 0.26417056773795178 0.0090152440179189393 0 0.25322369798355371 0.0032948183560677501 0 0.26778398551549509 -0.0036893303100333872 0 0.28229664577095948 0.054096220135532967 0 0.27155118646365262 0.060526364332906778 0 0.27754771987688809 0.040797440569893019 0 0.26803735397675288 0.057537922442449492 0 0.27155118646365262 0.060526364332906778 0 0.27754771987688809 0.040797440569893019 0 0.27155118646365262 0.060526364332906778 0 0.27754771987688809 0.040797440569893019 0 0.26803735397675288 0.057537922442449492 0 0.26717674565759131 0.061414912581717808 0 0.27155118646365262 0.060526364332906778 0 0.26803735397675288 0.057537922442449492 0 0.26717674565759131 0.061414912581717808 0 0.26717674565759131 0.061414912581717808 0 0.27082486665434358 0.062915996334918609 0 0.26717674565759131 0.061414912581717808 0 0.27155118646365262 0.060526364332906778 0 0.27082486665434358 0.062915996334918609 0 0.27155118646365262 0.060526364332906778 0 0.27082486665434358 0.062915996334918609 0 0.26803735397675288 0.057537922442449492 0 0.27155118646365262 0.060526364332906778 0 0.27155118646365262 0.060526364332906778 0 0.27961998430175328 0.060695812266760227 0 0.27767514445109232 0.065734664003783444 0 0.28229664577095948 0.054096220135532967 0 0.27155118646365262 0.060526364332906778 0 0.27961998430175328 0.060695812266760227 0 0.28354425329012439 0.021068516806879451 0 0.27754771987688809 0.040797440569893019 0 0.27332262009486957 0.033728107725222278 0 0.26803735397675288 0.057537922442449492 0 0.27754771987688809 0.040797440569893019 0 0.27332262009486957 0.033728107725222278 0 0.26803735397675288 0.057537922442449492 0 0.27332262009486957 0.033728107725222278 0 0.26337349528673171 0.044011131262296957 0 0.26803735397675288 0.057537922442449492 0 0.27332262009486957 0.033728107725222278 0 0.26667678125960848 0.028969541142501901 0 0.27332262009486957 0.033728107725222278 0 0.26423361753473251 0.034353016600981737 0 0.27332262009486957 0.033728107725222278 0 0.26337349528673171 0.044011131262296957 0 0.26423361753473251 0.034353016600981737 0 0.25978705670837199 0.02772172808684556 0 0.26423361753473251 0.034353016600981737 0 0.25704478259505842 0.035809011079610743 0 0.26337349528673171 0.044011131262296957 0 0.26423361753473251 0.034353016600981737 0 0.25704478259505842 0.035809011079610743 0 0.2492733855269578 0.041579555173777823 0 0.24818833723327199 0.02644705719899533 0 0.25704478259505842 0.035809011079610743 0 0.2492733855269578 0.041579555173777823 0 0.26337349528673171 0.044011131262296957 0 0.25704478259505842 0.035809011079610743 0 0.2492733855269578 0.041579555173777823 0 0.26803735397675288 0.057537922442449492 0 0.26337349528673171 0.044011131262296957 0 0.2492733855269578 0.041579555173777823 0 0.26803735397675288 0.057537922442449492 0 0.24629062771517271 0.052820950830226497 0 0.2492733855269578 0.041579555173777823 0 0.26803735397675288 0.057537922442449492 0 0.24874122334595 0.07170785510379532 0 0.24629062771517271 0.052820950830226497 0 0.26717674565759131 0.061414912581717808 0 0.24629062771517271 0.052820950830226497 0 0.26717674565759131 0.061414912581717808 0 0.24629062771517271 0.052820950830226497 0 0.26803735397675288 0.057537922442449492 0 0.26717674565759131 0.061414912581717808 0 0.24874122334595 0.07170785510379532 0 0.26717674565759131 0.061414912581717808 0 0.26207170159221099 0.084412837492877896 0 0.26717674565759131 0.061414912581717808 0 0.26207170159221099 0.084412837492877896 0 0.26717674565759131 0.061414912581717808 0 0.26459661937193729 0.083407271434054076 0 0.26207170159221099 0.084412837492877896 0 0.24736227196270541 0.090270970101712061 0 0.24874122334595 0.07170785510379532 0 0.26207170159221099 0.084412837492877896 0 0.24736227196270541 0.090270970101712061 0 0.26207170159221099 0.084412837492877896 0 0.24736227196270541 0.090270970101712061 0 0.26016144869860108 0.09301841504440217 0 0.25459763100830068 0.096141582858552177 0 0.24736227196270541 0.090270970101712061 0 0.26207170159221099 0.084412837492877896 0 0.26016144869860108 0.09301841504440217 0 0.24736227196270541 0.090270970101712061 0 0.25459763100830068 0.096141582858552177 0 0.26459661937193729 0.083407271434054076 0 0.26207170159221099 0.084412837492877896 0 0.26207170159221099 0.084412837492877896 0 0.26016144869860108 0.09301841504440217 0 0.26459661937193729 0.083407271434054076 0 0.2619867778419176 0.09199379318438361 0 0.26207170159221099 0.084412837492877896 0 0.2619867778419176 0.09199379318438361 0 0.26016144869860108 0.09301841504440217 0 0.26459661937193729 0.083407271434054076 0 0.26207170159221099 0.084412837492877896 0 0.2619867778419176 0.09199379318438361 0 0.2619867778419176 0.09199379318438361 0 0.26016144869860108 0.09301841504440217 0 0.26459661937193729 0.083407271434054076 0 0.28765643041333783 0.074223541376674432 0 0.26459661937193729 0.083407271434054076 0 0.27601190449835611 0.084120993139366301 0 0.28765643041333783 0.074223541376674432 0 0.2619867778419176 0.09199379318438361 0 0.27601190449835611 0.084120993139366301 0 0.27597760534302263 0.093816081557894046 0 0.2619867778419176 0.09199379318438361 0 0.27601190449835611 0.084120993139366301 0 0.26459661937193729 0.083407271434054076 0 0.2619867778419176 0.09199379318438361 0 0.27601190449835611 0.084120993139366301 0 0.27601190449835611 0.084120993139366301 0 0.28527214605629803 0.093542631019163408 0 0.27597760534302263 0.093816081557894046 0 0.26459661937193729 0.083407271434054076 0 0.27082486665434358 0.062915996334918609 0 0.26717674565759131 0.061414912581717808 0 0.26459661937193729 0.083407271434054076 0 0.27082486665434358 0.062915996334918609 0 0.26459661937193729 0.083407271434054076 0 0.27082486665434358 0.062915996334918609 0 0.27767514445109232 0.065734664003783444 0 0.26459661937193729 0.083407271434054076 0 0.27767514445109232 0.065734664003783444 0 0.28765643041333783 0.074223541376674432 0 0.27155118646365262 0.060526364332906778 0 0.27082486665434358 0.062915996334918609 0 0.27767514445109232 0.065734664003783444 0 0.27082486665434358 0.062915996334918609 0 0.27767514445109232 0.065734664003783444 0 0.27155118646365262 0.060526364332906778 0 0.27767514445109232 0.065734664003783444 0 0.27767514445109232 0.065734664003783444 0 0.28765643041333783 0.074223541376674432 0 0.27767514445109232 0.065734664003783444 0 0.29306802488508721 0.072068336257275281 0 0.28695696052130792 0.062426000594819037 0 0.27961998430175328 0.060695812266760227 0 0.27767514445109232 0.065734664003783444 0 0.28695696052130792 0.062426000594819037 0 0.27767514445109232 0.065734664003783444 0 0.29306802488508721 0.072068336257275281 0 0.28695696052130792 0.062426000594819037 0 0.29306802488508721 0.072068336257275281 0 0.29690158384745241 0.06457818982176422 0 0.29561576852942001 0.073116650333272012 0 0.29306802488508721 0.072068336257275281 0 0.29561576852942001 0.073116650333272012 0 0.29306802488508721 0.072068336257275281 0 0.29003703115479512 0.076248193094349867 0 0.29306802488508721 0.072068336257275281 0 0.28765643041333783 0.074223541376674432 0 0.29306802488508721 0.072068336257275281 0 0.29003703115479512 0.076248193094349867 0 0.28765643041333783 0.074223541376674432 0 0.29561576852942001 0.073116650333272012 0 0.29003703115479512 0.076248193094349867 0 0.27767514445109232 0.065734664003783444 0 0.29306802488508721 0.072068336257275281 0 0.28765643041333783 0.074223541376674432 0 0.29003703115479512 0.076248193094349867 0 0.28765643041333783 0.074223541376674432 0 0.27601190449835611 0.084120993139366301 0 0.29003703115479512 0.076248193094349867 0 0.27601190449835611 0.084120993139366301 0 0.29003703115479512 0.076248193094349867 0 0.28765643041333783 0.074223541376674432 0 0.27601190449835611 0.084120993139366301 0 0.29003703115479512 0.076248193094349867 0 0.28870857493654689 0.086239244916881869 0 0.27601190449835611 0.084120993139366301 0 0.28870857493654689 0.086239244916881869 0 0.28527214605629803 0.093542631019163408 0 0.28870857493654689 0.086239244916881869 0 0.28527214605629803 0.093542631019163408 0 0.29246213629446111 0.095768124011444758 0 0.28870857493654689 0.086239244916881869 0 0.29698271976236568 0.089899813846382556 0 0.29246213629446111 0.095768124011444758 0 0.29003703115479512 0.076248193094349867 0 0.28870857493654689 0.086239244916881869 0 0.29698271976236568 0.089899813846382556 0 0.29561576852942001 0.073116650333272012 0 0.29003703115479512 0.076248193094349867 0 0.31111548734401751 0.094174984339189319 0 0.29003703115479512 0.076248193094349867 0 0.31111548734401751 0.094174984339189319 0 0.29003703115479512 0.076248193094349867 0 0.29698271976236568 0.089899813846382556 0 0.31111548734401751 0.094174984339189319 0 0.3184977734976509 0.082531855017860187 0 0.29561576852942001 0.073116650333272012 0 0.31111548734401751 0.094174984339189319 0 0.3184977734976509 0.082531855017860187 0 0.29561576852942001 0.073116650333272012 0 0.3184977734976509 0.082531855017860187 0 0.29561576852942001 0.073116650333272012 0 0.30506359630307739 0.067813250175554993 0 0.31750720709783492 0.060828210965220328 0 0.30506359630307739 0.067813250175554993 0 0.29306802488508721 0.072068336257275281 0 0.30506359630307739 0.067813250175554993 0 0.29690158384745241 0.06457818982176422 0 0.30386903740065402 0.05697431224277244 0 0.30506359630307739 0.067813250175554993 0 0.29690158384745241 0.06457818982176422 0 0.29306802488508721 0.072068336257275281 0 0.30506359630307739 0.067813250175554993 0 0.29561576852942001 0.073116650333272012 0 0.30506359630307739 0.067813250175554993 0 0.29561576852942001 0.073116650333272012 0 0.29306802488508721 0.072068336257275281 0 0.30506359630307739 0.067813250175554993 0 0.31151194808720201 0.1150643222194616 0 0.30247500772594699 0.1071381656543656 0 0.29129275041579278 0.1172303442398579 0 0.31151194808720201 0.1150643222194616 0 0.29622008012258699 0.12991313160987961 0 0.32387679174541939 0.1297141718462434 0 0.31151194808720201 0.1150643222194616 0 0.29129275041579278 0.1172303442398579 0 0.29622008012258699 0.12991313160987961 0 0.31151194808720201 0.1150643222194616 0 0.31111548734401751 0.094174984339189319 0 0.30247500772594699 0.1071381656543656 0 0.31111548734401751 0.094174984339189319 0 0.30128354362195031 0.098124169066782854 0 0.30247500772594699 0.1071381656543656 0 0.29698271976236568 0.089899813846382556 0 0.30128354362195031 0.098124169066782854 0 0.29246213629446111 0.095768124011444758 0 0.29698271976236568 0.089899813846382556 0 0.31111548734401751 0.094174984339189319 0 0.30128354362195031 0.098124169066782854 0 0.30128354362195031 0.098124169066782854 0 0.30247500772594699 0.1071381656543656 0 0.29260899031297011 0.10538418601464609 0 0.29260899031297011 0.10538418601464609 0 0.29246213629446111 0.095768124011444758 0 0.28702757351663483 0.1001100210532227 0 0.30128354362195031 0.098124169066782854 0 0.29260899031297011 0.10538418601464609 0 0.29246213629446111 0.095768124011444758 0 0.28527214605629803 0.093542631019163408 0 0.29246213629446111 0.095768124011444758 0 0.28702757351663483 0.1001100210532227 0 0.28527214605629803 0.093542631019163408 0 0.28702757351663483 0.1001100210532227 0 0.28108272677848523 0.099874609951530163 0 0.29260899031297011 0.10538418601464609 0 0.28356239405763972 0.106033323917978 0 0.28664880997705461 0.11131452551203889 0 0.29260899031297011 0.10538418601464609 0 0.28702757351663483 0.1001100210532227 0 0.28356239405763972 0.106033323917978 0 0.28702757351663483 0.1001100210532227 0 0.28356239405763972 0.106033323917978 0 0.28108272677848523 0.099874609951530163 0 0.28356239405763972 0.106033323917978 0 0.2814598539497668 0.10990299155730229 0 0.28664880997705461 0.11131452551203889 0 0.27786688771157569 0.1150217509861922 0 0.29622008012258699 0.12991313160987961 0 0.28664880997705461 0.11131452551203889 0 0.29129275041579278 0.1172303442398579 0 0.27786688771157569 0.1150217509861922 0 0.27786688771157569 0.1150217509861922 0 0.27913813953766042 0.12972245958528131 0 0.29622008012258699 0.12991313160987961 0 0.29129275041579278 0.1172303442398579 0 0.27786688771157569 0.1150217509861922 0 0.29622008012258699 0.12991313160987961 0 0.2814598539497668 0.10990299155730229 0 0.28664880997705461 0.11131452551203889 0 0.27786688771157569 0.1150217509861922 0 0.30247500772594699 0.1071381656543656 0 0.29260899031297011 0.10538418601464609 0 0.29129275041579278 0.1172303442398579 0 0.29260899031297011 0.10538418601464609 0 0.28664880997705461 0.11131452551203889 0 0.29129275041579278 0.1172303442398579 0 0.27418517611644572 0.1163335826691398 0 0.26638390190257438 0.1102685147937751 0 0.25655208948606423 0.10927836717886751 0 0.27786688771157569 0.1150217509861922 0 0.27418517611644572 0.1163335826691398 0 0.27913813953766042 0.12972245958528131 0 0.27418517611644572 0.1163335826691398 0 0.27248198541775659 0.12784311929978001 0 0.27913813953766042 0.12972245958528131 0 0.2814598539497668 0.10990299155730229 0 0.27786688771157569 0.1150217509861922 0 0.27702128122739278 0.10689832557857171 0 0.27786688771157569 0.1150217509861922 0 0.27418517611644572 0.1163335826691398 0 0.26638390190257438 0.1102685147937751 0 0.27418517611644572 0.1163335826691398 0 0.26888095198589312 0.11979825388229511 0 0.26487973471170051 0.1148861259760711 0 0.27418517611644572 0.1163335826691398 0 0.26888095198589312 0.11979825388229511 0 0.27248198541775659 0.12784311929978001 0 0.26888095198589312 0.11979825388229511 0 0.26519442307348812 0.1188177922564181 0 0.26487973471170051 0.1148861259760711 0 0.26888095198589312 0.11979825388229511 0 0.26562400985315288 0.1251654340079911 0 0.27248198541775659 0.12784311929978001 0 0.26888095198589312 0.11979825388229511 0 0.26519442307348812 0.1188177922564181 0 0.26562400985315288 0.1251654340079911 0 0.27786688771157569 0.1150217509861922 0 0.26638390190257438 0.1102685147937751 0 0.25872482925013801 0.09949030162923457 0 0.27786688771157569 0.1150217509861922 0 0.25872482925013801 0.09949030162923457 0 0.27786688771157569 0.1150217509861922 0 0.27150352658480642 0.1040925172930806 0 0.25872482925013801 0.09949030162923457 0 0.28527214605629803 0.093542631019163408 0 0.27597760534302263 0.093816081557894046 0 0.28108272677848523 0.099874609951530163 0 0.27597760534302263 0.093816081557894046 0 0.28108272677848523 0.099874609951530163 0 0.27461357126647679 0.10027579108255071 0 0.27786688771157569 0.1150217509861922 0 0.27702128122739278 0.10689832557857171 0 0.27150352658480642 0.1040925172930806 0 0.27461357126647679 0.10027579108255071 0 0.27702128122739278 0.10689832557857171 0 0.27150352658480642 0.1040925172930806 0 0.28356239405763972 0.106033323917978 0 0.28108272677848523 0.099874609951530163 0 0.27702128122739278 0.10689832557857171 0 0.28108272677848523 0.099874609951530163 0 0.27461357126647679 0.10027579108255071 0 0.27702128122739278 0.10689832557857171 0 0.28356239405763972 0.106033323917978 0 0.2814598539497668 0.10990299155730229 0 0.27702128122739278 0.10689832557857171 0 0.2619867778419176 0.09199379318438361 0 0.27597760534302263 0.093816081557894046 0 0.26850219741802223 0.0981363484555835 0 0.27150352658480642 0.1040925172930806 0 0.26850219741802223 0.0981363484555835 0 0.25872482925013801 0.09949030162923457 0 0.27461357126647679 0.10027579108255071 0 0.27150352658480642 0.1040925172930806 0 0.26850219741802223 0.0981363484555835 0 0.27597760534302263 0.093816081557894046 0 0.27461357126647679 0.10027579108255071 0 0.26850219741802223 0.0981363484555835 0 0.2619867778419176 0.09199379318438361 0 0.26850219741802223 0.0981363484555835 0 0.25872482925013801 0.09949030162923457 0 0.2619867778419176 0.09199379318438361 0 0.26016144869860108 0.09301841504440217 0 0.25872482925013801 0.09949030162923457 0 0.2619867778419176 0.09199379318438361 0 0.25872482925013801 0.09949030162923457 0 0.26016144869860108 0.09301841504440217 0 0.25872482925013801 0.09949030162923457 0 0.26016144869860108 0.09301841504440217 0 0.25872482925013801 0.09949030162923457 0 0.25459763100830068 0.096141582858552177 0 0.26638390190257438 0.1102685147937751 0 0.25872482925013801 0.09949030162923457 0 0.26054083413963042 0.1068609537315081 0 0.26638390190257438 0.1102685147937751 0 0.26054083413963042 0.1068609537315081 0 0.25655208948606423 0.10927836717886751 0 0.25872482925013801 0.09949030162923457 0 0.258042440935632 0.10497087790269199 0 0.26054083413963042 0.1068609537315081 0 0.25872482925013801 0.09949030162923457 0 0.258042440935632 0.10497087790269199 0 0.258042440935632 0.10497087790269199 0 0.26054083413963042 0.1068609537315081 0 0.25655208948606423 0.10927836717886751 0 0.25872482925013801 0.09949030162923457 0 0.25655208948606423 0.10927836717886751 0 0.25872482925013801 0.09949030162923457 0 0.25655208948606423 0.10927836717886751 0 0.25459763100830068 0.096141582858552177 0 0.24174744587836799 0.1033548466348798 0 0.25655208948606423 0.10927836717886751 0 0.25459763100830068 0.096141582858552177 0 0.25872482925013801 0.09949030162923457 0 0.258042440935632 0.10497087790269199 0 0.25655208948606423 0.10927836717886751 0 0.25872482925013801 0.09949030162923457 0 0.25459763100830068 0.096141582858552177 0 0.26016144869860108 0.09301841504440217 0 0.25459763100830068 0.096141582858552177 0 0.27418517611644572 0.1163335826691398 0 0.25655208948606423 0.10927836717886751 0 0.26487973471170051 0.1148861259760711 0 0.27418517611644572 0.1163335826691398 0 0.25655208948606423 0.10927836717886751 0 0.2613903323121034 0.11972876860365821 0 0.25824300399834771 0.11754386918627879 0 0.25813574029091341 0.12532111527980791 0 0.2613903323121034 0.11972876860365821 0 0.25824300399834771 0.11754386918627879 0 0.26064106818342869 0.11649387083006101 0 0.2613903323121034 0.11972876860365821 0 0.26303182906276251 0.1167652494283456 0 0.26064106818342869 0.11649387083006101 0 0.2613903323121034 0.11972876860365821 0 0.25813574029091341 0.12532111527980791 0 0.26562400985315288 0.1251654340079911 0 0.2613903323121034 0.11972876860365821 0 0.26519442307348812 0.1188177922564181 0 0.26562400985315288 0.1251654340079911 0 0.2613903323121034 0.11972876860365821 0 0.26519442307348812 0.1188177922564181 0 0.26303182906276251 0.1167652494283456 0 0.26487973471170051 0.1148861259760711 0 0.2618287337373767 0.1148464313763837 0 0.2589676606418963 0.1122376160430168 0 0.25655208948606423 0.10927836717886751 0 0.26487973471170051 0.1148861259760711 0 0.2589676606418963 0.1122376160430168 0 0.26519442307348812 0.1188177922564181 0 0.26487973471170051 0.1148861259760711 0 0.26303182906276251 0.1167652494283456 0 0.26487973471170051 0.1148861259760711 0 0.2618287337373767 0.1148464313763837 0 0.26303182906276251 0.1167652494283456 0 0.2618287337373767 0.1148464313763837 0 0.26303182906276251 0.1167652494283456 0 0.26064106818342869 0.11649387083006101 0 0.2618287337373767 0.1148464313763837 0 0.26064106818342869 0.11649387083006101 0 0.26015078570541528 0.1146524558252945 0 0.2618287337373767 0.1148464313763837 0 0.2589676606418963 0.1122376160430168 0 0.26015078570541528 0.1146524558252945 0 0.2589676606418963 0.1122376160430168 0 0.26015078570541528 0.1146524558252945 0 0.25777400528710798 0.1147846643059361 0 0.25824300399834771 0.11754386918627879 0 0.26015078570541528 0.1146524558252945 0 0.25777400528710798 0.1147846643059361 0 0.25824300399834771 0.11754386918627879 0 0.26064106818342869 0.11649387083006101 0 0.26015078570541528 0.1146524558252945 0 0.24646482385440791 0.1109165710353929 0 0.25655208948606423 0.10927836717886751 0 0.255186127323073 0.11543194682551421 0 0.25824300399834771 0.11754386918627879 0 0.25777400528710798 0.1147846643059361 0 0.255186127323073 0.11543194682551421 0 0.2589676606418963 0.1122376160430168 0 0.25777400528710798 0.1147846643059361 0 0.255186127323073 0.11543194682551421 0 0.25655208948606423 0.10927836717886751 0 0.255186127323073 0.11543194682551421 0 0.25655208948606423 0.10927836717886751 0 0.2589676606418963 0.1122376160430168 0 0.255186127323073 0.11543194682551421 0 0.255186127323073 0.11543194682551421 0 0.25238596385504641 0.12804651946228041 0 0.24420216851797599 0.1292372680552665 0 0.255186127323073 0.11543194682551421 0 0.25238596385504641 0.12804651946228041 0 0.255186127323073 0.11543194682551421 0 0.25238596385504641 0.12804651946228041 0 0.25813574029091341 0.12532111527980791 0 0.25824300399834771 0.11754386918627879 0 0.255186127323073 0.11543194682551421 0 0.25813574029091341 0.12532111527980791 0 0.25238596385504641 0.12804651946228041 0 0.25813574029091341 0.12532111527980791 0 0.26818611498992623 0.1403022215883418 0 0.24420216851797599 0.1292372680552665 0 0.26818611498992623 0.1403022215883418 0 0.24301228879775941 0.13939302681245261 0 0.24420216851797599 0.1292372680552665 0 0.26818611498992623 0.1403022215883418 0 0.24420216851797599 0.1292372680552665 0 0.25238596385504641 0.12804651946228041 0 0.26818611498992623 0.1403022215883418 0 0.25813574029091341 0.12532111527980791 0 0.26562400985315288 0.1251654340079911 0 0.26818611498992623 0.1403022215883418 0 0.27248198541775659 0.12784311929978001 0 0.26818611498992623 0.1403022215883418 0 0.27913813953766042 0.12972245958528131 0 0.26562400985315288 0.1251654340079911 0 0.27248198541775659 0.12784311929978001 0 0.26818611498992623 0.1403022215883418 0 0.26818611498992623 0.1403022215883418 0 0.27913813953766042 0.12972245958528131 0 0.28414721419066807 0.1482284927670183 0 0.26818611498992623 0.1403022215883418 0 0.26583546295036609 0.16369396270660089 0 0.28414721419066807 0.1482284927670183 0 0.26818611498992623 0.1403022215883418 0 0.25486404381895789 0.1523024957907583 0 0.26583546295036609 0.16369396270660089 0 0.24301228879775941 0.13939302681245261 0 0.26818611498992623 0.1403022215883418 0 0.25486404381895789 0.1523024957907583 0 0.2424223085377801 0.16582077205563811 0 0.25486404381895789 0.1523024957907583 0 0.26583546295036609 0.16369396270660089 0 0.2424223085377801 0.16582077205563811 0 0.26032431562704572 0.18342712708893841 0 0.26583546295036609 0.16369396270660089 0 0.26032431562704572 0.18342712708893841 0 0.27712404590978218 0.18082877805207789 0 0.26583546295036609 0.16369396270660089 0 0.27712404590978218 0.18082877805207789 0 0.26583546295036609 0.16369396270660089 0 0.28977860037431658 0.16805367250728201 0 0.26583546295036609 0.16369396270660089 0 0.28977860037431658 0.16805367250728201 0 0.28414721419066807 0.1482284927670183 0 0.27712404590978218 0.18082877805207789 0 0.28977860037431658 0.16805367250728201 0 0.29478084704188562 0.18627619782702401 0 0.28977860037431658 0.16805367250728201 0 0.29478084704188562 0.18627619782702401 0 0.31259037162619269 0.16725562300018509 0 0.29478084704188562 0.18627619782702401 0 0.31732062797233113 0.1926592597090995 0 0.31259037162619269 0.16725562300018509 0 0.28977860037431658 0.16805367250728201 0 0.29946190776947251 0.15165108642358641 0 0.31259037162619269 0.16725562300018509 0 0.29946190776947251 0.15165108642358641 0 0.31457327253359829 0.14480451223356691 0 0.31259037162619269 0.16725562300018509 0 0.29946190776947251 0.15165108642358641 0 0.29622008012258699 0.12991313160987961 0 0.31457327253359829 0.14480451223356691 0 0.29622008012258699 0.12991313160987961 0 0.31457327253359829 0.14480451223356691 0 0.29622008012258699 0.12991313160987961 0 0.32387679174541939 0.1297141718462434 0 0.31457327253359829 0.14480451223356691 0 0.27913813953766042 0.12972245958528131 0 0.29622008012258699 0.12991313160987961 0 0.28414721419066807 0.1482284927670183 0 0.29946190776947251 0.15165108642358641 0 0.29622008012258699 0.12991313160987961 0 0.28414721419066807 0.1482284927670183 0 0.28977860037431658 0.16805367250728201 0 0.29946190776947251 0.15165108642358641 0 0.28414721419066807 0.1482284927670183 0 0.27355486584907379 0.24364475180805101 0 0.25452501640087027 0.2374112721999547 0 0.26408278890255732 0.22479217687295791 0 0.25404003316197471 0.25208422786308371 0 0.27355486584907379 0.24364475180805101 0 0.25452501640087027 0.2374112721999547 0 0.24523436150048811 0.24199469982198529 0 0.25404003316197471 0.25208422786308371 0 0.25452501640087027 0.2374112721999547 0 0.24868260911088891 0.2303107595792985 0 0.2471090749199483 0.2357199094212839 0 0.25452501640087027 0.2374112721999547 0 0.24868260911088891 0.2303107595792985 0 0.25452501640087027 0.2374112721999547 0 0.26408278890255732 0.22479217687295791 0 0.24868260911088891 0.2303107595792985 0 0.26408278890255732 0.22479217687295791 0 0.25357276657721323 0.21641202867955539 0 0.27355486584907379 0.24364475180805101 0 0.26408278890255732 0.22479217687295791 0 0.28109637724199782 0.22150209212538899 0 0.26408278890255732 0.22479217687295791 0 0.28109637724199782 0.22150209212538899 0 0.27306509823529962 0.19947215684549871 0 0.26408278890255732 0.22479217687295791 0 0.25357276657721323 0.21641202867955539 0 0.27306509823529962 0.19947215684549871 0 0.25357276657721323 0.21641202867955539 0 0.25471258750952741 0.20148162901819469 0 0.27306509823529962 0.19947215684549871 0 0.25357276657721323 0.21641202867955539 0 0.27306509823529962 0.19947215684549871 0 0.2418323282778008 0.1922485172988235 0 0.26032431562704572 0.18342712708893841 0 0.25471258750952741 0.20148162901819469 0 0.26032431562704572 0.18342712708893841 0 0.25471258750952741 0.20148162901819469 0 0.27306509823529962 0.19947215684549871 0 0.26032431562704572 0.18342712708893841 0 0.27712404590978218 0.18082877805207789 0 0.27306509823529962 0.19947215684549871 0 0.29478084704188562 0.18627619782702401 0 0.27306509823529962 0.19947215684549871 0 0.29788838547339219 0.20777731020547871 0 0.27712404590978218 0.18082877805207789 0 0.29478084704188562 0.18627619782702401 0 0.27306509823529962 0.19947215684549871 0 0.29478084704188562 0.18627619782702401 0 0.29788838547339219 0.20777731020547871 0 0.31732062797233113 0.1926592597090995 0 0.29788838547339219 0.20777731020547871 0 0.31916040529159301 0.2166328624030785 0 0.31732062797233113 0.1926592597090995 0 0.28109637724199782 0.22150209212538899 0 0.27306509823529962 0.19947215684549871 0 0.29788838547339219 0.20777731020547871 0 0.28109637724199782 0.22150209212538899 0 0.29788838547339219 0.20777731020547871 0 0.29668368374297521 0.23238313674276659 0 0.27355486584907379 0.24364475180805101 0 0.28109637724199782 0.22150209212538899 0 0.29668368374297521 0.23238313674276659 0 0.29788838547339219 0.20777731020547871 0 0.29668368374297521 0.23238313674276659 0 0.31916040529159301 0.2166328624030785 0 0.29692855903906679 0.25537037528416417 0 0.29668368374297521 0.23238313674276659 0 0.32448256229391081 0.244023600812113 0 0.29692855903906679 0.25537037528416417 0 0.27355486584907379 0.24364475180805101 0 0.29668368374297521 0.23238313674276659 0 0.32448256229391081 0.244023600812113 0 0.33724611662768478 0.226971671205 0 0.35052125483258301 0.2434514759103418 0 0.32448256229391081 0.244023600812113 0 0.33724611662768478 0.226971671205 0 0.31916040529159301 0.2166328624030785 0 0.29668368374297521 0.23238313674276659 0 0.32448256229391081 0.244023600812113 0 0.31916040529159301 0.2166328624030785 0 0.33724611662768478 0.226971671205 0 0.31916040529159301 0.2166328624030785 0 0.34036716376080012 0.20191553243135291 0 0.31916040529159301 0.2166328624030785 0 0.31732062797233113 0.1926592597090995 0 0.34036716376080012 0.20191553243135291 0 0.31732062797233113 0.1926592597090995 0 0.34036716376080012 0.20191553243135291 0 0.33327910971122948 0.1769249887409369 0 0.34036716376080012 0.20191553243135291 0 0.33327910971122948 0.1769249887409369 0 0.35363051640006049 0.1838751638919715 0 0.34036716376080012 0.20191553243135291 0 0.36940151407566268 0.20038014978660379 0 0.35363051640006049 0.1838751638919715 0 0.36940151407566268 0.20038014978660379 0 0.35418005050780299 0.2186338278764331 0 0.36970064025412291 0.2313836502337521 0 0.34036716376080012 0.20191553243135291 0 0.36940151407566268 0.20038014978660379 0 0.35418005050780299 0.2186338278764331 0 0.33724611662768478 0.226971671205 0 0.34036716376080012 0.20191553243135291 0 0.35418005050780299 0.2186338278764331 0 0.33724611662768478 0.226971671205 0 0.35418005050780299 0.2186338278764331 0 0.35052125483258301 0.2434514759103418 0 0.35418005050780299 0.2186338278764331 0 0.36970064025412291 0.2313836502337521 0 0.35052125483258301 0.2434514759103418 0 0.37478492512234668 0.26235925763296819 0 0.36970064025412291 0.2313836502337521 0 0.35052125483258301 0.2434514759103418 0 0.33497932682518311 0.1519205034936916 0 0.32387679174541939 0.1297141718462434 0 0.35327239972246333 0.1300285668288671 0 0.33497932682518311 0.1519205034936916 0 0.31457327253359829 0.14480451223356691 0 0.31259037162619269 0.16725562300018509 0 0.33497932682518311 0.1519205034936916 0 0.32387679174541939 0.1297141718462434 0 0.31457327253359829 0.14480451223356691 0 0.33497932682518311 0.1519205034936916 0 0.31259037162619269 0.16725562300018509 0 0.33327910971122948 0.1769249887409369 0 0.31732062797233113 0.1926592597090995 0 0.31259037162619269 0.16725562300018509 0 0.33327910971122948 0.1769249887409369 0 0.33497932682518311 0.1519205034936916 0 0.33327910971122948 0.1769249887409369 0 0.34907151432127381 0.16521020144779211 0 0.34907151432127381 0.16521020144779211 0 0.35363051640006049 0.1838751638919715 0 0.37277469716236061 0.17385369407461371 0 0.33327910971122948 0.1769249887409369 0 0.34907151432127381 0.16521020144779211 0 0.35363051640006049 0.1838751638919715 0 0.36940151407566268 0.20038014978660379 0 0.35363051640006049 0.1838751638919715 0 0.37277469716236061 0.17385369407461371 0 0.37277469716236061 0.17385369407461371 0 0.36285879787080821 0.15032831482926681 0 0.3843829660287168 0.1587008111838667 0 0.34907151432127381 0.16521020144779211 0 0.37277469716236061 0.17385369407461371 0 0.36285879787080821 0.15032831482926681 0 0.36285879787080821 0.15032831482926681 0 0.36938385952287339 0.13266757129752671 0 0.38232915319187621 0.14145147187989651 0 0.33497932682518311 0.1519205034936916 0 0.36285879787080821 0.15032831482926681 0 0.35327239972246333 0.1300285668288671 0 0.33497932682518311 0.1519205034936916 0 0.34907151432127381 0.16521020144779211 0 0.36285879787080821 0.15032831482926681 0 0.36649271172908648 0.1176987398754743 0 0.35327239972246333 0.1300285668288671 0 0.36938385952287339 0.13266757129752671 0 0.36285879787080821 0.15032831482926681 0 0.35327239972246333 0.1300285668288671 0 0.36938385952287339 0.13266757129752671 0 0.39421974672685411 0.13240309148155921 0 0.38232915319187621 0.14145147187989651 0 0.38138511069115272 0.12353481432135879 0 0.36938385952287339 0.13266757129752671 0 0.38232915319187621 0.14145147187989651 0 0.38138511069115272 0.12353481432135879 0 0.39421974672685411 0.13240309148155921 0 0.41199731756477831 0.13352747615702071 0 0.3942733283070321 0.11371104406223111 0 0.39421974672685411 0.13240309148155921 0 0.40120830104283178 0.15077536395034899 0 0.41199731756477831 0.13352747615702071 0 0.39421974672685411 0.13240309148155921 0 0.40120830104283178 0.15077536395034899 0 0.38232915319187621 0.14145147187989651 0 0.36285879787080821 0.15032831482926681 0 0.38232915319187621 0.14145147187989651 0 0.3843829660287168 0.1587008111838667 0 0.40120830104283178 0.15077536395034899 0 0.38232915319187621 0.14145147187989651 0 0.3843829660287168 0.1587008111838667 0 0.37277469716236061 0.17385369407461371 0 0.3843829660287168 0.1587008111838667 0 0.39936082591505218 0.176604797209717 0 0.37277469716236061 0.17385369407461371 0 0.39936082591505218 0.176604797209717 0 0.38992891259608609 0.19548318162929729 0 0.40120830104283178 0.15077536395034899 0 0.39936082591505218 0.176604797209717 0 0.41410660213767347 0.1652382216241598 0 0.40120830104283178 0.15077536395034899 0 0.3843829660287168 0.1587008111838667 0 0.39936082591505218 0.176604797209717 0 0.40120830104283178 0.15077536395034899 0 0.41410660213767347 0.1652382216241598 0 0.42972130682252457 0.1533439082518103 0 0.39936082591505218 0.176604797209717 0 0.41410660213767347 0.1652382216241598 0 0.42626679864566441 0.18172907206941921 0 0.42626679864566441 0.18172907206941921 0 0.42972130682252457 0.1533439082518103 0 0.45055708181009879 0.1690731760043504 0 0.41410660213767347 0.1652382216241598 0 0.42626679864566441 0.18172907206941921 0 0.42972130682252457 0.1533439082518103 0 0.42972130682252457 0.1533439082518103 0 0.43054248402473921 0.1250848439374013 0 0.44904083753606949 0.1441389705362057 0 0.42972130682252457 0.1533439082518103 0 0.43054248402473921 0.1250848439374013 0 0.41199731756477831 0.13352747615702071 0 0.43054248402473921 0.1250848439374013 0 0.41199731756477831 0.13352747615702071 0 0.41135066019799099 0.1182158826350982 0 0.40120830104283178 0.15077536395034899 0 0.42972130682252457 0.1533439082518103 0 0.41199731756477831 0.13352747615702071 0 0.42972130682252457 0.1533439082518103 0 0.41199731756477831 0.13352747615702071 0 0.40097752291506289 0.25902709479471048 0 0.39333580902427501 0.24081282939082621 0 0.41286841049430861 0.24788583003777651 0 0.37478492512234668 0.26235925763296819 0 0.36970064025412291 0.2313836502337521 0 0.39333580902427501 0.24081282939082621 0 0.36970064025412291 0.2313836502337521 0 0.39333580902427501 0.24081282939082621 0 0.39338333076520482 0.2163019563834182 0 0.39338333076520482 0.2163019563834182 0 0.41736514745474701 0.23222376298023259 0 0.39333580902427501 0.24081282939082621 0 0.39338333076520482 0.2163019563834182 0 0.41736514745474701 0.23222376298023259 0 0.39338333076520482 0.2163019563834182 0 0.38992891259608609 0.19548318162929729 0 0.41508715600771068 0.20488700545500521 0 0.36940151407566268 0.20038014978660379 0 0.39338333076520482 0.2163019563834182 0 0.36940151407566268 0.20038014978660379 0 0.39338333076520482 0.2163019563834182 0 0.38992891259608609 0.19548318162929729 0 0.36940151407566268 0.20038014978660379 0 0.36970064025412291 0.2313836502337521 0 0.39338333076520482 0.2163019563834182 0 0.36940151407566268 0.20038014978660379 0 0.37277469716236061 0.17385369407461371 0 0.38992891259608609 0.19548318162929729 0 0.39936082591505218 0.176604797209717 0 0.38992891259608609 0.19548318162929729 0 0.41508715600771068 0.20488700545500521 0 0.39936082591505218 0.176604797209717 0 0.42626679864566441 0.18172907206941921 0 0.41508715600771068 0.20488700545500521 0 0.42626679864566441 0.18172907206941921 0 0.44140000057487638 0.20455834627575151 0 0.44473765559285833 0.18692520255949671 0 0.42626679864566441 0.18172907206941921 0 0.41508715600771068 0.20488700545500521 0 0.44140000057487638 0.20455834627575151 0 0.41508715600771068 0.20488700545500521 0 0.43790507610234408 0.2273079216372012 0 0.44140000057487638 0.20455834627575151 0 0.39338333076520482 0.2163019563834182 0 0.41508715600771068 0.20488700545500521 0 0.41736514745474701 0.23222376298023259 0 0.41508715600771068 0.20488700545500521 0 0.41736514745474701 0.23222376298023259 0 0.43790507610234408 0.2273079216372012 0 0.42717012070777932 0.25569493195645271 0 0.41736514745474701 0.23222376298023259 0 0.44134696414428898 0.24814556957704689 0 0.41736514745474701 0.23222376298023259 0 0.44134696414428898 0.24814556957704689 0 0.41736514745474701 0.23222376298023259 0 0.44134696414428898 0.24814556957704689 0 0.43790507610234408 0.2273079216372012 0 0.39333580902427501 0.24081282939082621 0 0.41736514745474701 0.23222376298023259 0 0.41286841049430861 0.24788583003777651 0 0.42717012070777932 0.25569493195645271 0 0.41736514745474701 0.23222376298023259 0 0.41286841049430861 0.24788583003777651 0 0.45336271850049548 0.25236276911819511 0 0.45602225988021539 0.23816249748875179 0 0.48180965237011408 0.2487438147612096 0 0.45336271850049548 0.25236276911819511 0 0.45602225988021539 0.23816249748875179 0 0.44134696414428898 0.24814556957704689 0 0.44600400848591359 0.23698591979390529 0 0.43790507610234408 0.2273079216372012 0 0.45336271850049548 0.25236276911819511 0 0.44134696414428898 0.24814556957704689 0 0.44600400848591359 0.23698591979390529 0 0.45336271850049548 0.25236276911819511 0 0.45602225988021539 0.23816249748875179 0 0.44600400848591359 0.23698591979390529 0 0.45602225988021539 0.23816249748875179 0 0.44600400848591359 0.23698591979390529 0 0.45492939023952461 0.2194397610932603 0 0.44600400848591359 0.23698591979390529 0 0.43790507610234408 0.2273079216372012 0 0.45492939023952461 0.2194397610932603 0 0.45602225988021539 0.23816249748875179 0 0.45492939023952461 0.2194397610932603 0 0.47419086539053962 0.2296972043723752 0 0.45492939023952461 0.2194397610932603 0 0.46072674134079361 0.19234021588846559 0 0.47847088324409548 0.2092058758105422 0 0.45492939023952461 0.2194397610932603 0 0.44140000057487638 0.20455834627575151 0 0.46072674134079361 0.19234021588846559 0 0.43790507610234408 0.2273079216372012 0 0.45492939023952461 0.2194397610932603 0 0.44140000057487638 0.20455834627575151 0 0.44140000057487638 0.20455834627575151 0 0.46072674134079361 0.19234021588846559 0 0.44473765559285833 0.18692520255949671 0 0.46072674134079361 0.19234021588846559 0 0.4812983336831132 0.1885899983914231 0 0.47847088324409548 0.2092058758105422 0 0.4812983336831132 0.1885899983914231 0 0.5 0.19797878532577309 0 0.47847088324409548 0.2092058758105422 0 0.5 0.19797878532577309 0 0.47847088324409548 0.2092058758105422 0 0.5 0.22793385045351919 0 0.47847088324409548 0.2092058758105422 0 0.47419086539053962 0.2296972043723752 0 0.5 0.22793385045351919 0 0.45492939023952461 0.2194397610932603 0 0.47847088324409548 0.2092058758105422 0 0.47419086539053962 0.2296972043723752 0 0.5 0.25788891558126559 0 0.5 0.22793385045351919 0 0.48180965237011408 0.2487438147612096 0 0.47419086539053962 0.2296972043723752 0 0.5 0.22793385045351919 0 0.48180965237011408 0.2487438147612096 0 0.45602225988021539 0.23816249748875179 0 0.47419086539053962 0.2296972043723752 0 0.48180965237011408 0.2487438147612096 0 0.46287167922105149 0.15545842773829099 0 0.44904083753606949 0.1441389705362057 0 0.45055708181009879 0.1690731760043504 0 0.46287167922105149 0.15545842773829099 0 0.46355845200513762 0.13850516077978961 0 0.47909635670674228 0.14767892477560191 0 0.46287167922105149 0.15545842773829099 0 0.46355845200513762 0.13850516077978961 0 0.44904083753606949 0.1441389705362057 0 0.46355845200513762 0.13850516077978961 0 0.47795750643906171 0.12649365297180731 0 0.4559740449914913 0.1245921335342187 0 0.46355845200513762 0.13850516077978961 0 0.44904083753606949 0.1441389705362057 0 0.4559740449914913 0.1245921335342187 0 0.43054248402473921 0.1250848439374013 0 0.44904083753606949 0.1441389705362057 0 0.4559740449914913 0.1245921335342187 0 0.42972130682252457 0.1533439082518103 0 0.44904083753606949 0.1441389705362057 0 0.45055708181009879 0.1690731760043504 0 0.42626679864566441 0.18172907206941921 0 0.45055708181009879 0.1690731760043504 0 0.44473765559285833 0.18692520255949671 0 0.46072674134079361 0.19234021588846559 0 0.45055708181009879 0.1690731760043504 0 0.44473765559285833 0.18692520255949671 0 0.46072674134079361 0.19234021588846559 0 0.45055708181009879 0.1690731760043504 0 0.4752785409050499 0.1685484481011886 0 0.46287167922105149 0.15545842773829099 0 0.45055708181009879 0.1690731760043504 0 0.4752785409050499 0.1685484481011886 0 0.45055708181009879 0.1690731760043504 0 0.4752785409050499 0.1685484481011886 0 0.46287167922105149 0.15545842773829099 0 0.4752785409050499 0.1685484481011886 0 0.47909635670674228 0.14767892477560191 0 0.46072674134079361 0.19234021588846559 0 0.4812983336831132 0.1885899983914231 0 0.4752785409050499 0.1685484481011886 0 0.4812983336831132 0.1885899983914231 0 0.4752785409050499 0.1685484481011886 0 0.50000000000000111 0.1680237201980268 0 0.4812983336831132 0.1885899983914231 0 0.5 0.19797878532577309 0 0.50000000000000111 0.1680237201980268 0 0.4752785409050499 0.1685484481011886 0 0.50000000000000111 0.1680237201980268 0 0.4752785409050499 0.1685484481011886 0 0.50000000000000111 0.1680237201980268 0 0.47909635670674228 0.14767892477560191 0 0.50000000000000111 0.1680237201980268 0 0.5 0.14405257421324749 0 0.47909635670674228 0.14767892477560191 0 0.46355845200513762 0.13850516077978961 0 0.47909635670674228 0.14767892477560191 0 0.47795750643906171 0.12649365297180731 0 0.5 0.14405257421324749 0 0.47795750643906171 0.12649365297180731 0 0.5 0.12008142822846821 0 0.5 0.14405257421324749 0 0.47909635670674228 0.14767892477560191 0 0.47795750643906171 0.12649365297180731 0 0.47795750643906171 0.12649365297180731 0 0.5 0.12008142822846821 0 0.48437617198066579 0.1083096126220475 0 0.48437617198066579 0.1083096126220475 0 0.5 0.096110282243688894 0 0.4787628640296252 0.09057766153942011 0 0.5 0.12008142822846821 0 0.48437617198066579 0.1083096126220475 0 0.5 0.096110282243688894 0 0.48437617198066579 0.1083096126220475 0 0.4787628640296252 0.09057766153942011 0 0.46516048943464161 0.10828503812685281 0 0.47795750643906171 0.12649365297180731 0 0.48437617198066579 0.1083096126220475 0 0.46516048943464161 0.10828503812685281 0 0.49999999999999389 0.072139136258909636 0 0.47264706529987838 0.068582714068275596 0 0.5 0.096110282243688894 0 0.49999999999999389 0.072139136258909636 0 0.4787628640296252 0.09057766153942011 0 0.49999999999999389 0.072139136258909636 0 0.4787628640296252 0.09057766153942011 0 0.47264706529987838 0.068582714068275596 0 0.47264706529987838 0.068582714068275596 0 0.44529413059976319 0.065026291877640793 0 0.47264706529987838 0.068582714068275596 0 0.45009241250792742 0.089848104882156193 0 0.44529413059976319 0.065026291877640793 0 0.4787628640296252 0.09057766153942011 0 0.47264706529987838 0.068582714068275596 0 0.45009241250792742 0.089848104882156193 0 0.45009241250792742 0.089848104882156193 0 0.44529413059976319 0.065026291877640793 0 0.42710943965072512 0.080764761008918995 0 0.4559740449914913 0.1245921335342187 0 0.46516048943464161 0.10828503812685281 0 0.44660059903698529 0.1095612823054605 0 0.47795750643906171 0.12649365297180731 0 0.4559740449914913 0.1245921335342187 0 0.46516048943464161 0.10828503812685281 0 0.45009241250792742 0.089848104882156193 0 0.46516048943464161 0.10828503812685281 0 0.44660059903698529 0.1095612823054605 0 0.4787628640296252 0.09057766153942011 0 0.45009241250792742 0.089848104882156193 0 0.46516048943464161 0.10828503812685281 0 0.45009241250792742 0.089848104882156193 0 0.44660059903698529 0.1095612823054605 0 0.42999027194599682 0.1018780191517587 0 0.43054248402473921 0.1250848439374013 0 0.4559740449914913 0.1245921335342187 0 0.44660059903698529 0.1095612823054605 0 0.43054248402473921 0.1250848439374013 0 0.44660059903698529 0.1095612823054605 0 0.42999027194599682 0.1018780191517587 0 0.43054248402473921 0.1250848439374013 0 0.41661501870526302 0.10782610780512 0 0.42999027194599682 0.1018780191517587 0 0.43054248402473921 0.1250848439374013 0 0.41135066019799099 0.1182158826350982 0 0.41661501870526302 0.10782610780512 0 0.43054248402473921 0.1250848439374013 0 0.41135066019799099 0.1182158826350982 0 0.41135066019799099 0.1182158826350982 0 0.41661501870526302 0.10782610780512 0 0.40605193543095291 0.1101899923625959 0 0.41199731756477831 0.13352747615702071 0 0.40856435551682457 0.1195913393650266 0 0.41135066019799099 0.1182158826350982 0 0.41661501870526302 0.10782610780512 0 0.42999027194599682 0.1018780191517587 0 0.41050144950628809 0.092342992232264526 0 0.41661501870526302 0.10782610780512 0 0.41050144950628809 0.092342992232264526 0 0.40408322644931421 0.10337105767737099 0 0.41661501870526302 0.10782610780512 0 0.40605193543095291 0.1101899923625959 0 0.40408322644931421 0.10337105767737099 0 0.45009241250792742 0.089848104882156193 0 0.42999027194599682 0.1018780191517587 0 0.42710943965072512 0.080764761008918995 0 0.42999027194599682 0.1018780191517587 0 0.42710943965072512 0.080764761008918995 0 0.41050144950628809 0.092342992232264526 0 0.44529413059976319 0.065026291877640793 0 0.42710943965072512 0.080764761008918995 0 0.41794119589964812 0.061469869687005997 0 0.44529413059976319 0.065026291877640793 0 0.41794119589964812 0.061469869687005997 0 0.42710943965072512 0.080764761008918995 0 0.40780427562880051 0.074340584248736047 0 0.41794119589964812 0.061469869687005997 0 0.42710943965072512 0.080764761008918995 0 0.40780427562880051 0.074340584248736047 0 0.41050144950628809 0.092342992232264526 0 0.41050144950628809 0.092342992232264526 0 0.39288103188780799 0.079211850819119467 0 0.39173805803946632 0.094638931286680023 0 0.40780427562880051 0.074340584248736047 0 0.41050144950628809 0.092342992232264526 0 0.39288103188780799 0.079211850819119467 0 0.40780427562880051 0.074340584248736047 0 0.39058826119953283 0.057913447496371839 0 0.41794119589964812 0.061469869687005997 0 0.40780427562880051 0.074340584248736047 0 0.39288103188780799 0.079211850819119467 0 0.39058826119953283 0.057913447496371839 0 0.39288103188780799 0.079211850819119467 0 0.37575225644292037 0.071709270247263784 0 0.39058826119953283 0.057913447496371839 0 0.3742009225581896 0.091268948227223284 0 0.39288103188780799 0.079211850819119467 0 0.39173805803946632 0.094638931286680023 0 0.3742009225581896 0.091268948227223284 0 0.39288103188780799 0.079211850819119467 0 0.37575225644292037 0.071709270247263784 0 0.3742009225581896 0.091268948227223284 0 0.39215883637124299 0.11134692133279479 0 0.39173805803946632 0.094638931286680023 0 0.3742009225581896 0.091268948227223284 0 0.39215883637124299 0.11134692133279479 0 0.3742009225581896 0.091268948227223284 0 0.3795225325030368 0.1068242515199407 0 0.39215883637124299 0.11134692133279479 0 0.3795225325030368 0.1068242515199407 0 0.39215883637124299 0.11134692133279479 0 0.3795225325030368 0.1068242515199407 0 0.38138511069115272 0.12353481432135879 0 0.3942733283070321 0.11371104406223111 0 0.36649271172908648 0.1176987398754743 0 0.3795225325030368 0.1068242515199407 0 0.38138511069115272 0.12353481432135879 0 0.39421974672685411 0.13240309148155921 0 0.38138511069115272 0.12353481432135879 0 0.3942733283070321 0.11371104406223111 0 0.3795225325030368 0.1068242515199407 0 0.3942733283070321 0.11371104406223111 0 0.3795225325030368 0.1068242515199407 0 0.39215883637124299 0.11134692133279479 0 0.3942733283070321 0.11371104406223111 0 0.41135066019799099 0.1182158826350982 0 0.39215883637124299 0.11134692133279479 0 0.40605193543095291 0.1101899923625959 0 0.41135066019799099 0.1182158826350982 0 0.39215883637124299 0.11134692133279479 0 0.3942733283070321 0.11371104406223111 0 0.41135066019799099 0.1182158826350982 0 0.39215883637124299 0.11134692133279479 0 0.41199731756477831 0.13352747615702071 0 0.40856435551682457 0.1195913393650266 0 0.3942733283070321 0.11371104406223111 0 0.41199731756477831 0.13352747615702071 0 0.3942733283070321 0.11371104406223111 0 0.40856435551682457 0.1195913393650266 0 0.41135066019799099 0.1182158826350982 0 0.3942733283070321 0.11371104406223111 0 0.39215883637124299 0.11134692133279479 0 0.3942733283070321 0.11371104406223111 0 0.40856435551682457 0.1195913393650266 0 0.3942733283070321 0.11371104406223111 0 0.39215883637124299 0.11134692133279479 0 0.40408322644931421 0.10337105767737099 0 0.39173805803946632 0.094638931286680023 0 0.39215883637124299 0.11134692133279479 0 0.40605193543095291 0.1101899923625959 0 0.40408322644931421 0.10337105767737099 0 0.41050144950628809 0.092342992232264526 0 0.40408322644931421 0.10337105767737099 0 0.39173805803946632 0.094638931286680023 0 0.4038432128890253 0.016274120358417851 0 0.39452024459155199 0.029629145094844 0 0.3798040161112804 0.028996110171619349 0 0.4038432128890253 0.016274120358417851 0 0.39452024459155199 0.029629145094844 0 0.40714332068978548 0.032011032787191827 0 0.4038432128890253 0.016274120358417851 0 0.3798040161112804 0.028996110171619349 0 0.4038432128890253 0.016274120358417851 0 0.39390920682105918 0.0040204267233196643 0 0.38813729234829519 0.016219836643301819 0 0.4038432128890253 0.016274120358417851 0 0.39390920682105918 0.0040204267233196643 0 0.40369857438468087 -0.0060371637805465179 0 0.39390920682105918 0.0040204267233196643 0 0.38212023564171321 0.001094655884648786 0 0.38813729234829519 0.016219836643301819 0 0.38212023564171321 0.001094655884648786 0 0.37537418671591988 0.012891754799621079 0 0.3700201466167648 -0.002195575246397889 0 0.38212023564171321 0.001094655884648786 0 0.37537418671591988 0.012891754799621079 0 0.38813729234829519 0.016219836643301819 0 0.38029426512156322 0.021339738828328979 0 0.38813729234829519 0.016219836643301819 0 0.3798040161112804 0.028996110171619349 0 0.4038432128890253 0.016274120358417851 0 0.38813729234829519 0.016219836643301819 0 0.3798040161112804 0.028996110171619349 0 0.37537418671591988 0.012891754799621079 0 0.38029426512156322 0.021339738828328979 0 0.37786156531075732 0.02725125369877367 0 0.37537418671591988 0.012891754799621079 0 0.38029426512156322 0.021339738828328979 0 0.38813729234829519 0.016219836643301819 0 0.39452024459155199 0.029629145094844 0 0.3798040161112804 0.028996110171619349 0 0.384792923869274 0.033192425096464057 0 0.38029426512156322 0.021339738828328979 0 0.3798040161112804 0.028996110171619349 0 0.37786156531075732 0.02725125369877367 0 0.36984281421283938 0.03924660656396721 0 0.3798040161112804 0.028996110171619349 0 0.37675727284589372 0.036323400775862158 0 0.3798040161112804 0.028996110171619349 0 0.38012370578730592 0.033949837724153123 0 0.37675727284589372 0.036323400775862158 0 0.3798040161112804 0.028996110171619349 0 0.38012370578730592 0.033949837724153123 0 0.384792923869274 0.033192425096464057 0 0.38012370578730592 0.033949837724153123 0 0.38115894465086869 0.037510150111343843 0 0.384792923869274 0.033192425096464057 0 0.38012370578730592 0.033949837724153123 0 0.38115894465086869 0.037510150111343843 0 0.37675727284589372 0.036323400775862158 0 0.38115894465086869 0.037510150111343843 0 0.37675727284589372 0.036323400775862158 0 0.37726993283737248 0.041439113600633092 0 0.37726993283737248 0.041439113600633092 0 0.38325871491723518 0.0441773091346798 0 0.37608467898805159 0.048096788967416412 0 0.38115894465086869 0.037510150111343843 0 0.37726993283737248 0.041439113600633092 0 0.38325871491723518 0.0441773091346798 0 0.38115894465086869 0.037510150111343843 0 0.38325871491723518 0.0441773091346798 0 0.38884635116990662 0.036871995634108659 0 0.38325871491723518 0.0441773091346798 0 0.38884635116990662 0.036871995634108659 0 0.39118926401298038 0.043344116461786472 0 0.39452024459155199 0.029629145094844 0 0.38884635116990662 0.036871995634108659 0 0.384792923869274 0.033192425096464057 0 0.38115894465086869 0.037510150111343843 0 0.38884635116990662 0.036871995634108659 0 0.384792923869274 0.033192425096464057 0 0.36737709041569239 0.056764699852256018 0 0.39058826119953283 0.057913447496371839 0 0.36443667806580698 0.054513224756226962 0 0.37608467898805159 0.048096788967416412 0 0.39058826119953283 0.057913447496371839 0 0.36737709041569239 0.056764699852256018 0 0.37575225644292037 0.071709270247263784 0 0.39058826119953283 0.057913447496371839 0 0.36443667806580698 0.054513224756226962 0 0.39058826119953283 0.057913447496371839 0 0.38325871491723518 0.0441773091346798 0 0.37608467898805159 0.048096788967416412 0 0.39058826119953283 0.057913447496371839 0 0.38325871491723518 0.0441773091346798 0 0.39058826119953283 0.057913447496371839 0 0.39118926401298038 0.043344116461786472 0 0.39058826119953283 0.057913447496371839 0 0.39917917489280202 0.048669550515315511 0 0.40824027372044169 0.058787065978875973 0 0.39058826119953283 0.057913447496371839 0 0.40824027372044169 0.058787065978875973 0 0.39058826119953283 0.057913447496371839 0 0.41794119589964812 0.061469869687005997 0 0.40824027372044169 0.058787065978875973 0 0.39058826119953283 0.057913447496371839 0 0.41794119589964812 0.061469869687005997 0 0.39058826119953283 0.057913447496371839 0 0.39917917489280202 0.048669550515315511 0 0.39118926401298038 0.043344116461786472 0 0.39917917489280202 0.048669550515315511 0 0.40803146459590139 0.044566129264659721 0 0.40824027372044169 0.058787065978875973 0 0.39452024459155199 0.029629145094844 0 0.38884635116990662 0.036871995634108659 0 0.39784661093515339 0.038736993374884177 0 0.39917917489280202 0.048669550515315511 0 0.39784661093515339 0.038736993374884177 0 0.39118926401298038 0.043344116461786472 0 0.38884635116990662 0.036871995634108659 0 0.39784661093515339 0.038736993374884177 0 0.39118926401298038 0.043344116461786472 0 0.39917917489280202 0.048669550515315511 0 0.39784661093515339 0.038736993374884177 0 0.40803146459590139 0.044566129264659721 0 0.39452024459155199 0.029629145094844 0 0.39784661093515339 0.038736993374884177 0 0.40714332068978548 0.032011032787191827 0 0.39784661093515339 0.038736993374884177 0 0.40714332068978548 0.032011032787191827 0 0.40803146459590139 0.044566129264659721 0 0.40714332068978548 0.032011032787191827 0 0.40803146459590139 0.044566129264659721 0 0.41964440497126981 0.040250358009145122 0 0.40803146459590139 0.044566129264659721 0 0.41964440497126981 0.040250358009145122 0 0.41733432138732551 0.050785193364838402 0 0.40714332068978548 0.032011032787191827 0 0.41964440497126981 0.040250358009145122 0 0.41891932927970088 0.026081136014491389 0 0.40824027372044169 0.058787065978875973 0 0.41733432138732551 0.050785193364838402 0 0.42589228624135061 0.059660684461379461 0 0.40824027372044169 0.058787065978875973 0 0.42589228624135061 0.059660684461379461 0 0.41794119589964812 0.061469869687005997 0 0.40824027372044169 0.058787065978875973 0 0.42589228624135061 0.059660684461379461 0 0.40803146459590139 0.044566129264659721 0 0.40824027372044169 0.058787065978875973 0 0.41733432138732551 0.050785193364838402 0 0.41964440497126981 0.040250358009145122 0 0.41733432138732551 0.050785193364838402 0 0.42647272639553008 0.050672874727357403 0 0.44529413059976319 0.065026291877640793 0 0.42589228624135061 0.059660684461379461 0 0.43583307009461808 0.053135938561971199 0 0.44529413059976319 0.065026291877640793 0 0.41794119589964812 0.061469869687005997 0 0.42589228624135061 0.059660684461379461 0 0.42589228624135061 0.059660684461379461 0 0.42647272639553008 0.050672874727357403 0 0.43583307009461808 0.053135938561971199 0 0.41733432138732551 0.050785193364838402 0 0.42589228624135061 0.059660684461379461 0 0.42647272639553008 0.050672874727357403 0 0.42647272639553008 0.050672874727357403 0 0.43583307009461808 0.053135938561971199 0 0.4340740022190257 0.043822740937536728 0 0.41964440497126981 0.040250358009145122 0 0.42987588244635011 0.033334548906864728 0 0.41891932927970088 0.026081136014491389 0 0.41964440497126981 0.040250358009145122 0 0.4340740022190257 0.043822740937536728 0 0.42987588244635011 0.033334548906864728 0 0.41964440497126981 0.040250358009145122 0 0.42647272639553008 0.050672874727357403 0 0.4340740022190257 0.043822740937536728 0 0.4340740022190257 0.043822740937536728 0 0.42987588244635011 0.033334548906864728 0 0.44528176508543132 0.032905620831071007 0 0.42987588244635011 0.033334548906864728 0 0.43184963590009789 0.021236349906575389 0 0.44528176508543132 0.032905620831071007 0 0.43184963590009789 0.021236349906575389 0 0.42259879527057942 0.015927249454054739 0 0.43188165484739188 0.01287087804949661 0 0.43184963590009789 0.021236349906575389 0 0.42259879527057942 0.015927249454054739 0 0.41891932927970088 0.026081136014491389 0 0.42987588244635011 0.033334548906864728 0 0.43184963590009789 0.021236349906575389 0 0.41891932927970088 0.026081136014491389 0 0.4038432128890253 0.016274120358417851 0 0.42259879527057942 0.015927249454054739 0 0.41891932927970088 0.026081136014491389 0 0.4038432128890253 0.016274120358417851 0 0.40714332068978548 0.032011032787191827 0 0.41891932927970088 0.026081136014491389 0 0.4038432128890253 0.016274120358417851 0 0.41402040698134779 -0.0025911497673051101 0 0.40369857438468087 -0.0060371637805465179 0 0.4038432128890253 0.016274120358417851 0 0.42788240966677021 0.003552130545216341 0 0.4038432128890253 0.016274120358417851 0 0.42101935538117791 0.0050386314779034547 0 0.41402040698134779 -0.0025911497673051101 0 0.4038432128890253 0.016274120358417851 0 0.42259879527057942 0.015927249454054739 0 0.42788240966677021 0.003552130545216341 0 0.4038432128890253 0.016274120358417851 0 0.42101935538117791 0.0050386314779034547 0 0.42788240966677021 0.003552130545216341 0 0.42788240966677021 0.003552130545216341 0 0.43188165484739188 0.01287087804949661 0 0.44740740452026229 0.01137317045841814 0 0.42259879527057942 0.015927249454054739 0 0.42788240966677021 0.003552130545216341 0 0.43188165484739188 0.01287087804949661 0 0.43184963590009789 0.021236349906575389 0 0.43188165484739188 0.01287087804949661 0 0.44740740452026229 0.01137317045841814 0 0.42788240966677021 0.003552130545216341 0 0.44740740452026229 0.01137317045841814 0 0.45192160644451512 -0.0091698592679851504 0 0.43184963590009789 0.021236349906575389 0 0.44740740452026229 0.01137317045841814 0 0.44528176508543132 0.032905620831071007 0 0.44740740452026229 0.01137317045841814 0 0.44528176508543132 0.032905620831071007 0 0.46875558315454652 0.02621282055229885 0 0.44740740452026229 0.01137317045841814 0 0.4740075662235973 0.0028935560396234419 0 0.46875558315454652 0.02621282055229885 0 0.44740740452026229 0.01137317045841814 0 0.4740075662235973 0.0028935560396234419 0 0.45192160644451512 -0.0091698592679851504 0 0.44529413059976319 0.065026291877640793 0 0.44587589901867808 0.047550444472131762 0 0.4614262583005877 0.04791767975015173 0 0.44529413059976319 0.065026291877640793 0 0.43583307009461808 0.053135938561971199 0 0.44587589901867808 0.047550444472131762 0 0.43583307009461808 0.053135938561971199 0 0.4340740022190257 0.043822740937536728 0 0.44587589901867808 0.047550444472131762 0 0.44587589901867808 0.047550444472131762 0 0.44528176508543132 0.032905620831071007 0 0.4614262583005877 0.04791767975015173 0 0.4340740022190257 0.043822740937536728 0 0.44587589901867808 0.047550444472131762 0 0.44528176508543132 0.032905620831071007 0 0.44528176508543132 0.032905620831071007 0 0.4614262583005877 0.04791767975015173 0 0.46875558315454652 0.02621282055229885 0 0.47264706529987838 0.068582714068275596 0 0.44529413059976319 0.065026291877640793 0 0.4614262583005877 0.04791767975015173 0 0.47264706529987838 0.068582714068275596 0 0.4614262583005877 0.04791767975015173 0 0.48053199367993171 0.043851827509569327 0 0.4614262583005877 0.04791767975015173 0 0.48053199367993171 0.043851827509569327 0 0.46875558315454652 0.02621282055229885 0 0.48053199367993171 0.043851827509569327 0 0.5 0.04545089247058498 0 0.5 0.018762648682260189 0 0.49999999999999389 0.072139136258909636 0 0.47264706529987838 0.068582714068275596 0 0.48053199367993171 0.043851827509569327 0 0.49999999999999389 0.072139136258909636 0 0.48053199367993171 0.043851827509569327 0 0.5 0.04545089247058498 0 0.48053199367993171 0.043851827509569327 0 0.46875558315454652 0.02621282055229885 0 0.5 0.018762648682260189 0 0.4740075662235973 0.0028935560396234419 0 0.46875558315454652 0.02621282055229885 0 0.5 0.018762648682260189 0 0.4740075662235973 0.0028935560396234419 0 0.5 0.018762648682260189 0 0.5 -0.0079255951060647756 0 0.4740075662235973 0.0028935560396234419 0 0.5 -0.0079255951060647756 0 0.47596080322225992 -0.02189184908118659 0 0.47596080322225992 -0.02189184908118659 0 0.50000000000000377 -0.034613838894389633 0 0.5 -0.0079255951060647756 0 0.47596080322225992 -0.02189184908118659 0 0.50000000000000377 -0.034613838894389633 0 0.47596080322225992 -0.02189184908118659 0 0.50000000000000377 -0.034613838894389633 0 0.48339532061042467 -0.042675677639817791 0 0.50000000000000377 -0.034613838894389633 0 0.5 -0.052291970509826757 0 0.48339532061042467 -0.042675677639817791 0 0.5 -0.052291970509826757 0 0.48378938215607542 -0.060491629721736481 0 0.49999999999999678 -0.069970102125263903 0 0.5 -0.052291970509826757 0 0.48378938215607542 -0.060491629721736481 0 0.48339532061042467 -0.042675677639817791 0 0.48378938215607542 -0.060491629721736481 0 0.47035919737641452 -0.05083356829212015 0 0.48339532061042467 -0.042675677639817791 0 0.48378938215607542 -0.060491629721736481 0 0.47035919737641452 -0.05083356829212015 0 0.46263532094350251 -0.0655193079319734 0 0.47596080322225992 -0.02189184908118659 0 0.48339532061042467 -0.042675677639817791 0 0.46122373864745198 -0.034064038759572521 0 0.47035919737641452 -0.05083356829212015 0 0.48339532061042467 -0.042675677639817791 0 0.46122373864745198 -0.034064038759572521 0 0.46122373864745198 -0.034064038759572521 0 0.45641225836005789 -0.05051217933658872 0 0.44483042593949818 -0.041063070916932051 0 0.47035919737641452 -0.05083356829212015 0 0.46122373864745198 -0.034064038759572521 0 0.45641225836005789 -0.05051217933658872 0 0.45641225836005789 -0.05051217933658872 0 0.44526353314296241 -0.062107813217869068 0 0.46263532094350251 -0.0655193079319734 0 0.47035919737641452 -0.05083356829212015 0 0.45641225836005789 -0.05051217933658872 0 0.46263532094350251 -0.0655193079319734 0 0.45641225836005789 -0.05051217933658872 0 0.44526353314296241 -0.062107813217869068 0 0.44483042593949818 -0.041063070916932051 0 0.44526353314296241 -0.062107813217869068 0 0.44483042593949818 -0.041063070916932051 0 0.42768193525564641 -0.052738548234870043 0 0.46122373864745198 -0.034064038759572521 0 0.44483042593949818 -0.041063070916932051 0 0.44260817666721519 -0.025216613737701819 0 0.44483042593949818 -0.041063070916932051 0 0.44260817666721519 -0.025216613737701819 0 0.43454865465473302 -0.032105158367880783 0 0.46122373864745198 -0.034064038759572521 0 0.44260817666721519 -0.025216613737701819 0 0.45192160644451512 -0.0091698592679851504 0 0.42788240966677021 0.003552130545216341 0 0.45192160644451512 -0.0091698592679851504 0 0.44260817666721519 -0.025216613737701819 0 0.45192160644451512 -0.0091698592679851504 0 0.43543049063324413 -0.012350052332502739 0 0.42788240966677021 0.003552130545216341 0 0.45192160644451512 -0.0091698592679851504 0 0.43543049063324413 -0.012350052332502739 0 0.4740075662235973 0.0028935560396234419 0 0.47596080322225992 -0.02189184908118659 0 0.45192160644451512 -0.0091698592679851504 0 0.47596080322225992 -0.02189184908118659 0 0.45192160644451512 -0.0091698592679851504 0 0.47596080322225992 -0.02189184908118659 0 0.46122373864745198 -0.034064038759572521 0 0.45192160644451512 -0.0091698592679851504 0 0.47621403880257929 -0.099362679963144546 0 0.45825176112352212 -0.1171944005084963 0 0.47461064769812122 -0.12772964805397971 0 0.50000000000000433 -0.1143432737178363 0 0.47621403880257929 -0.099362679963144546 0 0.47461064769812122 -0.12772964805397971 0 0.50000000000000433 -0.1143432737178363 0 0.47461064769812122 -0.12772964805397971 0 0.49999999999998102 -0.1000967699598443 0 0.47621403880257929 -0.099362679963144546 0 0.49999999999998102 -0.1000967699598443 0 0.47621403880257929 -0.099362679963144546 0 0.48785951469139027 -0.086657123706384981 0 0.50000000000000433 -0.1143432737178363 0 0.49999999999998102 -0.1000967699598443 0 0.47621403880257929 -0.099362679963144546 0 0.47621403880257929 -0.099362679963144546 0 0.48785951469139027 -0.086657123706384981 0 0.47522401996300467 -0.077198942777287505 0 0.47621403880257929 -0.099362679963144546 0 0.47522401996300467 -0.077198942777287505 0 0.46460819440086443 -0.0896918568577834 0 0.49999999999998102 -0.1000967699598443 0 0.48785951469139027 -0.086657123706384981 0 0.49999999999999678 -0.069970102125263903 0 0.49999999999999678 -0.069970102125263903 0 0.47522401996300467 -0.077198942777287505 0 0.48785951469139027 -0.086657123706384981 0 0.49999999999999678 -0.069970102125263903 0 0.47522401996300467 -0.077198942777287505 0 0.48378938215607542 -0.060491629721736481 0 0.49999999999999678 -0.069970102125263903 0 0.47522401996300467 -0.077198942777287505 0 0.48378938215607542 -0.060491629721736481 0 0.47522401996300467 -0.077198942777287505 0 0.46263532094350251 -0.0655193079319734 0 0.47522401996300467 -0.077198942777287505 0 0.46263532094350251 -0.0655193079319734 0 0.4504480399260129 -0.084427783429311939 0 0.44526353314296241 -0.062107813217869068 0 0.46263532094350251 -0.0655193079319734 0 0.4504480399260129 -0.084427783429311939 0 0.44526353314296241 -0.062107813217869068 0 0.4504480399260129 -0.084427783429311939 0 0.43069868055782679 -0.078899440675300136 0 0.4504480399260129 -0.084427783429311939 0 0.45242807760517778 -0.098628589966444233 0 0.42864211640777627 -0.097894499969741214 0 0.4504480399260129 -0.084427783429311939 0 0.42567205988902129 -0.091656624081337568 0 0.47522401996300467 -0.077198942777287505 0 0.4504480399260129 -0.084427783429311939 0 0.47522401996300467 -0.077198942777287505 0 0.4504480399260129 -0.084427783429311939 0 0.46460819440086443 -0.0896918568577834 0 0.4504480399260129 -0.084427783429311939 0 0.46460819440086443 -0.0896918568577834 0 0.45242807760517778 -0.098628589966444233 0 0.47621403880257929 -0.099362679963144546 0 0.45242807760517778 -0.098628589966444233 0 0.45825176112352212 -0.1171944005084963 0 0.47621403880257929 -0.099362679963144546 0 0.45242807760517778 -0.098628589966444233 0 0.47621403880257929 -0.099362679963144546 0 0.46460819440086443 -0.0896918568577834 0 0.45242807760517778 -0.098628589966444233 0 0.45242807760517778 -0.098628589966444233 0 0.42864211640777627 -0.097894499969741214 0 0.45242807760517778 -0.098628589966444233 0 0.43893170590200609 -0.1195052611799315 0 0.42864211640777627 -0.097894499969741214 0 0.45242807760517778 -0.098628589966444233 0 0.43893170590200609 -0.1195052611799315 0 0.45825176112352212 -0.1171944005084963 0 0.42080162445294911 -0.1170697999396166 0 0.40604313277712428 -0.1171380761358455 0 0.41368108829086198 -0.13554811058748131 0 0.42080162445294911 -0.1170697999396166 0 0.40662173914453831 -0.097214899993173481 0 0.40604313277712428 -0.1171380761358455 0 0.43893170590200609 -0.1195052611799315 0 0.42080162445294911 -0.1170697999396166 0 0.430889964195386 -0.135117951771525 0 0.43893170590200609 -0.1195052611799315 0 0.42080162445294911 -0.1170697999396166 0 0.42864211640777627 -0.097894499969741214 0 0.43893170590200609 -0.1195052611799315 0 0.42864211640777627 -0.097894499969741214 0 0.42864211640777627 -0.097894499969741214 0 0.42567205988902129 -0.091656624081337568 0 0.42864211640777627 -0.097894499969741214 0 0.40662173914453831 -0.097214899993173481 0 0.42567205988902129 -0.091656624081337568 0 0.42080162445294911 -0.1170697999396166 0 0.42864211640777627 -0.097894499969741214 0 0.40662173914453831 -0.097214899993173481 0 0.42864211640777627 -0.097894499969741214 0 0.40662173914453831 -0.097214899993173481 0 0.40662173914453831 -0.097214899993173481 0 0.42567205988902129 -0.091656624081337568 0 0.40662173914453831 -0.097214899993173481 0 0.41829766411352998 -0.087706900461061957 0 0.42567205988902129 -0.091656624081337568 0 0.40662173914453831 -0.097214899993173481 0 0.41020628866808312 -0.08357079425946129 0 0.41829766411352998 -0.087706900461061957 0 0.41020628866808312 -0.08357079425946129 0 0.42012861486432151 -0.07981881462850364 0 0.41094109939792961 -0.074512111623280808 0 0.41020628866808312 -0.08357079425946129 0 0.41094109939792961 -0.074512111623280808 0 0.40556094342569721 -0.078918860306745137 0 0.41020628866808312 -0.08357079425946129 0 0.42012861486432151 -0.07981881462850364 0 0.41829766411352998 -0.087706900461061957 0 0.42012861486432151 -0.07981881462850364 0 0.41829766411352998 -0.087706900461061957 0 0.42254342745458301 -0.084546146485576762 0 0.41829766411352998 -0.087706900461061957 0 0.42461385466063262 -0.08943412331831832 0 0.42254342745458301 -0.084546146485576762 0 0.42567205988902129 -0.091656624081337568 0 0.42461385466063262 -0.08943412331831832 0 0.43069868055782679 -0.078899440675300136 0 0.4504480399260129 -0.084427783429311939 0 0.42567205988902129 -0.091656624081337568 0 0.43069868055782679 -0.078899440675300136 0 0.4504480399260129 -0.084427783429311939 0 0.42864211640777627 -0.097894499969741214 0 0.42567205988902129 -0.091656624081337568 0 0.42567205988902129 -0.091656624081337568 0 0.42461385466063262 -0.08943412331831832 0 0.41829766411352998 -0.087706900461061957 0 0.42567205988902129 -0.091656624081337568 0 0.42461385466063262 -0.08943412331831832 0 0.42012861486432151 -0.07981881462850364 0 0.43069868055782679 -0.078899440675300136 0 0.42254342745458301 -0.084546146485576762 0 0.42461385466063262 -0.08943412331831832 0 0.43069868055782679 -0.078899440675300136 0 0.42254342745458301 -0.084546146485576762 0 0.43069868055782679 -0.078899440675300136 0 0.42085386234523608 -0.065266903626460593 0 0.41911482919747139 -0.073234494934215744 0 0.43069868055782679 -0.078899440675300136 0 0.42085386234523608 -0.065266903626460593 0 0.42768193525564641 -0.052738548234870043 0 0.44526353314296241 -0.062107813217869068 0 0.43069868055782679 -0.078899440675300136 0 0.42768193525564641 -0.052738548234870043 0 0.43069868055782679 -0.078899440675300136 0 0.42768193525564641 -0.052738548234870043 0 0.42012861486432151 -0.07981881462850364 0 0.43069868055782679 -0.078899440675300136 0 0.41911482919747139 -0.073234494934215744 0 0.42085386234523608 -0.065266903626460593 0 0.41911482919747139 -0.073234494934215744 0 0.41247118756252621 -0.068972059658544485 0 0.41911482919747139 -0.073234494934215744 0 0.41094109939792961 -0.074512111623280808 0 0.41247118756252621 -0.068972059658544485 0 0.42012861486432151 -0.07981881462850364 0 0.41911482919747139 -0.073234494934215744 0 0.41094109939792961 -0.074512111623280808 0 0.41094109939792961 -0.074512111623280808 0 0.41247118756252621 -0.068972059658544485 0 0.40519344017519737 -0.069697512887539489 0 0.42085386234523608 -0.065266903626460593 0 0.41247118756252621 -0.068972059658544485 0 0.40625270669679608 -0.06214927522122575 0 0.41247118756252621 -0.068972059658544485 0 0.40519344017519737 -0.069697512887539489 0 0.40625270669679608 -0.06214927522122575 0 0.40519344017519737 -0.069697512887539489 0 0.3909339432522656 -0.07145852807871525 0 0.40625270669679608 -0.06214927522122575 0 0.41094109939792961 -0.074512111623280808 0 0.40094221169150912 -0.074554002884685597 0 0.40556094342569721 -0.078918860306745137 0 0.40519344017519737 -0.069697512887539489 0 0.40094221169150912 -0.074554002884685597 0 0.3909339432522656 -0.07145852807871525 0 0.41094109939792961 -0.074512111623280808 0 0.40519344017519737 -0.069697512887539489 0 0.40094221169150912 -0.074554002884685597 0 0.40094221169150912 -0.074554002884685597 0 0.3909339432522656 -0.07145852807871525 0 0.39616481607021642 -0.077435810443283751 0 0.3909339432522656 -0.07145852807871525 0 0.39616481607021642 -0.077435810443283751 0 0.39262893539182381 -0.080692178350181262 0 0.39181446083091098 -0.066763706552935329 0 0.38421934743036401 -0.068446750892908373 0 0.38398729378694407 -0.058429379279077209 0 0.38421934743036401 -0.068446750892908373 0 0.37813424473731178 -0.068262582352726586 0 0.38398729378694407 -0.058429379279077209 0 0.37813424473731178 -0.068262582352726586 0 0.38294139036628899 -0.080331335386894381 0 0.37353404377441052 -0.075370636612477671 0 0.38421934743036401 -0.068446750892908373 0 0.37813424473731178 -0.068262582352726586 0 0.38294139036628899 -0.080331335386894381 0 0.39181446083091098 -0.066763706552935329 0 0.38294139036628899 -0.080331335386894381 0 0.39181446083091098 -0.066763706552935329 0 0.38421934743036401 -0.068446750892908373 0 0.38294139036628899 -0.080331335386894381 0 0.3909339432522656 -0.07145852807871525 0 0.39181446083091098 -0.066763706552935329 0 0.38294139036628899 -0.080331335386894381 0 0.38598565568847482 -0.085166122563822014 0 0.39289996883908601 -0.089154852807517448 0 0.39262893539182381 -0.080692178350181262 0 0.3909339432522656 -0.07145852807871525 0 0.38598565568847482 -0.085166122563822014 0 0.39262893539182381 -0.080692178350181262 0 0.3909339432522656 -0.07145852807871525 0 0.37406831990166722 -0.093898964220853504 0 0.3909339432522656 -0.07145852807871525 0 0.38598565568847482 -0.085166122563822014 0 0.37406831990166722 -0.093898964220853504 0 0.3909339432522656 -0.07145852807871525 0 0.38294139036628899 -0.080331335386894381 0 0.37406831990166722 -0.093898964220853504 0 0.38294139036628899 -0.080331335386894381 0 0.37406831990166722 -0.093898964220853504 0 0.38598565568847482 -0.085166122563822014 0 0.38240509603332101 -0.092127683864182172 0 0.37406831990166722 -0.093898964220853504 0 0.38240509603332101 -0.092127683864182172 0 0.39289996883908601 -0.089154852807517448 0 0.38960421283109031 -0.096689699614190994 0 0.38598565568847482 -0.085166122563822014 0 0.38240509603332101 -0.092127683864182172 0 0.39289996883908601 -0.089154852807517448 0 0.39289996883908601 -0.089154852807517448 0 0.39262893539182381 -0.080692178350181262 0 0.40015417394526698 -0.083038532459552866 0 0.39616481607021642 -0.077435810443283751 0 0.39262893539182381 -0.080692178350181262 0 0.40015417394526698 -0.083038532459552866 0 0.40094221169150912 -0.074554002884685597 0 0.40556094342569721 -0.078918860306745137 0 0.40015417394526698 -0.083038532459552866 0 0.40094221169150912 -0.074554002884685597 0 0.39616481607021642 -0.077435810443283751 0 0.40015417394526698 -0.083038532459552866 0 0.41020628866808312 -0.08357079425946129 0 0.40556094342569721 -0.078918860306745137 0 0.40015417394526698 -0.083038532459552866 0 0.40662173914453831 -0.097214899993173481 0 0.39289996883908601 -0.089154852807517448 0 0.40015417394526698 -0.083038532459552866 0 0.40662173914453831 -0.097214899993173481 0 0.41020628866808312 -0.08357079425946129 0 0.40015417394526698 -0.083038532459552866 0 0.40662173914453831 -0.097214899993173481 0 0.3851668720105898 -0.10347474583943909 0 0.38960421283109031 -0.096689699614190994 0 0.40662173914453831 -0.097214899993173481 0 0.3851668720105898 -0.10347474583943909 0 0.40662173914453831 -0.097214899993173481 0 0.39289996883908601 -0.089154852807517448 0 0.38960421283109031 -0.096689699614190994 0 0.40662173914453831 -0.097214899993173481 0 0.38960421283109031 -0.096689699614190994 0 0.40662173914453831 -0.097214899993173481 0 0.3851668720105898 -0.10347474583943909 0 0.39374350655696688 -0.1137959578468639 0 0.38960421283109031 -0.096689699614190994 0 0.37237061700676077 -0.09615783082836224 0 0.3851668720105898 -0.10347474583943909 0 0.38960421283109031 -0.096689699614190994 0 0.37237061700676077 -0.09615783082836224 0 0.38240509603332101 -0.092127683864182172 0 0.38960421283109031 -0.096689699614190994 0 0.37237061700676077 -0.09615783082836224 0 0.38240509603332101 -0.092127683864182172 0 0.37406831990166722 -0.093898964220853504 0 0.37237061700676077 -0.09615783082836224 0 0.3785150876385216 -0.1195111518185689 0 0.39374350655696688 -0.1137959578468639 0 0.39237070121405998 -0.13164091544729051 0 0.3851668720105898 -0.10347474583943909 0 0.3785150876385216 -0.1195111518185689 0 0.36371200487664068 -0.10973459168570281 0 0.3851668720105898 -0.10347474583943909 0 0.3785150876385216 -0.1195111518185689 0 0.39374350655696688 -0.1137959578468639 0 0.40662173914453831 -0.097214899993173481 0 0.39374350655696688 -0.1137959578468639 0 0.40604313277712428 -0.1171380761358455 0 0.39374350655696688 -0.1137959578468639 0 0.40604313277712428 -0.1171380761358455 0 0.39237070121405998 -0.13164091544729051 0 0.41728163952739061 -0.019334187549187701 0 0.42284227266732188 -0.010769512158268201 0 0.42466518995346408 -0.026577655794440151 0 0.41728163952739061 -0.019334187549187701 0 0.41227128108974659 -0.029924501558089681 0 0.42466518995346408 -0.026577655794440151 0 0.41227128108974659 -0.029924501558089681 0 0.40863720631140932 -0.019892986955346081 0 0.40014031603924488 -0.033106741091830219 0 0.41728163952739061 -0.019334187549187701 0 0.41227128108974659 -0.029924501558089681 0 0.40863720631140932 -0.019892986955346081 0 0.41728163952739061 -0.019334187549187701 0 0.40863720631140932 -0.019892986955346081 0 0.41436166681859882 -0.01226683791037885 0 0.40863720631140932 -0.019892986955346081 0 0.41436166681859882 -0.01226683791037885 0 0.40369857438468087 -0.0060371637805465179 0 0.42101935538117791 0.0050386314779034547 0 0.41402040698134779 -0.0025911497673051101 0 0.42284227266732188 -0.010769512158268201 0 0.41402040698134779 -0.0025911497673051101 0 0.41436166681859882 -0.01226683791037885 0 0.40369857438468087 -0.0060371637805465179 0 0.41402040698134779 -0.0025911497673051101 0 0.41436166681859882 -0.01226683791037885 0 0.42284227266732188 -0.010769512158268201 0 0.41728163952739061 -0.019334187549187701 0 0.41436166681859882 -0.01226683791037885 0 0.42284227266732188 -0.010769512158268201 0 0.42284227266732188 -0.010769512158268201 0 0.43543049063324413 -0.012350052332502739 0 0.42769414368384923 -0.02254750278133769 0 0.42101935538117791 0.0050386314779034547 0 0.42284227266732188 -0.010769512158268201 0 0.42101935538117791 0.0050386314779034547 0 0.42788240966677021 0.003552130545216341 0 0.42284227266732188 -0.010769512158268201 0 0.42788240966677021 0.003552130545216341 0 0.42284227266732188 -0.010769512158268201 0 0.43543049063324413 -0.012350052332502739 0 0.42284227266732188 -0.010769512158268201 0 0.42466518995346408 -0.026577655794440151 0 0.42284227266732188 -0.010769512158268201 0 0.42769414368384923 -0.02254750278133769 0 0.42466518995346408 -0.026577655794440151 0 0.44260817666721519 -0.025216613737701819 0 0.43543049063324413 -0.012350052332502739 0 0.42769414368384923 -0.02254750278133769 0 0.42769414368384923 -0.02254750278133769 0 0.42466518995346408 -0.026577655794440151 0 0.43454865465473302 -0.032105158367880783 0 0.42769414368384923 -0.02254750278133769 0 0.42466518995346408 -0.026577655794440151 0 0.44260817666721519 -0.025216613737701819 0 0.42769414368384923 -0.02254750278133769 0 0.43454865465473302 -0.032105158367880783 0 0.42466518995346408 -0.026577655794440151 0 0.43454865465473302 -0.032105158367880783 0 0.42768193525564641 -0.052738548234870043 0 0.42466518995346408 -0.026577655794440151 0 0.42768193525564641 -0.052738548234870043 0 0.44483042593949818 -0.041063070916932051 0 0.43454865465473302 -0.032105158367880783 0 0.42768193525564641 -0.052738548234870043 0 0.42085386234523608 -0.065266903626460593 0 0.42768193525564641 -0.052738548234870043 0 0.40779956660286398 -0.049018091936576927 0 0.42085386234523608 -0.065266903626460593 0 0.40779956660286398 -0.049018091936576927 0 0.40625270669679608 -0.06214927522122575 0 0.42466518995346408 -0.026577655794440151 0 0.42768193525564641 -0.052738548234870043 0 0.40779956660286398 -0.049018091936576927 0 0.42466518995346408 -0.026577655794440151 0 0.40779956660286398 -0.049018091936576927 0 0.41227128108974659 -0.029924501558089681 0 0.42466518995346408 -0.026577655794440151 0 0.40779956660286398 -0.049018091936576927 0 0.41227128108974659 -0.029924501558089681 0 0.40779956660286398 -0.049018091936576927 0 0.40014031603924488 -0.033106741091830219 0 0.40779956660286398 -0.049018091936576927 0 0.40014031603924488 -0.033106741091830219 0 0.3912967176308087 -0.04756724484766426 0 0.40014031603924488 -0.033106741091830219 0 0.3912967176308087 -0.04756724484766426 0 0.38547037370043469 -0.032308846426106139 0 0.3909339432522656 -0.07145852807871525 0 0.40779956660286398 -0.049018091936576927 0 0.40625270669679608 -0.06214927522122575 0 0.3909339432522656 -0.07145852807871525 0 0.39181446083091098 -0.066763706552935329 0 0.40779956660286398 -0.049018091936576927 0 0.39181446083091098 -0.066763706552935329 0 0.40779956660286398 -0.049018091936576927 0 0.3912967176308087 -0.04756724484766426 0 0.3909339432522656 -0.07145852807871525 0 0.40779956660286398 -0.049018091936576927 0 0.3912967176308087 -0.04756724484766426 0 0.38398729378694407 -0.058429379279077209 0 0.37514153202862571 -0.045861082966856079 0 0.39181446083091098 -0.066763706552935329 0 0.3912967176308087 -0.04756724484766426 0 0.38398729378694407 -0.058429379279077209 0 0.38398729378694407 -0.058429379279077209 0 0.37514153202862571 -0.045861082966856079 0 0.37192531576168952 -0.05914395824800911 0 0.37813424473731178 -0.068262582352726586 0 0.38398729378694407 -0.058429379279077209 0 0.37192531576168952 -0.05914395824800911 0 0.3912967176308087 -0.04756724484766426 0 0.38547037370043469 -0.032308846426106139 0 0.37514153202862571 -0.045861082966856079 0 0.38547037370043469 -0.032308846426106139 0 0.37514153202862571 -0.045861082966856079 0 0.36877413775607049 -0.02995327657106206 0 0.38547037370043469 -0.032308846426106139 0 0.37927030083329177 -0.015743113788958679 0 0.36877413775607049 -0.02995327657106206 0 0.38547037370043469 -0.032308846426106139 0 0.37927030083329177 -0.015743113788958679 0 0.39536675090020662 -0.019928774827198261 0 0.40014031603924488 -0.033106741091830219 0 0.38547037370043469 -0.032308846426106139 0 0.39536675090020662 -0.019928774827198261 0 0.40863720631140932 -0.019892986955346081 0 0.40014031603924488 -0.033106741091830219 0 0.39536675090020662 -0.019928774827198261 0 0.40863720631140932 -0.019892986955346081 0 0.39536675090020662 -0.019928774827198261 0 0.40369857438468087 -0.0060371637805465179 0 0.39536675090020662 -0.019928774827198261 0 0.40369857438468087 -0.0060371637805465179 0 0.39174671884158141 -0.0074493154892236006 0 0.39390920682105918 0.0040204267233196643 0 0.40369857438468087 -0.0060371637805465179 0 0.39174671884158141 -0.0074493154892236006 0 0.38212023564171321 0.001094655884648786 0 0.37927030083329177 -0.015743113788958679 0 0.39174671884158141 -0.0074493154892236006 0 0.38212023564171321 0.001094655884648786 0 0.37927030083329177 -0.015743113788958679 0 0.3700201466167648 -0.002195575246397889 0 0.37927030083329177 -0.015743113788958679 0 0.39536675090020662 -0.019928774827198261 0 0.39174671884158141 -0.0074493154892236006 0 0.39390920682105918 0.0040204267233196643 0 0.38212023564171321 0.001094655884648786 0 0.39174671884158141 -0.0074493154892236006 0 0.35686418876597309 0.010252504770385159 0 0.3700201466167648 -0.002195575246397889 0 0.35727920934793722 -0.0129667368589869 0 0.37927030083329177 -0.015743113788958679 0 0.3700201466167648 -0.002195575246397889 0 0.35727920934793722 -0.0129667368589869 0 0.36877413775607049 -0.02995327657106206 0 0.35727920934793722 -0.0129667368589869 0 0.35227314840285812 -0.03152257084722427 0 0.37927030083329177 -0.015743113788958679 0 0.36877413775607049 -0.02995327657106206 0 0.35727920934793722 -0.0129667368589869 0 0.35727920934793722 -0.0129667368589869 0 0.33875503928457851 -0.02222753562310531 0 0.35227314840285812 -0.03152257084722427 0 0.35727920934793722 -0.0129667368589869 0 0.33586681222118892 -0.0067462441580033658 0 0.33875503928457851 -0.02222753562310531 0 0.35686418876597309 0.010252504770385159 0 0.35727920934793722 -0.0129667368589869 0 0.33586681222118892 -0.0067462441580033658 0 0.33586681222118892 -0.0067462441580033658 0 0.33875503928457851 -0.02222753562310531 0 0.31486943567640469 -0.023744993086391868 0 0.33875503928457851 -0.02222753562310531 0 0.31486943567640469 -0.023744993086391868 0 0.33348659077450338 -0.036157133164920148 0 0.33875503928457851 -0.02222753562310531 0 0.33348659077450338 -0.036157133164920148 0 0.35227314840285812 -0.03152257084722427 0 0.31046320235639918 0.0067575729804437252 0 0.33586681222118892 -0.0067462441580033658 0 0.3153830815233527 -0.0087530987426132929 0 0.33586681222118892 -0.0067462441580033658 0 0.31486943567640469 -0.023744993086391868 0 0.3153830815233527 -0.0087530987426132929 0 0.33586681222118892 -0.0067462441580033658 0 0.31486943567640469 -0.023744993086391868 0 0.32115491610998381 -0.052976688016941227 0 0.32092150739102382 -0.073097043805500014 0 0.30601744289912669 -0.055409131432484229 0 0.32115491610998381 -0.052976688016941227 0 0.31197137499350902 -0.041008225260955711 0 0.30601744289912669 -0.055409131432484229 0 0.31486943567640469 -0.023744993086391868 0 0.33348659077450338 -0.036157133164920148 0 0.31197137499350902 -0.041008225260955711 0 0.32115491610998381 -0.052976688016941227 0 0.33348659077450338 -0.036157133164920148 0 0.31197137499350902 -0.041008225260955711 0 0.33348659077450338 -0.036157133164920148 0 0.3363568723602065 -0.050864743298462772 0 0.35116628403686417 -0.048621598638038131 0 0.32115491610998381 -0.052976688016941227 0 0.33348659077450338 -0.036157133164920148 0 0.3363568723602065 -0.050864743298462772 0 0.32115491610998381 -0.052976688016941227 0 0.3363568723602065 -0.050864743298462772 0 0.33388625794764348 -0.064812423232177271 0 0.3363568723602065 -0.050864743298462772 0 0.34794047334546518 -0.063974584280765273 0 0.33388625794764348 -0.064812423232177271 0 0.3363568723602065 -0.050864743298462772 0 0.35116628403686417 -0.048621598638038131 0 0.34794047334546518 -0.063974584280765273 0 0.35116628403686417 -0.048621598638038131 0 0.35914505774559541 -0.060409417065886872 0 0.36392372675137458 -0.051574144679805103 0 0.35116628403686417 -0.048621598638038131 0 0.36240463436463582 -0.041692596330413237 0 0.36392372675137458 -0.051574144679805103 0 0.35116628403686417 -0.048621598638038131 0 0.35914505774559541 -0.060409417065886872 0 0.34794047334546518 -0.063974584280765273 0 0.35116628403686417 -0.048621598638038131 0 0.35227314840285812 -0.03152257084722427 0 0.36240463436463582 -0.041692596330413237 0 0.33348659077450338 -0.036157133164920148 0 0.35116628403686417 -0.048621598638038131 0 0.35227314840285812 -0.03152257084722427 0 0.37514153202862571 -0.045861082966856079 0 0.36877413775607049 -0.02995327657106206 0 0.36240463436463582 -0.041692596330413237 0 0.36877413775607049 -0.02995327657106206 0 0.35227314840285812 -0.03152257084722427 0 0.36240463436463582 -0.041692596330413237 0 0.37514153202862571 -0.045861082966856079 0 0.36240463436463582 -0.041692596330413237 0 0.36392372675137458 -0.051574144679805103 0 0.35914505774559541 -0.060409417065886872 0 0.36392372675137458 -0.051574144679805103 0 0.37192531576168952 -0.05914395824800911 0 0.37514153202862571 -0.045861082966856079 0 0.36392372675137458 -0.051574144679805103 0 0.37192531576168952 -0.05914395824800911 0 0.37813424473731178 -0.068262582352726586 0 0.37192531576168952 -0.05914395824800911 0 0.3680772617285144 -0.06977757947088653 0 0.35914505774559541 -0.060409417065886872 0 0.37192531576168952 -0.05914395824800911 0 0.3680772617285144 -0.06977757947088653 0 0.35914505774559541 -0.060409417065886872 0 0.3680772617285144 -0.06977757947088653 0 0.35837286676988928 -0.071968688592424085 0 0.3680772617285144 -0.06977757947088653 0 0.36498327826552668 -0.083111049239403226 0 0.35837286676988928 -0.071968688592424085 0 0.3680772617285144 -0.06977757947088653 0 0.37353404377441052 -0.075370636612477671 0 0.36498327826552668 -0.083111049239403226 0 0.37813424473731178 -0.068262582352726586 0 0.3680772617285144 -0.06977757947088653 0 0.37353404377441052 -0.075370636612477671 0 0.38294139036628899 -0.080331335386894381 0 0.37353404377441052 -0.075370636612477671 0 0.36498327826552668 -0.083111049239403226 0 0.36498327826552668 -0.083111049239403226 0 0.37237061700676077 -0.09615783082836224 0 0.34241852099989789 -0.095233439592861846 0 0.38294139036628899 -0.080331335386894381 0 0.36498327826552668 -0.083111049239403226 0 0.37406831990166722 -0.093898964220853504 0 0.36498327826552668 -0.083111049239403226 0 0.37406831990166722 -0.093898964220853504 0 0.37237061700676077 -0.09615783082836224 0 0.36498327826552668 -0.083111049239403226 0 0.3449175019875389 -0.076917716904771144 0 0.34241852099989789 -0.095233439592861846 0 0.36498327826552668 -0.083111049239403226 0 0.3449175019875389 -0.076917716904771144 0 0.35837286676988928 -0.071968688592424085 0 0.3449175019875389 -0.076917716904771144 0 0.34794047334546518 -0.063974584280765273 0 0.35837286676988928 -0.071968688592424085 0 0.35914505774559541 -0.060409417065886872 0 0.34794047334546518 -0.063974584280765273 0 0.35837286676988928 -0.071968688592424085 0 0.36371200487664068 -0.10973459168570281 0 0.35664352332635268 -0.13060513793896061 0 0.36779594019891898 -0.12729788290040461 0 0.3785150876385216 -0.1195111518185689 0 0.36371200487664068 -0.10973459168570281 0 0.36779594019891898 -0.12729788290040461 0 0.36371200487664068 -0.10973459168570281 0 0.37237061700676077 -0.09615783082836224 0 0.34241852099989789 -0.095233439592861846 0 0.3851668720105898 -0.10347474583943909 0 0.36371200487664068 -0.10973459168570281 0 0.37237061700676077 -0.09615783082836224 0 0.3851668720105898 -0.10347474583943909 0 0.36371200487664068 -0.10973459168570281 0 0.36371200487664068 -0.10973459168570281 0 0.37237061700676077 -0.09615783082836224 0 0.37406831990166722 -0.093898964220853504 0 0.37237061700676077 -0.09615783082836224 0 0.36371200487664068 -0.10973459168570281 0 0.34332012240242971 -0.1020930362129598 0 0.34241852099989789 -0.095233439592861846 0 0.36371200487664068 -0.10973459168570281 0 0.35002252173753962 -0.112446561286345 0 0.34332012240242971 -0.1020930362129598 0 0.37237061700676077 -0.09615783082836224 0 0.34241852099989789 -0.095233439592861846 0 0.35002252173753962 -0.112446561286345 0 0.34025414842832208 -0.11782241666052221 0 0.34332012240242971 -0.1020930362129598 0 0.36371200487664068 -0.10973459168570281 0 0.35355367174401742 -0.1211945845718113 0 0.34779048707731292 -0.1340798558009649 0 0.36371200487664068 -0.10973459168570281 0 0.35664352332635268 -0.13060513793896061 0 0.34779048707731292 -0.1340798558009649 0 0.36371200487664068 -0.10973459168570281 0 0.34779048707731292 -0.1340798558009649 0 0.36371200487664068 -0.10973459168570281 0 0.35002252173753962 -0.112446561286345 0 0.35355367174401742 -0.1211945845718113 0 0.36371200487664068 -0.10973459168570281 0 0.35355367174401742 -0.1211945845718113 0 0.35002252173753962 -0.112446561286345 0 0.35355367174401742 -0.1211945845718113 0 0.34025414842832208 -0.11782241666052221 0 0.35355367174401742 -0.1211945845718113 0 0.34025414842832208 -0.11782241666052221 0 0.34381162934489939 -0.12854128697128539 0 0.33094534805706732 -0.1177437606496905 0 0.31854024801571379 -0.1183964408803808 0 0.33718817445421712 -0.13355179710808501 0 0.34025414842832208 -0.11782241666052221 0 0.33378984816934337 -0.1086297847084315 0 0.34332012240242971 -0.1020930362129598 0 0.33094534805706732 -0.1177437606496905 0 0.34025414842832208 -0.11782241666052221 0 0.33718817445421712 -0.13355179710808501 0 0.34025414842832208 -0.11782241666052221 0 0.34332012240242971 -0.1020930362129598 0 0.33094534805706732 -0.1177437606496905 0 0.33378984816934337 -0.1086297847084315 0 0.32495432121773932 -0.110318363891034 0 0.33094534805706732 -0.1177437606496905 0 0.34025414842832208 -0.11782241666052221 0 0.33378984816934337 -0.1086297847084315 0 0.33378984816934337 -0.1086297847084315 0 0.32725903490077729 -0.10071499943534749 0 0.32495432121773932 -0.110318363891034 0 0.33378984816934337 -0.1086297847084315 0 0.33669688161811212 -0.1016678149874002 0 0.32725903490077729 -0.10071499943534749 0 0.33378984816934337 -0.1086297847084315 0 0.34332012240242971 -0.1020930362129598 0 0.33669688161811212 -0.1016678149874002 0 0.34332012240242971 -0.1020930362129598 0 0.33669688161811212 -0.1016678149874002 0 0.34241852099989789 -0.095233439592861846 0 0.33669688161811212 -0.1016678149874002 0 0.34241852099989789 -0.095233439592861846 0 0.32725903490077729 -0.10071499943534749 0 0.34241852099989789 -0.095233439592861846 0 0.31246642499303512 -0.0943090483573608 0 0.34241852099989789 -0.095233439592861846 0 0.32725903490077729 -0.10071499943534749 0 0.31246642499303512 -0.0943090483573608 0 0.32725903490077729 -0.10071499943534749 0 0.31716114910448651 -0.10565591717263 0 0.31246642499303512 -0.0943090483573608 0 0.32725903490077729 -0.10071499943534749 0 0.31716114910448651 -0.10565591717263 0 0.32495432121773932 -0.110318363891034 0 0.33094534805706732 -0.1177437606496905 0 0.32495432121773932 -0.110318363891034 0 0.31854024801571379 -0.1183964408803808 0 0.31716114910448651 -0.10565591717263 0 0.32495432121773932 -0.110318363891034 0 0.31854024801571379 -0.1183964408803808 0 0.31716114910448651 -0.10565591717263 0 0.31854024801571379 -0.1183964408803808 0 0.30531265091832138 -0.10738965970164049 0 0.3449175019875389 -0.076917716904771144 0 0.33388625794764348 -0.064812423232177271 0 0.32092150739102382 -0.073097043805500014 0 0.3449175019875389 -0.076917716904771144 0 0.34794047334546518 -0.063974584280765273 0 0.33388625794764348 -0.064812423232177271 0 0.3449175019875389 -0.076917716904771144 0 0.34241852099989789 -0.095233439592861846 0 0.32092150739102382 -0.073097043805500014 0 0.34241852099989789 -0.095233439592861846 0 0.32092150739102382 -0.073097043805500014 0 0.31246642499303512 -0.0943090483573608 0 0.32115491610998381 -0.052976688016941227 0 0.33388625794764348 -0.064812423232177271 0 0.32092150739102382 -0.073097043805500014 0 0.32092150739102382 -0.073097043805500014 0 0.28819319405889499 -0.06706419956831737 0 0.31246642499303512 -0.0943090483573608 0 0.32092150739102382 -0.073097043805500014 0 0.28819319405889499 -0.06706419956831737 0 0.30601744289912669 -0.055409131432484229 0 0.28251432898617262 -0.093384657121855619 0 0.28819319405889499 -0.06706419956831737 0 0.31246642499303512 -0.0943090483573608 0 0.28251432898617262 -0.093384657121855619 0 0.28819319405889499 -0.06706419956831737 0 0.28251432898617262 -0.093384657121855619 0 0.28819319405889499 -0.06706419956831737 0 0.2788070763813692 -0.075616481315712358 0 0.30531265091832138 -0.10738965970164049 0 0.29209333803684512 -0.1204183792118467 0 0.30316218715013699 -0.13585617877411299 0 0.31854024801571379 -0.1183964408803808 0 0.30531265091832138 -0.10738965970164049 0 0.30316218715013699 -0.13585617877411299 0 0.30531265091832138 -0.10738965970164049 0 0.30316218715013699 -0.13585617877411299 0 0.30531265091832138 -0.10738965970164049 0 0.31246642499303512 -0.0943090483573608 0 0.2913954051317153 -0.1063448066268642 0 0.28251432898617262 -0.093384657121855619 0 0.31246642499303512 -0.0943090483573608 0 0.31716114910448651 -0.10565591717263 0 0.30531265091832138 -0.10738965970164049 0 0.31246642499303512 -0.0943090483573608 0 0.28251432898617262 -0.093384657121855619 0 0.31246642499303512 -0.0943090483573608 0 0.2913954051317153 -0.1063448066268642 0 0.28251432898617262 -0.093384657121855619 0 0.2913954051317153 -0.1063448066268642 0 0.27794998204403759 -0.11453953550188679 0 0.30531265091832138 -0.10738965970164049 0 0.2913954051317153 -0.1063448066268642 0 0.29209333803684512 -0.1204183792118467 0 0.2913954051317153 -0.1063448066268642 0 0.29209333803684512 -0.1204183792118467 0 0.27794998204403759 -0.11453953550188679 0 0.27794998204403759 -0.11453953550188679 0 0.25915390151091949 -0.11811210275817149 0 0.27338563510190422 -0.1356944138819183 0 0.29209333803684512 -0.1204183792118467 0 0.27794998204403759 -0.11453953550188679 0 0.27338563510190422 -0.1356944138819183 0 0.28251432898617262 -0.093384657121855619 0 0.27794998204403759 -0.11453953550188679 0 0.25666672159796139 -0.092586939936295867 0 0.28251432898617262 -0.093384657121855619 0 0.27794998204403759 -0.11453953550188679 0 0.25915390151091949 -0.11811210275817149 0 0.25666672159796139 -0.092586939936295867 0 0.23839025179526999 -0.1151992729885977 0 0.27794998204403759 -0.11453953550188679 0 0.25915390151091949 -0.11811210275817149 0 0.25666672159796139 -0.092586939936295867 0 0.28819319405889499 -0.06706419956831737 0 0.27512965144911827 -0.070681904186227995 0 0.27783686619476677 -0.05372527893061739 0 0.26897876163713708 -0.070467118147906876 0 0.27512965144911827 -0.070681904186227995 0 0.27783686619476677 -0.05372527893061739 0 0.26897876163713708 -0.070467118147906876 0 0.26180167325791431 -0.066706815846455908 0 0.27783686619476677 -0.05372527893061739 0 0.27067132333055188 -0.076788874412469815 0 0.26897876163713708 -0.070467118147906876 0 0.26145119023330071 -0.079000043976386408 0 0.27067132333055188 -0.076788874412469815 0 0.26897876163713708 -0.070467118147906876 0 0.2788070763813692 -0.075616481315712358 0 0.26897876163713708 -0.070467118147906876 0 0.27512965144911827 -0.070681904186227995 0 0.28819319405889499 -0.06706419956831737 0 0.2788070763813692 -0.075616481315712358 0 0.27512965144911827 -0.070681904186227995 0 0.26897876163713708 -0.070467118147906876 0 0.2788070763813692 -0.075616481315712358 0 0.26897876163713708 -0.070467118147906876 0 0.2788070763813692 -0.075616481315712358 0 0.27512965144911827 -0.070681904186227995 0 0.28251432898617262 -0.093384657121855619 0 0.25666672159796139 -0.092586939936295867 0 0.28251432898617262 -0.093384657121855619 0 0.27051227275229911 -0.08315566172012806 0 0.25666672159796139 -0.092586939936295867 0 0.28251432898617262 -0.093384657121855619 0 0.2788070763813692 -0.075616481315712358 0 0.27051227275229911 -0.08315566172012806 0 0.27067132333055188 -0.076788874412469815 0 0.27051227275229911 -0.08315566172012806 0 0.26145119023330071 -0.079000043976386408 0 0.27067132333055188 -0.076788874412469815 0 0.2788070763813692 -0.075616481315712358 0 0.27051227275229911 -0.08315566172012806 0 0.26145119023330071 -0.079000043976386408 0 0.25666672159796139 -0.092586939936295867 0 0.24423239209720191 -0.080930297464084477 0 0.27051227275229911 -0.08315566172012806 0 0.26145119023330071 -0.079000043976386408 0 0.25666672159796139 -0.092586939936295867 0 0.26180167325791431 -0.066706815846455908 0 0.25764566998465072 -0.070071372177431313 0 0.24120587699226881 -0.055916030502087773 0 0.26145119023330071 -0.079000043976386408 0 0.25764566998465072 -0.070071372177431313 0 0.24423239209720191 -0.080930297464084477 0 0.25764566998465072 -0.070071372177431313 0 0.24423239209720191 -0.080930297464084477 0 0.26897876163713708 -0.070467118147906876 0 0.26145119023330071 -0.079000043976386408 0 0.25764566998465072 -0.070071372177431313 0 0.26897876163713708 -0.070467118147906876 0 0.26180167325791431 -0.066706815846455908 0 0.25764566998465072 -0.070071372177431313 0 0.26897876163713708 -0.070467118147906876 0 0.25764566998465072 -0.070071372177431313 0 0.26897876163713708 -0.070467118147906876 0 0.26180167325791431 -0.066706815846455908 0 0.26180167325791431 -0.066706815846455908 0 0.25764566998465072 -0.070071372177431313 0 0.26180167325791431 -0.066706815846455908 0 0.26029261894245981 -0.048826031507571623 0 0.24120587699226881 -0.055916030502087773 0 0.26180167325791431 -0.066706815846455908 0 0.24120587699226881 -0.055916030502087773 0 0.26180167325791431 -0.066706815846455908 0 0.26029261894245981 -0.048826031507571623 0 0.27783686619476677 -0.05372527893061739 0 0.26180167325791431 -0.066706815846455908 0 0.27783686619476677 -0.05372527893061739 0 0.26029261894245981 -0.048826031507571623 0 0.27783686619476677 -0.05372527893061739 0 0.27031708646619812 -0.033638605470610219 0 0.27783686619476677 -0.05372527893061739 0 0.27031708646619812 -0.033638605470610219 0 0.28437966209514692 -0.033534114227583768 0 0.26029261894245981 -0.048826031507571623 0 0.27031708646619812 -0.033638605470610219 0 0.25030159180115191 -0.034143426788088307 0 0.26029261894245981 -0.048826031507571623 0 0.25030159180115191 -0.034143426788088307 0 0.24120587699226881 -0.055916030502087773 0 0.25030159180115191 -0.034143426788088307 0 0.26299580833271302 -0.019789195105520681 0 0.2464198669495459 -0.012097030270161889 0 0.27031708646619812 -0.033638605470610219 0 0.25030159180115191 -0.034143426788088307 0 0.26299580833271302 -0.019789195105520681 0 0.25322369798355371 0.0032948183560677501 0 0.26778398551549509 -0.0036893303100333872 0 0.2464198669495459 -0.012097030270161889 0 0.26299580833271302 -0.019789195105520681 0 0.26778398551549509 -0.0036893303100333872 0 0.2464198669495459 -0.012097030270161889 0 0.26299580833271302 -0.019789195105520681 0 0.26778398551549509 -0.0036893303100333872 0 0.28231604015163769 -0.018351258625531171 0 0.2895407867033607 0.0013395930438658619 0 0.26778398551549509 -0.0036893303100333872 0 0.28231604015163769 -0.018351258625531171 0 0.27031708646619812 -0.033638605470610219 0 0.26299580833271302 -0.019789195105520681 0 0.28231604015163769 -0.018351258625531171 0 0.27031708646619812 -0.033638605470610219 0 0.28231604015163769 -0.018351258625531171 0 0.28437966209514692 -0.033534114227583768 0 0.28231604015163769 -0.018351258625531171 0 0.29600028882747859 -0.03087980289019443 0 0.28437966209514692 -0.033534114227583768 0 0.28231604015163769 -0.018351258625531171 0 0.29600028882747859 -0.03087980289019443 0 0.30132541624728598 -0.01217829343577128 0 0.2895407867033607 0.0013395930438658619 0 0.28231604015163769 -0.018351258625531171 0 0.30132541624728598 -0.01217829343577128 0 0.31046320235639918 0.0067575729804437252 0 0.2895407867033607 0.0013395930438658619 0 0.30132541624728598 -0.01217829343577128 0 0.31046320235639918 0.0067575729804437252 0 0.3153830815233527 -0.0087530987426132929 0 0.30132541624728598 -0.01217829343577128 0 0.31486943567640469 -0.023744993086391868 0 0.3153830815233527 -0.0087530987426132929 0 0.30132541624728598 -0.01217829343577128 0 0.31486943567640469 -0.023744993086391868 0 0.29600028882747859 -0.03087980289019443 0 0.30132541624728598 -0.01217829343577128 0 0.31486943567640469 -0.023744993086391868 0 0.31197137499350902 -0.041008225260955711 0 0.29387205913161968 -0.04074374201477949 0 0.31486943567640469 -0.023744993086391868 0 0.29600028882747859 -0.03087980289019443 0 0.29387205913161968 -0.04074374201477949 0 0.31486943567640469 -0.023744993086391868 0 0.29387205913161968 -0.04074374201477949 0 0.31197137499350902 -0.041008225260955711 0 0.30601744289912669 -0.055409131432484229 0 0.29387205913161968 -0.04074374201477949 0 0.28819319405889499 -0.06706419956831737 0 0.27783686619476677 -0.05372527893061739 0 0.29387205913161968 -0.04074374201477949 0 0.28819319405889499 -0.06706419956831737 0 0.29387205913161968 -0.04074374201477949 0 0.27783686619476677 -0.05372527893061739 0 0.29387205913161968 -0.04074374201477949 0 0.28819319405889499 -0.06706419956831737 0 0.30601744289912669 -0.055409131432484229 0 0.29387205913161968 -0.04074374201477949 0 0.27783686619476677 -0.05372527893061739 0 0.28437966209514692 -0.033534114227583768 0 0.29387205913161968 -0.04074374201477949 0 0.29600028882747859 -0.03087980289019443 0 0.28437966209514692 -0.033534114227583768 0 0.29387205913161968 -0.04074374201477949 0 0.29600028882747859 -0.03087980289019443 0 0.29387205913161968 -0.04074374201477949 0 0.28925369461552242 -0.21547475378801551 0 0.29798535605087828 -0.20438389051808681 0 0.27851755886665591 -0.20371457102860641 0 0.28925369461552242 -0.21547475378801551 0 0.28465086540799672 -0.2254021489655588 0 0.27851755886665591 -0.20371457102860641 0 0.28925369461552242 -0.21547475378801551 0 0.29798535605087828 -0.20438389051808681 0 0.29625974568445868 -0.22722646109941139 0 0.28994099481116897 -0.19128490440727269 0 0.29798535605087828 -0.20438389051808681 0 0.29971096641729777 -0.18154131993676231 0 0.28994099481116897 -0.19128490440727269 0 0.27851755886665591 -0.20371457102860641 0 0.28355009790984409 -0.17549983614563519 0 0.28994099481116897 -0.19128490440727269 0 0.29798535605087828 -0.20438389051808681 0 0.27851755886665591 -0.20371457102860641 0 0.30866677822314281 -0.19370433905286669 0 0.29798535605087828 -0.20438389051808681 0 0.29971096641729777 -0.18154131993676231 0 0.29798535605087828 -0.20438389051808681 0 0.29971096641729777 -0.18154131993676231 0 0.30866677822314281 -0.19370433905286669 0 0.30817512199612251 -0.208018461664154 0 0.29798535605087828 -0.20438389051808681 0 0.29798535605087828 -0.20438389051808681 0 0.29625974568445868 -0.22722646109941139 0 0.30367267472900389 -0.2178556058656746 0 0.31200739898088131 -0.22851072207886541 0 0.31883562653249692 -0.20986103607638071 0 0.29798535605087828 -0.20438389051808681 0 0.30367267472900389 -0.2178556058656746 0 0.29625974568445868 -0.22722646109941139 0 0.30817512199612251 -0.208018461664154 0 0.29798535605087828 -0.20438389051808681 0 0.30367267472900389 -0.2178556058656746 0 0.30817512199612251 -0.208018461664154 0 0.30367267472900389 -0.2178556058656746 0 0.31883562653249692 -0.20986103607638071 0 0.30367267472900389 -0.2178556058656746 0 0.31883562653249692 -0.20986103607638071 0 0.31200739898088131 -0.22851072207886541 0 0.30517917142926537 -0.24716040808135001 0 0.29625974568445868 -0.22722646109941139 0 0.30367267472900389 -0.2178556058656746 0 0.31200739898088131 -0.22851072207886541 0 0.29625974568445868 -0.22722646109941139 0 0.31200739898088131 -0.22851072207886541 0 0.30517917142926537 -0.24716040808135001 0 0.30517917142926537 -0.24716040808135001 0 0.28765229627979871 -0.24304032400626949 0 0.29625974568445868 -0.22722646109941139 0 0.28765229627979871 -0.24304032400626949 0 0.29625974568445868 -0.22722646109941139 0 0.28465086540799672 -0.2254021489655588 0 0.28765229627979871 -0.24304032400626949 0 0.28465086540799672 -0.2254021489655588 0 0.27348501982346762 -0.23192930591157759 0 0.28925369461552242 -0.21547475378801551 0 0.29625974568445868 -0.22722646109941139 0 0.28465086540799672 -0.2254021489655588 0 0.28465086540799672 -0.2254021489655588 0 0.27348501982346762 -0.23192930591157759 0 0.27851755886665591 -0.20371457102860641 0 0.27348501982346762 -0.23192930591157759 0 0.25787859859726192 -0.24372773219337371 0 0.26845248078028039 -0.26014404079454911 0 0.28765229627979871 -0.24304032400626949 0 0.27348501982346762 -0.23192930591157759 0 0.26845248078028039 -0.26014404079454911 0 0.27348501982346762 -0.23192930591157759 0 0.26845248078028039 -0.26014404079454911 0 0.27348501982346762 -0.23192930591157759 0 0.25787859859726192 -0.24372773219337371 0 0.2485278721491469 -0.22983386195931649 0 0.27348501982346762 -0.23192930591157759 0 0.25806059678156651 -0.21160485628964759 0 0.2485278721491469 -0.22983386195931649 0 0.27348501982346762 -0.23192930591157759 0 0.27851755886665591 -0.20371457102860641 0 0.27348501982346762 -0.23192930591157759 0 0.25806059678156651 -0.21160485628964759 0 0.27851755886665591 -0.20371457102860641 0 0.27851755886665591 -0.20371457102860641 0 0.26140201073716351 -0.19316186481753209 0 0.27335445324682811 -0.1824409541049711 0 0.25806059678156651 -0.21160485628964759 0 0.27851755886665591 -0.20371457102860641 0 0.26140201073716351 -0.19316186481753209 0 0.27851755886665591 -0.20371457102860641 0 0.28355009790984409 -0.17549983614563519 0 0.25806059678156651 -0.21160485628964759 0 0.26140201073716351 -0.19316186481753209 0 0.24624710011957149 -0.19756578472926509 0 0.26140201073716351 -0.19316186481753209 0 0.25030889548151403 -0.1837077448593728 0 0.24624710011957149 -0.19756578472926509 0 0.25969225384889538 -0.18295045636353721 0 0.2550208565069661 -0.17514012483034949 0 0.27335445324682811 -0.1824409541049711 0 0.26140201073716351 -0.19316186481753209 0 0.25030889548151403 -0.1837077448593728 0 0.25969225384889538 -0.18295045636353721 0 0.25030889548151403 -0.1837077448593728 0 0.25969225384889538 -0.18295045636353721 0 0.2550208565069661 -0.17514012483034949 0 0.2550208565069661 -0.17514012483034949 0 0.2530488896403309 -0.16079061319898569 0 0.27335445324682811 -0.1824409541049711 0 0.26140201073716351 -0.19316186481753209 0 0.25969225384889538 -0.18295045636353721 0 0.27335445324682811 -0.1824409541049711 0 0.2530488896403309 -0.16079061319898569 0 0.272260185211738 -0.168331689764908 0 0.26878477807763418 -0.16016356734556891 0 0.2530488896403309 -0.16079061319898569 0 0.26878477807763418 -0.16016356734556891 0 0.26293682869207591 -0.15391070786642169 0 0.2530488896403309 -0.16079061319898569 0 0.27335445324682811 -0.1824409541049711 0 0.272260185211738 -0.168331689764908 0 0.27899515764395177 -0.15443660918041571 0 0.28355009790984409 -0.17549983614563519 0 0.2530488896403309 -0.16079061319898569 0 0.272260185211738 -0.168331689764908 0 0.27335445324682811 -0.1824409541049711 0 0.272260185211738 -0.168331689764908 0 0.26878477807763418 -0.16016356734556891 0 0.27899515764395177 -0.15443660918041571 0 0.272260185211738 -0.168331689764908 0 0.27335445324682811 -0.1824409541049711 0 0.28355009790984409 -0.17549983614563519 0 0.27851755886665591 -0.20371457102860641 0 0.27335445324682811 -0.1824409541049711 0 0.28355009790984409 -0.17549983614563519 0 0.25915390151091949 -0.11811210275817149 0 0.25133622254172122 -0.13557462765415079 0 0.27338563510190422 -0.1356944138819183 0 0.25133622254172122 -0.13557462765415079 0 0.27338563510190422 -0.1356944138819183 0 0.25133622254172122 -0.13557462765415079 0 0.25208407187516418 -0.1419613505697605 0 0.27338563510190422 -0.1356944138819183 0 0.26557247671991108 -0.14774187414890411 0 0.25208407187516418 -0.1419613505697605 0 0.27142481771649529 -0.14478242884651979 0 0.25208407187516418 -0.1419613505697605 0 0.27142481771649529 -0.14478242884651979 0 0.2530488896403309 -0.16079061319898569 0 0.25208407187516418 -0.1419613505697605 0 0.26293682869207591 -0.15391070786642169 0 0.26557247671991108 -0.14774187414890411 0 0.25208407187516418 -0.1419613505697605 0 0.26293682869207591 -0.15391070786642169 0 0.27899515764395177 -0.15443660918041571 0 0.27142481771649529 -0.14478242884651979 0 0.28858263695303038 -0.1472851012626637 0 0.25208407187516418 -0.1419613505697605 0 0.27142481771649529 -0.14478242884651979 0 0.27338563510190422 -0.1356944138819183 0 0.27142481771649529 -0.14478242884651979 0 0.28858263695303038 -0.1472851012626637 0 0.27142481771649529 -0.14478242884651979 0 0.27338563510190422 -0.1356944138819183 0 0.28952553314766588 -0.14199879033185039 0 0.26878477807763418 -0.16016356734556891 0 0.27009527632936597 -0.15279308215900331 0 0.27899515764395177 -0.15443660918041571 0 0.26557247671991108 -0.14774187414890411 0 0.27009527632936597 -0.15279308215900331 0 0.27142481771649529 -0.14478242884651979 0 0.26878477807763418 -0.16016356734556891 0 0.26293682869207591 -0.15391070786642169 0 0.27009527632936597 -0.15279308215900331 0 0.26557247671991108 -0.14774187414890411 0 0.26293682869207591 -0.15391070786642169 0 0.27009527632936597 -0.15279308215900331 0 0.27009527632936597 -0.15279308215900331 0 0.27899515764395177 -0.15443660918041571 0 0.27142481771649529 -0.14478242884651979 0 0.27794998204403759 -0.11453953550188679 0 0.27338563510190422 -0.1356944138819183 0 0.27142481771649529 -0.14478242884651979 0 0.27338563510190422 -0.1356944138819183 0 0.27338563510190422 -0.1356944138819183 0 0.30316218715013699 -0.13585617877411299 0 0.29209333803684512 -0.1204183792118467 0 0.27338563510190422 -0.1356944138819183 0 0.30316218715013699 -0.13585617877411299 0 0.27338563510190422 -0.1356944138819183 0 0.28952553314766588 -0.14199879033185039 0 0.30316218715013699 -0.13585617877411299 0 0.27142481771649529 -0.14478242884651979 0 0.28952553314766588 -0.14199879033185039 0 0.28858263695303038 -0.1472851012626637 0 0.28858263695303038 -0.1472851012626637 0 0.30013596324633868 -0.14897029159077979 0 0.28952553314766588 -0.14199879033185039 0 0.28858263695303038 -0.1472851012626637 0 0.30013596324633868 -0.14897029159077979 0 0.28952553314766588 -0.14199879033185039 0 0.28858263695303038 -0.1472851012626637 0 0.28858263695303038 -0.1472851012626637 0 0.30013596324633868 -0.14897029159077979 0 0.29372711844303928 -0.1600295372122347 0 0.30316218715013699 -0.13585617877411299 0 0.30143657678371732 -0.15869874935543771 0 0.30013596324633868 -0.14897029159077979 0 0.30316218715013699 -0.13585617877411299 0 0.30143657678371732 -0.15869874935543771 0 0.30316218715013699 -0.13585617877411299 0 0.30143657678371732 -0.15869874935543771 0 0.31253980123811259 -0.14771969478669131 0 0.30013596324633868 -0.14897029159077979 0 0.29372711844303928 -0.1600295372122347 0 0.30143657678371732 -0.15869874935543771 0 0.30143657678371732 -0.15869874935543771 0 0.31557079919726838 -0.1590044961535387 0 0.31253980123811259 -0.14771969478669131 0 0.28952553314766588 -0.14199879033185039 0 0.30013596324633868 -0.14897029159077979 0 0.30316218715013699 -0.13585617877411299 0 0.30316218715013699 -0.13585617877411299 0 0.31993283661344418 -0.13594728745244961 0 0.31253980123811259 -0.14771969478669131 0 0.30316218715013699 -0.13585617877411299 0 0.31993283661344418 -0.13594728745244961 0 0.28994099481116897 -0.19128490440727269 0 0.28355009790984409 -0.17549983614563519 0 0.29971096641729777 -0.18154131993676231 0 0.28355009790984409 -0.17549983614563519 0 0.29493031732226571 -0.16969370770665679 0 0.29971096641729777 -0.18154131993676231 0 0.27899515764395177 -0.15443660918041571 0 0.28858263695303038 -0.1472851012626637 0 0.28355009790984409 -0.17549983614563519 0 0.28858263695303038 -0.1472851012626637 0 0.28355009790984409 -0.17549983614563519 0 0.28858263695303038 -0.1472851012626637 0 0.28355009790984409 -0.17549983614563519 0 0.29372711844303928 -0.1600295372122347 0 0.29372711844303928 -0.1600295372122347 0 0.29493031732226571 -0.16969370770665679 0 0.30143657678371732 -0.15869874935543771 0 0.28355009790984409 -0.17549983614563519 0 0.29372711844303928 -0.1600295372122347 0 0.29493031732226571 -0.16969370770665679 0 0.30143657678371732 -0.15869874935543771 0 0.29971096641729777 -0.18154131993676231 0 0.30143657678371732 -0.15869874935543771 0 0.30809610970482848 -0.16795036279156811 0 0.29971096641729777 -0.18154131993676231 0 0.29493031732226571 -0.16969370770665679 0 0.30143657678371732 -0.15869874935543771 0 0.29971096641729777 -0.18154131993676231 0 0.30143657678371732 -0.15869874935543771 0 0.30809610970482848 -0.16795036279156811 0 0.31557079919726838 -0.1590044961535387 0 0.29971096641729777 -0.18154131993676231 0 0.31498869866721663 -0.1848028620899877 0 0.3156660964210305 -0.17255688572053399 0 0.30809610970482848 -0.16795036279156811 0 0.29971096641729777 -0.18154131993676231 0 0.3156660964210305 -0.17255688572053399 0 0.30866677822314281 -0.19370433905286669 0 0.29971096641729777 -0.18154131993676231 0 0.31498869866721663 -0.1848028620899877 0 0.32729102930978993 -0.18432716657830939 0 0.3156660964210305 -0.17255688572053399 0 0.33199725769327038 -0.160182781354547 0 0.31498869866721663 -0.1848028620899877 0 0.32729102930978993 -0.18432716657830939 0 0.3156660964210305 -0.17255688572053399 0 0.3156660964210305 -0.17255688572053399 0 0.31557079919726838 -0.1590044961535387 0 0.33199725769327038 -0.160182781354547 0 0.30809610970482848 -0.16795036279156811 0 0.3156660964210305 -0.17255688572053399 0 0.31557079919726838 -0.1590044961535387 0 0.32729102930978993 -0.18432716657830939 0 0.34572674800851178 -0.17666980330527179 0 0.34152908302092871 -0.19789605564194099 0 0.32729102930978993 -0.18432716657830939 0 0.33199725769327038 -0.160182781354547 0 0.34572674800851178 -0.17666980330527179 0 0.32729102930978993 -0.18432716657830939 0 0.33199725769327038 -0.160182781354547 0 0.31854024801571379 -0.1183964408803808 0 0.30316218715013699 -0.13585617877411299 0 0.31993283661344418 -0.13594728745244961 0 0.31993283661344418 -0.13594728745244961 0 0.32334883616376942 -0.1477785311756023 0 0.33670348607675138 -0.13603839613078461 0 0.31854024801571379 -0.1183964408803808 0 0.31993283661344418 -0.13594728745244961 0 0.33718817445421712 -0.13355179710808501 0 0.31854024801571379 -0.1183964408803808 0 0.33718817445421712 -0.13355179710808501 0 0.31557079919726838 -0.1590044961535387 0 0.33199725769327038 -0.160182781354547 0 0.32334883616376942 -0.1477785311756023 0 0.31993283661344418 -0.13594728745244961 0 0.32334883616376942 -0.1477785311756023 0 0.31253980123811259 -0.14771969478669131 0 0.31557079919726838 -0.1590044961535387 0 0.32334883616376942 -0.1477785311756023 0 0.31253980123811259 -0.14771969478669131 0 0.33199725769327038 -0.160182781354547 0 0.34027166502062639 -0.13605778071504529 0 0.33670348607675138 -0.13603839613078461 0 0.33199725769327038 -0.160182781354547 0 0.32334883616376942 -0.1477785311756023 0 0.33670348607675138 -0.13603839613078461 0 0.33199725769327038 -0.160182781354547 0 0.33670348607675138 -0.13603839613078461 0 0.31993283661344418 -0.13594728745244961 0 0.33670348607675138 -0.13603839613078461 0 0.31993283661344418 -0.13594728745244961 0 0.33670348607675138 -0.13603839613078461 0 0.33718817445421712 -0.13355179710808501 0 0.34025414842832208 -0.11782241666052221 0 0.33718817445421712 -0.13355179710808501 0 0.34381162934489939 -0.12854128697128539 0 0.34025414842832208 -0.11782241666052221 0 0.33718817445421712 -0.13355179710808501 0 0.34027166502062639 -0.13605778071504529 0 0.33670348607675138 -0.13603839613078461 0 0.33718817445421712 -0.13355179710808501 0 0.34027166502062639 -0.13605778071504529 0 0.33718817445421712 -0.13355179710808501 0 0.34027166502062639 -0.13605778071504529 0 0.33670348607675138 -0.13603839613078461 0 0.33670348607675138 -0.13603839613078461 0 0.33718817445421712 -0.13355179710808501 0 0.34027166502062639 -0.13605778071504529 0 0.33718817445421712 -0.13355179710808501 0 0.34381162934489939 -0.12854128697128539 0 0.33199725769327038 -0.160182781354547 0 0.34027166502062639 -0.13605778071504529 0 0.36359383050920879 -0.15501193774405861 0 0.35355367174401742 -0.1211945845718113 0 0.34381162934489939 -0.12854128697128539 0 0.34779048707731292 -0.1340798558009649 0 0.34027166502062639 -0.13605778071504529 0 0.34884821061351562 -0.13610437388577321 0 0.35664352332635268 -0.13060513793896061 0 0.34779048707731292 -0.1340798558009649 0 0.34884821061351562 -0.13610437388577321 0 0.34027166502062639 -0.13605778071504529 0 0.34779048707731292 -0.1340798558009649 0 0.34884821061351562 -0.13610437388577321 0 0.34027166502062639 -0.13605778071504529 0 0.34381162934489939 -0.12854128697128539 0 0.34779048707731292 -0.1340798558009649 0 0.35664352332635268 -0.13060513793896061 0 0.34884821061351562 -0.13610437388577321 0 0.36374720336072303 -0.13810563056468389 0 0.34884821061351562 -0.13610437388577321 0 0.36359383050920879 -0.15501193774405861 0 0.36374720336072303 -0.13810563056468389 0 0.34027166502062639 -0.13605778071504529 0 0.36359383050920879 -0.15501193774405861 0 0.34027166502062639 -0.13605778071504529 0 0.34884821061351562 -0.13610437388577321 0 0.36359383050920879 -0.15501193774405861 0 0.36359383050920879 -0.15501193774405861 0 0.36374720336072303 -0.13810563056468389 0 0.37656812491251679 -0.13846106794218549 0 0.3785150876385216 -0.1195111518185689 0 0.36779594019891898 -0.12729788290040461 0 0.37656812491251679 -0.13846106794218549 0 0.36374720336072303 -0.13810563056468389 0 0.36779594019891898 -0.12729788290040461 0 0.37656812491251679 -0.13846106794218549 0 0.35664352332635268 -0.13060513793896061 0 0.36374720336072303 -0.13810563056468389 0 0.36779594019891898 -0.12729788290040461 0 0.33199725769327038 -0.160182781354547 0 0.36359383050920879 -0.15501193774405861 0 0.34572674800851178 -0.17666980330527179 0 0.34572674800851178 -0.17666980330527179 0 0.36422253950936112 -0.1859310752075029 0 0.34152908302092871 -0.19789605564194099 0 0.36359383050920879 -0.15501193774405861 0 0.34572674800851178 -0.17666980330527179 0 0.36422253950936112 -0.1859310752075029 0 0.36359383050920879 -0.15501193774405861 0 0.36422253950936112 -0.1859310752075029 0 0.38691599599779503 -0.1739660947730671 0 0.36422253950936112 -0.1859310752075029 0 0.37220629557919183 -0.19612338441269381 0 0.37910290544765168 -0.18685571494790659 0 0.36422253950936112 -0.1859310752075029 0 0.37220629557919183 -0.19612338441269381 0 0.35685044422528578 -0.20027094664828951 0 0.37220629557919183 -0.19612338441269381 0 0.3556522221671049 -0.2162457527497984 0 0.35685044422528578 -0.20027094664828951 0 0.37220629557919183 -0.19612338441269381 0 0.3556522221671049 -0.2162457527497984 0 0.37273333868611941 -0.2093978965492076 0 0.3556522221671049 -0.2162457527497984 0 0.3731990688381891 -0.2228302363117915 0 0.37220629557919183 -0.19612338441269381 0 0.37273333868611941 -0.2093978965492076 0 0.3556522221671049 -0.2162457527497984 0 0.34913249600123192 -0.20719712371303781 0 0.34152908302092871 -0.19789605564194099 0 0.34144894007629428 -0.2139395960038605 0 0.3556522221671049 -0.2162457527497984 0 0.34913249600123192 -0.20719712371303781 0 0.35685044422528578 -0.20027094664828951 0 0.3556522221671049 -0.2162457527497984 0 0.34913249600123192 -0.20719712371303781 0 0.34144894007629428 -0.2139395960038605 0 0.36422253950936112 -0.1859310752075029 0 0.35685044422528578 -0.20027094664828951 0 0.34152908302092871 -0.19789605564194099 0 0.36422253950936112 -0.1859310752075029 0 0.34152908302092871 -0.19789605564194099 0 0.34913249600123192 -0.20719712371303781 0 0.35685044422528578 -0.20027094664828951 0 0.34152908302092871 -0.19789605564194099 0 0.32729102930978993 -0.18432716657830939 0 0.34152908302092871 -0.19789605564194099 0 0.32289957828838461 -0.19876131457419149 0 0.34152908302092871 -0.19789605564194099 0 0.31883562653249692 -0.20986103607638071 0 0.34152908302092871 -0.19789605564194099 0 0.34144894007629428 -0.2139395960038605 0 0.31883562653249692 -0.20986103607638071 0 0.34144894007629428 -0.2139395960038605 0 0.31883562653249692 -0.20986103607638071 0 0.32331405575278033 -0.23055000204260581 0 0.31883562653249692 -0.20986103607638071 0 0.32289957828838461 -0.19876131457419149 0 0.30817512199612251 -0.208018461664154 0 0.31883562653249692 -0.20986103607638071 0 0.32289957828838461 -0.19876131457419149 0 0.30866677822314281 -0.19370433905286669 0 0.30817512199612251 -0.208018461664154 0 0.32289957828838461 -0.19876131457419149 0 0.34152908302092871 -0.19789605564194099 0 0.31883562653249692 -0.20986103607638071 0 0.32289957828838461 -0.19876131457419149 0 0.30866677822314281 -0.19370433905286669 0 0.31498869866721663 -0.1848028620899877 0 0.32289957828838461 -0.19876131457419149 0 0.31498869866721663 -0.1848028620899877 0 0.32729102930978993 -0.18432716657830939 0 0.32289957828838461 -0.19876131457419149 0 0.30517917142926537 -0.24716040808135001 0 0.32331405575278033 -0.23055000204260581 0 0.30517917142926537 -0.24716040808135001 0 0.32331405575278033 -0.23055000204260581 0 0.322544075342931 -0.25649048942400782 0 0.31200739898088131 -0.22851072207886541 0 0.30517917142926537 -0.24716040808135001 0 0.32331405575278033 -0.23055000204260581 0 0.31200739898088131 -0.22851072207886541 0 0.31883562653249692 -0.20986103607638071 0 0.31200739898088131 -0.22851072207886541 0 0.31883562653249692 -0.20986103607638071 0 0.32331405575278033 -0.23055000204260581 0 0.34144894007629428 -0.2139395960038605 0 0.32331405575278033 -0.23055000204260581 0 0.34144894007629428 -0.2139395960038605 0 0.32331405575278033 -0.23055000204260581 0 0.33909814875501798 -0.23636812108690311 0 0.33909814875501798 -0.23636812108690311 0 0.322544075342931 -0.25649048942400782 0 0.32331405575278033 -0.23055000204260581 0 0.33909814875501798 -0.23636812108690311 0 0.322544075342931 -0.25649048942400782 0 0.33909814875501798 -0.23636812108690311 0 0.35007299243335749 -0.24785688602667111 0 0.33700232267718733 -0.25494009872172468 0 0.33909814875501798 -0.23636812108690311 0 0.322544075342931 -0.25649048942400782 0 0.33700232267718733 -0.25494009872172468 0 0.33909814875501798 -0.23636812108690311 0 0.35007299243335749 -0.24785688602667111 0 0.35471840821638012 -0.232162972911199 0 0.35007299243335749 -0.24785688602667111 0 0.35471840821638012 -0.232162972911199 0 0.36225179838031341 -0.2439392928582107 0 0.35007299243335749 -0.24785688602667111 0 0.36225179838031341 -0.2439392928582107 0 0.36124693131331159 -0.25807728632712912 0 0.3556522221671049 -0.2162457527497984 0 0.33909814875501798 -0.23636812108690311 0 0.3556522221671049 -0.2162457527497984 0 0.33909814875501798 -0.23636812108690311 0 0.35471840821638012 -0.232162972911199 0 0.3556522221671049 -0.2162457527497984 0 0.34144894007629428 -0.2139395960038605 0 0.33909814875501798 -0.23636812108690311 0 0.35471840821638012 -0.232162972911199 0 0.3731990688381891 -0.2228302363117915 0 0.36225179838031341 -0.2439392928582107 0 0.3556522221671049 -0.2162457527497984 0 0.35471840821638012 -0.232162972911199 0 0.3731990688381891 -0.2228302363117915 0 0.3731990688381891 -0.2228302363117915 0 0.36225179838031341 -0.2439392928582107 0 0.3731990688381891 -0.2228302363117915 0 0.36225179838031341 -0.2439392928582107 0 0.38186963046980549 -0.2367879359972051 0 0.36225179838031341 -0.2439392928582107 0 0.38186963046980549 -0.2367879359972051 0 0.37510228513818711 -0.25237727586059511 0 0.38186963046980549 -0.2367879359972051 0 0.39206528024080278 -0.24921397013056479 0 0.37510228513818711 -0.25237727586059511 0 0.39206528024080278 -0.24921397013056479 0 0.40137725565661481 -0.22692044649349019 0 0.4148006158986044 -0.24103970595398019 0 0.39206528024080278 -0.24921397013056479 0 0.4148006158986044 -0.24103970595398019 0 0.40884184876520419 -0.25890250189124958 0 0.38186963046980549 -0.2367879359972051 0 0.39206528024080278 -0.24921397013056479 0 0.40137725565661481 -0.22692044649349019 0 0.40137725565661481 -0.22692044649349019 0 0.39915185452682361 -0.21610044156742811 0 0.41396763236883027 -0.21470461273584779 0 0.40137725565661481 -0.22692044649349019 0 0.38700545273377529 -0.2233412248148075 0 0.39915185452682361 -0.21610044156742811 0 0.38186963046980549 -0.2367879359972051 0 0.40137725565661481 -0.22692044649349019 0 0.38700545273377529 -0.2233412248148075 0 0.3731990688381891 -0.2228302363117915 0 0.38186963046980549 -0.2367879359972051 0 0.38700545273377529 -0.2233412248148075 0 0.3731990688381891 -0.2228302363117915 0 0.38414633929606479 -0.2017211797653724 0 0.37273333868611941 -0.2093978965492076 0 0.3731990688381891 -0.2228302363117915 0 0.38414633929606479 -0.2017211797653724 0 0.3731990688381891 -0.2228302363117915 0 0.38675328488958288 -0.2095276895359276 0 0.38414633929606479 -0.2017211797653724 0 0.3731990688381891 -0.2228302363117915 0 0.38700545273377529 -0.2233412248148075 0 0.38675328488958288 -0.2095276895359276 0 0.38675328488958288 -0.2095276895359276 0 0.38414633929606479 -0.2017211797653724 0 0.39287005569986072 -0.20314648074516001 0 0.38414633929606479 -0.2017211797653724 0 0.38373621375160438 -0.1885238144486111 0 0.39509360975394031 -0.18061212321895309 0 0.38414633929606479 -0.2017211797653724 0 0.39509360975394031 -0.18061212321895309 0 0.37999921147615667 -0.19503406661491049 0 0.38373621375160438 -0.1885238144486111 0 0.37910290544765168 -0.18685571494790659 0 0.37999921147615667 -0.19503406661491049 0 0.38414633929606479 -0.2017211797653724 0 0.38373621375160438 -0.1885238144486111 0 0.37220629557919183 -0.19612338441269381 0 0.37999921147615667 -0.19503406661491049 0 0.37910290544765168 -0.18685571494790659 0 0.37220629557919183 -0.19612338441269381 0 0.37273333868611941 -0.2093978965492076 0 0.38414633929606479 -0.2017211797653724 0 0.37220629557919183 -0.19612338441269381 0 0.37999921147615667 -0.19503406661491049 0 0.38414633929606479 -0.2017211797653724 0 0.38414633929606479 -0.2017211797653724 0 0.39694758591794982 -0.18886739411602391 0 0.39509360975394031 -0.18061212321895309 0 0.39694758591794982 -0.18886739411602391 0 0.3969424320709618 -0.1972324897541754 0 0.40101572763622523 -0.19231380306325679 0 0.38414633929606479 -0.2017211797653724 0 0.39694758591794982 -0.18886739411602391 0 0.3969424320709618 -0.1972324897541754 0 0.38414633929606479 -0.2017211797653724 0 0.3969424320709618 -0.1972324897541754 0 0.39287005569986072 -0.20314648074516001 0 0.3969424320709618 -0.1972324897541754 0 0.400612395600416 -0.20053006859666331 0 0.39287005569986072 -0.20314648074516001 0 0.3969424320709618 -0.1972324897541754 0 0.4059814476455269 -0.19573306963025069 0 0.400612395600416 -0.20053006859666331 0 0.4059814476455269 -0.19573306963025069 0 0.400612395600416 -0.20053006859666331 0 0.40665564698531481 -0.2060082342570673 0 0.3969424320709618 -0.1972324897541754 0 0.4059814476455269 -0.19573306963025069 0 0.40101572763622523 -0.19231380306325679 0 0.4059814476455269 -0.19573306963025069 0 0.40101572763622523 -0.19231380306325679 0 0.40419144491046238 -0.1874222587525772 0 0.39694758591794982 -0.18886739411602391 0 0.40101572763622523 -0.19231380306325679 0 0.40419144491046238 -0.1874222587525772 0 0.38675328488958288 -0.2095276895359276 0 0.40665564698531481 -0.2060082342570673 0 0.38675328488958288 -0.2095276895359276 0 0.39915185452682361 -0.21610044156742811 0 0.40665564698531481 -0.2060082342570673 0 0.38675328488958288 -0.2095276895359276 0 0.39287005569986072 -0.20314648074516001 0 0.40665564698531481 -0.2060082342570673 0 0.38700545273377529 -0.2233412248148075 0 0.38675328488958288 -0.2095276895359276 0 0.39915185452682361 -0.21610044156742811 0 0.400612395600416 -0.20053006859666331 0 0.39287005569986072 -0.20314648074516001 0 0.40665564698531481 -0.2060082342570673 0 0.41396763236883027 -0.21470461273584779 0 0.40665564698531481 -0.2060082342570673 0 0.42655800908104652 -0.20248877897820619 0 0.40665564698531481 -0.2060082342570673 0 0.42655800908104652 -0.20248877897820619 0 0.39915185452682361 -0.21610044156742811 0 0.41396763236883027 -0.21470461273584779 0 0.40665564698531481 -0.2060082342570673 0 0.41396763236883027 -0.21470461273584779 0 0.42655800908104652 -0.20248877897820619 0 0.40665564698531481 -0.2060082342570673 0 0.41640017291144837 -0.19588579121564459 0 0.42655800908104652 -0.20248877897820619 0 0.4059814476455269 -0.19573306963025069 0 0.41640017291144837 -0.19588579121564459 0 0.41453364601533049 -0.1862870086825022 0 0.4059814476455269 -0.19573306963025069 0 0.40419144491046238 -0.1874222587525772 0 0.41453364601533049 -0.1862870086825022 0 0.4059814476455269 -0.19573306963025069 0 0.40665564698531481 -0.2060082342570673 0 0.41640017291144837 -0.19588579121564459 0 0.41640017291144837 -0.19588579121564459 0 0.42581299264578848 -0.18832250896932939 0 0.41453364601533049 -0.1862870086825022 0 0.42655800908104652 -0.20248877897820619 0 0.444302871767289 -0.18527179670816579 0 0.42581299264578848 -0.18832250896932939 0 0.42655800908104652 -0.20248877897820619 0 0.444302871767289 -0.18527179670816579 0 0.41640017291144837 -0.19588579121564459 0 0.42581299264578848 -0.18832250896932939 0 0.42655800908104652 -0.20248877897820619 0 0.42655800908104652 -0.20248877897820619 0 0.43237997939727391 -0.21969514264188619 0 0.44995934289594253 -0.19835057932979169 0 0.41396763236883027 -0.21470461273584779 0 0.42655800908104652 -0.20248877897820619 0 0.43237997939727391 -0.21969514264188619 0 0.43237997939727391 -0.21969514264188619 0 0.43199948472716282 -0.23703470349933331 0 0.4148006158986044 -0.24103970595398019 0 0.43237997939727391 -0.21969514264188619 0 0.4148006158986044 -0.24103970595398019 0 0.43199948472716282 -0.23703470349933331 0 0.4148006158986044 -0.24103970595398019 0 0.42892204251950339 -0.2594807324876427 0 0.43199948472716282 -0.23703470349933331 0 0.44338493428344739 -0.24574379201886831 0 0.42892204251950339 -0.2594807324876427 0 0.43237997939727391 -0.21969514264188619 0 0.4148006158986044 -0.24103970595398019 0 0.41563137083033092 -0.22558997695630109 0 0.41396763236883027 -0.21470461273584779 0 0.43237997939727391 -0.21969514264188619 0 0.41563137083033092 -0.22558997695630109 0 0.40137725565661481 -0.22692044649349019 0 0.4148006158986044 -0.24103970595398019 0 0.41563137083033092 -0.22558997695630109 0 0.40137725565661481 -0.22692044649349019 0 0.41396763236883027 -0.21470461273584779 0 0.40137725565661481 -0.22692044649349019 0 0.41396763236883027 -0.21470461273584779 0 0.41563137083033092 -0.22558997695630109 0 0.39237070121405998 -0.13164091544729051 0 0.39988799210863701 -0.14408364481314989 0 0.41368108829086198 -0.13554811058748131 0 0.40604313277712428 -0.1171380761358455 0 0.39237070121405998 -0.13164091544729051 0 0.41368108829086198 -0.13554811058748131 0 0.39237070121405998 -0.13164091544729051 0 0.37656812491251679 -0.13846106794218549 0 0.38605620033535121 -0.1499684147877679 0 0.3785150876385216 -0.1195111518185689 0 0.39237070121405998 -0.13164091544729051 0 0.37656812491251679 -0.13846106794218549 0 0.36359383050920879 -0.15501193774405861 0 0.37656812491251679 -0.13846106794218549 0 0.38605620033535121 -0.1499684147877679 0 0.39237070121405998 -0.13164091544729051 0 0.38605620033535121 -0.1499684147877679 0 0.39988799210863701 -0.14408364481314989 0 0.38605620033535121 -0.1499684147877679 0 0.39988799210863701 -0.14408364481314989 0 0.39700055726989097 -0.15664682800685811 0 0.39988799210863701 -0.14408364481314989 0 0.39700055726989097 -0.15664682800685811 0 0.40766935758353628 -0.1563629578155839 0 0.40291487034120532 -0.16553079014728059 0 0.39700055726989097 -0.15664682800685811 0 0.38691599599779503 -0.1739660947730671 0 0.40291487034120532 -0.16553079014728059 0 0.38691599599779503 -0.1739660947730671 0 0.40291487034120532 -0.16553079014728059 0 0.39700055726989097 -0.15664682800685811 0 0.40766935758353628 -0.1563629578155839 0 0.40291487034120532 -0.16553079014728059 0 0.40766935758353628 -0.1563629578155839 0 0.38605620033535121 -0.1499684147877679 0 0.39700055726989097 -0.15664682800685811 0 0.38691599599779503 -0.1739660947730671 0 0.36359383050920879 -0.15501193774405861 0 0.38691599599779503 -0.1739660947730671 0 0.36359383050920879 -0.15501193774405861 0 0.38605620033535121 -0.1499684147877679 0 0.38691599599779503 -0.1739660947730671 0 0.36422253950936112 -0.1859310752075029 0 0.38691599599779503 -0.1739660947730671 0 0.37910290544765168 -0.18685571494790659 0 0.36422253950936112 -0.1859310752075029 0 0.38691599599779503 -0.1739660947730671 0 0.38691599599779503 -0.1739660947730671 0 0.38753717637180268 -0.18155585423065651 0 0.39509360975394031 -0.18061212321895309 0 0.38373621375160438 -0.1885238144486111 0 0.38753717637180268 -0.18155585423065651 0 0.39509360975394031 -0.18061212321895309 0 0.38691599599779503 -0.1739660947730671 0 0.37910290544765168 -0.18685571494790659 0 0.38753717637180268 -0.18155585423065651 0 0.38373621375160438 -0.1885238144486111 0 0.37910290544765168 -0.18685571494790659 0 0.38753717637180268 -0.18155585423065651 0 0.40291487034120532 -0.16553079014728059 0 0.38691599599779503 -0.1739660947730671 0 0.39509360975394031 -0.18061212321895309 0 0.39694758591794982 -0.18886739411602391 0 0.39665445354372708 -0.18451779314135289 0 0.39509360975394031 -0.18061212321895309 0 0.39694758591794982 -0.18886739411602391 0 0.39665445354372708 -0.18451779314135289 0 0.40021252966215071 -0.18382207331845951 0 0.39665445354372708 -0.18451779314135289 0 0.39509360975394031 -0.18061212321895309 0 0.40021252966215071 -0.18382207331845951 0 0.38691599599779503 -0.1739660947730671 0 0.39509360975394031 -0.18061212321895309 0 0.40291487034120532 -0.16553079014728059 0 0.39509360975394031 -0.18061212321895309 0 0.40549068313545528 -0.17742909809594989 0 0.40291487034120532 -0.16553079014728059 0 0.39509360975394031 -0.18061212321895309 0 0.40549068313545528 -0.17742909809594989 0 0.40419144491046238 -0.1874222587525772 0 0.40021252966215071 -0.18382207331845951 0 0.39509360975394031 -0.18061212321895309 0 0.40549068313545528 -0.17742909809594989 0 0.40021252966215071 -0.18382207331845951 0 0.39694758591794982 -0.18886739411602391 0 0.40419144491046238 -0.1874222587525772 0 0.40021252966215071 -0.18382207331845951 0 0.42581299264578848 -0.18832250896932939 0 0.41453364601533049 -0.1862870086825022 0 0.42235201908535791 -0.17050045814039369 0 0.40549068313545528 -0.17742909809594989 0 0.41453364601533049 -0.1862870086825022 0 0.42235201908535791 -0.17050045814039369 0 0.40549068313545528 -0.17742909809594989 0 0.40419144491046238 -0.1874222587525772 0 0.41453364601533049 -0.1862870086825022 0 0.42235201908535791 -0.17050045814039369 0 0.44127751826325029 -0.16493106072254701 0 0.444302871767289 -0.18527179670816579 0 0.42581299264578848 -0.18832250896932939 0 0.42235201908535791 -0.17050045814039369 0 0.444302871767289 -0.18527179670816579 0 0.42235201908535791 -0.17050045814039369 0 0.42606808286872072 -0.1533234062687002 0 0.44127751826325029 -0.16493106072254701 0 0.40291487034120532 -0.16553079014728059 0 0.40766935758353628 -0.1563629578155839 0 0.42606808286872072 -0.1533234062687002 0 0.40291487034120532 -0.16553079014728059 0 0.42606808286872072 -0.1533234062687002 0 0.40291487034120532 -0.16553079014728059 0 0.42235201908535791 -0.17050045814039369 0 0.42606808286872072 -0.1533234062687002 0 0.40291487034120532 -0.16553079014728059 0 0.40549068313545528 -0.17742909809594989 0 0.42235201908535791 -0.17050045814039369 0 0.41182663021293903 -0.1473295298712288 0 0.42606808286872072 -0.1533234062687002 0 0.41368108829086198 -0.13554811058748131 0 0.40766935758353628 -0.1563629578155839 0 0.41182663021293903 -0.1473295298712288 0 0.42606808286872072 -0.1533234062687002 0 0.39988799210863701 -0.14408364481314989 0 0.40766935758353628 -0.1563629578155839 0 0.41182663021293903 -0.1473295298712288 0 0.39988799210863701 -0.14408364481314989 0 0.41182663021293903 -0.1473295298712288 0 0.41368108829086198 -0.13554811058748131 0 0.42606808286872072 -0.1533234062687002 0 0.430889964195386 -0.135117951771525 0 0.44922129539623712 -0.14111602239012119 0 0.42606808286872072 -0.1533234062687002 0 0.430889964195386 -0.135117951771525 0 0.41368108829086198 -0.13554811058748131 0 0.42080162445294911 -0.1170697999396166 0 0.430889964195386 -0.135117951771525 0 0.41368108829086198 -0.13554811058748131 0 0.45825176112352212 -0.1171944005084963 0 0.44922129539623712 -0.14111602239012119 0 0.47461064769812122 -0.12772964805397971 0 0.44922129539623712 -0.14111602239012119 0 0.47461064769812122 -0.12772964805397971 0 0.44922129539623712 -0.14111602239012119 0 0.47041229806123103 -0.14236165737458781 0 0.47461064769812122 -0.12772964805397971 0 0.43893170590200609 -0.1195052611799315 0 0.430889964195386 -0.135117951771525 0 0.44922129539623712 -0.14111602239012119 0 0.43893170590200609 -0.1195052611799315 0 0.45825176112352212 -0.1171944005084963 0 0.44922129539623712 -0.14111602239012119 0 0.43893170590200609 -0.1195052611799315 0 0.44922129539623712 -0.14111602239012119 0 0.42606808286872072 -0.1533234062687002 0 0.44922129539623712 -0.14111602239012119 0 0.44127751826325029 -0.16493106072254701 0 0.42606808286872072 -0.1533234062687002 0 0.44922129539623712 -0.14111602239012119 0 0.44922129539623712 -0.14111602239012119 0 0.46204773445353348 -0.16805481443812731 0 0.44922129539623712 -0.14111602239012119 0 0.46204773445353348 -0.16805481443812731 0 0.47041229806123103 -0.14236165737458781 0 0.44922129539623712 -0.14111602239012119 0 0.46204773445353348 -0.16805481443812731 0 0.44127751826325029 -0.16493106072254701 0 0.46204773445353348 -0.16805481443812731 0 0.44127751826325029 -0.16493106072254701 0 0.444302871767289 -0.18527179670816579 0 0.46204773445353348 -0.16805481443812731 0 0.444302871767289 -0.18527179670816579 0 0.46675991992270621 -0.1779516052682695 0 0.47013600328087812 -0.185042241033678 0 0.44995934289594253 -0.19835057932979169 0 0.444302871767289 -0.18527179670816579 0 0.46675991992270621 -0.1779516052682695 0 0.44995934289594253 -0.19835057932979169 0 0.46204773445353348 -0.16805481443812731 0 0.444302871767289 -0.18527179670816579 0 0.46675991992270621 -0.1779516052682695 0 0.46204773445353348 -0.16805481443812731 0 0.46675991992270621 -0.1779516052682695 0 0.46675991992270621 -0.1779516052682695 0 0.47013600328087812 -0.185042241033678 0 0.46675991992270621 -0.1779516052682695 0 0.48388214138120561 -0.17390417728894431 0 0.47927416581767118 -0.18397687174081401 0 0.46675991992270621 -0.1779516052682695 0 0.47013600328087812 -0.185042241033678 0 0.47927416581767118 -0.18397687174081401 0 0.48388214138120561 -0.17390417728894431 0 0.47927416581767118 -0.18397687174081401 0 0.48987334582395858 -0.18140433091368091 0 0.48987334582395858 -0.18140433091368091 0 0.5 -0.16492372169971509 0 0.5 -0.19225537639104809 0 0.48388214138120561 -0.17390417728894431 0 0.48987334582395858 -0.18140433091368091 0 0.5 -0.16492372169971509 0 0.47927416581767118 -0.18397687174081401 0 0.48987334582395858 -0.18140433091368091 0 0.48552241192915191 -0.19206174635411891 0 0.48388214138120561 -0.17390417728894431 0 0.5 -0.16492372169971509 0 0.48337995996135552 -0.1577718361383266 0 0.46675991992270621 -0.1779516052682695 0 0.48388214138120561 -0.17390417728894431 0 0.48337995996135552 -0.1577718361383266 0 0.46204773445353348 -0.16805481443812731 0 0.46675991992270621 -0.1779516052682695 0 0.48337995996135552 -0.1577718361383266 0 0.46204773445353348 -0.16805481443812731 0 0.48337995996135552 -0.1577718361383266 0 0.47713463147989749 -0.15341672773068571 0 0.46675991992270621 -0.1779516052682695 0 0.48337995996135552 -0.1577718361383266 0 0.46204773445353348 -0.16805481443812731 0 0.47713463147989749 -0.15341672773068571 0 0.46204773445353348 -0.16805481443812731 0 0.47041229806123103 -0.14236165737458781 0 0.47713463147989749 -0.15341672773068571 0 0.48337995996135552 -0.1577718361383266 0 0.47713463147989749 -0.15341672773068571 0 0.48456351921585428 -0.1397192317593817 0 0.47041229806123103 -0.14236165737458781 0 0.47713463147989749 -0.15341672773068571 0 0.48456351921585428 -0.1397192317593817 0 0.48337995996135552 -0.1577718361383266 0 0.50000000000000311 -0.1375920670083822 0 0.48456351921585428 -0.1397192317593817 0 0.5 -0.16492372169971509 0 0.48337995996135552 -0.1577718361383266 0 0.50000000000000311 -0.1375920670083822 0 0.48337995996135552 -0.1577718361383266 0 0.50000000000000311 -0.1375920670083822 0 0.50000000000000433 -0.1143432737178363 0 0.50000000000000311 -0.1375920670083822 0 0.48456351921585428 -0.1397192317593817 0 0.50000000000000433 -0.1143432737178363 0 0.48456351921585428 -0.1397192317593817 0 0.47461064769812122 -0.12772964805397971 0 0.47041229806123103 -0.14236165737458781 0 0.48456351921585428 -0.1397192317593817 0 0.47461064769812122 -0.12772964805397971 0 0.46695018322910392 -0.22473955239466681 0 0.44975785303280541 -0.2255898949688982 0 0.46528918090086291 -0.2095084705765255 0 0.46695018322910392 -0.22473955239466681 0 0.46086119099944728 -0.24298014516654151 0 0.44975785303280541 -0.2255898949688982 0 0.46086119099944728 -0.24298014516654151 0 0.44338493428344739 -0.24574379201886831 0 0.44975785303280541 -0.2255898949688982 0 0.43199948472716282 -0.23703470349933331 0 0.44338493428344739 -0.24574379201886831 0 0.44975785303280541 -0.2255898949688982 0 0.46086119099944728 -0.24298014516654151 0 0.44338493428344739 -0.24574379201886831 0 0.45165913482636821 -0.26068325523694041 0 0.43237997939727391 -0.21969514264188619 0 0.43199948472716282 -0.23703470349933331 0 0.44975785303280541 -0.2255898949688982 0 0.43237997939727391 -0.21969514264188619 0 0.44975785303280541 -0.2255898949688982 0 0.44995934289594253 -0.19835057932979169 0 0.43237997939727391 -0.21969514264188619 0 0.44995934289594253 -0.19835057932979169 0 0.42655800908104652 -0.20248877897820619 0 0.444302871767289 -0.18527179670816579 0 0.44995934289594253 -0.19835057932979169 0 0.42655800908104652 -0.20248877897820619 0 0.44995934289594253 -0.19835057932979169 0 0.46675991992270621 -0.1779516052682695 0 0.44995934289594253 -0.19835057932979169 0 0.44995934289594253 -0.19835057932979169 0 0.46774087741254722 -0.19520616284195491 0 0.47013600328087812 -0.185042241033678 0 0.44995934289594253 -0.19835057932979169 0 0.46774087741254722 -0.19520616284195491 0 0.44995934289594253 -0.19835057932979169 0 0.46774087741254722 -0.19520616284195491 0 0.46528918090086291 -0.2095084705765255 0 0.44975785303280541 -0.2255898949688982 0 0.44995934289594253 -0.19835057932979169 0 0.46528918090086291 -0.2095084705765255 0 0.46695018322910392 -0.22473955239466681 0 0.46528918090086291 -0.2095084705765255 0 0.48029579162163721 -0.21558854579597769 0 0.46528918090086291 -0.2095084705765255 0 0.47801733861628259 -0.20339364304417529 0 0.48029579162163721 -0.21558854579597769 0 0.47801733861628259 -0.20339364304417529 0 0.48029579162163721 -0.21558854579597769 0 0.48876710843341442 -0.20457726853354019 0 0.46774087741254722 -0.19520616284195491 0 0.47801733861628259 -0.20339364304417529 0 0.48552241192915191 -0.19206174635411891 0 0.47927416581767118 -0.18397687174081401 0 0.46774087741254722 -0.19520616284195491 0 0.48552241192915191 -0.19206174635411891 0 0.46774087741254722 -0.19520616284195491 0 0.48552241192915191 -0.19206174635411891 0 0.47013600328087812 -0.185042241033678 0 0.47927416581767118 -0.18397687174081401 0 0.46774087741254722 -0.19520616284195491 0 0.46774087741254722 -0.19520616284195491 0 0.46528918090086291 -0.2095084705765255 0 0.47801733861628259 -0.20339364304417529 0 0.47801733861628259 -0.20339364304417529 0 0.48552241192915191 -0.19206174635411891 0 0.48876710843341442 -0.20457726853354019 0 0.48987334582395858 -0.18140433091368091 0 0.48552241192915191 -0.19206174635411891 0 0.5 -0.19225537639104809 0 0.48552241192915191 -0.19206174635411891 0 0.5 -0.19225537639104809 0 0.48876710843341442 -0.20457726853354019 0 0.5 -0.19225537639104809 0 0.48876710843341442 -0.20457726853354019 0 0.5 -0.21958703108238101 0 0.48029579162163721 -0.21558854579597769 0 0.48876710843341442 -0.20457726853354019 0 0.5 -0.21958703108238101 0 0.5 -0.21958703108238101 0 0.48033598971293961 -0.23536730169414519 0 0.5 -0.24691868577371379 0 0.48029579162163721 -0.21558854579597769 0 0.5 -0.21958703108238101 0 0.48033598971293961 -0.23536730169414519 0 0.46695018322910392 -0.22473955239466681 0 0.46086119099944728 -0.24298014516654151 0 0.48033598971293961 -0.23536730169414519 0 0.46695018322910392 -0.22473955239466681 0 0.48029579162163721 -0.21558854579597769 0 0.48033598971293961 -0.23536730169414519 0 0.46086119099944728 -0.24298014516654151 0 0.48033598971293961 -0.23536730169414519 0 0.47450143065275591 -0.2599846894272051 0 0.48033598971293961 -0.23536730169414519 0 0.5 -0.24691868577371379 0 0.47450143065275591 -0.2599846894272051 0 0.5 -0.24691868577371379 0 0.50000000000000222 -0.27425034046504659 0 0.47450143065275591 -0.2599846894272051 0 0.50000000000000222 -0.27425034046504659 0 0.47605513413645029 -0.28008102786359129 0 0.47450143065275591 -0.2599846894272051 0 0.47605513413645029 -0.28008102786359129 0 0.47450143065275591 -0.2599846894272051 0 0.45931845050930209 -0.27772900618102819 0 0.46086119099944728 -0.24298014516654151 0 0.47450143065275591 -0.2599846894272051 0 0.45165913482636821 -0.26068325523694041 0 0.47450143065275591 -0.2599846894272051 0 0.45931845050930209 -0.27772900618102819 0 0.45165913482636821 -0.26068325523694041 0 0.45931845050930209 -0.27772900618102819 0 0.44355941821905998 -0.27577600561597132 0 0.45165913482636821 -0.26068325523694041 0 0.44338493428344739 -0.24574379201886831 0 0.45165913482636821 -0.26068325523694041 0 0.42892204251950339 -0.2594807324876427 0 0.44355941821905998 -0.27577600561597132 0 0.45165913482636821 -0.26068325523694041 0 0.42892204251950339 -0.2594807324876427 0 0.44743457629936911 -0.29125199491084608 0 0.45088585771739531 -0.31517042999936162 0 0.43686388954492023 -0.30206384222820981 0 0.45088585771739531 -0.31517042999936162 0 0.43602078127065758 -0.31524868357114688 0 0.43686388954492023 -0.30206384222820981 0 0.45931845050930209 -0.27772900618102819 0 0.44355941821905998 -0.27577600561597132 0 0.44743457629936911 -0.29125199491084608 0 0.44355941821905998 -0.27577600561597132 0 0.44743457629936911 -0.29125199491084608 0 0.42611848489587972 -0.28658767974219163 0 0.47605513413645029 -0.28008102786359129 0 0.45931845050930209 -0.27772900618102819 0 0.46516191830632447 -0.295844547827811 0 0.45931845050930209 -0.27772900618102819 0 0.44743457629936911 -0.29125199491084608 0 0.46516191830632447 -0.295844547827811 0 0.44743457629936911 -0.29125199491084608 0 0.46516191830632447 -0.295844547827811 0 0.45088585771739531 -0.31517042999936162 0 0.46516191830632447 -0.295844547827811 0 0.47218478901913252 -0.31616939882945228 0 0.45088585771739531 -0.31517042999936162 0 0.4860923945095682 -0.29520986964724988 0 0.47218478901913252 -0.31616939882945228 0 0.50000000000000222 -0.27425034046504659 0 0.4860923945095682 -0.29520986964724988 0 0.5 -0.307151228172029 0 0.46516191830632447 -0.295844547827811 0 0.4860923945095682 -0.29520986964724988 0 0.47218478901913252 -0.31616939882945228 0 0.47605513413645029 -0.28008102786359129 0 0.46516191830632447 -0.295844547827811 0 0.4860923945095682 -0.29520986964724988 0 0.50000000000000222 -0.27425034046504659 0 0.47605513413645029 -0.28008102786359129 0 0.4860923945095682 -0.29520986964724988 0 0.50000000000000222 -0.27425034046504659 0 0.4860923945095682 -0.29520986964724988 0 0.4860923945095682 -0.29520986964724988 0 0.5 -0.307151228172029 0 0.47218478901913252 -0.31616939882945228 0 0.5 -0.307151228172029 0 0.47500442815187882 -0.33618410333150461 0 0.5 -0.35237408365171952 0 0.5 -0.307151228172029 0 0.47500442815187882 -0.33618410333150461 0 0.47218478901913252 -0.31616939882945228 0 0.47500442815187882 -0.33618410333150461 0 0.5 -0.35237408365171952 0 0.46252966193221051 -0.36479181955861489 0 0.5 -0.35237408365171952 0 0.46252966193221051 -0.36479181955861489 0 0.4680243894331878 -0.39009447735167219 0 0.46252966193221051 -0.36479181955861489 0 0.44439653888602387 -0.37108278870097211 0 0.45518384933885458 -0.37953704158418422 0 0.46252966193221051 -0.36479181955861489 0 0.4490308344886651 -0.35295870566956811 0 0.45703493443123322 -0.33948916176555749 0 0.47500442815187882 -0.33618410333150461 0 0.46252966193221051 -0.36479181955861489 0 0.45703493443123322 -0.33948916176555749 0 0.46252966193221051 -0.36479181955861489 0 0.45703493443123322 -0.33948916176555749 0 0.4490308344886651 -0.35295870566956811 0 0.44439653888602387 -0.37108278870097211 0 0.43547581015886039 -0.35374612963373181 0 0.44432011104097457 -0.34600420025309703 0 0.4490308344886651 -0.35295870566956811 0 0.45042795048268808 -0.34263813410543531 0 0.4490308344886651 -0.35295870566956811 0 0.45703493443123322 -0.33948916176555749 0 0.45042795048268808 -0.34263813410543531 0 0.44432011104097457 -0.34600420025309703 0 0.4490308344886651 -0.35295870566956811 0 0.43547581015886039 -0.35374612963373181 0 0.44432011104097457 -0.34600420025309703 0 0.43877314986606192 -0.33818418946214152 0 0.43547581015886039 -0.35374612963373181 0 0.46252966193221051 -0.36479181955861489 0 0.4490308344886651 -0.35295870566956811 0 0.44439653888602387 -0.37108278870097211 0 0.47218478901913252 -0.31616939882945228 0 0.45845081404400378 -0.32484725803309861 0 0.45088585771739531 -0.31517042999936162 0 0.47218478901913252 -0.31616939882945228 0 0.45845081404400378 -0.32484725803309861 0 0.45827718352869679 -0.33712892801165451 0 0.47218478901913252 -0.31616939882945228 0 0.45827718352869679 -0.33712892801165451 0 0.45845081404400378 -0.32484725803309861 0 0.45465012105844921 -0.33200612518688721 0 0.44755831468875862 -0.32470483606049327 0 0.47500442815187882 -0.33618410333150461 0 0.45703493443123322 -0.33948916176555749 0 0.45827718352869679 -0.33712892801165451 0 0.47500442815187882 -0.33618410333150461 0 0.47218478901913252 -0.31616939882945228 0 0.45827718352869679 -0.33712892801165451 0 0.45703493443123322 -0.33948916176555749 0 0.4547926195999189 -0.33699511694280199 0 0.45042795048268808 -0.34263813410543531 0 0.45703493443123322 -0.33948916176555749 0 0.45827718352869679 -0.33712892801165451 0 0.4547926195999189 -0.33699511694280199 0 0.45845081404400378 -0.32484725803309861 0 0.45827718352869679 -0.33712892801165451 0 0.45465012105844921 -0.33200612518688721 0 0.4547926195999189 -0.33699511694280199 0 0.45465012105844921 -0.33200612518688721 0 0.45190540097192972 -0.33615439765103378 0 0.45827718352869679 -0.33712892801165451 0 0.4547926195999189 -0.33699511694280199 0 0.45465012105844921 -0.33200612518688721 0 0.45465012105844921 -0.33200612518688721 0 0.44749393872662357 -0.33307274595813069 0 0.44755831468875862 -0.32470483606049327 0 0.45465012105844921 -0.33200612518688721 0 0.44749393872662357 -0.33307274595813069 0 0.45190540097192972 -0.33615439765103378 0 0.4547926195999189 -0.33699511694280199 0 0.45042795048268808 -0.34263813410543531 0 0.45190540097192972 -0.33615439765103378 0 0.45042795048268808 -0.34263813410543531 0 0.45190540097192972 -0.33615439765103378 0 0.44691761172297523 -0.33872250108465612 0 0.44749393872662357 -0.33307274595813069 0 0.45190540097192972 -0.33615439765103378 0 0.44691761172297523 -0.33872250108465612 0 0.44432011104097457 -0.34600420025309703 0 0.45042795048268808 -0.34263813410543531 0 0.44691761172297523 -0.33872250108465612 0 0.44432011104097457 -0.34600420025309703 0 0.44691761172297523 -0.33872250108465612 0 0.43877314986606192 -0.33818418946214152 0 0.44749393872662357 -0.33307274595813069 0 0.44691761172297523 -0.33872250108465612 0 0.43877314986606192 -0.33818418946214152 0 0.44749393872662357 -0.33307274595813069 0 0.43877314986606192 -0.33818418946214152 0 0.43784837531542259 -0.32788377361433518 0 0.44749393872662357 -0.33307274595813069 0 0.43784837531542259 -0.32788377361433518 0 0.44755831468875862 -0.32470483606049327 0 0.43784837531542259 -0.32788377361433518 0 0.44755831468875862 -0.32470483606049327 0 0.43602078127065758 -0.31524868357114688 0 0.45845081404400378 -0.32484725803309861 0 0.44755831468875862 -0.32470483606049327 0 0.45088585771739531 -0.31517042999936162 0 0.44755831468875862 -0.32470483606049327 0 0.45088585771739531 -0.31517042999936162 0 0.43602078127065758 -0.31524868357114688 0 0.43784837531542259 -0.32788377361433518 0 0.42583518759170652 -0.33528639298719382 0 0.41775460495295358 -0.31793141321765611 0 0.43784837531542259 -0.32788377361433518 0 0.43602078127065758 -0.31524868357114688 0 0.41775460495295358 -0.31793141321765611 0 0.43877314986606192 -0.33818418946214152 0 0.43784837531542259 -0.32788377361433518 0 0.42583518759170652 -0.33528639298719382 0 0.43877314986606192 -0.33818418946214152 0 0.42583518759170652 -0.33528639298719382 0 0.43547581015886039 -0.35374612963373181 0 0.41250416259223432 -0.33960725990233392 0 0.41775460495295358 -0.31793141321765611 0 0.39805431729583179 -0.33510365622952631 0 0.41250416259223432 -0.33960725990233392 0 0.41775460495295358 -0.31793141321765611 0 0.42583518759170652 -0.33528639298719382 0 0.41250416259223432 -0.33960725990233392 0 0.41775460495295358 -0.31793141321765611 0 0.42583518759170652 -0.33528639298719382 0 0.41250416259223432 -0.33960725990233392 0 0.42034794007649889 -0.35298104146800569 0 0.43547581015886039 -0.35374612963373181 0 0.42034794007649889 -0.35298104146800569 0 0.42578668388574042 -0.37577956855813549 0 0.44439653888602387 -0.37108278870097211 0 0.43547581015886039 -0.35374612963373181 0 0.42578668388574042 -0.37577956855813549 0 0.42583518759170652 -0.33528639298719382 0 0.43547581015886039 -0.35374612963373181 0 0.42034794007649889 -0.35298104146800569 0 0.41250416259223432 -0.33960725990233392 0 0.42034794007649889 -0.35298104146800569 0 0.40725372023151529 -0.36128310658701179 0 0.41250416259223432 -0.33960725990233392 0 0.40725372023151529 -0.36128310658701179 0 0.40725372023151529 -0.36128310658701179 0 0.42578668388574042 -0.37577956855813549 0 0.40193856510946419 -0.3832261124550107 0 0.40725372023151529 -0.36128310658701179 0 0.42578668388574042 -0.37577956855813549 0 0.42034794007649889 -0.35298104146800569 0 0.40725372023151529 -0.36128310658701179 0 0.42578668388574042 -0.37577956855813549 0 0.40725372023151529 -0.36128310658701179 0 0.39425043507280438 -0.36432915978129837 0 0.40193856510946419 -0.3832261124550107 0 0.40725372023151529 -0.36128310658701179 0 0.40193856510946419 -0.3832261124550107 0 0.39425043507280438 -0.36432915978129837 0 0.38081427771294768 -0.36737052156009248 0 0.40193856510946419 -0.3832261124550107 0 0.40725372023151529 -0.36128310658701179 0 0.38699517723729038 -0.34543689852307891 0 0.39805431729583179 -0.33510365622952631 0 0.40725372023151529 -0.36128310658701179 0 0.39425043507280438 -0.36432915978129837 0 0.38699517723729038 -0.34543689852307891 0 0.40725372023151529 -0.36128310658701179 0 0.38699517723729038 -0.34543689852307891 0 0.41250416259223432 -0.33960725990233392 0 0.40725372023151529 -0.36128310658701179 0 0.39805431729583179 -0.33510365622952631 0 0.38699517723729038 -0.34543689852307891 0 0.38081427771294768 -0.36737052156009248 0 0.37640125955739012 -0.35149107478397351 0 0.38465179156333151 -0.34360390505586791 0 0.36805061276354478 -0.3427907498460791 0 0.39425043507280438 -0.36432915978129837 0 0.38699517723729038 -0.34543689852307891 0 0.38081427771294768 -0.36737052156009248 0 0.38699517723729038 -0.34543689852307891 0 0.37640125955739012 -0.35149107478397351 0 0.38081427771294768 -0.36737052156009248 0 0.38699517723729038 -0.34543689852307891 0 0.38465179156333151 -0.34360390505586791 0 0.38699517723729038 -0.34543689852307891 0 0.37640125955739012 -0.35149107478397351 0 0.38465179156333151 -0.34360390505586791 0 0.41775460495295358 -0.31793141321765611 0 0.39401776620237461 -0.32051644503610022 0 0.39805431729583179 -0.33510365622952631 0 0.38699517723729038 -0.34543689852307891 0 0.39401776620237461 -0.32051644503610022 0 0.39805431729583179 -0.33510365622952631 0 0.38699517723729038 -0.34543689852307891 0 0.39401776620237461 -0.32051644503610022 0 0.38465179156333151 -0.34360390505586791 0 0.37858644206980091 -0.32769985780377792 0 0.36805061276354478 -0.3427907498460791 0 0.38699517723729038 -0.34543689852307891 0 0.39401776620237461 -0.32051644503610022 0 0.38465179156333151 -0.34360390505586791 0 0.39401776620237461 -0.32051644503610022 0 0.38465179156333151 -0.34360390505586791 0 0.37858644206980091 -0.32769985780377792 0 0.39401776620237461 -0.32051644503610022 0 0.37858644206980091 -0.32769985780377792 0 0.37861767820969228 -0.30691821554646831 0 0.41775460495295358 -0.31793141321765611 0 0.39401776620237461 -0.32051644503610022 0 0.40104035516745928 -0.29559599154912142 0 0.39401776620237461 -0.32051644503610022 0 0.37861767820969228 -0.30691821554646831 0 0.40104035516745928 -0.29559599154912142 0 0.39401776620237461 -0.32051644503610022 0 0.40104035516745928 -0.29559599154912142 0 0.40104035516745928 -0.29559599154912142 0 0.38498320530945151 -0.287592927137584 0 0.39655653748852282 -0.27284147297554762 0 0.38498320530945151 -0.287592927137584 0 0.37764450162479901 -0.26965755496232408 0 0.36873774536035581 -0.28861226174546889 0 0.37861767820969228 -0.30691821554646831 0 0.40104035516745928 -0.29559599154912142 0 0.38498320530945151 -0.287592927137584 0 0.37861767820969228 -0.30691821554646831 0 0.38498320530945151 -0.287592927137584 0 0.36873774536035581 -0.28861226174546889 0 0.38498320530945151 -0.287592927137584 0 0.37764450162479901 -0.26965755496232408 0 0.39655653748852282 -0.27284147297554762 0 0.39206528024080278 -0.24921397013056479 0 0.37764450162479901 -0.26965755496232408 0 0.39655653748852282 -0.27284147297554762 0 0.39206528024080278 -0.24921397013056479 0 0.37764450162479901 -0.26965755496232408 0 0.37510228513818711 -0.25237727586059511 0 0.39206528024080278 -0.24921397013056479 0 0.39655653748852282 -0.27284147297554762 0 0.40884184876520419 -0.25890250189124958 0 0.40104035516745928 -0.29559599154912142 0 0.39655653748852282 -0.27284147297554762 0 0.4136044294752057 -0.2739163227279473 0 0.39655653748852282 -0.27284147297554762 0 0.4136044294752057 -0.2739163227279473 0 0.40884184876520419 -0.25890250189124958 0 0.4148006158986044 -0.24103970595398019 0 0.40884184876520419 -0.25890250189124958 0 0.42892204251950339 -0.2594807324876427 0 0.4136044294752057 -0.2739163227279473 0 0.40884184876520419 -0.25890250189124958 0 0.42892204251950339 -0.2594807324876427 0 0.4136044294752057 -0.2739163227279473 0 0.42892204251950339 -0.2594807324876427 0 0.42611848489587972 -0.28658767974219163 0 0.44355941821905998 -0.27577600561597132 0 0.42892204251950339 -0.2594807324876427 0 0.42611848489587972 -0.28658767974219163 0 0.44743457629936911 -0.29125199491084608 0 0.42611848489587972 -0.28658767974219163 0 0.43686388954492023 -0.30206384222820981 0 0.43602078127065758 -0.31524868357114688 0 0.41775460495295358 -0.31793141321765611 0 0.42179240152309172 -0.30222108271158582 0 0.42611848489587972 -0.28658767974219163 0 0.43686388954492023 -0.30206384222820981 0 0.42179240152309172 -0.30222108271158582 0 0.43602078127065758 -0.31524868357114688 0 0.43686388954492023 -0.30206384222820981 0 0.42179240152309172 -0.30222108271158582 0 0.41775460495295358 -0.31793141321765611 0 0.40104035516745928 -0.29559599154912142 0 0.42179240152309172 -0.30222108271158582 0 0.40104035516745928 -0.29559599154912142 0 0.4136044294752057 -0.2739163227279473 0 0.42611848489587972 -0.28658767974219163 0 0.40104035516745928 -0.29559599154912142 0 0.42611848489587972 -0.28658767974219163 0 0.42179240152309172 -0.30222108271158582 0 0.5 -0.5 0 0.478892924595126 -0.45923392689990328 0 0.5 -0.41454166856117469 0 0.5 -0.5 0 0.47943423265092072 -0.49342116463239621 0 0.40014079662082208 -0.5 0 0.43983937115661631 -0.46972557693384148 0 0.47943423265092072 -0.49342116463239621 0 0.40014079662082208 -0.5 0 0.43983937115661631 -0.46972557693384148 0 0.46715606132834708 -0.47012790102379598 0 0.47943423265092072 -0.49342116463239621 0 0.5 -0.5 0 0.47943423265092072 -0.49342116463239621 0 0.478892924595126 -0.45923392689990328 0 0.46715606132834708 -0.47012790102379598 0 0.47943423265092072 -0.49342116463239621 0 0.478892924595126 -0.45923392689990328 0 0.46715606132834708 -0.47012790102379598 0 0.47943423265092072 -0.49342116463239621 0 0.478892924595126 -0.45923392689990328 0 0.45487789000577361 -0.44683463741519602 0 0.47188936358571532 -0.4304781897668572 0 0.46715606132834708 -0.47012790102379598 0 0.45487789000577361 -0.44683463741519602 0 0.46715606132834708 -0.47012790102379598 0 0.478892924595126 -0.45923392689990328 0 0.45487789000577361 -0.44683463741519602 0 0.43983937115661631 -0.46972557693384148 0 0.46715606132834708 -0.47012790102379598 0 0.45487789000577361 -0.44683463741519602 0 0.43983937115661631 -0.46972557693384148 0 0.45487789000577361 -0.44683463741519602 0 0.43095981599733307 -0.44753658110846528 0 0.45487789000577361 -0.44683463741519602 0 0.43408281430989271 -0.43319973453275151 0 0.43095981599733307 -0.44753658110846528 0 0.45487789000577361 -0.44683463741519602 0 0.44259971868320003 -0.42354137380659601 0 0.45487789000577361 -0.44683463741519602 0 0.44259971868320003 -0.42354137380659601 0 0.43408281430989271 -0.43319973453275151 0 0.45487789000577361 -0.44683463741519602 0 0.44259971868320003 -0.42354137380659601 0 0.45959372781066021 -0.42263882295877442 0 0.44259971868320003 -0.42354137380659601 0 0.45186952978880229 -0.40983589673226128 0 0.45959372781066021 -0.42263882295877442 0 0.44259971868320003 -0.42354137380659601 0 0.45186952978880229 -0.40983589673226128 0 0.44161148704613862 -0.40579593671517361 0 0.44259971868320003 -0.42354137380659601 0 0.44161148704613862 -0.40579593671517361 0 0.43098246877755192 -0.41858878846052949 0 0.45186952978880229 -0.40983589673226128 0 0.45959372781066021 -0.42263882295877442 0 0.46285261119418991 -0.40477249250038388 0 0.45959372781066021 -0.42263882295877442 0 0.4735191169341651 -0.41539713514472942 0 0.46285261119418991 -0.40477249250038388 0 0.45959372781066021 -0.42263882295877442 0 0.47188936358571532 -0.4304781897668572 0 0.4735191169341651 -0.41539713514472942 0 0.45487789000577361 -0.44683463741519602 0 0.45959372781066021 -0.42263882295877442 0 0.47188936358571532 -0.4304781897668572 0 0.5 -0.41454166856117469 0 0.4735191169341651 -0.41539713514472942 0 0.4680243894331878 -0.39009447735167219 0 0.478892924595126 -0.45923392689990328 0 0.47188936358571532 -0.4304781897668572 0 0.5 -0.41454166856117469 0 0.47188936358571532 -0.4304781897668572 0 0.5 -0.41454166856117469 0 0.4735191169341651 -0.41539713514472942 0 0.5 -0.35237408365171952 0 0.5 -0.41454166856117469 0 0.4680243894331878 -0.39009447735167219 0 0.4735191169341651 -0.41539713514472942 0 0.4680243894331878 -0.39009447735167219 0 0.46252966193221051 -0.36479181955861489 0 0.45518384933885458 -0.37953704158418422 0 0.4680243894331878 -0.39009447735167219 0 0.45518384933885458 -0.37953704158418422 0 0.4680243894331878 -0.39009447735167219 0 0.44431964753996511 -0.39027603052925969 0 0.46252966193221051 -0.36479181955861489 0 0.4680243894331878 -0.39009447735167219 0 0.4735191169341651 -0.41539713514472942 0 0.4680243894331878 -0.39009447735167219 0 0.46285261119418991 -0.40477249250038388 0 0.4680243894331878 -0.39009447735167219 0 0.46285261119418991 -0.40477249250038388 0 0.44431964753996511 -0.39027603052925969 0 0.46285261119418991 -0.40477249250038388 0 0.44431964753996511 -0.39027603052925969 0 0.45186952978880229 -0.40983589673226128 0 0.44161148704613862 -0.40579593671517361 0 0.44431964753996511 -0.39027603052925969 0 0.45186952978880229 -0.40983589673226128 0 0.46285261119418991 -0.40477249250038388 0 0.44431964753996511 -0.39027603052925969 0 0.44439653888602387 -0.37108278870097211 0 0.44431964753996511 -0.39027603052925969 0 0.42578668388574042 -0.37577956855813549 0 0.44439653888602387 -0.37108278870097211 0 0.45518384933885458 -0.37953704158418422 0 0.44431964753996511 -0.39027603052925969 0 0.44431964753996511 -0.39027603052925969 0 0.42578668388574042 -0.37577956855813549 0 0.42627525148907153 -0.39512359141131242 0 0.44431964753996511 -0.39027603052925969 0 0.42578668388574042 -0.37577956855813549 0 0.44161148704613862 -0.40579593671517361 0 0.44431964753996511 -0.39027603052925969 0 0.42627525148907153 -0.39512359141131242 0 0.44161148704613862 -0.40579593671517361 0 0.42627525148907153 -0.39512359141131242 0 0.41380476734409732 -0.40903711363024231 0 0.41288573556315727 -0.39366710087554208 0 0.39662340998741341 -0.40516911832300972 0 0.41380476734409732 -0.40903711363024231 0 0.42627525148907153 -0.39512359141131242 0 0.41288573556315727 -0.39366710087554208 0 0.41380476734409732 -0.40903711363024231 0 0.42578668388574042 -0.37577956855813549 0 0.41288573556315727 -0.39366710087554208 0 0.40193856510946419 -0.3832261124550107 0 0.42578668388574042 -0.37577956855813549 0 0.42627525148907153 -0.39512359141131242 0 0.41288573556315727 -0.39366710087554208 0 0.38081427771294768 -0.36737052156009248 0 0.37463337818860382 -0.38930414459710588 0 0.3737028077843495 -0.38742295831448542 0 0.38081427771294768 -0.36737052156009248 0 0.38897026210220897 -0.39170162293651239 0 0.37463337818860382 -0.38930414459710588 0 0.38081427771294768 -0.36737052156009248 0 0.37463337818860382 -0.38930414459710588 0 0.38081427771294768 -0.36737052156009248 0 0.40193856510946419 -0.3832261124550107 0 0.38897026210220897 -0.39170162293651239 0 0.38599804764205609 -0.41227829054531151 0 0.37463337818860382 -0.38930414459710588 0 0.38897026210220897 -0.39170162293651239 0 0.39662340998741341 -0.40516911832300972 0 0.38599804764205609 -0.41227829054531151 0 0.38599804764205609 -0.41227829054531151 0 0.36755341006792419 -0.41442821452601158 0 0.37463337818860382 -0.38930414459710588 0 0.38897026210220897 -0.39170162293651239 0 0.38599804764205609 -0.41227829054531151 0 0.37463337818860382 -0.38930414459710588 0 0.40193856510946419 -0.3832261124550107 0 0.38897026210220897 -0.39170162293651239 0 0.39662340998741341 -0.40516911832300972 0 0.41288573556315727 -0.39366710087554208 0 0.40193856510946419 -0.3832261124550107 0 0.39662340998741341 -0.40516911832300972 0 0.40193856510946419 -0.3832261124550107 0 0.39662340998741341 -0.40516911832300972 0 0.38599804764205609 -0.41227829054531151 0 0.41380476734409732 -0.40903711363024231 0 0.39662340998741341 -0.40516911832300972 0 0.38599804764205609 -0.41227829054531151 0 0.41380476734409732 -0.40903711363024231 0 0.40147331832312588 -0.42054231308375889 0 0.38599804764205609 -0.41227829054531151 0 0.41380476734409732 -0.40903711363024231 0 0.38599804764205609 -0.41227829054531151 0 0.36755341006792419 -0.41442821452601158 0 0.38599804764205609 -0.41227829054531151 0 0.37837193070639508 -0.43074191130029282 0 0.36755341006792419 -0.41442821452601158 0 0.38599804764205609 -0.41227829054531151 0 0.37837193070639508 -0.43074191130029282 0 0.39716653888589531 -0.43485585418744782 0 0.37837193070639508 -0.43074191130029282 0 0.39716653888589531 -0.43485585418744782 0 0.38455236834147782 -0.44235831893697952 0 0.38599804764205609 -0.41227829054531151 0 0.39716653888589531 -0.43485585418744782 0 0.40147331832312588 -0.42054231308375889 0 0.38599804764205609 -0.41227829054531151 0 0.39716653888589531 -0.43485585418744782 0 0.40147331832312588 -0.42054231308375889 0 0.39716653888589531 -0.43485585418744782 0 0.40988830344794153 -0.42850982814637428 0 0.39716653888589531 -0.43485585418744782 0 0.40988830344794153 -0.42850982814637428 0 0.41424956646142452 -0.44145335337101582 0 0.40988830344794153 -0.42850982814637428 0 0.42255857874347952 -0.42798536962106742 0 0.41424956646142452 -0.44145335337101582 0 0.40147331832312588 -0.42054231308375889 0 0.40988830344794153 -0.42850982814637428 0 0.41380476734409732 -0.40903711363024231 0 0.40988830344794153 -0.42850982814637428 0 0.41380476734409732 -0.40903711363024231 0 0.42255857874347952 -0.42798536962106742 0 0.44161148704613862 -0.40579593671517361 0 0.41380476734409732 -0.40903711363024231 0 0.43098246877755192 -0.41858878846052949 0 0.44161148704613862 -0.40579593671517361 0 0.41380476734409732 -0.40903711363024231 0 0.41380476734409732 -0.40903711363024231 0 0.43098246877755192 -0.41858878846052949 0 0.42255857874347952 -0.42798536962106742 0 0.43408281430989271 -0.43319973453275151 0 0.42255857874347952 -0.42798536962106742 0 0.43095981599733307 -0.44753658110846528 0 0.44259971868320003 -0.42354137380659601 0 0.43098246877755192 -0.41858878846052949 0 0.43408281430989271 -0.43319973453275151 0 0.43098246877755192 -0.41858878846052949 0 0.43408281430989271 -0.43319973453275151 0 0.42255857874347952 -0.42798536962106742 0 0.42255857874347952 -0.42798536962106742 0 0.43095981599733307 -0.44753658110846528 0 0.41424956646142452 -0.44145335337101582 0 0.43983937115661631 -0.46972557693384148 0 0.42706067288056998 -0.45966910190407051 0 0.41707216494033877 -0.46659444091922031 0 0.43983937115661631 -0.46972557693384148 0 0.43095981599733307 -0.44753658110846528 0 0.42706067288056998 -0.45966910190407051 0 0.43095981599733307 -0.44753658110846528 0 0.42706067288056998 -0.45966910190407051 0 0.42037133942799187 -0.45481980865475502 0 0.42037133942799187 -0.45481980865475502 0 0.41707216494033877 -0.46659444091922031 0 0.40833503012973449 -0.45743341782958391 0 0.42706067288056998 -0.45966910190407051 0 0.42037133942799187 -0.45481980865475502 0 0.41707216494033877 -0.46659444091922031 0 0.41707216494033877 -0.46659444091922031 0 0.40833503012973449 -0.45743341782958391 0 0.39424227281986102 -0.46676003377889269 0 0.43095981599733307 -0.44753658110846528 0 0.42037133942799187 -0.45481980865475502 0 0.41424956646142452 -0.44145335337101582 0 0.42037133942799187 -0.45481980865475502 0 0.40833503012973449 -0.45743341782958391 0 0.41424956646142452 -0.44145335337101582 0 0.39716653888589531 -0.43485585418744782 0 0.40833503012973449 -0.45743341782958391 0 0.41424956646142452 -0.44145335337101582 0 0.39716653888589531 -0.43485585418744782 0 0.39345157537004599 -0.45057062730194619 0 0.38455236834147782 -0.44235831893697952 0 0.39716653888589531 -0.43485585418744782 0 0.40833503012973449 -0.45743341782958391 0 0.39345157537004599 -0.45057062730194619 0 0.39716653888589531 -0.43485585418744782 0 0.40833503012973449 -0.45743341782958391 0 0.39345157537004599 -0.45057062730194619 0 0.38455236834147782 -0.44235831893697952 0 0.38182359321740972 -0.45292134106576409 0 0.38455236834147782 -0.44235831893697952 0 0.38182359321740972 -0.45292134106576409 0 0.37194820352764257 -0.4427018608294464 0 0.37837193070639508 -0.43074191130029282 0 0.38455236834147782 -0.44235831893697952 0 0.37194820352764257 -0.4427018608294464 0 0.38182359321740972 -0.45292134106576409 0 0.39424227281986102 -0.46676003377889269 0 0.37141238069938332 -0.46692562663856529 0 0.39345157537004599 -0.45057062730194619 0 0.38182359321740972 -0.45292134106576409 0 0.39424227281986102 -0.46676003377889269 0 0.39424227281986102 -0.46676003377889269 0 0.37141238069938332 -0.46692562663856529 0 0.40833503012973449 -0.45743341782958391 0 0.39345157537004599 -0.45057062730194619 0 0.39424227281986102 -0.46676003377889269 0 0.41707216494033877 -0.46659444091922031 0 0.39424227281986102 -0.46676003377889269 0 0.41707216494033877 -0.46659444091922031 0 0.39424227281986102 -0.46676003377889269 0 0.40014079662082208 -0.5 0 0.39424227281986102 -0.46676003377889269 0 0.40014079662082208 -0.5 0 0.37141238069938332 -0.46692562663856529 0 0.43983937115661631 -0.46972557693384148 0 0.41707216494033877 -0.46659444091922031 0 0.40014079662082208 -0.5 0 0.40014079662082208 -0.5 0 0.32546065004022617 -0.5 0 0.3462765218470546 -0.48033279556006703 0 0.32546065004022617 -0.5 0 0.3462765218470546 -0.48033279556006703 0 0.30631021868456298 -0.48072311486568892 0 0.3462765218470546 -0.48033279556006703 0 0.32575259645842791 -0.46725681235791028 0 0.30631021868456298 -0.48072311486568892 0 0.3462765218470546 -0.48033279556006703 0 0.3485824885789055 -0.46709121949823779 0 0.32575259645842791 -0.46725681235791028 0 0.40014079662082208 -0.5 0 0.3462765218470546 -0.48033279556006703 0 0.37141238069938332 -0.46692562663856529 0 0.3462765218470546 -0.48033279556006703 0 0.3485824885789055 -0.46709121949823779 0 0.37141238069938332 -0.46692562663856529 0 0.3485824885789055 -0.46709121949823779 0 0.37141238069938332 -0.46692562663856529 0 0.35324569388809701 -0.44989359131069062 0 0.3485824885789055 -0.46709121949823779 0 0.35324569388809701 -0.44989359131069062 0 0.33806214337105372 -0.45777686618061397 0 0.38182359321740972 -0.45292134106576409 0 0.37141238069938332 -0.46692562663856529 0 0.35324569388809701 -0.44989359131069062 0 0.3485824885789055 -0.46709121949823779 0 0.37141238069938332 -0.46692562663856529 0 0.36060935802898147 -0.43906997082244181 0 0.37194820352764257 -0.4427018608294464 0 0.35324569388809701 -0.44989359131069062 0 0.38182359321740972 -0.45292134106576409 0 0.35324569388809701 -0.44989359131069062 0 0.37837193070639508 -0.43074191130029282 0 0.36060935802898147 -0.43906997082244181 0 0.37194820352764257 -0.4427018608294464 0 0.38182359321740972 -0.45292134106576409 0 0.37194820352764257 -0.4427018608294464 0 0.35324569388809701 -0.44989359131069062 0 0.36060935802898147 -0.43906997082244181 0 0.35324569388809701 -0.44989359131069062 0 0.34315104194743368 -0.43483422324315929 0 0.32466779455878442 -0.44686584155561709 0 0.32761501992215097 -0.43116249501185328 0 0.34315104194743368 -0.43483422324315929 0 0.35324569388809701 -0.44989359131069062 0 0.33806214337105372 -0.45777686618061397 0 0.32466779455878442 -0.44686584155561709 0 0.35324569388809701 -0.44989359131069062 0 0.32466779455878442 -0.44686584155561709 0 0.34315104194743368 -0.43483422324315929 0 0.35324569388809701 -0.44989359131069062 0 0.32466779455878442 -0.44686584155561709 0 0.3485824885789055 -0.46709121949823779 0 0.32575259645842791 -0.46725681235791028 0 0.3485824885789055 -0.46709121949823779 0 0.33806214337105372 -0.45777686618061397 0 0.32575259645842791 -0.46725681235791028 0 0.33806214337105372 -0.45777686618061397 0 0.32575259645842791 -0.46725681235791028 0 0.32466779455878442 -0.44686584155561709 0 0.32575259645842791 -0.46725681235791028 0 0.30904716904302271 -0.45792120175055678 0 0.30631021868456298 -0.48072311486568892 0 0.32575259645842791 -0.46725681235791028 0 0.32466779455878442 -0.44686584155561709 0 0.30904716904302271 -0.45792120175055678 0 0.32466779455878442 -0.44686584155561709 0 0.31800868577585262 -0.43516031519895321 0 0.30735360635596409 -0.43632211706289747 0 0.32466779455878442 -0.44686584155561709 0 0.32761501992215097 -0.43116249501185328 0 0.31800868577585262 -0.43516031519895321 0 0.32761501992215097 -0.43116249501185328 0 0.32339131420283213 -0.41656724990055422 0 0.31239832226651099 -0.42629080716544471 0 0.32761501992215097 -0.43116249501185328 0 0.31800868577585262 -0.43516031519895321 0 0.31239832226651099 -0.42629080716544471 0 0.31800868577585262 -0.43516031519895321 0 0.31239832226651099 -0.42629080716544471 0 0.30735360635596409 -0.43632211706289747 0 0.32339131420283213 -0.41656724990055422 0 0.31120060169272079 -0.4133373498197 0 0.31239832226651099 -0.42629080716544471 0 0.32339131420283213 -0.41656724990055422 0 0.319673984964159 -0.40346676889879052 0 0.31120060169272079 -0.4133373498197 0 0.319673984964159 -0.40346676889879052 0 0.30884060304287331 -0.40229515593698711 0 0.31120060169272079 -0.4133373498197 0 0.32339131420283213 -0.41656724990055422 0 0.33281994217864741 -0.40778505865636938 0 0.319673984964159 -0.40346676889879052 0 0.32761501992215097 -0.43116249501185328 0 0.32339131420283213 -0.41656724990055422 0 0.33796042338316851 -0.41787760036937549 0 0.32339131420283213 -0.41656724990055422 0 0.33281994217864741 -0.40778505865636938 0 0.33796042338316851 -0.41787760036937549 0 0.33281994217864741 -0.40778505865636938 0 0.33796042338316851 -0.41787760036937549 0 0.34601675315157321 -0.40486547886918423 0 0.32761501992215097 -0.43116249501185328 0 0.33796042338316851 -0.41787760036937549 0 0.34315104194743368 -0.43483422324315929 0 0.33796042338316851 -0.41787760036937549 0 0.34315104194743368 -0.43483422324315929 0 0.35231855835687692 -0.42655250224024699 0 0.36060935802898147 -0.43906997082244181 0 0.34315104194743368 -0.43483422324315929 0 0.35231855835687692 -0.42655250224024699 0 0.37837193070639508 -0.43074191130029282 0 0.36060935802898147 -0.43906997082244181 0 0.36755341006792419 -0.41442821452601158 0 0.36060935802898147 -0.43906997082244181 0 0.35231855835687692 -0.42655250224024699 0 0.36755341006792419 -0.41442821452601158 0 0.36060935802898147 -0.43906997082244181 0 0.36755341006792419 -0.41442821452601158 0 0.33796042338316851 -0.41787760036937549 0 0.35231855835687692 -0.42655250224024699 0 0.36755341006792419 -0.41442821452601158 0 0.33796042338316851 -0.41787760036937549 0 0.36755341006792419 -0.41442821452601158 0 0.34601675315157321 -0.40486547886918423 0 0.33796042338316851 -0.41787760036937549 0 0.36755341006792419 -0.41442821452601158 0 0.36755341006792419 -0.41442821452601158 0 0.34601675315157321 -0.40486547886918423 0 0.35566250251704978 -0.3975177511027051 0 0.34601675315157321 -0.40486547886918423 0 0.34667365318154342 -0.39629832909528578 0 0.35566250251704978 -0.3975177511027051 0 0.34667365318154342 -0.39629832909528578 0 0.34795812186604658 -0.38666189116531141 0 0.33705723519150399 -0.3961481952439429 0 0.34667365318154342 -0.39629832909528578 0 0.35566250251704978 -0.3975177511027051 0 0.34795812186604658 -0.38666189116531141 0 0.36755341006792419 -0.41442821452601158 0 0.35566250251704978 -0.3975177511027051 0 0.36706103815962848 -0.39187921332532882 0 0.36755341006792419 -0.41442821452601158 0 0.37463337818860382 -0.38930414459710588 0 0.36755341006792419 -0.41442821452601158 0 0.36706103815962848 -0.39187921332532882 0 0.37463337818860382 -0.38930414459710588 0 0.35566250251704978 -0.3975177511027051 0 0.36706103815962848 -0.39187921332532882 0 0.35924801608749379 -0.38543857686598643 0 0.38081427771294768 -0.36737052156009248 0 0.36848073339739068 -0.37517807712711049 0 0.3737028077843495 -0.38742295831448542 0 0.36848073339739068 -0.37517807712711049 0 0.3737028077843495 -0.38742295831448542 0 0.36599997940964812 -0.38379980358563692 0 0.36706103815962848 -0.39187921332532882 0 0.3737028077843495 -0.38742295831448542 0 0.36599997940964812 -0.38379980358563692 0 0.36706103815962848 -0.39187921332532882 0 0.37463337818860382 -0.38930414459710588 0 0.3737028077843495 -0.38742295831448542 0 0.37463337818860382 -0.38930414459710588 0 0.3737028077843495 -0.38742295831448542 0 0.36706103815962848 -0.39187921332532882 0 0.36599997940964812 -0.38379980358563692 0 0.35924801608749379 -0.38543857686598643 0 0.36599997940964812 -0.38379980358563692 0 0.36207090148421361 -0.37959838259465167 0 0.35924801608749379 -0.38543857686598643 0 0.36848073339739068 -0.37517807712711049 0 0.36599997940964812 -0.38379980358563692 0 0.36207090148421361 -0.37959838259465167 0 0.36848073339739068 -0.37517807712711049 0 0.36207090148421361 -0.37959838259465167 0 0.3554566368260581 -0.37480617727887811 0 0.36207090148421361 -0.37959838259465167 0 0.35924801608749379 -0.38543857686598643 0 0.3554566368260581 -0.37480617727887811 0 0.35924801608749379 -0.38543857686598643 0 0.34795812186604658 -0.38666189116531141 0 0.3554566368260581 -0.37480617727887811 0 0.35566250251704978 -0.3975177511027051 0 0.35924801608749379 -0.38543857686598643 0 0.34795812186604658 -0.38666189116531141 0 0.34795812186604658 -0.38666189116531141 0 0.34537995690420659 -0.3737828605913362 0 0.3554566368260581 -0.37480617727887811 0 0.34795812186604658 -0.38666189116531141 0 0.33323562740676532 -0.37769939737979058 0 0.34537995690420659 -0.3737828605913362 0 0.34795812186604658 -0.38666189116531141 0 0.33323562740676532 -0.37769939737979058 0 0.33705723519150399 -0.3961481952439429 0 0.33323562740676532 -0.37769939737979058 0 0.33705723519150399 -0.3961481952439429 0 0.319673984964159 -0.40346676889879052 0 0.33281994217864741 -0.40778505865636938 0 0.33705723519150399 -0.3961481952439429 0 0.319673984964159 -0.40346676889879052 0 0.33281994217864741 -0.40778505865636938 0 0.34601675315157321 -0.40486547886918423 0 0.33705723519150399 -0.3961481952439429 0 0.34601675315157321 -0.40486547886918423 0 0.34667365318154342 -0.39629832909528578 0 0.33705723519150399 -0.3961481952439429 0 0.33323562740676532 -0.37769939737979058 0 0.319673984964159 -0.40346676889879052 0 0.31422368515007948 -0.393427126581603 0 0.319673984964159 -0.40346676889879052 0 0.31422368515007948 -0.393427126581603 0 0.30884060304287331 -0.40229515593698711 0 0.33323562740676532 -0.37769939737979058 0 0.319673984964159 -0.40346676889879052 0 0.31422368515007948 -0.393427126581603 0 0.30591552541026101 -0.37751124227982003 0 0.32002671755222051 -0.36641101040373808 0 0.33323562740676532 -0.37769939737979058 0 0.31422368515007948 -0.393427126581603 0 0.32002671755222051 -0.36641101040373808 0 0.31422368515007948 -0.393427126581603 0 0.32002671755222051 -0.36641101040373808 0 0.30591552541026101 -0.37751124227982003 0 0.29934269892459558 -0.39453707190143028 0 0.28871394442674109 -0.38265385864092483 0 0.31422368515007948 -0.393427126581603 0 0.30591552541026101 -0.37751124227982003 0 0.29934269892459558 -0.39453707190143028 0 0.31422368515007948 -0.393427126581603 0 0.30884060304287331 -0.40229515593698711 0 0.29934269892459558 -0.39453707190143028 0 0.30884060304287331 -0.40229515593698711 0 0.29934269892459558 -0.39453707190143028 0 0.29896657827583012 -0.40866065312134409 0 0.28871394442674109 -0.38265385864092483 0 0.27786210523133942 -0.40981541802129928 0 0.29934269892459558 -0.39453707190143028 0 0.27786210523133942 -0.40981541802129928 0 0.29896657827583012 -0.40866065312134409 0 0.29934269892459558 -0.39453707190143028 0 0.28871394442674109 -0.38265385864092483 0 0.27786210523133942 -0.40981541802129928 0 0.28871394442674109 -0.38265385864092483 0 0.26416245427686541 -0.38049931320234009 0 0.26125098829365018 -0.39969694482297641 0 0.28871394442674109 -0.38265385864092483 0 0.26416245427686541 -0.38049931320234009 0 0.27571190406721402 -0.36345127203525351 0 0.26416245427686541 -0.38049931320234009 0 0.24971336314328341 -0.36520417674804972 0 0.24502858373403441 -0.39146921073642488 0 0.26416245427686541 -0.38049931320234009 0 0.26125098829365018 -0.39969694482297641 0 0.24502858373403441 -0.39146921073642488 0 0.28871394442674109 -0.38265385864092483 0 0.26125098829365018 -0.39969694482297641 0 0.27786210523133942 -0.40981541802129928 0 0.26125098829365018 -0.39969694482297641 0 0.25610826383841628 -0.42120346698794331 0 0.2333640889907381 -0.41241884790723538 0 0.26125098829365018 -0.39969694482297641 0 0.27786210523133942 -0.40981541802129928 0 0.25610826383841628 -0.42120346698794331 0 0.25610826383841628 -0.42120346698794331 0 0.26701026603593758 -0.43697697740167368 0 0.2518592606704963 -0.43815060111373921 0 0.27786210523133942 -0.40981541802129928 0 0.26701026603593758 -0.43697697740167368 0 0.28078102790119369 -0.4274552938509788 0 0.27786210523133942 -0.40981541802129928 0 0.26701026603593758 -0.43697697740167368 0 0.27786210523133942 -0.40981541802129928 0 0.25610826383841628 -0.42120346698794331 0 0.26701026603593758 -0.43697697740167368 0 0.26701026603593758 -0.43697697740167368 0 0.28078102790119369 -0.4274552938509788 0 0.27712236562531017 -0.4375193999175232 0 0.28078102790119369 -0.4274552938509788 0 0.28865243891263809 -0.43215364344327012 0 0.27712236562531017 -0.4375193999175232 0 0.28865243891263809 -0.43215364344327012 0 0.28959476197880307 -0.44168956347039928 0 0.27712236562531017 -0.4375193999175232 0 0.28865243891263809 -0.43215364344327012 0 0.29503220707493127 -0.43614369036708622 0 0.29829711678041942 -0.42866378264525379 0 0.28865243891263809 -0.43215364344327012 0 0.29503220707493127 -0.43614369036708622 0 0.28959476197880307 -0.44168956347039928 0 0.28865243891263809 -0.43215364344327012 0 0.29108715411517122 -0.42145013040837909 0 0.29829711678041942 -0.42866378264525379 0 0.28078102790119369 -0.4274552938509788 0 0.28865243891263809 -0.43215364344327012 0 0.29108715411517122 -0.42145013040837909 0 0.27786210523133942 -0.40981541802129928 0 0.28078102790119369 -0.4274552938509788 0 0.29108715411517122 -0.42145013040837909 0 0.27786210523133942 -0.40981541802129928 0 0.29108715411517122 -0.42145013040837909 0 0.29896657827583012 -0.40866065312134409 0 0.29108715411517122 -0.42145013040837909 0 0.30377653118007591 -0.4205559058691733 0 0.29896657827583012 -0.40866065312134409 0 0.30377653118007591 -0.4205559058691733 0 0.29896657827583012 -0.40866065312134409 0 0.31120060169272079 -0.4133373498197 0 0.30884060304287331 -0.40229515593698711 0 0.29896657827583012 -0.40866065312134409 0 0.31120060169272079 -0.4133373498197 0 0.30377653118007591 -0.4205559058691733 0 0.31120060169272079 -0.4133373498197 0 0.31239832226651099 -0.42629080716544471 0 0.30377653118007591 -0.4205559058691733 0 0.31239832226651099 -0.42629080716544471 0 0.29829711678041942 -0.42866378264525379 0 0.31239832226651099 -0.42629080716544471 0 0.30735360635596409 -0.43632211706289747 0 0.29829711678041942 -0.42866378264525379 0 0.29503220707493127 -0.43614369036708622 0 0.30735360635596409 -0.43632211706289747 0 0.29829711678041942 -0.42866378264525379 0 0.29108715411517122 -0.42145013040837909 0 0.30377653118007591 -0.4205559058691733 0 0.29829711678041942 -0.42866378264525379 0 0.32466779455878442 -0.44686584155561709 0 0.30904716904302271 -0.45792120175055678 0 0.29608989522947149 -0.44383809180054362 0 0.32466779455878442 -0.44686584155561709 0 0.29608989522947149 -0.44383809180054362 0 0.32466779455878442 -0.44686584155561709 0 0.30735360635596409 -0.43632211706289747 0 0.29608989522947149 -0.44383809180054362 0 0.30904716904302271 -0.45792120175055678 0 0.29860320416278402 -0.45529674645956592 0 0.29608989522947149 -0.44383809180054362 0 0.29503220707493127 -0.43614369036708622 0 0.30735360635596409 -0.43632211706289747 0 0.29608989522947149 -0.44383809180054362 0 0.30904716904302271 -0.45792120175055678 0 0.29721119201091789 -0.46522563712477349 0 0.30631021868456298 -0.48072311486568892 0 0.30904716904302271 -0.45792120175055678 0 0.29721119201091789 -0.46522563712477349 0 0.29860320416278402 -0.45529674645956592 0 0.28932919617959602 -0.45338424297023883 0 0.27756010650442758 -0.45518222858252849 0 0.28072062580449653 -0.47155582870540619 0 0.29721119201091789 -0.46522563712477349 0 0.28932919617959602 -0.45338424297023883 0 0.28072062580449653 -0.47155582870540619 0 0.29721119201091789 -0.46522563712477349 0 0.29860320416278402 -0.45529674645956592 0 0.28932919617959602 -0.45338424297023883 0 0.28932919617959602 -0.45338424297023883 0 0.28959476197880307 -0.44168956347039928 0 0.27756010650442758 -0.45518222858252849 0 0.29860320416278402 -0.45529674645956592 0 0.28932919617959602 -0.45338424297023883 0 0.29608989522947149 -0.44383809180054362 0 0.28932919617959602 -0.45338424297023883 0 0.29608989522947149 -0.44383809180054362 0 0.28959476197880307 -0.44168956347039928 0 0.29503220707493127 -0.43614369036708622 0 0.29608989522947149 -0.44383809180054362 0 0.28959476197880307 -0.44168956347039928 0 0.28959476197880307 -0.44168956347039928 0 0.26138620688844749 -0.44792543592233808 0 0.26701026603593758 -0.43697697740167368 0 0.27712236562531017 -0.4375193999175232 0 0.26138620688844749 -0.44792543592233808 0 0.28959476197880307 -0.44168956347039928 0 0.26138620688844749 -0.44792543592233808 0 0.27756010650442758 -0.45518222858252849 0 0.28959476197880307 -0.44168956347039928 0 0.27712236562531017 -0.4375193999175232 0 0.26138620688844749 -0.44792543592233808 0 0.26701026603593758 -0.43697697740167368 0 0.26138620688844749 -0.44792543592233808 0 0.2518592606704963 -0.43815060111373921 0 0.26138620688844749 -0.44792543592233808 0 0.26339579246569877 -0.46312143350125029 0 0.23317765179809191 -0.45416130837427687 0 0.26138620688844749 -0.44792543592233808 0 0.26339579246569877 -0.46312143350125029 0 0.27756010650442758 -0.45518222858252849 0 0.26339579246569877 -0.46312143350125029 0 0.27756010650442758 -0.45518222858252849 0 0.28072062580449653 -0.47155582870540619 0 0.28072062580449653 -0.47155582870540619 0 0.2532296876789632 -0.47497352743918242 0 0.27004646425256568 -0.5 0 0.26339579246569877 -0.46312143350125029 0 0.28072062580449653 -0.47155582870540619 0 0.2532296876789632 -0.47497352743918242 0 0.32546065004022617 -0.5 0 0.27004646425256568 -0.5 0 0.30631021868456298 -0.48072311486568892 0 0.28072062580449653 -0.47155582870540619 0 0.27004646425256568 -0.5 0 0.30631021868456298 -0.48072311486568892 0 0.29721119201091789 -0.46522563712477349 0 0.28072062580449653 -0.47155582870540619 0 0.30631021868456298 -0.48072311486568892 0 0.33743581475864359 -0.28536266187014298 0 0.3388307833371127 -0.27886836189579028 0 0.34706744656536048 -0.28007479224216619 0 0.33743581475864359 -0.28536266187014298 0 0.3388307833371127 -0.27886836189579028 0 0.33743581475864359 -0.28536266187014298 0 0.33163278235650262 -0.31237877804800812 0 0.33743581475864359 -0.28536266187014298 0 0.33163278235650262 -0.31237877804800812 0 0.34308905326158867 -0.30070827197480321 0 0.33743581475864359 -0.28536266187014298 0 0.33163278235650262 -0.31237877804800812 0 0.32364365619397351 -0.29600562892690968 0 0.33163278235650262 -0.31237877804800812 0 0.32364365619397351 -0.29600562892690968 0 0.30954970221622308 -0.30462347215273478 0 0.31296692944630888 -0.29314018565426941 0 0.32364365619397351 -0.29600562892690968 0 0.30954970221622308 -0.30462347215273478 0 0.31296692944630888 -0.29314018565426941 0 0.32364365619397351 -0.29600562892690968 0 0.31569414790308259 -0.28159305760617132 0 0.33743581475864359 -0.28536266187014298 0 0.32364365619397351 -0.29600562892690968 0 0.31569414790308259 -0.28159305760617132 0 0.33743581475864359 -0.28536266187014298 0 0.31569414790308259 -0.28159305760617132 0 0.33743581475864359 -0.28536266187014298 0 0.31569414790308259 -0.28159305760617132 0 0.32852563272885182 -0.27784073863383552 0 0.31569414790308259 -0.28159305760617132 0 0.31275786215232049 -0.27168837282467972 0 0.32066228436037369 -0.27402337931129878 0 0.31275786215232049 -0.27168837282467972 0 0.32001527731196461 -0.26686042829596718 0 0.31054181011664339 -0.26140137874582919 0 0.31275786215232049 -0.27168837282467972 0 0.32001527731196461 -0.26686042829596718 0 0.32066228436037369 -0.27402337931129878 0 0.32001527731196461 -0.26686042829596718 0 0.32631850170564902 -0.27213429919584042 0 0.32066228436037369 -0.27402337931129878 0 0.32001527731196461 -0.26686042829596718 0 0.32631850170564902 -0.27213429919584042 0 0.32861545200372733 -0.26431566092564712 0 0.32631850170564902 -0.27213429919584042 0 0.32066228436037369 -0.27402337931129878 0 0.32852563272885182 -0.27784073863383552 0 0.31569414790308259 -0.28159305760617132 0 0.32066228436037369 -0.27402337931129878 0 0.32852563272885182 -0.27784073863383552 0 0.30517917142926537 -0.24716040808135001 0 0.322544075342931 -0.25649048942400782 0 0.31054181011664339 -0.26140137874582919 0 0.32001527731196461 -0.26686042829596718 0 0.322544075342931 -0.25649048942400782 0 0.31054181011664339 -0.26140137874582919 0 0.32001527731196461 -0.26686042829596718 0 0.322544075342931 -0.25649048942400782 0 0.32861545200372733 -0.26431566092564712 0 0.322544075342931 -0.25649048942400782 0 0.32861545200372733 -0.26431566092564712 0 0.33700232267718733 -0.25494009872172468 0 0.32861545200372733 -0.26431566092564712 0 0.33700232267718733 -0.25494009872172468 0 0.3370936559567923 -0.26597622971595652 0 0.33700232267718733 -0.25494009872172468 0 0.3370936559567923 -0.26597622971595652 0 0.34612034525793539 -0.26165354425485998 0 0.32852563272885182 -0.27784073863383552 0 0.33374486488877292 -0.2728357791174113 0 0.3388307833371127 -0.27886836189579028 0 0.33743581475864359 -0.28536266187014298 0 0.32852563272885182 -0.27784073863383552 0 0.3388307833371127 -0.27886836189579028 0 0.32631850170564902 -0.27213429919584042 0 0.32852563272885182 -0.27784073863383552 0 0.33374486488877292 -0.2728357791174113 0 0.32631850170564902 -0.27213429919584042 0 0.32861545200372733 -0.26431566092564712 0 0.33374486488877292 -0.2728357791174113 0 0.32861545200372733 -0.26431566092564712 0 0.33374486488877292 -0.2728357791174113 0 0.3370936559567923 -0.26597622971595652 0 0.34349817463331772 -0.27223575233246988 0 0.3370936559567923 -0.26597622971595652 0 0.34612034525793539 -0.26165354425485998 0 0.33374486488877292 -0.2728357791174113 0 0.34349817463331772 -0.27223575233246988 0 0.3370936559567923 -0.26597622971595652 0 0.33374486488877292 -0.2728357791174113 0 0.34349817463331772 -0.27223575233246988 0 0.3388307833371127 -0.27886836189579028 0 0.34349817463331772 -0.27223575233246988 0 0.3388307833371127 -0.27886836189579028 0 0.34706744656536048 -0.28007479224216619 0 0.34349817463331772 -0.27223575233246988 0 0.34706744656536048 -0.28007479224216619 0 0.35711558672006172 -0.27354793744083078 0 0.34349817463331772 -0.27223575233246988 0 0.35711558672006172 -0.27354793744083078 0 0.34612034525793539 -0.26165354425485998 0 0.34706744656536048 -0.28007479224216619 0 0.35711558672006172 -0.27354793744083078 0 0.35357832102308678 -0.28816147489813743 0 0.35007299243335749 -0.24785688602667111 0 0.33700232267718733 -0.25494009872172468 0 0.34612034525793539 -0.26165354425485998 0 0.35711558672006172 -0.27354793744083078 0 0.34612034525793539 -0.26165354425485998 0 0.36124693131331159 -0.25807728632712912 0 0.35007299243335749 -0.24785688602667111 0 0.34612034525793539 -0.26165354425485998 0 0.36124693131331159 -0.25807728632712912 0 0.37764450162479901 -0.26965755496232408 0 0.37510228513818711 -0.25237727586059511 0 0.36124693131331159 -0.25807728632712912 0 0.36225179838031341 -0.2439392928582107 0 0.37510228513818711 -0.25237727586059511 0 0.36124693131331159 -0.25807728632712912 0 0.37764450162479901 -0.26965755496232408 0 0.35711558672006172 -0.27354793744083078 0 0.36124693131331159 -0.25807728632712912 0 0.37764450162479901 -0.26965755496232408 0 0.35711558672006172 -0.27354793744083078 0 0.36873774536035581 -0.28861226174546889 0 0.36873774536035581 -0.28861226174546889 0 0.35357832102308678 -0.28816147489813743 0 0.36087634202934032 -0.30211297570133377 0 0.35711558672006172 -0.27354793744083078 0 0.36873774536035581 -0.28861226174546889 0 0.35357832102308678 -0.28816147489813743 0 0.33743581475864359 -0.28536266187014298 0 0.35357832102308678 -0.28816147489813743 0 0.33743581475864359 -0.28536266187014298 0 0.34706744656536048 -0.28007479224216619 0 0.35357832102308678 -0.28816147489813743 0 0.33743581475864359 -0.28536266187014298 0 0.34308905326158867 -0.30070827197480321 0 0.35357832102308678 -0.28816147489813743 0 0.34308905326158867 -0.30070827197480321 0 0.36087634202934032 -0.30211297570133377 0 0.3603589122919777 -0.32616465434179109 0 0.34308905326158867 -0.30070827197480321 0 0.35357832102308678 -0.28816147489813743 0 0.36087634202934032 -0.30211297570133377 0 0.37861767820969228 -0.30691821554646831 0 0.36873774536035581 -0.28861226174546889 0 0.36087634202934032 -0.30211297570133377 0 0.37861767820969228 -0.30691821554646831 0 0.36087634202934032 -0.30211297570133377 0 0.3603589122919777 -0.32616465434179109 0 0.37858644206980091 -0.32769985780377792 0 0.37861767820969228 -0.30691821554646831 0 0.3603589122919777 -0.32616465434179109 0 0.37858644206980091 -0.32769985780377792 0 0.3603589122919777 -0.32616465434179109 0 0.36805061276354478 -0.3427907498460791 0 0.3603589122919777 -0.32616465434179109 0 0.34679726984937148 -0.35193202586079081 0 0.3603589122919777 -0.32616465434179109 0 0.34679726984937148 -0.35193202586079081 0 0.3423644242317993 -0.33453707324987059 0 0.3603589122919777 -0.32616465434179109 0 0.36805061276354478 -0.3427907498460791 0 0.34679726984937148 -0.35193202586079081 0 0.33163278235650262 -0.31237877804800812 0 0.34308905326158867 -0.30070827197480321 0 0.3603589122919777 -0.32616465434179109 0 0.33163278235650262 -0.31237877804800812 0 0.3603589122919777 -0.32616465434179109 0 0.3423644242317993 -0.33453707324987059 0 0.37640125955739012 -0.35149107478397351 0 0.38081427771294768 -0.36737052156009248 0 0.36600013168445039 -0.36059477107615401 0 0.36848073339739068 -0.37517807712711049 0 0.36600013168445039 -0.36059477107615401 0 0.3554566368260581 -0.37480617727887811 0 0.38081427771294768 -0.36737052156009248 0 0.36848073339739068 -0.37517807712711049 0 0.36600013168445039 -0.36059477107615401 0 0.36805061276354478 -0.3427907498460791 0 0.36600013168445039 -0.36059477107615401 0 0.34679726984937148 -0.35193202586079081 0 0.37640125955739012 -0.35149107478397351 0 0.36805061276354478 -0.3427907498460791 0 0.36600013168445039 -0.36059477107615401 0 0.36600013168445039 -0.36059477107615401 0 0.34679726984937148 -0.35193202586079081 0 0.3554566368260581 -0.37480617727887811 0 0.34679726984937148 -0.35193202586079081 0 0.34537995690420659 -0.3737828605913362 0 0.3554566368260581 -0.37480617727887811 0 0.33323562740676532 -0.37769939737979058 0 0.33171275220581908 -0.35441984147836231 0 0.32002671755222051 -0.36641101040373808 0 0.33323562740676532 -0.37769939737979058 0 0.34679726984937148 -0.35193202586079081 0 0.33323562740676532 -0.37769939737979058 0 0.34679726984937148 -0.35193202586079081 0 0.34537995690420659 -0.3737828605913362 0 0.33323562740676532 -0.37769939737979058 0 0.34679726984937148 -0.35193202586079081 0 0.33171275220581908 -0.35441984147836231 0 0.34679726984937148 -0.35193202586079081 0 0.33171275220581908 -0.35441984147836231 0 0.3423644242317993 -0.33453707324987059 0 0.33171275220581908 -0.35441984147836231 0 0.32002671755222051 -0.36641101040373808 0 0.32582974995436148 -0.33939489422587321 0 0.32002671755222051 -0.36641101040373808 0 0.32582974995436148 -0.33939489422587321 0 0.31500009593534162 -0.35119999692538878 0 0.32002671755222051 -0.36641101040373808 0 0.32582974995436148 -0.33939489422587321 0 0.33163278235650262 -0.31237877804800812 0 0.32582974995436148 -0.33939489422587321 0 0.33163278235650262 -0.31237877804800812 0 0.3423644242317993 -0.33453707324987059 0 0.32582974995436148 -0.33939489422587321 0 0.33171275220581908 -0.35441984147836231 0 0.3423644242317993 -0.33453707324987059 0 0.32582974995436148 -0.33939489422587321 0 0.31500009593534162 -0.35119999692538878 0 0.32582974995436148 -0.33939489422587321 0 0.31041762281754448 -0.32833073988017608 0 0.33163278235650262 -0.31237877804800812 0 0.32582974995436148 -0.33939489422587321 0 0.31041762281754448 -0.32833073988017608 0 0.33163278235650262 -0.31237877804800812 0 0.31041762281754448 -0.32833073988017608 0 0.30954970221622308 -0.30462347215273478 0 0.31041762281754448 -0.32833073988017608 0 0.29592063247569211 -0.31558436997640987 0 0.30954970221622308 -0.30462347215273478 0 0.31041762281754448 -0.32833073988017608 0 0.29132656616613523 -0.33188180257029998 0 0.29592063247569211 -0.31558436997640987 0 0.31041762281754448 -0.32833073988017608 0 0.29132656616613523 -0.33188180257029998 0 0.29956578362214281 -0.35549229926055048 0 0.31041762281754448 -0.32833073988017608 0 0.29956578362214281 -0.35549229926055048 0 0.29132656616613523 -0.33188180257029998 0 0.28219501787468609 -0.34702129220438421 0 0.27282035448602859 -0.33554085100614839 0 0.29132656616613523 -0.33188180257029998 0 0.29592063247569211 -0.31558436997640987 0 0.27986439667319313 -0.31630171845149863 0 0.29132656616613523 -0.33188180257029998 0 0.27986439667319313 -0.31630171845149863 0 0.27282035448602859 -0.33554085100614839 0 0.30591552541026101 -0.37751124227982003 0 0.28871394442674109 -0.38265385864092483 0 0.29956578362214281 -0.35549229926055048 0 0.30591552541026101 -0.37751124227982003 0 0.32002671755222051 -0.36641101040373808 0 0.29956578362214281 -0.35549229926055048 0 0.31500009593534162 -0.35119999692538878 0 0.32002671755222051 -0.36641101040373808 0 0.29956578362214281 -0.35549229926055048 0 0.31500009593534162 -0.35119999692538878 0 0.31041762281754448 -0.32833073988017608 0 0.29956578362214281 -0.35549229926055048 0 0.29956578362214281 -0.35549229926055048 0 0.28219501787468609 -0.34702129220438421 0 0.27571190406721402 -0.36345127203525351 0 0.29132656616613523 -0.33188180257029998 0 0.29956578362214281 -0.35549229926055048 0 0.28219501787468609 -0.34702129220438421 0 0.28871394442674109 -0.38265385864092483 0 0.29956578362214281 -0.35549229926055048 0 0.27571190406721402 -0.36345127203525351 0 0.28871394442674109 -0.38265385864092483 0 0.29956578362214281 -0.35549229926055048 0 0.28219501787468609 -0.34702129220438421 0 0.27571190406721402 -0.36345127203525351 0 0.2669677564247489 -0.35003134695070198 0 0.28219501787468609 -0.34702129220438421 0 0.2669677564247489 -0.35003134695070198 0 0.27282035448602859 -0.33554085100614839 0 0.2669677564247489 -0.35003134695070198 0 0.2543981425525324 -0.33893914275967452 0 0.24971336314328341 -0.36520417674804972 0 0.2543981425525324 -0.33893914275967452 0 0.24971336314328341 -0.36520417674804972 0 0.26416245427686541 -0.38049931320234009 0 0.27571190406721402 -0.36345127203525351 0 0.24971336314328341 -0.36520417674804972 0 0.27571190406721402 -0.36345127203525351 0 0.2669677564247489 -0.35003134695070198 0 0.24971336314328341 -0.36520417674804972 0 0.27986439667319313 -0.31630171845149863 0 0.27282035448602859 -0.33554085100614839 0 0.27986439667319313 -0.31630171845149863 0 0.27282035448602859 -0.33554085100614839 0 0.2590829219617814 -0.31267410877129931 0 0.2669677564247489 -0.35003134695070198 0 0.27282035448602859 -0.33554085100614839 0 0.2543981425525324 -0.33893914275967452 0 0.27282035448602859 -0.33554085100614839 0 0.2543981425525324 -0.33893914275967452 0 0.2590829219617814 -0.31267410877129931 0 0.2543981425525324 -0.33893914275967452 0 0.2590829219617814 -0.31267410877129931 0 0.24087195768162309 -0.32614810142562012 0 0.2543981425525324 -0.33893914275967452 0 0.2590829219617814 -0.31267410877129931 0 0.2590829219617814 -0.31267410877129931 0 0.26376770137103039 -0.2864090747829241 0 0.27385105082646688 -0.29718155094811333 0 0.2590829219617814 -0.31267410877129931 0 0.26376770137103039 -0.2864090747829241 0 0.24821325608307901 -0.29522124281265988 0 0.2590829219617814 -0.31267410877129931 0 0.26376770137103039 -0.2864090747829241 0 0.26376770137103039 -0.2864090747829241 0 0.24785603391849151 -0.27709942466880599 0 0.24821325608307901 -0.29522124281265988 0 0.26376770137103039 -0.2864090747829241 0 0.27275834958840189 -0.28372268528309152 0 0.2724225943816766 -0.27409056785933389 0 0.26376770137103039 -0.2864090747829241 0 0.27275834958840189 -0.28372268528309152 0 0.27385105082646688 -0.29718155094811333 0 0.28072449650403741 -0.28691913250301798 0 0.27385105082646688 -0.29718155094811333 0 0.2869084388603575 -0.29706258589684881 0 0.27275834958840189 -0.28372268528309152 0 0.28072449650403741 -0.28691913250301798 0 0.27385105082646688 -0.29718155094811333 0 0.27275834958840189 -0.28372268528309152 0 0.28072449650403741 -0.28691913250301798 0 0.27996448038040939 -0.28063895974691061 0 0.27986439667319313 -0.31630171845149863 0 0.2590829219617814 -0.31267410877129931 0 0.27385105082646688 -0.29718155094811333 0 0.27986439667319313 -0.31630171845149863 0 0.27385105082646688 -0.29718155094811333 0 0.2869084388603575 -0.29706258589684881 0 0.27986439667319313 -0.31630171845149863 0 0.2869084388603575 -0.29706258589684881 0 0.29592063247569211 -0.31558436997640987 0 0.27986439667319313 -0.31630171845149863 0 0.2869084388603575 -0.29706258589684881 0 0.2869084388603575 -0.29706258589684881 0 0.30298021147195658 -0.29033858393126172 0 0.29395248104752192 -0.27782345334219888 0 0.28072449650403741 -0.28691913250301798 0 0.2869084388603575 -0.29706258589684881 0 0.29395248104752192 -0.27782345334219888 0 0.2869084388603575 -0.29706258589684881 0 0.29395248104752192 -0.27782345334219888 0 0.28072449650403741 -0.28691913250301798 0 0.29395248104752192 -0.27782345334219888 0 0.27996448038040939 -0.28063895974691061 0 0.31569414790308259 -0.28159305760617132 0 0.30298021147195658 -0.29033858393126172 0 0.29395248104752192 -0.27782345334219888 0 0.31296692944630888 -0.29314018565426941 0 0.31569414790308259 -0.28159305760617132 0 0.30298021147195658 -0.29033858393126172 0 0.31296692944630888 -0.29314018565426941 0 0.30298021147195658 -0.29033858393126172 0 0.30954970221622308 -0.30462347215273478 0 0.2869084388603575 -0.29706258589684881 0 0.30298021147195658 -0.29033858393126172 0 0.30954970221622308 -0.30462347215273478 0 0.29592063247569211 -0.31558436997640987 0 0.2869084388603575 -0.29706258589684881 0 0.30954970221622308 -0.30462347215273478 0 0.30517917142926537 -0.24716040808135001 0 0.31054181011664339 -0.26140137874582919 0 0.2976408850071105 -0.26774945168120262 0 0.30517917142926537 -0.24716040808135001 0 0.2976408850071105 -0.26774945168120262 0 0.31275786215232049 -0.27168837282467972 0 0.2976408850071105 -0.26774945168120262 0 0.29395248104752192 -0.27782345334219888 0 0.31275786215232049 -0.27168837282467972 0 0.2976408850071105 -0.26774945168120262 0 0.31275786215232049 -0.27168837282467972 0 0.31054181011664339 -0.26140137874582919 0 0.2976408850071105 -0.26774945168120262 0 0.31569414790308259 -0.28159305760617132 0 0.29395248104752192 -0.27782345334219888 0 0.31569414790308259 -0.28159305760617132 0 0.31275786215232049 -0.27168837282467972 0 0.29395248104752192 -0.27782345334219888 0 0.2976408850071105 -0.26774945168120262 0 0.28600938745522969 -0.26471871668720698 0 0.2976408850071105 -0.26774945168120262 0 0.29395248104752192 -0.27782345334219888 0 0.29395248104752192 -0.27782345334219888 0 0.27996448038040939 -0.28063895974691061 0 0.2724225943816766 -0.27409056785933389 0 0.29395248104752192 -0.27782345334219888 0 0.28600938745522969 -0.26471871668720698 0 0.27658132089261911 -0.27335422882897692 0 0.2976408850071105 -0.26774945168120262 0 0.29395248104752192 -0.27782345334219888 0 0.28600938745522969 -0.26471871668720698 0 0.29395248104752192 -0.27782345334219888 0 0.2724225943816766 -0.27409056785933389 0 0.28600938745522969 -0.26471871668720698 0 0.27658132089261911 -0.27335422882897692 0 0.30517917142926537 -0.24716040808135001 0 0.28600938745522969 -0.26471871668720698 0 0.30517917142926537 -0.24716040808135001 0 0.2976408850071105 -0.26774945168120262 0 0.28600938745522969 -0.26471871668720698 0 0.30517917142926537 -0.24716040808135001 0 0.28765229627979871 -0.24304032400626949 0 0.28600938745522969 -0.26471871668720698 0 0.28600938745522969 -0.26471871668720698 0 0.26845248078028039 -0.26014404079454911 0 0.28765229627979871 -0.24304032400626949 0 0.28600938745522969 -0.26471871668720698 0 0.26845248078028039 -0.26014404079454911 0 0.26376770137103039 -0.2864090747829241 0 0.26845248078028039 -0.26014404079454911 0 0.2724225943816766 -0.27409056785933389 0 0.28600938745522969 -0.26471871668720698 0 0.26845248078028039 -0.26014404079454911 0 0.27658132089261911 -0.27335422882897692 0 0.26376770137103039 -0.2864090747829241 0 0.26845248078028039 -0.26014404079454911 0 0.29395248104752192 -0.27782345334219888 0 0.27658132089261911 -0.27335422882897692 0 0.2724225943816766 -0.27409056785933389 0 0.27275834958840189 -0.28372268528309152 0 0.27996448038040939 -0.28063895974691061 0 0.2724225943816766 -0.27409056785933389 0 0.26845248078028039 -0.26014404079454911 0 0.27658132089261911 -0.27335422882897692 0 0.2724225943816766 -0.27409056785933389 0 0.26376770137103039 -0.2864090747829241 0 0.26845248078028039 -0.26014404079454911 0 0.24785603391849151 -0.27709942466880599 0 0.26845248078028039 -0.26014404079454911 0 0.2410490216361528 -0.25300372010805161 0 0.26845248078028039 -0.26014404079454911 0 0.2410490216361528 -0.25300372010805161 0 0.24785603391849151 -0.27709942466880599 0 0.25787859859726192 -0.24372773219337371 0 0.26845248078028039 -0.26014404079454911 0 0.2410490216361528 -0.25300372010805161 0 0.2410490216361528 -0.25300372010805161 0 0.24785603391849151 -0.27709942466880599 0 0.23139485578507429 -0.27647983237136509 0 0.23139485578507429 -0.27647983237136509 0 0.2171028506536257 -0.26700629366950379 0 0.21674952071488601 -0.28686299221921707 0 0.2410490216361528 -0.25300372010805161 0 0.23139485578507429 -0.27647983237136509 0 0.2171028506536257 -0.26700629366950379 0 0.2410490216361528 -0.25300372010805161 0 0.2171028506536257 -0.26700629366950379 0 0.2136455624920251 -0.24586339942155419 0 0.2171028506536257 -0.26700629366950379 0 0.1960217485778272 -0.26205501631648559 0 0.2136455624920251 -0.24586339942155419 0 0.2171028506536257 -0.26700629366950379 0 0.2037572178097509 -0.27803645254629672 0 0.1960217485778272 -0.26205501631648559 0 0.2171028506536257 -0.26700629366950379 0 0.2037572178097509 -0.27803645254629672 0 0.21674952071488601 -0.28686299221921707 0 0.2037572178097509 -0.27803645254629672 0 0.1960217485778272 -0.26205501631648559 0 0.18672217274589489 -0.28463667424064248 0 0.1960217485778272 -0.26205501631648559 0 0.2136455624920251 -0.24586339942155419 0 0.1970165427207646 -0.2431475676051908 0 0.1960217485778272 -0.26205501631648559 0 0.1970165427207646 -0.2431475676051908 0 0.18013525364959199 -0.24590787480667409 0 0.19163287831415901 -0.30538761534618902 0 0.20219697373587131 -0.29192032270869461 0 0.2153952098199983 -0.30425933719731207 0 0.2037572178097509 -0.27803645254629672 0 0.20219697373587131 -0.29192032270869461 0 0.18672217274589489 -0.28463667424064248 0 0.19163287831415901 -0.30538761534618902 0 0.20219697373587131 -0.29192032270869461 0 0.18672217274589489 -0.28463667424064248 0 0.20219697373587131 -0.29192032270869461 0 0.21674952071488601 -0.28686299221921707 0 0.2153952098199983 -0.30425933719731207 0 0.2037572178097509 -0.27803645254629672 0 0.20219697373587131 -0.29192032270869461 0 0.21674952071488601 -0.28686299221921707 0 0.19163287831415901 -0.30538761534618902 0 0.2153952098199983 -0.30425933719731207 0 0.20381788977078771 -0.32236963909420019 0 0.2153952098199983 -0.30425933719731207 0 0.2333373149176502 -0.29099433783704243 0 0.2370223082464416 -0.30892926800322767 0 0.2153952098199983 -0.30425933719731207 0 0.2370223082464416 -0.30892926800322767 0 0.22300958304019269 -0.32335118517261402 0 0.21674952071488601 -0.28686299221921707 0 0.2153952098199983 -0.30425933719731207 0 0.2333373149176502 -0.29099433783704243 0 0.23139485578507429 -0.27647983237136509 0 0.21674952071488601 -0.28686299221921707 0 0.2333373149176502 -0.29099433783704243 0 0.24785603391849151 -0.27709942466880599 0 0.2333373149176502 -0.29099433783704243 0 0.24821325608307901 -0.29522124281265988 0 0.24785603391849151 -0.27709942466880599 0 0.23139485578507429 -0.27647983237136509 0 0.2333373149176502 -0.29099433783704243 0 0.2333373149176502 -0.29099433783704243 0 0.24821325608307901 -0.29522124281265988 0 0.2370223082464416 -0.30892926800322767 0 0.2590829219617814 -0.31267410877129931 0 0.24821325608307901 -0.29522124281265988 0 0.2370223082464416 -0.30892926800322767 0 0.2590829219617814 -0.31267410877129931 0 0.2370223082464416 -0.30892926800322767 0 0.24087195768162309 -0.32614810142562012 0 0.2543981425525324 -0.33893914275967452 0 0.24087195768162309 -0.32614810142562012 0 0.2308468326071676 -0.34684680242128502 0 0.24087195768162309 -0.32614810142562012 0 0.22300958304019269 -0.32335118517261402 0 0.2308468326071676 -0.34684680242128502 0 0.22300958304019269 -0.32335118517261402 0 0.2308468326071676 -0.34684680242128502 0 0.21275128108028149 -0.33749920242868869 0 0.2370223082464416 -0.30892926800322767 0 0.24087195768162309 -0.32614810142562012 0 0.22300958304019269 -0.32335118517261402 0 0.24971336314328341 -0.36520417674804972 0 0.2308468326071676 -0.34684680242128502 0 0.229200177642885 -0.36995291413531828 0 0.2543981425525324 -0.33893914275967452 0 0.24971336314328341 -0.36520417674804972 0 0.2308468326071676 -0.34684680242128502 0 0.229200177642885 -0.36995291413531828 0 0.20725651587090471 -0.36571099534901208 0 0.22031030243082139 -0.38906492162812378 0 0.2308468326071676 -0.34684680242128502 0 0.229200177642885 -0.36995291413531828 0 0.20725651587090471 -0.36571099534901208 0 0.2308468326071676 -0.34684680242128502 0 0.20725651587090471 -0.36571099534901208 0 0.21275128108028149 -0.33749920242868869 0 0.20725651587090471 -0.36571099534901208 0 0.21275128108028149 -0.33749920242868869 0 0.194202729310988 -0.34235706906990038 0 0.20725651587090471 -0.36571099534901208 0 0.194202729310988 -0.34235706906990038 0 0.180238718969634 -0.3612454971324468 0 0.20725651587090471 -0.36571099534901208 0 0.194202729310988 -0.34235706906990038 0 0.20725651587090471 -0.36571099534901208 0 0.19261827162763251 -0.374541644607297 0 0.180238718969634 -0.3612454971324468 0 0.22300958304019269 -0.32335118517261402 0 0.20381788977078771 -0.32236963909420019 0 0.21275128108028149 -0.33749920242868869 0 0.2153952098199983 -0.30425933719731207 0 0.22300958304019269 -0.32335118517261402 0 0.20381788977078771 -0.32236963909420019 0 0.20381788977078771 -0.32236963909420019 0 0.21275128108028149 -0.33749920242868869 0 0.194202729310988 -0.34235706906990038 0 0.20381788977078771 -0.32236963909420019 0 0.194202729310988 -0.34235706906990038 0 0.18384400034678741 -0.32250280289756078 0 0.19163287831415901 -0.30538761534618902 0 0.20381788977078771 -0.32236963909420019 0 0.18384400034678741 -0.32250280289756078 0 0.18384400034678741 -0.32250280289756078 0 0.17702055828029431 -0.33666004199980942 0 0.15719449589681389 -0.32866913917705798 0 0.194202729310988 -0.34235706906990038 0 0.18384400034678741 -0.32250280289756078 0 0.17702055828029431 -0.33666004199980942 0 0.15719449589681389 -0.32866913917705798 0 0.16581699513551909 -0.35306125248096398 0 0.17702055828029431 -0.33666004199980942 0 0.15719449589681389 -0.32866913917705798 0 0.16581699513551909 -0.35306125248096398 0 0.18384400034678741 -0.32250280289756078 0 0.15719449589681389 -0.32866913917705798 0 0.17186855286937899 -0.30453082832045192 0 0.180238718969634 -0.3612454971324468 0 0.1834568796589737 -0.38583095226508418 0 0.17443949437422429 -0.37745336578486988 0 0.180238718969634 -0.3612454971324468 0 0.16581699513551909 -0.35306125248096398 0 0.17443949437422429 -0.37745336578486988 0 0.180238718969634 -0.3612454971324468 0 0.1834568796589737 -0.38583095226508418 0 0.19261827162763251 -0.374541644607297 0 0.180238718969634 -0.3612454971324468 0 0.1834568796589737 -0.38583095226508418 0 0.17702055828029431 -0.33666004199980942 0 0.180238718969634 -0.3612454971324468 0 0.16581699513551909 -0.35306125248096398 0 0.17702055828029431 -0.33666004199980942 0 0.180238718969634 -0.3612454971324468 0 0.194202729310988 -0.34235706906990038 0 0.17702055828029431 -0.33666004199980942 0 0.180238718969634 -0.3612454971324468 0 0.16581699513551909 -0.35306125248096398 0 0.1602354860011011 -0.36875954027416918 0 0.14952990885070691 -0.36034775620209553 0 0.16581699513551909 -0.35306125248096398 0 0.17443949437422429 -0.37745336578486988 0 0.16581699513551909 -0.35306125248096398 0 0.1602354860011011 -0.36875954027416918 0 0.17443949437422429 -0.37745336578486988 0 0.1602354860011011 -0.36875954027416918 0 0.14673951295096799 -0.37363029079717242 0 0.14952990885070691 -0.36034775620209553 0 0.16581699513551909 -0.35306125248096398 0 0.14952990885070691 -0.36034775620209553 0 0.144826286403443 -0.34676284914488159 0 0.14952990885070691 -0.36034775620209553 0 0.144826286403443 -0.34676284914488159 0 0.12334710111447229 -0.36406834251145731 0 0.144826286403443 -0.34676284914488159 0 0.12334710111447229 -0.36406834251145731 0 0.144826286403443 -0.34676284914488159 0 0.12334710111447229 -0.36406834251145731 0 0.11573058637367541 -0.34380091622275832 0 0.13273239812562251 -0.3803535413873157 0 0.1208593498238435 -0.38006314209191833 0 0.12334710111447229 -0.36406834251145731 0 0.14673951295096799 -0.37363029079717242 0 0.14952990885070691 -0.36034775620209553 0 0.12334710111447229 -0.36406834251145731 0 0.14673951295096799 -0.37363029079717242 0 0.13273239812562251 -0.3803535413873157 0 0.12334710111447229 -0.36406834251145731 0 0.15719449589681389 -0.32866913917705798 0 0.13978194378111039 -0.33004063130878142 0 0.14857199665810869 -0.30427702587315197 0 0.15719449589681389 -0.32866913917705798 0 0.14857199665810869 -0.30427702587315197 0 0.15719449589681389 -0.32866913917705798 0 0.144826286403443 -0.34676284914488159 0 0.13978194378111039 -0.33004063130878142 0 0.15719449589681389 -0.32866913917705798 0 0.16581699513551909 -0.35306125248096398 0 0.144826286403443 -0.34676284914488159 0 0.13978194378111039 -0.33004063130878142 0 0.1249111379911398 -0.32186001205002218 0 0.11573058637367541 -0.34380091622275832 0 0.144826286403443 -0.34676284914488159 0 0.13978194378111039 -0.33004063130878142 0 0.11573058637367541 -0.34380091622275832 0 0.13978194378111039 -0.33004063130878142 0 0.14857199665810869 -0.30427702587315197 0 0.1249111379911398 -0.32186001205002218 0 0.14857199665810869 -0.30427702587315197 0 0.13584279120622419 -0.29064916595208462 0 0.1212075847983899 -0.30357596212866123 0 0.14857199665810869 -0.30427702587315197 0 0.1212075847983899 -0.30357596212866123 0 0.1249111379911398 -0.32186001205002218 0 0.14857199665810869 -0.30427702587315197 0 0.14941647374314521 -0.28066083506566319 0 0.1659314811884508 -0.28303851802095531 0 0.14857199665810869 -0.30427702587315197 0 0.13584279120622419 -0.29064916595208462 0 0.14941647374314521 -0.28066083506566319 0 0.13554841089854469 -0.28148943716570812 0 0.13584279120622419 -0.29064916595208462 0 0.14941647374314521 -0.28066083506566319 0 0.13554841089854469 -0.28148943716570812 0 0.13584279120622419 -0.29064916595208462 0 0.1176113560141319 -0.2851589593963586 0 0.1376178273856396 -0.2676878026278281 0 0.13932302263067731 -0.26948878824872591 0 0.1176113560141319 -0.2851589593963586 0 0.13554841089854469 -0.28148943716570812 0 0.13932302263067731 -0.26948878824872591 0 0.1176113560141319 -0.2851589593963586 0 0.13932302263067731 -0.26948878824872591 0 0.1176113560141319 -0.2851589593963586 0 0.1376178273856396 -0.2676878026278281 0 0.1200034520355143 -0.24749468667538321 0 0.1376178273856396 -0.2676878026278281 0 0.1200034520355143 -0.24749468667538321 0 0.1412434604122122 -0.24631040783256791 0 0.1376178273856396 -0.2676878026278281 0 0.16103468924722281 -0.25381861710109321 0 0.1412434604122122 -0.24631040783256791 0 0.1376178273856396 -0.2676878026278281 0 0.13932302263067731 -0.26948878824872591 0 0.16103468924722281 -0.25381861710109321 0 0.13932302263067731 -0.26948878824872591 0 0.16103468924722281 -0.25381861710109321 0 0.13932302263067731 -0.26948878824872591 0 0.14941647374314521 -0.28066083506566319 0 0.16103468924722281 -0.25381861710109321 0 0.13554841089854469 -0.28148943716570812 0 0.13932302263067731 -0.26948878824872591 0 0.14941647374314521 -0.28066083506566319 0 0.14941647374314521 -0.28066083506566319 0 0.16103468924722281 -0.25381861710109321 0 0.1659314811884508 -0.28303851802095531 0 0.16103468924722281 -0.25381861710109321 0 0.1779690690817976 -0.26589134009717008 0 0.1659314811884508 -0.28303851802095531 0 0.16103468924722281 -0.25381861710109321 0 0.1779690690817976 -0.26589134009717008 0 0.18013525364959199 -0.24590787480667409 0 0.1960217485778272 -0.26205501631648559 0 0.1779690690817976 -0.26589134009717008 0 0.18013525364959199 -0.24590787480667409 0 0.1960217485778272 -0.26205501631648559 0 0.1779690690817976 -0.26589134009717008 0 0.18672217274589489 -0.28463667424064248 0 0.1779690690817976 -0.26589134009717008 0 0.18672217274589489 -0.28463667424064248 0 0.1659314811884508 -0.28303851802095531 0 0.18672217274589489 -0.28463667424064248 0 0.17186855286937899 -0.30453082832045192 0 0.1659314811884508 -0.28303851802095531 0 0.19163287831415901 -0.30538761534618902 0 0.18384400034678741 -0.32250280289756078 0 0.17186855286937899 -0.30453082832045192 0 0.19163287831415901 -0.30538761534618902 0 0.18672217274589489 -0.28463667424064248 0 0.17186855286937899 -0.30453082832045192 0 0.14857199665810869 -0.30427702587315197 0 0.17186855286937899 -0.30453082832045192 0 0.1659314811884508 -0.28303851802095531 0 0.15719449589681389 -0.32866913917705798 0 0.14857199665810869 -0.30427702587315197 0 0.17186855286937899 -0.30453082832045192 0 0.27004646425256568 -0.5 0 0.19840125792562099 -0.499999999999995 0 0.2258071254777905 -0.47806137695806639 0 0.19840125792562099 -0.499999999999995 0 0.1955652389629654 -0.47833395417678298 0 0.19840125792562099 -0.499999999999995 0 0.1955652389629654 -0.47833395417678298 0 0.1857239970351309 -0.48926605560099218 0 0.1955652389629654 -0.47833395417678298 0 0.2258071254777905 -0.47806137695806639 0 0.20496909670773639 -0.46039718082621561 0 0.19840125792562099 -0.499999999999995 0 0.1955652389629654 -0.47833395417678298 0 0.2258071254777905 -0.47806137695806639 0 0.2532296876789632 -0.47497352743918242 0 0.27004646425256568 -0.5 0 0.2258071254777905 -0.47806137695806639 0 0.2532296876789632 -0.47497352743918242 0 0.2258071254777905 -0.47806137695806639 0 0.23317765179809191 -0.45416130837427687 0 0.2258071254777905 -0.47806137695806639 0 0.23317765179809191 -0.45416130837427687 0 0.20496909670773639 -0.46039718082621561 0 0.23317765179809191 -0.45416130837427687 0 0.20496909670773639 -0.46039718082621561 0 0.26339579246569877 -0.46312143350125029 0 0.2532296876789632 -0.47497352743918242 0 0.23317765179809191 -0.45416130837427687 0 0.26138620688844749 -0.44792543592233808 0 0.2518592606704963 -0.43815060111373921 0 0.23317765179809191 -0.45416130837427687 0 0.26138620688844749 -0.44792543592233808 0 0.23317765179809191 -0.45416130837427687 0 0.2518592606704963 -0.43815060111373921 0 0.23317765179809191 -0.45416130837427687 0 0.24161391479158839 -0.43048581688246368 0 0.23317765179809191 -0.45416130837427687 0 0.21274467024756119 -0.44537306322652892 0 0.22596778666418391 -0.43195218695593612 0 0.23317765179809191 -0.45416130837427687 0 0.22596778666418391 -0.43195218695593612 0 0.24161391479158839 -0.43048581688246368 0 0.20738663592967541 -0.43977689630152639 0 0.21274467024756119 -0.44537306322652892 0 0.21231789143938981 -0.43260924517595267 0 0.20738663592967541 -0.43977689630152639 0 0.20306963394956029 -0.44528763306514119 0 0.2014143480821905 -0.43583764373848299 0 0.20738663592967541 -0.43977689630152639 0 0.21274467024756119 -0.44537306322652892 0 0.20306963394956029 -0.44528763306514119 0 0.21274467024756119 -0.44537306322652892 0 0.20306963394956029 -0.44528763306514119 0 0.20202636709778779 -0.45196992376671852 0 0.21274467024756119 -0.44537306322652892 0 0.20496909670773639 -0.46039718082621561 0 0.20202636709778779 -0.45196992376671852 0 0.23317765179809191 -0.45416130837427687 0 0.21274467024756119 -0.44537306322652892 0 0.20496909670773639 -0.46039718082621561 0 0.1955652389629654 -0.47833395417678298 0 0.20496909670773639 -0.46039718082621561 0 0.1927292200003092 -0.45666790835357102 0 0.1955652389629654 -0.47833395417678298 0 0.1927292200003092 -0.45666790835357102 0 0.1955652389629654 -0.47833395417678298 0 0.19047701204926121 -0.46094242075341862 0 0.1927292200003092 -0.45666790835357102 0 0.20496909670773639 -0.46039718082621561 0 0.1927292200003092 -0.45666790835357102 0 0.20202636709778779 -0.45196992376671852 0 0.19047701204926121 -0.46094242075341862 0 0.1927292200003092 -0.45666790835357102 0 0.1876592352144193 -0.45673372923780892 0 0.1927292200003092 -0.45666790835357102 0 0.1876592352144193 -0.45673372923780892 0 0.18777566972406101 -0.44981142861604279 0 0.1927292200003092 -0.45666790835357102 0 0.19595067699787469 -0.4453334870477933 0 0.18989320103765239 -0.43500186253035911 0 0.1927292200003092 -0.45666790835357102 0 0.18989320103765239 -0.43500186253035911 0 0.1927292200003092 -0.45666790835357102 0 0.18777566972406101 -0.44981142861604279 0 0.18989320103765239 -0.43500186253035911 0 0.19521760998379711 -0.43854214036159178 0 0.19595067699787469 -0.4453334870477933 0 0.1916906899727929 -0.43609695451772118 0 0.19595067699787469 -0.4453334870477933 0 0.1916906899727929 -0.43609695451772118 0 0.18989320103765239 -0.43500186253035911 0 0.19521760998379711 -0.43854214036159178 0 0.19821003569121751 -0.44088076654097252 0 0.19595067699787469 -0.4453334870477933 0 0.19821003569121751 -0.44088076654097252 0 0.20306963394956029 -0.44528763306514119 0 0.19595067699787469 -0.4453334870477933 0 0.19821003569121751 -0.44088076654097252 0 0.20306963394956029 -0.44528763306514119 0 0.2014143480821905 -0.43583764373848299 0 0.19521760998379711 -0.43854214036159178 0 0.19821003569121751 -0.44088076654097252 0 0.19632921389935129 -0.43529695882979857 0 0.20306963394956029 -0.44528763306514119 0 0.20202636709778779 -0.45196992376671852 0 0.19595067699787469 -0.4453334870477933 0 0.1927292200003092 -0.45666790835357102 0 0.20202636709778779 -0.45196992376671852 0 0.19595067699787469 -0.4453334870477933 0 0.18989320103765239 -0.43500186253035911 0 0.193210065479164 -0.42351508711829272 0 0.18667504034831339 -0.41041640739772162 0 0.18989320103765239 -0.43500186253035911 0 0.18667504034831339 -0.41041640739772162 0 0.1973860855611401 -0.42692030526330021 0 0.193210065479164 -0.42351508711829272 0 0.19846083006015189 -0.42045811652912207 0 0.1973860855611401 -0.42692030526330021 0 0.19846083006015189 -0.42045811652912207 0 0.20326441538295181 -0.42746054266679712 0 0.1973860855611401 -0.42692030526330021 0 0.19826447490927249 -0.43151164360587502 0 0.20326441538295181 -0.42746054266679712 0 0.2014143480821905 -0.43583764373848299 0 0.19826447490927249 -0.43151164360587502 0 0.20326441538295181 -0.42746054266679712 0 0.19821003569121751 -0.44088076654097252 0 0.2014143480821905 -0.43583764373848299 0 0.19632921389935129 -0.43529695882979857 0 0.2014143480821905 -0.43583764373848299 0 0.19632921389935129 -0.43529695882979857 0 0.19826447490927249 -0.43151164360587502 0 0.19632921389935129 -0.43529695882979857 0 0.19826447490927249 -0.43151164360587502 0 0.1929283116207289 -0.43204276753099607 0 0.1973860855611401 -0.42692030526330021 0 0.19826447490927249 -0.43151164360587502 0 0.1929283116207289 -0.43204276753099607 0 0.1929283116207289 -0.43204276753099607 0 0.18989320103765239 -0.43500186253035911 0 0.193210065479164 -0.42351508711829272 0 0.19521760998379711 -0.43854214036159178 0 0.19632921389935129 -0.43529695882979857 0 0.19377820557052011 -0.43520734882518619 0 0.19521760998379711 -0.43854214036159178 0 0.19377820557052011 -0.43520734882518619 0 0.1916906899727929 -0.43609695451772118 0 0.19632921389935129 -0.43529695882979857 0 0.1929283116207289 -0.43204276753099607 0 0.19377820557052011 -0.43520734882518619 0 0.1929283116207289 -0.43204276753099607 0 0.19210490899723079 -0.4345610298626873 0 0.18989320103765239 -0.43500186253035911 0 0.19377820557052011 -0.43520734882518619 0 0.19210490899723079 -0.4345610298626873 0 0.1916906899727929 -0.43609695451772118 0 0.1929283116207289 -0.43204276753099607 0 0.19377820557052011 -0.43520734882518619 0 0.19210490899723079 -0.4345610298626873 0 0.1916906899727929 -0.43609695451772118 0 0.18989320103765239 -0.43500186253035911 0 0.19210490899723079 -0.4345610298626873 0 0.1916906899727929 -0.43609695451772118 0 0.18989320103765239 -0.43500186253035911 0 0.1973860855611401 -0.42692030526330021 0 0.1929283116207289 -0.43204276753099607 0 0.193210065479164 -0.42351508711829272 0 0.193210065479164 -0.42351508711829272 0 0.1939169242469973 -0.41625106345825691 0 0.18667504034831339 -0.41041640739772162 0 0.193210065479164 -0.42351508711829272 0 0.1939169242469973 -0.41625106345825691 0 0.19846083006015189 -0.42045811652912207 0 0.1968341740193896 -0.41150644481021997 0 0.19418069224578771 -0.40518464808912641 0 0.18667504034831339 -0.41041640739772162 0 0.1939169242469973 -0.41625106345825691 0 0.1968341740193896 -0.41150644481021997 0 0.18667504034831339 -0.41041640739772162 0 0.1968341740193896 -0.41150644481021997 0 0.20469814770209749 -0.41520386531910081 0 0.20485234226760879 -0.40188257102108682 0 0.19846083006015189 -0.42045811652912207 0 0.20469814770209749 -0.41520386531910081 0 0.20326441538295181 -0.42746054266679712 0 0.1939169242469973 -0.41625106345825691 0 0.1968341740193896 -0.41150644481021997 0 0.19846083006015189 -0.42045811652912207 0 0.1968341740193896 -0.41150644481021997 0 0.19846083006015189 -0.42045811652912207 0 0.20469814770209749 -0.41520386531910081 0 0.20469814770209749 -0.41520386531910081 0 0.21626227209603979 -0.41615869782113413 0 0.20326441538295181 -0.42746054266679712 0 0.20469814770209749 -0.41520386531910081 0 0.21626227209603979 -0.41615869782113413 0 0.20485234226760879 -0.40188257102108682 0 0.21626227209603979 -0.41615869782113413 0 0.20326441538295181 -0.42746054266679712 0 0.21231789143938981 -0.43260924517595267 0 0.21626227209603979 -0.41615869782113413 0 0.21231789143938981 -0.43260924517595267 0 0.22596778666418391 -0.43195218695593612 0 0.20738663592967541 -0.43977689630152639 0 0.2014143480821905 -0.43583764373848299 0 0.21231789143938981 -0.43260924517595267 0 0.2014143480821905 -0.43583764373848299 0 0.20326441538295181 -0.42746054266679712 0 0.21231789143938981 -0.43260924517595267 0 0.21274467024756119 -0.44537306322652892 0 0.21231789143938981 -0.43260924517595267 0 0.22596778666418391 -0.43195218695593612 0 0.22596778666418391 -0.43195218695593612 0 0.24161391479158839 -0.43048581688246368 0 0.2333640889907381 -0.41241884790723538 0 0.25610826383841628 -0.42120346698794331 0 0.2518592606704963 -0.43815060111373921 0 0.24161391479158839 -0.43048581688246368 0 0.25610826383841628 -0.42120346698794331 0 0.24161391479158839 -0.43048581688246368 0 0.2333640889907381 -0.41241884790723538 0 0.21626227209603979 -0.41615869782113413 0 0.22596778666418391 -0.43195218695593612 0 0.2333640889907381 -0.41241884790723538 0 0.2333640889907381 -0.41241884790723538 0 0.24502858373403441 -0.39146921073642488 0 0.22031030243082139 -0.38906492162812378 0 0.21626227209603979 -0.41615869782113413 0 0.2333640889907381 -0.41241884790723538 0 0.22031030243082139 -0.38906492162812378 0 0.2333640889907381 -0.41241884790723538 0 0.22031030243082139 -0.38906492162812378 0 0.26125098829365018 -0.39969694482297641 0 0.2333640889907381 -0.41241884790723538 0 0.24502858373403441 -0.39146921073642488 0 0.24971336314328341 -0.36520417674804972 0 0.24502858373403441 -0.39146921073642488 0 0.24971336314328341 -0.36520417674804972 0 0.229200177642885 -0.36995291413531828 0 0.24502858373403441 -0.39146921073642488 0 0.229200177642885 -0.36995291413531828 0 0.24502858373403441 -0.39146921073642488 0 0.22031030243082139 -0.38906492162812378 0 0.20725651587090471 -0.36571099534901208 0 0.22031030243082139 -0.38906492162812378 0 0.19952097201101759 -0.38537913368264481 0 0.20725651587090471 -0.36571099534901208 0 0.22031030243082139 -0.38906492162812378 0 0.21626227209603979 -0.41615869782113413 0 0.22031030243082139 -0.38906492162812378 0 0.20485234226760879 -0.40188257102108682 0 0.22031030243082139 -0.38906492162812378 0 0.20485234226760879 -0.40188257102108682 0 0.19952097201101759 -0.38537913368264481 0 0.20485234226760879 -0.40188257102108682 0 0.19159455078491761 -0.39726910731705511 0 0.19952097201101759 -0.38537913368264481 0 0.1968341740193896 -0.41150644481021997 0 0.20485234226760879 -0.40188257102108682 0 0.19418069224578771 -0.40518464808912641 0 0.20485234226760879 -0.40188257102108682 0 0.19418069224578771 -0.40518464808912641 0 0.19159455078491761 -0.39726910731705511 0 0.19418069224578771 -0.40518464808912641 0 0.19159455078491761 -0.39726910731705511 0 0.18667504034831339 -0.41041640739772162 0 0.20725651587090471 -0.36571099534901208 0 0.19261827162763251 -0.374541644607297 0 0.19952097201101759 -0.38537913368264481 0 0.19261827162763251 -0.374541644607297 0 0.19952097201101759 -0.38537913368264481 0 0.1834568796589737 -0.38583095226508418 0 0.19159455078491761 -0.39726910731705511 0 0.19952097201101759 -0.38537913368264481 0 0.1834568796589737 -0.38583095226508418 0 0.17443949437422429 -0.37745336578486988 0 0.18306199361292941 -0.40184547908877583 0 0.1834568796589737 -0.38583095226508418 0 0.17443949437422429 -0.37745336578486988 0 0.18306199361292941 -0.40184547908877583 0 0.17443949437422429 -0.37745336578486988 0 0.18306199361292941 -0.40184547908877583 0 0.1699565165384864 -0.39219147373696051 0 0.19159455078491761 -0.39726910731705511 0 0.1834568796589737 -0.38583095226508418 0 0.18667504034831339 -0.41041640739772162 0 0.1834568796589737 -0.38583095226508418 0 0.18667504034831339 -0.41041640739772162 0 0.1834568796589737 -0.38583095226508418 0 0.18306199361292941 -0.40184547908877583 0 0.18667504034831339 -0.41041640739772162 0 0.18306199361292941 -0.40184547908877583 0 0.1699565165384864 -0.39219147373696051 0 0.17103987791038719 -0.40450309618882169 0 0.18306199361292941 -0.40184547908877583 0 0.17103987791038719 -0.40450309618882169 0 0.1814131781600461 -0.40758752999736902 0 0.1699565165384864 -0.39219147373696051 0 0.17103987791038719 -0.40450309618882169 0 0.15993177942481909 -0.39557864441750712 0 0.17103987791038719 -0.40450309618882169 0 0.15993177942481909 -0.39557864441750712 0 0.14638679418839309 -0.40849626541203388 0 0.1699565165384864 -0.39219147373696051 0 0.15993177942481909 -0.39557864441750712 0 0.1595700277473481 -0.38298567724053401 0 0.17443949437422429 -0.37745336578486988 0 0.1699565165384864 -0.39219147373696051 0 0.1595700277473481 -0.38298567724053401 0 0.1602354860011011 -0.36875954027416918 0 0.17443949437422429 -0.37745336578486988 0 0.1595700277473481 -0.38298567724053401 0 0.1602354860011011 -0.36875954027416918 0 0.14673951295096799 -0.37363029079717242 0 0.1595700277473481 -0.38298567724053401 0 0.14673951295096799 -0.37363029079717242 0 0.1595700277473481 -0.38298567724053401 0 0.14586341328622179 -0.39002728499933198 0 0.14673951295096799 -0.37363029079717242 0 0.14586341328622179 -0.39002728499933198 0 0.13273239812562251 -0.3803535413873157 0 0.15993177942481909 -0.39557864441750712 0 0.1595700277473481 -0.38298567724053401 0 0.14586341328622179 -0.39002728499933198 0 0.14586341328622179 -0.39002728499933198 0 0.13273239812562251 -0.3803535413873157 0 0.12412735500694751 -0.39493505064503392 0 0.13273239812562251 -0.3803535413873157 0 0.12412735500694751 -0.39493505064503392 0 0.1208593498238435 -0.38006314209191833 0 0.14586341328622179 -0.39002728499933198 0 0.14638679418839309 -0.40849626541203388 0 0.12412735500694751 -0.39493505064503392 0 0.14638679418839309 -0.40849626541203388 0 0.1185943653130178 -0.41089393958744808 0 0.12412735500694751 -0.39493505064503392 0 0.14638679418839309 -0.40849626541203388 0 0.12412735500694751 -0.39493505064503392 0 0.15993177942481909 -0.39557864441750712 0 0.14586341328622179 -0.39002728499933198 0 0.14638679418839309 -0.40849626541203388 0 0.14638679418839309 -0.40849626541203388 0 0.12945713117598301 -0.42527718494859718 0 0.1185943653130178 -0.41089393958744808 0 0.12945713117598301 -0.42527718494859718 0 0.1521605439778134 -0.43517333823265708 0 0.13567485458578729 -0.448289196286278 0 0.14638679418839309 -0.40849626541203388 0 0.12945713117598301 -0.42527718494859718 0 0.1521605439778134 -0.43517333823265708 0 0.14638679418839309 -0.40849626541203388 0 0.1521605439778134 -0.43517333823265708 0 0.16864623336983819 -0.42205748017903449 0 0.1521605439778134 -0.43517333823265708 0 0.16864623336983819 -0.42205748017903449 0 0.1521605439778134 -0.43517333823265708 0 0.16864623336983819 -0.42205748017903449 0 0.16573483381671769 -0.43911683261624462 0 0.16864623336983819 -0.42205748017903449 0 0.17670256027174869 -0.43608133600128551 0 0.16573483381671769 -0.43911683261624462 0 0.17103987791038719 -0.40450309618882169 0 0.14638679418839309 -0.40849626541203388 0 0.16962733287145829 -0.41306172809692981 0 0.14638679418839309 -0.40849626541203388 0 0.16864623336983819 -0.42205748017903449 0 0.14638679418839309 -0.40849626541203388 0 0.16864623336983819 -0.42205748017903449 0 0.16962733287145829 -0.41306172809692981 0 0.16864623336983819 -0.42205748017903449 0 0.17965678171287719 -0.41329759239238029 0 0.18989320103765239 -0.43500186253035911 0 0.17965678171287719 -0.41329759239238029 0 0.18667504034831339 -0.41041640739772162 0 0.16864623336983819 -0.42205748017903449 0 0.16962733287145829 -0.41306172809692981 0 0.17965678171287719 -0.41329759239238029 0 0.17103987791038719 -0.40450309618882169 0 0.16962733287145829 -0.41306172809692981 0 0.17965678171287719 -0.41329759239238029 0 0.17103987791038719 -0.40450309618882169 0 0.17965678171287719 -0.41329759239238029 0 0.1814131781600461 -0.40758752999736902 0 0.18306199361292941 -0.40184547908877583 0 0.1814131781600461 -0.40758752999736902 0 0.18667504034831339 -0.41041640739772162 0 0.17965678171287719 -0.41329759239238029 0 0.1814131781600461 -0.40758752999736902 0 0.18667504034831339 -0.41041640739772162 0 0.18989320103765239 -0.43500186253035911 0 0.16864623336983819 -0.42205748017903449 0 0.18989320103765239 -0.43500186253035911 0 0.16864623336983819 -0.42205748017903449 0 0.17965678171287719 -0.41329759239238029 0 0.18989320103765239 -0.43500186253035911 0 0.16864623336983819 -0.42205748017903449 0 0.17670256027174869 -0.43608133600128551 0 0.18989320103765239 -0.43500186253035911 0 0.17670256027174869 -0.43608133600128551 0 0.18208037526260021 -0.440172852945236 0 0.17851738694434799 -0.45081987712854771 0 0.17618275988476059 -0.44374183802639611 0 0.18401323307134959 -0.44581129240036288 0 0.17851738694434799 -0.45081987712854771 0 0.1776998484129505 -0.456552179461992 0 0.17120073938054131 -0.45123220200337888 0 0.17851738694434799 -0.45081987712854771 0 0.17618275988476059 -0.44374183802639611 0 0.17120073938054131 -0.45123220200337888 0 0.17670256027174869 -0.43608133600128551 0 0.17618275988476059 -0.44374183802639611 0 0.16573483381671769 -0.43911683261624462 0 0.17670256027174869 -0.43608133600128551 0 0.17618275988476059 -0.44374183802639611 0 0.18208037526260021 -0.440172852945236 0 0.18989320103765239 -0.43500186253035911 0 0.18208037526260021 -0.440172852945236 0 0.18401323307134959 -0.44581129240036288 0 0.18777566972406101 -0.44981142861604279 0 0.18989320103765239 -0.43500186253035911 0 0.18401323307134959 -0.44581129240036288 0 0.17618275988476059 -0.44374183802639611 0 0.18208037526260021 -0.440172852945236 0 0.18401323307134959 -0.44581129240036288 0 0.18777566972406101 -0.44981142861604279 0 0.18401323307134959 -0.44581129240036288 0 0.18385690407389799 -0.45446609953290928 0 0.17851738694434799 -0.45081987712854771 0 0.18401323307134959 -0.44581129240036288 0 0.18385690407389799 -0.45446609953290928 0 0.19047701204926121 -0.46094242075341862 0 0.1876592352144193 -0.45673372923780892 0 0.1806900259799068 -0.46227126151247672 0 0.1876592352144193 -0.45673372923780892 0 0.18777566972406101 -0.44981142861604279 0 0.18385690407389799 -0.45446609953290928 0 0.19047701204926121 -0.46094242075341862 0 0.1806900259799068 -0.46227126151247672 0 0.17298031468751371 -0.48047121037671059 0 0.1876592352144193 -0.45673372923780892 0 0.18385690407389799 -0.45446609953290928 0 0.1806900259799068 -0.46227126151247672 0 0.18385690407389799 -0.45446609953290928 0 0.1806900259799068 -0.46227126151247672 0 0.1776998484129505 -0.456552179461992 0 0.17851738694434799 -0.45081987712854771 0 0.18385690407389799 -0.45446609953290928 0 0.1776998484129505 -0.456552179461992 0 0.1806900259799068 -0.46227126151247672 0 0.1776998484129505 -0.456552179461992 0 0.17146684144139809 -0.46446192971202138 0 0.1776998484129505 -0.456552179461992 0 0.17146684144139809 -0.46446192971202138 0 0.17120073938054131 -0.45123220200337888 0 0.17146684144139809 -0.46446192971202138 0 0.15759213853868431 -0.45113306297151079 0 0.14900727366634989 -0.46501884712825781 0 0.17146684144139809 -0.46446192971202138 0 0.15759213853868431 -0.45113306297151079 0 0.17120073938054131 -0.45123220200337888 0 0.1521605439778134 -0.43517333823265708 0 0.15759213853868431 -0.45113306297151079 0 0.16573483381671769 -0.43911683261624462 0 0.15759213853868431 -0.45113306297151079 0 0.17120073938054131 -0.45123220200337888 0 0.16573483381671769 -0.43911683261624462 0 0.17618275988476059 -0.44374183802639611 0 0.17120073938054131 -0.45123220200337888 0 0.16573483381671769 -0.43911683261624462 0 0.1521605439778134 -0.43517333823265708 0 0.15759213853868431 -0.45113306297151079 0 0.13567485458578729 -0.448289196286278 0 0.1521605439778134 -0.43517333823265708 0 0.13567485458578729 -0.448289196286278 0 0.13567485458578729 -0.448289196286278 0 0.1191891651937612 -0.46140505433989892 0 0.12203304576274319 -0.43975504748265359 0 0.12945713117598301 -0.42527718494859718 0 0.13567485458578729 -0.448289196286278 0 0.12203304576274319 -0.43975504748265359 0 0.13567485458578729 -0.448289196286278 0 0.1191891651937612 -0.46140505433989892 0 0.13567485458578729 -0.448289196286278 0 0.13480127744719991 -0.46410976413563299 0 0.1191891651937612 -0.46140505433989892 0 0.13567485458578729 -0.448289196286278 0 0.13480127744719991 -0.46410976413563299 0 0.14900727366634989 -0.46501884712825781 0 0.15759213853868431 -0.45113306297151079 0 0.13567485458578729 -0.448289196286278 0 0.14900727366634989 -0.46501884712825781 0 0.14900727366634989 -0.46501884712825781 0 0.15577652408963519 -0.48266000469618581 0 0.13873200589539489 -0.47945912496791759 0 0.13480127744719991 -0.46410976413563299 0 0.14900727366634989 -0.46501884712825781 0 0.13873200589539489 -0.47945912496791759 0 0.13480127744719991 -0.46410976413563299 0 0.13873200589539489 -0.47945912496791759 0 0.11801755443736479 -0.48060781756800708 0 0.13873200589539489 -0.47945912496791759 0 0.13581988522262109 -0.50000000000000244 0 0.11801755443736479 -0.48060781756800708 0 0.13581988522262109 -0.50000000000000244 0 0.11801755443736479 -0.48060781756800708 0 0.15577652408963519 -0.48266000469618581 0 0.13873200589539489 -0.47945912496791759 0 0.13581988522262109 -0.50000000000000244 0 0.15577652408963519 -0.48266000469618581 0 0.13581988522262109 -0.50000000000000244 0 0.15548361732576529 -0.50000000000000178 0 0.15577652408963519 -0.48266000469618581 0 0.15548361732576529 -0.50000000000000178 0 0.17298031468751371 -0.48047121037671059 0 0.15548361732576529 -0.50000000000000178 0 0.17298031468751371 -0.48047121037671059 0 0.1769424376256932 -0.5 0 0.15548361732576529 -0.50000000000000178 0 0.17298031468751371 -0.48047121037671059 0 0.17146684144139809 -0.46446192971202138 0 0.15577652408963519 -0.48266000469618581 0 0.17298031468751371 -0.48047121037671059 0 0.17146684144139809 -0.46446192971202138 0 0.14900727366634989 -0.46501884712825781 0 0.15577652408963519 -0.48266000469618581 0 0.19047701204926121 -0.46094242075341862 0 0.17298031468751371 -0.48047121037671059 0 0.1806900259799068 -0.46227126151247672 0 0.17146684144139809 -0.46446192971202138 0 0.17298031468751371 -0.48047121037671059 0 0.1955652389629654 -0.47833395417678298 0 0.19047701204926121 -0.46094242075341862 0 0.17298031468751371 -0.48047121037671059 0 0.1955652389629654 -0.47833395417678298 0 0.17298031468751371 -0.48047121037671059 0 0.1857239970351309 -0.48926605560099218 0 0.19840125792562099 -0.499999999999995 0 0.1857239970351309 -0.48926605560099218 0 0.1769424376256932 -0.5 0 0.17298031468751371 -0.48047121037671059 0 0.1857239970351309 -0.48926605560099218 0 0.1769424376256932 -0.5 0 0.074737975103940479 -0.48487994098964171 0 0.071046826552429457 -0.50000000000000733 0 0.059434139084113012 -0.47963991399004141 0 0.071046826552429457 -0.50000000000000733 0 0.059434139084113012 -0.47963991399004141 0 0.074737975103940479 -0.48487994098964171 0 0.05802097188470097 -0.46975988197928431 0 0.059434139084113012 -0.47963991399004141 0 0.074737975103940479 -0.48487994098964171 0 0.071955909258469009 -0.46877079283141743 0 0.05802097188470097 -0.46975988197928431 0 0.074737975103940479 -0.48487994098964171 0 0.071955909258469009 -0.46877079283141743 0 0.082737354296077953 -0.47427357099325013 0 0.074737975103940479 -0.48487994098964171 0 0.05802097188470097 -0.46975988197928431 0 0.074737975103940479 -0.48487994098964171 0 0.082737354296077953 -0.47427357099325013 0 0.094811061721812542 -0.48112121468145302 0 0.082737354296077953 -0.47427357099325013 0 0.094811061721812542 -0.48112121468145302 0 0.1002152236521098 -0.46121563513601083 0 0.074737975103940479 -0.48487994098964171 0 0.091454978323179614 -0.49999999999999939 0 0.094811061721812542 -0.48112121468145302 0 0.074737975103940479 -0.48487994098964171 0 0.091454978323179614 -0.49999999999999939 0 0.074737975103940479 -0.48487994098964171 0 0.071046826552429457 -0.50000000000000733 0 0.091454978323179614 -0.49999999999999939 0 0.1136374317729003 -0.5 0 0.11801755443736479 -0.48060781756800708 0 0.094811061721812542 -0.48112121468145302 0 0.091454978323179614 -0.49999999999999939 0 0.1136374317729003 -0.5 0 0.094811061721812542 -0.48112121468145302 0 0.13581988522262109 -0.50000000000000244 0 0.1136374317729003 -0.5 0 0.11801755443736479 -0.48060781756800708 0 0.11801755443736479 -0.48060781756800708 0 0.094811061721812542 -0.48112121468145302 0 0.1002152236521098 -0.46121563513601083 0 0.11801755443736479 -0.48060781756800708 0 0.1002152236521098 -0.46121563513601083 0 0.1002152236521098 -0.46121563513601083 0 0.1191891651937612 -0.46140505433989892 0 0.1082504500781146 -0.44478934181291102 0 0.11801755443736479 -0.48060781756800708 0 0.1002152236521098 -0.46121563513601083 0 0.1191891651937612 -0.46140505433989892 0 0.13480127744719991 -0.46410976413563299 0 0.11801755443736479 -0.48060781756800708 0 0.1191891651937612 -0.46140505433989892 0 0.1191891651937612 -0.46140505433989892 0 0.12203304576274319 -0.43975504748265359 0 0.1082504500781146 -0.44478934181291102 0 0.1002152236521098 -0.46121563513601083 0 0.1082504500781146 -0.44478934181291102 0 0.082412892866854714 -0.44182345270401441 0 0.1002152236521098 -0.46121563513601083 0 0.082412892866854714 -0.44182345270401441 0 0.082737354296077953 -0.47427357099325013 0 0.1002152236521098 -0.46121563513601083 0 0.07989865607697158 -0.46093656822545309 0 0.1002152236521098 -0.46121563513601083 0 0.082412892866854714 -0.44182345270401441 0 0.07989865607697158 -0.46093656822545309 0 0.071955909258469009 -0.46877079283141743 0 0.082737354296077953 -0.47427357099325013 0 0.07989865607697158 -0.46093656822545309 0 0.071955909258469009 -0.46877079283141743 0 0.07989865607697158 -0.46093656822545309 0 0.064942869781788204 -0.45298741250561531 0 0.071955909258469009 -0.46877079283141743 0 0.064942869781788204 -0.45298741250561531 0 0.05802097188470097 -0.46975988197928431 0 0.082412892866854714 -0.44182345270401441 0 0.07989865607697158 -0.46093656822545309 0 0.064942869781788204 -0.45298741250561531 0 0.082412892866854714 -0.44182345270401441 0 0.064942869781788204 -0.45298741250561531 0 0.064610562081599654 -0.42243127027201799 0 0.082412892866854714 -0.44182345270401441 0 0.064610562081599654 -0.42243127027201799 0 0.085410796704641828 -0.41553833344022301 0 0.082412892866854714 -0.44182345270401441 0 0.064610562081599654 -0.42243127027201799 0 0.064610562081599654 -0.42243127027201799 0 0.085410796704641828 -0.41553833344022301 0 0.071260751408415451 -0.40583032332525898 0 0.082412892866854714 -0.44182345270401441 0 0.085410796704641828 -0.41553833344022301 0 0.10565257718969159 -0.42402980380391259 0 0.1082504500781146 -0.44478934181291102 0 0.10565257718969159 -0.42402980380391259 0 0.1082504500781146 -0.44478934181291102 0 0.082412892866854714 -0.44182345270401441 0 0.10565257718969159 -0.42402980380391259 0 0.12203304576274319 -0.43975504748265359 0 0.1082504500781146 -0.44478934181291102 0 0.10565257718969159 -0.42402980380391259 0 0.12945713117598301 -0.42527718494859718 0 0.12203304576274319 -0.43975504748265359 0 0.10565257718969159 -0.42402980380391259 0 0.12945713117598301 -0.42527718494859718 0 0.10565257718969159 -0.42402980380391259 0 0.1185943653130178 -0.41089393958744808 0 0.10565257718969159 -0.42402980380391259 0 0.10305470430126849 -0.40327026579491432 0 0.10565257718969159 -0.42402980380391259 0 0.1185943653130178 -0.41089393958744808 0 0.10305470430126849 -0.40327026579491432 0 0.085410796704641828 -0.41553833344022301 0 0.10565257718969159 -0.42402980380391259 0 0.10305470430126849 -0.40327026579491432 0 0.10305470430126849 -0.40327026579491432 0 0.1092296532162271 -0.39195520602732847 0 0.1018679158255022 -0.38137383587803358 0 0.10305470430126849 -0.40327026579491432 0 0.1018679158255022 -0.38137383587803358 0 0.084827885114816814 -0.39510276155480978 0 0.10305470430126849 -0.40327026579491432 0 0.1018679158255022 -0.38137383587803358 0 0.1185943653130178 -0.41089393958744808 0 0.10305470430126849 -0.40327026579491432 0 0.1092296532162271 -0.39195520602732847 0 0.1185943653130178 -0.41089393958744808 0 0.1092296532162271 -0.39195520602732847 0 0.12412735500694751 -0.39493505064503392 0 0.12412735500694751 -0.39493505064503392 0 0.1208593498238435 -0.38006314209191833 0 0.1018679158255022 -0.38137383587803358 0 0.1092296532162271 -0.39195520602732847 0 0.12412735500694751 -0.39493505064503392 0 0.1018679158255022 -0.38137383587803358 0 0.12412735500694751 -0.39493505064503392 0 0.1018679158255022 -0.38137383587803358 0 0.1208593498238435 -0.38006314209191833 0 0.1018679158255022 -0.38137383587803358 0 0.12334710111447229 -0.36406834251145731 0 0.1018679158255022 -0.38137383587803358 0 0.1001863568717406 -0.38034937241650962 0 0.10879209213087419 -0.36797725762153549 0 0.1018679158255022 -0.38137383587803358 0 0.1001863568717406 -0.38034937241650962 0 0.092680417082859706 -0.38189565836938699 0 0.1018679158255022 -0.38137383587803358 0 0.1001863568717406 -0.38034937241650962 0 0.1001863568717406 -0.38034937241650962 0 0.092680417082859706 -0.38189565836938699 0 0.078941289569781151 -0.36740614783332631 0 0.1018679158255022 -0.38137383587803358 0 0.084827885114816814 -0.39510276155480978 0 0.1018679158255022 -0.38137383587803358 0 0.092680417082859706 -0.38189565836938699 0 0.084827885114816814 -0.39510276155480978 0 0.083667078469080447 -0.3817485906143725 0 0.076461538166658155 -0.38231907318138902 0 0.078941289569781151 -0.36740614783332631 0 0.092680417082859706 -0.38189565836938699 0 0.083667078469080447 -0.3817485906143725 0 0.078941289569781151 -0.36740614783332631 0 0.084827885114816814 -0.39510276155480978 0 0.073546264855348126 -0.39398280964304111 0 0.076461538166658155 -0.38231907318138902 0 0.083667078469080447 -0.3817485906143725 0 0.084827885114816814 -0.39510276155480978 0 0.076461538166658155 -0.38231907318138902 0 0.092680417082859706 -0.38189565836938699 0 0.083667078469080447 -0.3817485906143725 0 0.084827885114816814 -0.39510276155480978 0 0.085410796704641828 -0.41553833344022301 0 0.10305470430126849 -0.40327026579491432 0 0.084827885114816814 -0.39510276155480978 0 0.085410796704641828 -0.41553833344022301 0 0.084827885114816814 -0.39510276155480978 0 0.071260751408415451 -0.40583032332525898 0 0.084827885114816814 -0.39510276155480978 0 0.073546264855348126 -0.39398280964304111 0 0.071260751408415451 -0.40583032332525898 0 0.073546264855348126 -0.39398280964304111 0 0.071260751408415451 -0.40583032332525898 0 0.061634884731502082 -0.39267908051070671 0 0.076461538166658155 -0.38231907318138902 0 0.061634884731502082 -0.39267908051070671 0 0.076461538166658155 -0.38231907318138902 0 0.061634884731502082 -0.39267908051070671 0 0.061904282875925747 -0.37237526148823941 0 0.073546264855348126 -0.39398280964304111 0 0.076461538166658155 -0.38231907318138902 0 0.061634884731502082 -0.39267908051070671 0 0.051370350477500881 -0.3764161884637201 0 0.045801185216693012 -0.38580832539780119 0 0.043663507306638913 -0.36868104746756258 0 0.051370350477500881 -0.3764161884637201 0 0.061634884731502082 -0.39267908051070671 0 0.045801185216693012 -0.38580832539780119 0 0.051370350477500881 -0.3764161884637201 0 0.061634884731502082 -0.39267908051070671 0 0.061904282875925747 -0.37237526148823941 0 0.071260751408415451 -0.40583032332525898 0 0.061634884731502082 -0.39267908051070671 0 0.04680823129634433 -0.40303908784002201 0 0.061634884731502082 -0.39267908051070671 0 0.04680823129634433 -0.40303908784002201 0 0.045801185216693012 -0.38580832539780119 0 0.061634884731502082 -0.39267908051070671 0 0.04680823129634433 -0.40303908784002201 0 0.04680823129634433 -0.40303908784002201 0 0.02837172461734 -0.38295609391969199 0 0.04680823129634433 -0.40303908784002201 0 0.02837172461734 -0.38295609391969199 0 0.028215565298714249 -0.40094151263492078 0 0.045801185216693012 -0.38580832539780119 0 0.02837172461734 -0.38295609391969199 0 0.043663507306638913 -0.36868104746756258 0 0.04680823129634433 -0.40303908784002201 0 0.045801185216693012 -0.38580832539780119 0 0.02837172461734 -0.38295609391969199 0 0.02837172461734 -0.38295609391969199 0 0.0122991559467155 -0.37891225603134221 0 0.011208636448502229 -0.39508796301279092 0 -0.002178803782163227 -0.37161627006544062 0 0.0122991559467155 -0.37891225603134221 0 0.011208636448502229 -0.39508796301279092 0 -0.002178803782163227 -0.37161627006544062 0 0.011208636448502229 -0.39508796301279092 0 -0.002178803782163227 -0.37161627006544062 0 -0.0066930742226519926 -0.39143820132839208 0 0.011208636448502229 -0.39508796301279092 0 -0.001728596279610697 -0.40597762003102339 0 0.011208636448502229 -0.39508796301279092 0 0.0082246319185010179 -0.41465428951275207 0 -0.0066930742226519926 -0.39143820132839208 0 -0.001728596279610697 -0.40597762003102339 0 0.011208636448502229 -0.39508796301279092 0 0.011208636448502229 -0.39508796301279092 0 0.028215565298714249 -0.40094151263492078 0 0.024596076679173799 -0.41855965596013778 0 0.02837172461734 -0.38295609391969199 0 0.011208636448502229 -0.39508796301279092 0 0.028215565298714249 -0.40094151263492078 0 0.011208636448502229 -0.39508796301279092 0 0.024596076679173799 -0.41855965596013778 0 0.011208636448502229 -0.39508796301279092 0 0.024596076679173799 -0.41855965596013778 0 0.0082246319185010179 -0.41465428951275207 0 0.024596076679173799 -0.41855965596013778 0 0.0082246319185010179 -0.41465428951275207 0 0.01039378864355619 -0.42848339288335913 0 -0.009537301248459449 -0.42510302968362512 0 0.0082246319185010179 -0.41465428951275207 0 0.01039378864355619 -0.42848339288335913 0 0.024596076679173799 -0.41855965596013778 0 0.036208764147486278 -0.43891974197010591 0 0.024596076679173799 -0.41855965596013778 0 0.036208764147486278 -0.43891974197010591 0 0.020713539006084219 -0.44010250100644183 0 0.024596076679173799 -0.41855965596013778 0 0.01039378864355619 -0.42848339288335913 0 0.020713539006084219 -0.44010250100644183 0 0.024596076679173799 -0.41855965596013778 0 0.01039378864355619 -0.42848339288335913 0 0.024596076679173799 -0.41855965596013778 0 0.043950702345966319 -0.42295947833088071 0 0.036208764147486278 -0.43891974197010591 0 0.043950702345966319 -0.42295947833088071 0 0.051347790295756007 -0.43901682978775403 0 0.036208764147486278 -0.43891974197010591 0 0.04680823129634433 -0.40303908784002201 0 0.024596076679173799 -0.41855965596013778 0 0.04680823129634433 -0.40303908784002201 0 0.028215565298714249 -0.40094151263492078 0 0.024596076679173799 -0.41855965596013778 0 0.04680823129634433 -0.40303908784002201 0 0.024596076679173799 -0.41855965596013778 0 0.043950702345966319 -0.42295947833088071 0 0.064610562081599654 -0.42243127027201799 0 0.071260751408415451 -0.40583032332525898 0 0.04680823129634433 -0.40303908784002201 0 0.064610562081599654 -0.42243127027201799 0 0.04680823129634433 -0.40303908784002201 0 0.064610562081599654 -0.42243127027201799 0 0.04680823129634433 -0.40303908784002201 0 0.043950702345966319 -0.42295947833088071 0 0.064610562081599654 -0.42243127027201799 0 0.043950702345966319 -0.42295947833088071 0 0.051347790295756007 -0.43901682978775403 0 0.064942869781788204 -0.45298741250561531 0 0.064610562081599654 -0.42243127027201799 0 0.051347790295756007 -0.43901682978775403 0 0.064942869781788204 -0.45298741250561531 0 0.051347790295756007 -0.43901682978775403 0 0.047821451615799627 -0.45927982798007361 0 0.064942869781788204 -0.45298741250561531 0 0.047821451615799627 -0.45927982798007361 0 0.05802097188470097 -0.46975988197928431 0 0.047821451615799627 -0.45927982798007361 0 0.023714967739582489 -0.4565662814222432 0 0.032020960621095843 -0.47777188036233098 0 0.047821451615799627 -0.45927982798007361 0 0.036208764147486278 -0.43891974197010591 0 0.051347790295756007 -0.43901682978775403 0 0.047821451615799627 -0.45927982798007361 0 0.036208764147486278 -0.43891974197010591 0 0.047821451615799627 -0.45927982798007361 0 0.036208764147486278 -0.43891974197010591 0 0.023714967739582489 -0.4565662814222432 0 0.036208764147486278 -0.43891974197010591 0 0.020713539006084219 -0.44010250100644183 0 0.023714967739582489 -0.4565662814222432 0 -0.0013374034004768371 -0.44947558896604423 0 0.01039378864355619 -0.42848339288335913 0 0.020713539006084219 -0.44010250100644183 0 -0.0013374034004768371 -0.44947558896604423 0 0.020713539006084219 -0.44010250100644183 0 0.023714967739582489 -0.4565662814222432 0 -0.0013374034004768371 -0.44947558896604423 0 0.0068624944475057766 -0.47384814824846327 0 -0.0013374034004768371 -0.44947558896604423 0 0.023714967739582489 -0.4565662814222432 0 0.0068624944475057766 -0.47384814824846327 0 0.023714967739582489 -0.4565662814222432 0 0.0068624944475057766 -0.47384814824846327 0 0.032020960621095843 -0.47777188036233098 0 0.0068624944475057766 -0.47384814824846327 0 0.0150623922954884 -0.49822070753088238 0 0.032020960621095843 -0.47777188036233098 0 -0.015217900669161011 -0.5 0 0.0024053695883212941 -0.48891336768777249 0 0.013537008404702511 -0.5 0 0.0068624944475057766 -0.47384814824846327 0 0.0024053695883212941 -0.48891336768777249 0 0.0150623922954884 -0.49822070753088238 0 0.0068624944475057766 -0.47384814824846327 0 0.0150623922954884 -0.49822070753088238 0 0.0024053695883212941 -0.48891336768777249 0 0.0150623922954884 -0.49822070753088238 0 0.013537008404702511 -0.5 0 0.0150623922954884 -0.49822070753088238 0 0.013537008404702511 -0.5 0 0.042291917478565873 -0.5 0 0.0150623922954884 -0.49822070753088238 0 0.042291917478565873 -0.5 0 0.032020960621095843 -0.47777188036233098 0 0.042291917478565873 -0.5 0 0.032020960621095843 -0.47777188036233098 0 0.059434139084113012 -0.47963991399004141 0 0.047821451615799627 -0.45927982798007361 0 0.032020960621095843 -0.47777188036233098 0 0.059434139084113012 -0.47963991399004141 0 0.047821451615799627 -0.45927982798007361 0 0.05802097188470097 -0.46975988197928431 0 0.059434139084113012 -0.47963991399004141 0 0.047821451615799627 -0.45927982798007361 0 0.059434139084113012 -0.47963991399004141 0 0.071046826552429457 -0.50000000000000733 0 0.042291917478565873 -0.5 0 0.059434139084113012 -0.47963991399004141 0 0.078456545354339768 -0.28525100698693651 0 0.075192778843485145 -0.3004755496101415 0 0.095899689397586599 -0.3008291305439913 0 0.078456545354339768 -0.28525100698693651 0 0.095711127176573443 -0.2751242682777974 0 0.095899689397586599 -0.3008291305439913 0 0.075192778843485145 -0.3004755496101415 0 0.095899689397586599 -0.3008291305439913 0 0.074188022781041252 -0.31649930169162399 0 0.095899689397586599 -0.3008291305439913 0 0.074188022781041252 -0.31649930169162399 0 0.075192778843485145 -0.3004755496101415 0 0.074188022781041252 -0.31649930169162399 0 0.058270312985904418 -0.30816514798469019 0 0.075192778843485145 -0.3004755496101415 0 0.068995976747761104 -0.2945131319279734 0 0.058270312985904418 -0.30816514798469019 0 0.068995976747761104 -0.2945131319279734 0 0.064064269807315097 -0.28416082313012542 0 0.058270312985904418 -0.30816514798469019 0 0.078456545354339768 -0.28525100698693651 0 0.075192778843485145 -0.3004755496101415 0 0.068995976747761104 -0.2945131319279734 0 0.078456545354339768 -0.28525100698693651 0 0.068995976747761104 -0.2945131319279734 0 0.064064269807315097 -0.28416082313012542 0 0.064064269807315097 -0.28416082313012542 0 0.069858226628725775 -0.26015649827556059 0 0.078456545354339768 -0.28525100698693651 0 0.064064269807315097 -0.28416082313012542 0 0.069858226628725775 -0.26015649827556059 0 0.069858226628725775 -0.26015649827556059 0 0.095711127176573443 -0.2751242682777974 0 0.096521476943682558 -0.25181800011133371 0 0.078456545354339768 -0.28525100698693651 0 0.069858226628725775 -0.26015649827556059 0 0.095711127176573443 -0.2751242682777974 0 0.095711127176573443 -0.2751242682777974 0 0.114720785939063 -0.26575264298982931 0 0.1176113560141319 -0.2851589593963586 0 0.095711127176573443 -0.2751242682777974 0 0.096521476943682558 -0.25181800011133371 0 0.114720785939063 -0.26575264298982931 0 0.1376178273856396 -0.2676878026278281 0 0.114720785939063 -0.26575264298982931 0 0.1200034520355143 -0.24749468667538321 0 0.096521476943682558 -0.25181800011133371 0 0.114720785939063 -0.26575264298982931 0 0.1200034520355143 -0.24749468667538321 0 0.1376178273856396 -0.2676878026278281 0 0.114720785939063 -0.26575264298982931 0 0.1176113560141319 -0.2851589593963586 0 0.13584279120622419 -0.29064916595208462 0 0.1176113560141319 -0.2851589593963586 0 0.1212075847983899 -0.30357596212866123 0 0.1176113560141319 -0.2851589593963586 0 0.095899689397586599 -0.3008291305439913 0 0.1212075847983899 -0.30357596212866123 0 0.1176113560141319 -0.2851589593963586 0 0.095899689397586599 -0.3008291305439913 0 0.095711127176573443 -0.2751242682777974 0 0.1176113560141319 -0.2851589593963586 0 0.095899689397586599 -0.3008291305439913 0 0.095899689397586599 -0.3008291305439913 0 0.1212075847983899 -0.30357596212866123 0 0.1047724191350739 -0.31963875894108951 0 0.1212075847983899 -0.30357596212866123 0 0.1249111379911398 -0.32186001205002218 0 0.1047724191350739 -0.31963875894108951 0 0.1249111379911398 -0.32186001205002218 0 0.1047724191350739 -0.31963875894108951 0 0.11573058637367541 -0.34380091622275832 0 0.094619564876377599 -0.33586527524184762 0 0.1047724191350739 -0.31963875894108951 0 0.11573058637367541 -0.34380091622275832 0 0.094619564876377599 -0.33586527524184762 0 0.1047724191350739 -0.31963875894108951 0 0.086339338786571823 -0.32698567366184278 0 0.095899689397586599 -0.3008291305439913 0 0.1047724191350739 -0.31963875894108951 0 0.086339338786571823 -0.32698567366184278 0 0.1018679158255022 -0.38137383587803358 0 0.12334710111447229 -0.36406834251145731 0 0.1018679158255022 -0.38137383587803358 0 0.12334710111447229 -0.36406834251145731 0 0.10879209213087419 -0.36797725762153549 0 0.12334710111447229 -0.36406834251145731 0 0.11573058637367541 -0.34380091622275832 0 0.10879209213087419 -0.36797725762153549 0 0.11573058637367541 -0.34380091622275832 0 0.097402960874061584 -0.35810732382917831 0 0.10879209213087419 -0.36797725762153549 0 0.094619564876377599 -0.33586527524184762 0 0.11573058637367541 -0.34380091622275832 0 0.097402960874061584 -0.35810732382917831 0 0.094619564876377599 -0.33586527524184762 0 0.097402960874061584 -0.35810732382917831 0 0.1001863568717406 -0.38034937241650962 0 0.097402960874061584 -0.35810732382917831 0 0.1001863568717406 -0.38034937241650962 0 0.097402960874061584 -0.35810732382917831 0 0.10879209213087419 -0.36797725762153549 0 0.1001863568717406 -0.38034937241650962 0 0.097402960874061584 -0.35810732382917831 0 0.078941289569781151 -0.36740614783332631 0 0.1001863568717406 -0.38034937241650962 0 0.078941289569781151 -0.36740614783332631 0 0.094619564876377599 -0.33586527524184762 0 0.097402960874061584 -0.35810732382917831 0 0.084740357312199394 -0.34701535865000288 0 0.078941289569781151 -0.36740614783332631 0 0.084740357312199394 -0.34701535865000288 0 0.072564810466095128 -0.35396504242622201 0 0.097402960874061584 -0.35810732382917831 0 0.078941289569781151 -0.36740614783332631 0 0.084740357312199394 -0.34701535865000288 0 0.078941289569781151 -0.36740614783332631 0 0.072564810466095128 -0.35396504242622201 0 0.057696222267823373 -0.35446292325014028 0 0.084740357312199394 -0.34701535865000288 0 0.072564810466095128 -0.35396504242622201 0 0.073102422775426085 -0.33909783780230318 0 0.064643683218506637 -0.34920539315333932 0 0.072564810466095128 -0.35396504242622201 0 0.073102422775426085 -0.33909783780230318 0 0.064643683218506637 -0.34920539315333932 0 0.072564810466095128 -0.35396504242622201 0 0.057696222267823373 -0.35446292325014028 0 0.078941289569781151 -0.36740614783332631 0 0.057696222267823373 -0.35446292325014028 0 0.076461538166658155 -0.38231907318138902 0 0.078941289569781151 -0.36740614783332631 0 0.061904282875925747 -0.37237526148823941 0 0.078941289569781151 -0.36740614783332631 0 0.061904282875925747 -0.37237526148823941 0 0.057696222267823373 -0.35446292325014028 0 0.095899689397586599 -0.3008291305439913 0 0.086339338786571823 -0.32698567366184278 0 0.074188022781041252 -0.31649930169162399 0 0.094619564876377599 -0.33586527524184762 0 0.084740357312199394 -0.34701535865000288 0 0.086339338786571823 -0.32698567366184278 0 0.084740357312199394 -0.34701535865000288 0 0.086339338786571823 -0.32698567366184278 0 0.073102422775426085 -0.33909783780230318 0 0.073102422775426085 -0.33909783780230318 0 0.074188022781041252 -0.31649930169162399 0 0.052476356164494947 -0.33216947283925541 0 0.064643683218506637 -0.34920539315333932 0 0.073102422775426085 -0.33909783780230318 0 0.060945063747813971 -0.34285112352430303 0 0.074188022781041252 -0.31649930169162399 0 0.052476356164494947 -0.33216947283925541 0 0.086339338786571823 -0.32698567366184278 0 0.073102422775426085 -0.33909783780230318 0 0.074188022781041252 -0.31649930169162399 0 0.052476356164494947 -0.33216947283925541 0 0.058270312985904418 -0.30816514798469019 0 0.052476356164494947 -0.33216947283925541 0 0.044648526871603783 -0.31770081170742831 0 0.058270312985904418 -0.30816514798469019 0 0.074188022781041252 -0.31649930169162399 0 0.052476356164494947 -0.33216947283925541 0 0.058270312985904418 -0.30816514798469019 0 0.052476356164494947 -0.33216947283925541 0 0.047583047975914103 -0.35244241635483559 0 0.073102422775426085 -0.33909783780230318 0 0.060945063747813971 -0.34285112352430303 0 0.052476356164494947 -0.33216947283925541 0 0.060945063747813971 -0.34285112352430303 0 0.052476356164494947 -0.33216947283925541 0 0.054181307711507642 -0.34983992205818981 0 0.052476356164494947 -0.33216947283925541 0 0.04071506683574927 -0.34065806194451792 0 0.047583047975914103 -0.35244241635483559 0 0.052476356164494947 -0.33216947283925541 0 0.04071506683574927 -0.34065806194451792 0 0.044648526871603783 -0.31770081170742831 0 0.04071506683574927 -0.34065806194451792 0 0.03015636661650286 -0.3225410253719756 0 0.04071506683574927 -0.34065806194451792 0 0.03015636661650286 -0.3225410253719756 0 0.02636863849756152 -0.33688388254537838 0 0.052476356164494947 -0.33216947283925541 0 0.04071506683574927 -0.34065806194451792 0 0.04071506683574927 -0.34065806194451792 0 0.044648526871603783 -0.31770081170742831 0 0.03015636661650286 -0.3225410253719756 0 0.044648526871603783 -0.31770081170742831 0 0.03015636661650286 -0.3225410253719756 0 0.034491627806478041 -0.30853974567073322 0 0.061904282875925747 -0.37237526148823941 0 0.053259535722039633 -0.3641180164926533 0 0.057696222267823373 -0.35446292325014028 0 0.051370350477500881 -0.3764161884637201 0 0.053259535722039633 -0.3641180164926533 0 0.043663507306638913 -0.36868104746756258 0 0.051370350477500881 -0.3764161884637201 0 0.061904282875925747 -0.37237526148823941 0 0.053259535722039633 -0.3641180164926533 0 0.053259535722039633 -0.3641180164926533 0 0.048773826387857627 -0.3544856011778737 0 0.043663507306638913 -0.36868104746756258 0 0.052476356164494947 -0.33216947283925541 0 0.047583047975914103 -0.35244241635483559 0 0.054181307711507642 -0.34983992205818981 0 0.053259535722039633 -0.3641180164926533 0 0.053244657324237762 -0.3582642649149802 0 0.048773826387857627 -0.3544856011778737 0 0.053244657324237762 -0.3582642649149802 0 0.048773826387857627 -0.3544856011778737 0 0.054181307711507642 -0.34983992205818981 0 0.048773826387857627 -0.3544856011778737 0 0.047583047975914103 -0.35244241635483559 0 0.054181307711507642 -0.34983992205818981 0 0.048773826387857627 -0.3544856011778737 0 0.047583047975914103 -0.35244241635483559 0 0.053259535722039633 -0.3641180164926533 0 0.053244657324237762 -0.3582642649149802 0 0.057696222267823373 -0.35446292325014028 0 0.053244657324237762 -0.3582642649149802 0 0.057696222267823373 -0.35446292325014028 0 0.054181307711507642 -0.34983992205818981 0 0.064643683218506637 -0.34920539315333932 0 0.057696222267823373 -0.35446292325014028 0 0.054181307711507642 -0.34983992205818981 0 0.064643683218506637 -0.34920539315333932 0 0.060945063747813971 -0.34285112352430303 0 0.054181307711507642 -0.34983992205818981 0 0.048773826387857627 -0.3544856011778737 0 0.047583047975914103 -0.35244241635483559 0 0.043663507306638913 -0.36868104746756258 0 0.04071506683574927 -0.34065806194451792 0 0.047583047975914103 -0.35244241635483559 0 0.04071506683574927 -0.34065806194451792 0 0.047583047975914103 -0.35244241635483559 0 0.03985573710467899 -0.35136837444597901 0 0.04071506683574927 -0.34065806194451792 0 0.03985573710467899 -0.35136837444597901 0 0.03205896378917665 -0.35434441690964041 0 0.04071506683574927 -0.34065806194451792 0 0.03205896378917665 -0.35434441690964041 0 0.025431496553892478 -0.35168882095041942 0 0.04071506683574927 -0.34065806194451792 0 0.025431496553892478 -0.35168882095041942 0 0.03985573710467899 -0.35136837444597901 0 0.03205896378917665 -0.35434441690964041 0 0.039065869817875902 -0.35802860257492208 0 0.047583047975914103 -0.35244241635483559 0 0.03985573710467899 -0.35136837444597901 0 0.039065869817875902 -0.35802860257492208 0 0.02837172461734 -0.38295609391969199 0 0.033371525452051833 -0.36592480980272157 0 0.043663507306638913 -0.36868104746756258 0 0.047583047975914103 -0.35244241635483559 0 0.039065869817875902 -0.35802860257492208 0 0.043663507306638913 -0.36868104746756258 0 0.047583047975914103 -0.35244241635483559 0 0.043663507306638913 -0.36868104746756258 0 0.039065869817875902 -0.35802860257492208 0 0.033371525452051833 -0.36592480980272157 0 0.043663507306638913 -0.36868104746756258 0 0.03205896378917665 -0.35434441690964041 0 0.039065869817875902 -0.35802860257492208 0 0.033371525452051833 -0.36592480980272157 0 0.02837172461734 -0.38295609391969199 0 0.0099352179383349771 -0.36287309999936251 0 0.02837172461734 -0.38295609391969199 0 0.023697561729227701 -0.3656138881417908 0 0.0099352179383349771 -0.36287309999936251 0 0.02837172461734 -0.38295609391969199 0 0.033371525452051833 -0.36592480980272157 0 0.023697561729227701 -0.3656138881417908 0 0.02837172461734 -0.38295609391969199 0 0.0122991559467155 -0.37891225603134221 0 0.0099352179383349771 -0.36287309999936251 0 0.03205896378917665 -0.35434441690964041 0 0.033371525452051833 -0.36592480980272157 0 0.023697561729227701 -0.3656138881417908 0 0.023697561729227701 -0.3656138881417908 0 0.025431496553892478 -0.35168882095041942 0 0.0099352179383349771 -0.36287309999936251 0 0.025431496553892478 -0.35168882095041942 0 0.0075807645751098419 -0.34453611388615663 0 0.025431496553892478 -0.35168882095041942 0 0.0075807645751098419 -0.34453611388615663 0 0.02636863849756152 -0.33688388254537838 0 0.025431496553892478 -0.35168882095041942 0 0.0099352179383349771 -0.36287309999936251 0 0.03205896378917665 -0.35434441690964041 0 0.023697561729227701 -0.3656138881417908 0 0.025431496553892478 -0.35168882095041942 0 0.03205896378917665 -0.35434441690964041 0 0.025431496553892478 -0.35168882095041942 0 -0.0096343958099064687 -0.34155580596031437 0 0.0099352179383349771 -0.36287309999936251 0 -0.0096343958099064687 -0.34155580596031437 0 0.0075807645751098419 -0.34453611388615663 0 0.0099352179383349771 -0.36287309999936251 0 0.025431496553892478 -0.35168882095041942 0 0.0075807645751098419 -0.34453611388615663 0 0.0099352179383349771 -0.36287309999936251 0 -0.002178803782163227 -0.37161627006544062 0 0.0122991559467155 -0.37891225603134221 0 0.0099352179383349771 -0.36287309999936251 0 -0.0070150904897389628 -0.35875101633193152 0 -0.002178803782163227 -0.37161627006544062 0 0.0099352179383349771 -0.36287309999936251 0 -0.002178803782163227 -0.37161627006544062 0 0.0099352179383349771 -0.36287309999936251 0 0.03015636661650286 -0.3225410253719756 0 0.019597666397256509 -0.30442398879943339 0 0.03015636661650286 -0.3225410253719756 0 0.014793392922354411 -0.31628120652474823 0 0.019597666397256509 -0.30442398879943339 0 0.03015636661650286 -0.3225410253719756 0 0.01453256369494863 -0.32953892791496292 0 0.014793392922354411 -0.31628120652474823 0 0.03015636661650286 -0.3225410253719756 0 0.02636863849756152 -0.33688388254537838 0 0.01453256369494863 -0.32953892791496292 0 0.0075807645751098419 -0.34453611388615663 0 0.02636863849756152 -0.33688388254537838 0 0.01453256369494863 -0.32953892791496292 0 0.04071506683574927 -0.34065806194451792 0 0.025431496553892478 -0.35168882095041942 0 0.02636863849756152 -0.33688388254537838 0 0.0075807645751098419 -0.34453611388615663 0 0.01453256369494863 -0.32953892791496292 0 0.0034794820758208261 -0.33361449123698089 0 -0.010269967403673339 -0.33738340682189533 0 0.0075807645751098419 -0.34453611388615663 0 0.0034794820758208261 -0.33361449123698089 0 0.01453256369494863 -0.32953892791496292 0 0.0034794820758208261 -0.33361449123698089 0 0.001904989571353899 -0.32214434476741449 0 0.001904989571353899 -0.32214434476741449 0 0.014793392922354411 -0.31628120652474823 0 0.0019518825097332619 -0.30029273945570772 0 0.01453256369494863 -0.32953892791496292 0 0.001904989571353899 -0.32214434476741449 0 0.014793392922354411 -0.31628120652474823 0 0.0019518825097332619 -0.30029273945570772 0 0.0090389661780101715 -0.28630695222689118 0 0.019597666397256509 -0.30442398879943339 0 0.014793392922354411 -0.31628120652474823 0 0.0019518825097332619 -0.30029273945570772 0 0.019597666397256509 -0.30442398879943339 0 -0.0020851015340006161 -0.28052611142458661 0 0.0019518825097332619 -0.30029273945570772 0 0.0090389661780101715 -0.28630695222689118 0 0.0090389661780101715 -0.28630695222689118 0 0.019597666397256509 -0.30442398879943339 0 0.0090389661780101715 -0.28630695222689118 0 0.019597666397256509 -0.30442398879943339 0 0.033821918158706138 -0.27707393290215671 0 0.03015636661650286 -0.3225410253719756 0 0.019597666397256509 -0.30442398879943339 0 0.034491627806478041 -0.30853974567073322 0 0.019597666397256509 -0.30442398879943339 0 0.034491627806478041 -0.30853974567073322 0 0.043330632548044458 -0.29475484461045087 0 0.044648526871603783 -0.31770081170742831 0 0.034491627806478041 -0.30853974567073322 0 0.043330632548044458 -0.29475484461045087 0 0.019597666397256509 -0.30442398879943339 0 0.043330632548044458 -0.29475484461045087 0 0.033821918158706138 -0.27707393290215671 0 0.043330632548044458 -0.29475484461045087 0 0.062049371387241412 -0.28749956346879602 0 0.033821918158706138 -0.27707393290215671 0 0.064064269807315097 -0.28416082313012542 0 0.058270312985904418 -0.30816514798469019 0 0.062049371387241412 -0.28749956346879602 0 0.033821918158706138 -0.27707393290215671 0 0.064064269807315097 -0.28416082313012542 0 0.062049371387241412 -0.28749956346879602 0 0.058270312985904418 -0.30816514798469019 0 0.043330632548044458 -0.29475484461045087 0 0.062049371387241412 -0.28749956346879602 0 0.058270312985904418 -0.30816514798469019 0 0.044648526871603783 -0.31770081170742831 0 0.043330632548044458 -0.29475484461045087 0 0.058270312985904418 -0.30816514798469019 0 0.069858226628725775 -0.26015649827556059 0 0.051624075113339378 -0.26919050519125598 0 0.046498349670861652 -0.24826912251879649 0 0.064064269807315097 -0.28416082313012542 0 0.069858226628725775 -0.26015649827556059 0 0.051624075113339378 -0.26919050519125598 0 0.062049371387241412 -0.28749956346879602 0 0.051624075113339378 -0.26919050519125598 0 0.033821918158706138 -0.27707393290215671 0 0.064064269807315097 -0.28416082313012542 0 0.062049371387241412 -0.28749956346879602 0 0.051624075113339378 -0.26919050519125598 0 0.051624075113339378 -0.26919050519125598 0 0.033821918158706138 -0.27707393290215671 0 0.034240698289148337 -0.25967273023798509 0 0.051624075113339378 -0.26919050519125598 0 0.034240698289148337 -0.25967273023798509 0 0.046498349670861652 -0.24826912251879649 0 0.034240698289148337 -0.25967273023798509 0 0.02296875629887114 -0.2464092256209898 0 0.046498349670861652 -0.24826912251879649 0 0.034240698289148337 -0.25967273023798509 0 0.0055944649301708496 -0.26664830233551728 0 0.02296875629887114 -0.2464092256209898 0 0.0090389661780101715 -0.28630695222689118 0 0.033821918158706138 -0.27707393290215671 0 0.0055944649301708496 -0.26664830233551728 0 0.033821918158706138 -0.27707393290215671 0 0.034240698289148337 -0.25967273023798509 0 0.0055944649301708496 -0.26664830233551728 0 0.033821918158706138 -0.27707393290215671 0 0.0055944649301708496 -0.26664830233551728 0 -0.0020851015340006161 -0.28052611142458661 0 0.0090389661780101715 -0.28630695222689118 0 0.0055944649301708496 -0.26664830233551728 0 0.0055944649301708496 -0.26664830233551728 0 0.0055632338660241776 -0.24332209518663511 0 0.02296875629887114 -0.2464092256209898 0 -0.0080727856436109482 -0.2481099565327444 0 0.0055944649301708496 -0.26664830233551728 0 0.0055632338660241776 -0.24332209518663511 0 0.0055632338660241776 -0.24332209518663511 0 0.0032521440618358652 -0.23009641691855939 0 0.019268989126464159 -0.2308348024940351 0 -0.0084819670471955304 -0.2367225590632196 0 0.0055632338660241776 -0.24332209518663511 0 0.0032521440618358652 -0.23009641691855939 0 -0.0075276580997289226 -0.21896018305478171 0 0.0032521440618358652 -0.23009641691855939 0 0.012041166441398349 -0.21677938876306921 0 0.0032521440618358652 -0.23009641691855939 0 0.019268989126464159 -0.2308348024940351 0 0.012041166441398349 -0.21677938876306921 0 0.019268989126464159 -0.2308348024940351 0 0.028464877365028059 -0.21915571909051779 0 0.012041166441398349 -0.21677938876306921 0 0.019268989126464159 -0.2308348024940351 0 0.028464877365028059 -0.21915571909051779 0 0.041174919052571327 -0.22964645066930789 0 0.0055632338660241776 -0.24332209518663511 0 0.019268989126464159 -0.2308348024940351 0 0.02296875629887114 -0.2464092256209898 0 0.019268989126464159 -0.2308348024940351 0 0.02296875629887114 -0.2464092256209898 0 0.041174919052571327 -0.22964645066930789 0 -0.0075276580997289226 -0.21896018305478171 0 0.003555539334036632 -0.19934620758084881 0 0.012041166441398349 -0.21677938876306921 0 0.003555539334036632 -0.19934620758084881 0 0.012041166441398349 -0.21677938876306921 0 0.02523310686075431 -0.20228300343967229 0 0.028464877365028059 -0.21915571909051779 0 0.012041166441398349 -0.21677938876306921 0 0.02523310686075431 -0.20228300343967229 0 0.02523310686075431 -0.20228300343967229 0 0.033125333554059701 -0.1865598477748947 0 0.018588522793563201 -0.18166153924030251 0 0.003555539334036632 -0.19934620758084881 0 0.02523310686075431 -0.20228300343967229 0 0.018588522793563201 -0.18166153924030251 0 0.048648578511840943 -0.20623258170594561 0 0.049880579816306267 -0.17970719815632741 0 0.033125333554059701 -0.1865598477748947 0 0.02523310686075431 -0.20228300343967229 0 0.048648578511840943 -0.20623258170594561 0 0.033125333554059701 -0.1865598477748947 0 0.028464877365028059 -0.21915571909051779 0 0.02523310686075431 -0.20228300343967229 0 0.048648578511840943 -0.20623258170594561 0 0.028464877365028059 -0.21915571909051779 0 0.048648578511840943 -0.20623258170594561 0 0.041174919052571327 -0.22964645066930789 0 0.048648578511840943 -0.20623258170594561 0 0.059757914812518881 -0.22869522271940709 0 0.066598585428591164 -0.21133354617687591 0 0.048648578511840943 -0.20623258170594561 0 0.067160325985138131 -0.18691533881804831 0 0.049880579816306267 -0.17970719815632741 0 0.048648578511840943 -0.20623258170594561 0 0.066598585428591164 -0.21133354617687591 0 0.067160325985138131 -0.18691533881804831 0 0.069858226628725775 -0.26015649827556059 0 0.046498349670861652 -0.24826912251879649 0 0.059757914812518881 -0.22869522271940709 0 0.02296875629887114 -0.2464092256209898 0 0.046498349670861652 -0.24826912251879649 0 0.041174919052571327 -0.22964645066930789 0 0.048648578511840943 -0.20623258170594561 0 0.041174919052571327 -0.22964645066930789 0 0.059757914812518881 -0.22869522271940709 0 0.046498349670861652 -0.24826912251879649 0 0.041174919052571327 -0.22964645066930789 0 0.059757914812518881 -0.22869522271940709 0 0.069858226628725775 -0.26015649827556059 0 0.059757914812518881 -0.22869522271940709 0 0.080941623453078815 -0.2334444244951252 0 0.069858226628725775 -0.26015649827556059 0 0.096521476943682558 -0.25181800011133371 0 0.080941623453078815 -0.2334444244951252 0 0.096521476943682558 -0.25181800011133371 0 0.080941623453078815 -0.2334444244951252 0 0.102389076685389 -0.22730157072293841 0 0.080941623453078815 -0.2334444244951252 0 0.084774701335263575 -0.20710845477049339 0 0.102389076685389 -0.22730157072293841 0 0.059757914812518881 -0.22869522271940709 0 0.080941623453078815 -0.2334444244951252 0 0.066598585428591164 -0.21133354617687591 0 0.080941623453078815 -0.2334444244951252 0 0.066598585428591164 -0.21133354617687591 0 0.084774701335263575 -0.20710845477049339 0 0.084774701335263575 -0.20710845477049339 0 0.067160325985138131 -0.18691533881804831 0 0.066598585428591164 -0.21133354617687591 0 0.084774701335263575 -0.20710845477049339 0 0.067160325985138131 -0.18691533881804831 0 0.092537347032927528 -0.18889969997864839 0 0.084774701335263575 -0.20710845477049339 0 0.067160325985138131 -0.18691533881804831 0 0.084774701335263575 -0.20710845477049339 0 0.102389076685389 -0.22730157072293841 0 0.084774701335263575 -0.20710845477049339 0 0.10575093398731179 -0.20517541990618701 0 0.102389076685389 -0.22730157072293841 0 0.092537347032927528 -0.18889969997864839 0 0.10575093398731179 -0.20517541990618701 0 0.11404320040195411 -0.17785048998131209 0 0.092537347032927528 -0.18889969997864839 0 0.084774701335263575 -0.20710845477049339 0 0.10575093398731179 -0.20517541990618701 0 0.10575093398731179 -0.20517541990618701 0 0.11404320040195411 -0.17785048998131209 0 0.12592289232087811 -0.19910656028939411 0 0.10575093398731179 -0.20517541990618701 0 0.1284413173888232 -0.22347585252773641 0 0.12592289232087811 -0.19910656028939411 0 0.10575093398731179 -0.20517541990618701 0 0.102389076685389 -0.22730157072293841 0 0.1284413173888232 -0.22347585252773641 0 0.1200034520355143 -0.24749468667538321 0 0.102389076685389 -0.22730157072293841 0 0.1284413173888232 -0.22347585252773641 0 0.1200034520355143 -0.24749468667538321 0 0.102389076685389 -0.22730157072293841 0 0.096521476943682558 -0.25181800011133371 0 0.1200034520355143 -0.24749468667538321 0 0.102389076685389 -0.22730157072293841 0 0.099885875260422058 -0.15149088269105351 0 0.1161887790728692 -0.1476769396888597 0 0.1105045846919957 -0.16013033574144619 0 0.099885875260422058 -0.15149088269105351 0 0.099597293261818404 -0.1347502866929414 0 0.1161887790728692 -0.1476769396888597 0 0.099597293261818404 -0.1347502866929414 0 0.1161887790728692 -0.1476769396888597 0 0.099597293261818404 -0.1347502866929414 0 0.1047785765018954 -0.13712350701568179 0 0.1161887790728692 -0.1476769396888597 0 0.099597293261818404 -0.1347502866929414 0 0.093527805260815264 -0.13002146576964491 0 0.104312872852085 -0.12243825994362539 0 0.099597293261818404 -0.1347502866929414 0 0.093527805260815264 -0.13002146576964491 0 0.099597293261818404 -0.1347502866929414 0 0.093527805260815264 -0.13002146576964491 0 0.092996203934319052 -0.1329056080468716 0 0.099597293261818404 -0.1347502866929414 0 0.1088944047617572 -0.13480079442927331 0 0.104312872852085 -0.12243825994362539 0 0.099597293261818404 -0.1347502866929414 0 0.1047785765018954 -0.13712350701568179 0 0.1088944047617572 -0.13480079442927331 0 0.099597293261818404 -0.1347502866929414 0 0.1088944047617572 -0.13480079442927331 0 0.1047785765018954 -0.13712350701568179 0 0.1088944047617572 -0.13480079442927331 0 0.1088944047617572 -0.13480079442927331 0 0.1161887790728692 -0.1476769396888597 0 0.13638976604354719 -0.13495016646355951 0 0.1088944047617572 -0.13480079442927331 0 0.12800820934211829 -0.12401417466047961 0 0.13638976604354719 -0.13495016646355951 0 0.1047785765018954 -0.13712350701568179 0 0.1088944047617572 -0.13480079442927331 0 0.1161887790728692 -0.1476769396888597 0 0.1088944047617572 -0.13480079442927331 0 0.104312872852085 -0.12243825994362539 0 0.12800820934211829 -0.12401417466047961 0 0.1088944047617572 -0.13480079442927331 0 0.12800820934211829 -0.12401417466047961 0 0.1088944047617572 -0.13480079442927331 0 0.13638976604354719 -0.13495016646355951 0 0.1161887790728692 -0.1476769396888597 0 0.1105045846919957 -0.16013033574144619 0 0.1305387904294309 -0.15561497697083931 0 0.1105045846919957 -0.16013033574144619 0 0.11404320040195411 -0.17785048998131209 0 0.1305387904294309 -0.15561497697083931 0 0.092537347032927528 -0.18889969997864839 0 0.11404320040195411 -0.17785048998131209 0 0.090957573454969964 -0.1674487964172009 0 0.1105045846919957 -0.16013033574144619 0 0.11404320040195411 -0.17785048998131209 0 0.090957573454969964 -0.1674487964172009 0 0.099885875260422058 -0.15149088269105351 0 0.1105045846919957 -0.16013033574144619 0 0.090957573454969964 -0.1674487964172009 0 0.099885875260422058 -0.15149088269105351 0 0.090957573454969964 -0.1674487964172009 0 0.080257725164813276 -0.1505404030764457 0 0.090957573454969964 -0.1674487964172009 0 0.065342325237630991 -0.1650228072456788 0 0.080257725164813276 -0.1505404030764457 0 0.092537347032927528 -0.18889969997864839 0 0.090957573454969964 -0.1674487964172009 0 0.067160325985138131 -0.18691533881804831 0 0.090957573454969964 -0.1674487964172009 0 0.067160325985138131 -0.18691533881804831 0 0.065342325237630991 -0.1650228072456788 0 0.065342325237630991 -0.1650228072456788 0 0.080257725164813276 -0.1505404030764457 0 0.056224073158944461 -0.14994265306170279 0 0.080257725164813276 -0.1505404030764457 0 0.069539210615093855 -0.1345869923500955 0 0.056224073158944461 -0.14994265306170279 0 0.099885875260422058 -0.15149088269105351 0 0.099597293261818404 -0.1347502866929414 0 0.080257725164813276 -0.1505404030764457 0 0.099597293261818404 -0.1347502866929414 0 0.080257725164813276 -0.1505404030764457 0 0.069539210615093855 -0.1345869923500955 0 0.099597293261818404 -0.1347502866929414 0 0.092996203934319052 -0.1329056080468716 0 0.069539210615093855 -0.1345869923500955 0 0.099597293261818404 -0.1347502866929414 0 0.069539210615093855 -0.1345869923500955 0 0.092996203934319052 -0.1329056080468716 0 0.069539210615093855 -0.1345869923500955 0 0.079322302472514483 -0.11895376470488229 0 0.093527805260815264 -0.13002146576964491 0 0.092996203934319052 -0.1329056080468716 0 0.079322302472514483 -0.11895376470488229 0 0.093527805260815264 -0.13002146576964491 0 0.092996203934319052 -0.1329056080468716 0 0.069539210615093855 -0.1345869923500955 0 0.052298963826290519 -0.1211548808236817 0 0.066569319149528045 -0.1206454253796948 0 0.069539210615093855 -0.1345869923500955 0 0.039481127968369292 -0.1344236980072451 0 0.052298963826290519 -0.1211548808236817 0 0.069539210615093855 -0.1345869923500955 0 0.056224073158944461 -0.14994265306170279 0 0.039481127968369292 -0.1344236980072451 0 0.069539210615093855 -0.1345869923500955 0 0.039481127968369292 -0.1344236980072451 0 0.056224073158944461 -0.14994265306170279 0 0.038811693183881758 -0.15444647348478721 0 0.047368807546727579 -0.16279517251764489 0 0.056224073158944461 -0.14994265306170279 0 0.038811693183881758 -0.15444647348478721 0 0.039481127968369292 -0.1344236980072451 0 0.038811693183881758 -0.15444647348478721 0 0.039481127968369292 -0.1344236980072451 0 0.019056913867763529 -0.155566515408149 0 0.034777770017858589 -0.1343981464191871 0 0.039481127968369292 -0.1344236980072451 0 0.022320289212787989 -0.1422177528203018 0 0.034777770017858589 -0.1343981464191871 0 0.039481127968369292 -0.1344236980072451 0 0.034777770017858589 -0.1343981464191871 0 0.029299678594365521 -0.12697140115214181 0 0.037800108132664212 -0.12348471533883321 0 0.034777770017858589 -0.1343981464191871 0 0.039481127968369292 -0.1344236980072451 0 0.037800108132664212 -0.12348471533883321 0 0.039481127968369292 -0.1344236980072451 0 0.052298963826290519 -0.1211548808236817 0 0.039481127968369292 -0.1344236980072451 0 0.052298963826290519 -0.1211548808236817 0 0.037800108132664212 -0.12348471533883321 0 0.067160325985138131 -0.18691533881804831 0 0.065342325237630991 -0.1650228072456788 0 0.049880579816306267 -0.17970719815632741 0 0.065342325237630991 -0.1650228072456788 0 0.049880579816306267 -0.17970719815632741 0 0.047368807546727579 -0.16279517251764489 0 0.065342325237630991 -0.1650228072456788 0 0.056224073158944461 -0.14994265306170279 0 0.047368807546727579 -0.16279517251764489 0 0.049880579816306267 -0.17970719815632741 0 0.047368807546727579 -0.16279517251764489 0 0.031927543377605602 -0.16950432842919569 0 0.038811693183881758 -0.15444647348478721 0 0.047368807546727579 -0.16279517251764489 0 0.031927543377605602 -0.16950432842919569 0 0.049880579816306267 -0.17970719815632741 0 0.031927543377605602 -0.16950432842919569 0 0.033125333554059701 -0.1865598477748947 0 0.031927543377605602 -0.16950432842919569 0 0.033125333554059701 -0.1865598477748947 0 0.018588522793563201 -0.18166153924030251 0 0.031927543377605602 -0.16950432842919569 0 0.018588522793563201 -0.18166153924030251 0 0.019056913867763529 -0.155566515408149 0 0.038811693183881758 -0.15444647348478721 0 0.031927543377605602 -0.16950432842919569 0 0.019056913867763529 -0.155566515408149 0 -0.0013673002328405961 -0.1767093328090546 0 0.018588522793563201 -0.18166153924030251 0 0.019056913867763529 -0.155566515408149 0 -0.0013673002328405961 -0.1767093328090546 0 0.019056913867763529 -0.155566515408149 0 -0.0013673002328405961 -0.1767093328090546 0 0.019056913867763529 -0.155566515408149 0 0.0027310736070901482 -0.15493719994590471 0 -0.0013673002328405961 -0.1767093328090546 0 0.003555539334036632 -0.19934620758084881 0 0.018588522793563201 -0.18166153924030251 0 0.020222670022858619 -0.12863691797839069 0 0.022320289212787989 -0.1422177528203018 0 0.0088678229424013627 -0.13941235935176011 0 0.020222670022858619 -0.12863691797839069 0 0.02665510196196769 -0.1330560545925053 0 0.022320289212787989 -0.1422177528203018 0 0.034777770017858589 -0.1343981464191871 0 0.029299678594365521 -0.12697140115214181 0 0.02665510196196769 -0.1330560545925053 0 0.020222670022858619 -0.12863691797839069 0 0.029299678594365521 -0.12697140115214181 0 0.02665510196196769 -0.1330560545925053 0 0.034777770017858589 -0.1343981464191871 0 0.02665510196196769 -0.1330560545925053 0 0.022320289212787989 -0.1422177528203018 0 0.039481127968369292 -0.1344236980072451 0 0.019056913867763529 -0.155566515408149 0 0.019056913867763529 -0.155566515408149 0 0.022320289212787989 -0.1422177528203018 0 0.0088678229424013627 -0.13941235935176011 0 0.039481127968369292 -0.1344236980072451 0 0.019056913867763529 -0.155566515408149 0 0.022320289212787989 -0.1422177528203018 0 0.019056913867763529 -0.155566515408149 0 0.0027310736070901482 -0.15493719994590471 0 0.0088678229424013627 -0.13941235935176011 0 0.020222670022858619 -0.12863691797839069 0 0.0088678229424013627 -0.13941235935176011 0 0.0015243557028834459 -0.11711868301268021 0 0.020222670022858619 -0.12863691797839069 0 0.0015243557028834459 -0.11711868301268021 0 0.0144479962461943 -0.1082343501681014 0 0.020222670022858619 -0.12863691797839069 0 0.02728947708542654 -0.1146689930447462 0 0.0144479962461943 -0.1082343501681014 0 0.020222670022858619 -0.12863691797839069 0 0.029299678594365521 -0.12697140115214181 0 0.02728947708542654 -0.1146689930447462 0 0.0144479962461943 -0.1082343501681014 0 0.01674231050701382 -0.093658367309864349 0 0.03170108987002046 -0.10050694789866579 0 0.02728947708542654 -0.1146689930447462 0 0.0144479962461943 -0.1082343501681014 0 0.03170108987002046 -0.10050694789866579 0 0.01674231050701382 -0.093658367309864349 0 0.02745527456064175 -0.089089442263575569 0 0.03170108987002046 -0.10050694789866579 0 0.0144479962461943 -0.1082343501681014 0 0.001856719827670471 -0.098182337095309047 0 0.01674231050701382 -0.093658367309864349 0 0.0015243557028834459 -0.11711868301268021 0 0.0144479962461943 -0.1082343501681014 0 0.001856719827670471 -0.098182337095309047 0 0.001856719827670471 -0.098182337095309047 0 0.0065051428120863272 -0.082127796022149757 0 0.01674231050701382 -0.093658367309864349 0 0.0065051428120863272 -0.082127796022149757 0 0.018539693253586439 -0.071597204448153262 0 0.01731060528333208 -0.084118202510935727 0 0.0065051428120863272 -0.082127796022149757 0 0.01674231050701382 -0.093658367309864349 0 0.01731060528333208 -0.084118202510935727 0 0.0065051428120863272 -0.082127796022149757 0 0.018539693253586439 -0.071597204448153262 0 0.00035237720396625368 -0.061086817302918282 0 0.018539693253586439 -0.071597204448153262 0 0.00035237720396625368 -0.061086817302918282 0 0.029337839486141829 -0.062098975348790997 0 0.018539693253586439 -0.071597204448153262 0 0.036998616429076953 -0.080413518666692163 0 0.029337839486141829 -0.062098975348790997 0 0.018539693253586439 -0.071597204448153262 0 0.039278739387756327 -0.087755278287702396 0 0.018539693253586439 -0.071597204448153262 0 0.02745527456064175 -0.089089442263575569 0 0.039278739387756327 -0.087755278287702396 0 0.018539693253586439 -0.071597204448153262 0 0.01731060528333208 -0.084118202510935727 0 0.02745527456064175 -0.089089442263575569 0 0.01674231050701382 -0.093658367309864349 0 0.01731060528333208 -0.084118202510935727 0 0.02745527456064175 -0.089089442263575569 0 0.018539693253586439 -0.071597204448153262 0 0.036998616429076953 -0.080413518666692163 0 0.039278739387756327 -0.087755278287702396 0 0.02745527456064175 -0.089089442263575569 0 0.039278739387756327 -0.087755278287702396 0 0.036114206476440321 -0.094502097047588079 0 0.036998616429076953 -0.080413518666692163 0 0.039278739387756327 -0.087755278287702396 0 0.050747139898636717 -0.081209848062237813 0 0.058323301768317432 -0.063111133394663815 0 0.029337839486141829 -0.062098975348790997 0 0.036998616429076953 -0.080413518666692163 0 0.058323301768317432 -0.063111133394663815 0 0.029337839486141829 -0.062098975348790997 0 0.036998616429076953 -0.080413518666692163 0 0.058323301768317432 -0.063111133394663815 0 0.058323301768317432 -0.063111133394663815 0 0.050747139898636717 -0.081209848062237813 0 0.060228637404373828 -0.081759239016750626 0 0.036998616429076953 -0.080413518666692163 0 0.058323301768317432 -0.063111133394663815 0 0.050747139898636717 -0.081209848062237813 0 0.039278739387756327 -0.087755278287702396 0 0.050747139898636717 -0.081209848062237813 0 0.060818353003097771 -0.090653503469919336 0 0.050747139898636717 -0.081209848062237813 0 0.060228637404373828 -0.081759239016750626 0 0.060818353003097771 -0.090653503469919336 0 0.060017785521926562 -0.10391335212725129 0 0.042153090511964017 -0.099193769589441219 0 0.043653631303676513 -0.1092911725859987 0 0.060017785521926562 -0.10391335212725129 0 0.043653631303676513 -0.1092911725859987 0 0.039278739387756327 -0.087755278287702396 0 0.060818353003097771 -0.090653503469919336 0 0.060017785521926562 -0.10391335212725129 0 0.060017785521926562 -0.10391335212725129 0 0.053375718786791107 -0.1112883554404277 0 0.043653631303676513 -0.1092911725859987 0 0.039278739387756327 -0.087755278287702396 0 0.060017785521926562 -0.10391335212725129 0 0.039278739387756327 -0.087755278287702396 0 0.060017785521926562 -0.10391335212725129 0 0.042153090511964017 -0.099193769589441219 0 0.060017785521926562 -0.10391335212725129 0 0.053375718786791107 -0.1112883554404277 0 0.065116799684213397 -0.10788606364011991 0 0.052298963826290519 -0.1211548808236817 0 0.066569319149528045 -0.1206454253796948 0 0.065116799684213397 -0.10788606364011991 0 0.052298963826290519 -0.1211548808236817 0 0.065116799684213397 -0.10788606364011991 0 0.052298963826290519 -0.1211548808236817 0 0.053375718786791107 -0.1112883554404277 0 0.065116799684213397 -0.10788606364011991 0 0.052298963826290519 -0.1211548808236817 0 0.053375718786791107 -0.1112883554404277 0 0.043653631303676513 -0.1092911725859987 0 0.02728947708542654 -0.1146689930447462 0 0.037800108132664212 -0.12348471533883321 0 0.043653631303676513 -0.1092911725859987 0 0.02728947708542654 -0.1146689930447462 0 0.043653631303676513 -0.1092911725859987 0 0.052298963826290519 -0.1211548808236817 0 0.037800108132664212 -0.12348471533883321 0 0.043653631303676513 -0.1092911725859987 0 0.029299678594365521 -0.12697140115214181 0 0.02728947708542654 -0.1146689930447462 0 0.037800108132664212 -0.12348471533883321 0 0.02728947708542654 -0.1146689930447462 0 0.03170108987002046 -0.10050694789866579 0 0.043653631303676513 -0.1092911725859987 0 0.036114206476440321 -0.094502097047588079 0 0.03170108987002046 -0.10050694789866579 0 0.042153090511964017 -0.099193769589441219 0 0.02745527456064175 -0.089089442263575569 0 0.036114206476440321 -0.094502097047588079 0 0.03170108987002046 -0.10050694789866579 0 0.039278739387756327 -0.087755278287702396 0 0.036114206476440321 -0.094502097047588079 0 0.042153090511964017 -0.099193769589441219 0 0.03170108987002046 -0.10050694789866579 0 0.042153090511964017 -0.099193769589441219 0 0.043653631303676513 -0.1092911725859987 0 0.025695344612614111 0.0095801541182225364 0 0.02812452509478746 -0.0099579005571815878 0 0.006935528729737548 -0.0054826371559186567 0 0.02812452509478746 -0.0099579005571815878 0 0.006935528729737548 -0.0054826371559186567 0 0.01889941714368459 -0.025130787452367569 0 0.006935528729737548 -0.0054826371559186567 0 0.0027408304473846411 -0.028176541972939319 0 0.01889941714368459 -0.025130787452367569 0 0.02812452509478746 -0.0099579005571815878 0 0.01889941714368459 -0.025130787452367569 0 0.035567370731091272 -0.02454493013615917 0 0.01889941714368459 -0.025130787452367569 0 0.02846567832778216 -0.042756626880165419 0 0.035567370731091272 -0.02454493013615917 0 0.01889941714368459 -0.025130787452367569 0 0.02846567832778216 -0.042756626880165419 0 0.0096258971738255473 -0.043108802377643002 0 0.02846567832778216 -0.042756626880165419 0 0.0096258971738255473 -0.043108802377643002 0 0.016945448047928951 -0.052262805477379423 0 0.01889941714368459 -0.025130787452367569 0 0.0096258971738255473 -0.043108802377643002 0 -0.01026660782967455 -0.041229232136501717 0 0.0027408304473846411 -0.028176541972939319 0 0.0096258971738255473 -0.043108802377643002 0 0.0027408304473846411 -0.028176541972939319 0 0.01889941714368459 -0.025130787452367569 0 0.0096258971738255473 -0.043108802377643002 0 0.0096258971738255473 -0.043108802377643002 0 0.00035237720396625368 -0.061086817302918282 0 0.016945448047928951 -0.052262805477379423 0 0.00035237720396625368 -0.061086817302918282 0 0.016945448047928951 -0.052262805477379423 0 0.029337839486141829 -0.062098975348790997 0 0.0096258971738255473 -0.043108802377643002 0 0.00035237720396625368 -0.061086817302918282 0 0.00035237720396625368 -0.061086817302918282 0 0.029337839486141829 -0.062098975348790997 0 0.02846567832778216 -0.042756626880165419 0 0.016945448047928951 -0.052262805477379423 0 0.029337839486141829 -0.062098975348790997 0 0.02846567832778216 -0.042756626880165419 0 0.029337839486141829 -0.062098975348790997 0 0.044041605111135473 -0.049431168693685697 0 0.058323301768317432 -0.063111133394663815 0 0.029337839486141829 -0.062098975348790997 0 0.044041605111135473 -0.049431168693685697 0 0.058323301768317432 -0.063111133394663815 0 0.044041605111135473 -0.049431168693685697 0 0.059903341899081253 -0.040049795258846832 0 0.059903341899081253 -0.040049795258846832 0 0.045154502468205723 -0.035444412579530127 0 0.052999286202529479 -0.022291816621987929 0 0.044041605111135473 -0.049431168693685697 0 0.059903341899081253 -0.040049795258846832 0 0.045154502468205723 -0.035444412579530127 0 0.02846567832778216 -0.042756626880165419 0 0.044041605111135473 -0.049431168693685697 0 0.045154502468205723 -0.035444412579530127 0 0.02846567832778216 -0.042756626880165419 0 0.045154502468205723 -0.035444412579530127 0 0.035567370731091272 -0.02454493013615917 0 0.045154502468205723 -0.035444412579530127 0 0.035567370731091272 -0.02454493013615917 0 0.052999286202529479 -0.022291816621987929 0 0.035567370731091272 -0.02454493013615917 0 0.052999286202529479 -0.022291816621987929 0 0.04138045704507981 -0.013293391242584921 0 0.02812452509478746 -0.0099579005571815878 0 0.035567370731091272 -0.02454493013615917 0 0.04138045704507981 -0.013293391242584921 0 0.059903341899081253 -0.040049795258846832 0 0.052999286202529479 -0.022291816621987929 0 0.073093181043766914 -0.026775388104941698 0 0.052999286202529479 -0.022291816621987929 0 0.049896637954744763 -0.0073960790217490677 0 0.04138045704507981 -0.013293391242584921 0 0.052999286202529479 -0.022291816621987929 0 0.049896637954744763 -0.0073960790217490677 0 0.066530330394949447 -0.012320269852860621 0 0.049896637954744763 -0.0073960790217490677 0 0.040314465242246092 -0.002276229875846851 0 0.04138045704507981 -0.013293391242584921 0 0.025695344612614111 0.0095801541182225364 0 0.02812452509478746 -0.0099579005571815878 0 0.040314465242246092 -0.002276229875846851 0 0.046640351189982193 0.001482106492276504 0 0.049896637954744763 -0.0073960790217490677 0 0.040314465242246092 -0.002276229875846851 0 0.02812452509478746 -0.0099579005571815878 0 0.040314465242246092 -0.002276229875846851 0 0.04138045704507981 -0.013293391242584921 0 0.075461568133428525 0.0044331687040122013 0 0.081703970602104437 -0.011974759962048749 0 0.098011391193308373 -0.0056982583262641584 0 0.075461568133428525 0.0044331687040122013 0 0.049896637954744763 -0.0073960790217490677 0 0.075461568133428525 0.0044331687040122013 0 0.049896637954744763 -0.0073960790217490677 0 0.066530330394949447 -0.012320269852860621 0 0.075461568133428525 0.0044331687040122013 0 0.081703970602104437 -0.011974759962048749 0 0.066530330394949447 -0.012320269852860621 0 0.081703970602104437 -0.011974759962048749 0 0.066530330394949447 -0.012320269852860621 0 0.073093181043766914 -0.026775388104941698 0 0.052999286202529479 -0.022291816621987929 0 0.066530330394949447 -0.012320269852860621 0 0.073093181043766914 -0.026775388104941698 0 0.081703970602104437 -0.011974759962048749 0 0.097837743661838034 -0.031049975793767819 0 0.098011391193308373 -0.0056982583262641584 0 0.081703970602104437 -0.011974759962048749 0 0.073093181043766914 -0.026775388104941698 0 0.097837743661838034 -0.031049975793767819 0 0.078080522715077566 -0.047080554594215653 0 0.097861902682226248 -0.045151270938537998 0 0.097837743661838034 -0.031049975793767819 0 0.073093181043766914 -0.026775388104941698 0 0.078080522715077566 -0.047080554594215653 0 0.097837743661838034 -0.031049975793767819 0 0.078080522715077566 -0.047080554594215653 0 0.097837743661838034 -0.031049975793767819 0 0.059903341899081253 -0.040049795258846832 0 0.073093181043766914 -0.026775388104941698 0 0.078080522715077566 -0.047080554594215653 0 0.058323301768317432 -0.063111133394663815 0 0.078080522715077566 -0.047080554594215653 0 0.058323301768317432 -0.063111133394663815 0 0.059903341899081253 -0.040049795258846832 0 0.078080522715077566 -0.047080554594215653 0 0.058323301768317432 -0.063111133394663815 0 0.078080522715077566 -0.047080554594215653 0 0.081939961595450139 -0.063935815506958552 0 0.078080522715077566 -0.047080554594215653 0 0.094142039140793971 -0.055881476276546937 0 0.081939961595450139 -0.063935815506958552 0 0.078080522715077566 -0.047080554594215653 0 0.094142039140793971 -0.055881476276546937 0 0.097861902682226248 -0.045151270938537998 0 0.094142039140793971 -0.055881476276546937 0 0.081939961595450139 -0.063935815506958552 0 0.1067368008806147 -0.064801708903802782 0 0.094142039140793971 -0.055881476276546937 0 0.1075629424949773 -0.053875431803618333 0 0.097861902682226248 -0.045151270938537998 0 0.094142039140793971 -0.055881476276546937 0 0.1075629424949773 -0.053875431803618333 0 0.1067368008806147 -0.064801708903802782 0 0.1075629424949773 -0.053875431803618333 0 0.1067368008806147 -0.064801708903802782 0 0.1075629424949773 -0.053875431803618333 0 0.1232921759667842 -0.047663851323270827 0 0.1067368008806147 -0.064801708903802782 0 0.1232921759667842 -0.047663851323270827 0 0.1067368008806147 -0.064801708903802782 0 0.1075629424949773 -0.053875431803618333 0 0.1232921759667842 -0.047663851323270827 0 0.1109518143893137 -0.039435966374661548 0 0.1232921759667842 -0.047663851323270827 0 0.1067368008806147 -0.064801708903802782 0 0.13548767730717889 -0.06580567532731052 0 0.1232921759667842 -0.047663851323270827 0 0.1109518143893137 -0.039435966374661548 0 0.124582941869709 -0.030507807285028901 0 0.1109518143893137 -0.039435966374661548 0 0.097861902682226248 -0.045151270938537998 0 0.097837743661838034 -0.031049975793767819 0 0.1075629424949773 -0.053875431803618333 0 0.1109518143893137 -0.039435966374661548 0 0.097861902682226248 -0.045151270938537998 0 0.097837743661838034 -0.031049975793767819 0 0.1175949646085984 -0.015019396993320021 0 0.097837743661838034 -0.031049975793767819 0 0.1175949646085984 -0.015019396993320021 0 0.098011391193308373 -0.0056982583262641584 0 0.1109518143893137 -0.039435966374661548 0 0.097837743661838034 -0.031049975793767819 0 0.1175949646085984 -0.015019396993320021 0 0.1109518143893137 -0.039435966374661548 0 0.124582941869709 -0.030507807285028901 0 0.1175949646085984 -0.015019396993320021 0 0.124582941869709 -0.030507807285028901 0 0.1175949646085984 -0.015019396993320021 0 0.13165260102391191 -0.019660205177744808 0 0.11882011836095251 0.0065886106746579649 0 0.1175949646085984 -0.015019396993320021 0 0.098011391193308373 -0.0056982583262641584 0 0.11882011836095251 0.0065886106746579649 0 0.13735218555535891 0.001011181807127467 0 0.1175949646085984 -0.015019396993320021 0 0.073111172643960082 -0.099610417542301155 0 0.10058413041743761 -0.090581864498492995 0 0.088608598291174498 -0.101420796185217 0 0.073111172643960082 -0.099610417542301155 0 0.10058413041743761 -0.090581864498492995 0 0.083297568291202648 -0.10670285905343881 0 0.088608598291174498 -0.101420796185217 0 0.073111172643960082 -0.099610417542301155 0 0.083297568291202648 -0.10670285905343881 0 0.088608598291174498 -0.101420796185217 0 0.097441521812097198 -0.10878804364663471 0 0.093527805260815264 -0.13002146576964491 0 0.079322302472514483 -0.11895376470488229 0 0.097441521812097198 -0.10878804364663471 0 0.083297568291202648 -0.10670285905343881 0 0.079322302472514483 -0.11895376470488229 0 0.097441521812097198 -0.10878804364663471 0 0.093527805260815264 -0.13002146576964491 0 0.079322302472514483 -0.11895376470488229 0 0.079322302472514483 -0.11895376470488229 0 0.065116799684213397 -0.10788606364011991 0 0.083297568291202648 -0.10670285905343881 0 0.079322302472514483 -0.11895376470488229 0 0.065116799684213397 -0.10788606364011991 0 0.079322302472514483 -0.11895376470488229 0 0.066569319149528045 -0.1206454253796948 0 0.065116799684213397 -0.10788606364011991 0 0.069539210615093855 -0.1345869923500955 0 0.079322302472514483 -0.11895376470488229 0 0.066569319149528045 -0.1206454253796948 0 0.060017785521926562 -0.10391335212725129 0 0.065116799684213397 -0.10788606364011991 0 0.060017785521926562 -0.10391335212725129 0 0.073111172643960082 -0.099610417542301155 0 0.065116799684213397 -0.10788606364011991 0 0.073111172643960082 -0.099610417542301155 0 0.083297568291202648 -0.10670285905343881 0 0.065116799684213397 -0.10788606364011991 0 0.073111172643960082 -0.099610417542301155 0 0.060017785521926562 -0.10391335212725129 0 0.065116799684213397 -0.10788606364011991 0 0.073111172643960082 -0.099610417542301155 0 0.060818353003097771 -0.090653503469919336 0 0.060017785521926562 -0.10391335212725129 0 0.073111172643960082 -0.099610417542301155 0 0.060818353003097771 -0.090653503469919336 0 0.073111172643960082 -0.099610417542301155 0 0.074211161232423301 -0.082716200610011378 0 0.060228637404373828 -0.081759239016750626 0 0.060818353003097771 -0.090653503469919336 0 0.074211161232423301 -0.082716200610011378 0 0.058323301768317432 -0.063111133394663815 0 0.081939961595450139 -0.063935815506958552 0 0.058323301768317432 -0.063111133394663815 0 0.074211161232423301 -0.082716200610011378 0 0.081939961595450139 -0.063935815506958552 0 0.058323301768317432 -0.063111133394663815 0 0.060228637404373828 -0.081759239016750626 0 0.074211161232423301 -0.082716200610011378 0 0.074211161232423301 -0.082716200610011378 0 0.081939961595450139 -0.063935815506958552 0 0.089190063779311518 -0.082965808471458069 0 0.081939961595450139 -0.063935815506958552 0 0.089190063779311518 -0.082965808471458069 0 0.1052689549146623 -0.0663211994006144 0 0.073111172643960082 -0.099610417542301155 0 0.074211161232423301 -0.082716200610011378 0 0.089190063779311518 -0.082965808471458069 0 0.073111172643960082 -0.099610417542301155 0 0.089190063779311518 -0.082965808471458069 0 0.073111172643960082 -0.099610417542301155 0 0.089190063779311518 -0.082965808471458069 0 0.10058413041743761 -0.090581864498492995 0 0.089190063779311518 -0.082965808471458069 0 0.1017080788123951 -0.087804556385465471 0 0.1052689549146623 -0.0663211994006144 0 0.089190063779311518 -0.082965808471458069 0 0.10058413041743761 -0.090581864498492995 0 0.1017080788123951 -0.087804556385465471 0 0.1017080788123951 -0.087804556385465471 0 0.1084674426683357 -0.077888137089068013 0 0.1052689549146623 -0.0663211994006144 0 0.089190063779311518 -0.082965808471458069 0 0.1052689549146623 -0.0663211994006144 0 0.081939961595450139 -0.063935815506958552 0 0.1067368008806147 -0.064801708903802782 0 0.1052689549146623 -0.0663211994006144 0 0.081939961595450139 -0.063935815506958552 0 0.1067368008806147 -0.064801708903802782 0 0.1017080788123951 -0.087804556385465471 0 0.1052689549146623 -0.0663211994006144 0 0.1084674426683357 -0.077888137089068013 0 0.1067368008806147 -0.064801708903802782 0 0.1052689549146623 -0.0663211994006144 0 0.1067368008806147 -0.064801708903802782 0 0.1052689549146623 -0.0663211994006144 0 0.1067368008806147 -0.064801708903802782 0 0.13548767730717889 -0.06580567532731052 0 0.1084674426683357 -0.077888137089068013 0 0.1067368008806147 -0.064801708903802782 0 0.1232061248222129 -0.075206297362028066 0 0.1067368008806147 -0.064801708903802782 0 0.1232061248222129 -0.075206297362028066 0 0.13548767730717889 -0.06580567532731052 0 0.1017080788123951 -0.087804556385465471 0 0.1084674426683357 -0.077888137089068013 0 0.1272797878356694 -0.088593758706814907 0 0.1017080788123951 -0.087804556385465471 0 0.1272797878356694 -0.088593758706814907 0 0.1084674426683357 -0.077888137089068013 0 0.1232061248222129 -0.075206297362028066 0 0.1272797878356694 -0.088593758706814907 0 0.1017080788123951 -0.087804556385465471 0 0.11567178204704499 -0.10568275569041199 0 0.1272797878356694 -0.088593758706814907 0 0.1017080788123951 -0.087804556385465471 0 0.11567178204704499 -0.10568275569041199 0 0.097441521812097198 -0.10878804364663471 0 0.1017080788123951 -0.087804556385465471 0 0.097441521812097198 -0.10878804364663471 0 0.088608598291174498 -0.101420796185217 0 0.10058413041743761 -0.090581864498492995 0 0.097441521812097198 -0.10878804364663471 0 0.10058413041743761 -0.090581864498492995 0 0.1017080788123951 -0.087804556385465471 0 0.097441521812097198 -0.10878804364663471 0 0.093527805260815264 -0.13002146576964491 0 0.097441521812097198 -0.10878804364663471 0 0.104312872852085 -0.12243825994362539 0 0.093527805260815264 -0.13002146576964491 0 0.097441521812097198 -0.10878804364663471 0 0.11567178204704499 -0.10568275569041199 0 0.097441521812097198 -0.10878804364663471 0 0.104312872852085 -0.12243825994362539 0 0.11567178204704499 -0.10568275569041199 0 0.104312872852085 -0.12243825994362539 0 0.12800820934211829 -0.12401417466047961 0 0.12800820934211829 -0.12401417466047961 0 0.14712201392247631 -0.1132275548916801 0 0.13655559816636781 -0.1031347463460832 0 0.12800820934211829 -0.12401417466047961 0 0.14712201392247631 -0.1132275548916801 0 0.11567178204704499 -0.10568275569041199 0 0.12800820934211829 -0.12401417466047961 0 0.13655559816636781 -0.1031347463460832 0 0.12800820934211829 -0.12401417466047961 0 0.14712201392247631 -0.1132275548916801 0 0.1486045981545247 -0.12747252536747111 0 0.14712201392247631 -0.1132275548916801 0 0.16095359288685571 -0.1184472051676727 0 0.1486045981545247 -0.12747252536747111 0 0.15146120268426411 -0.099532086410862586 0 0.13655559816636781 -0.1031347463460832 0 0.1528514968589437 -0.089382961028164357 0 0.14712201392247631 -0.1132275548916801 0 0.15146120268426411 -0.099532086410862586 0 0.16623581850283431 -0.10244093512288061 0 0.14712201392247631 -0.1132275548916801 0 0.15146120268426411 -0.099532086410862586 0 0.13655559816636781 -0.1031347463460832 0 0.11567178204704499 -0.10568275569041199 0 0.13655559816636781 -0.1031347463460832 0 0.1272797878356694 -0.088593758706814907 0 0.1272797878356694 -0.088593758706814907 0 0.13805891541926751 -0.078942206783145619 0 0.1528514968589437 -0.089382961028164357 0 0.1272797878356694 -0.088593758706814907 0 0.1528514968589437 -0.089382961028164357 0 0.13655559816636781 -0.1031347463460832 0 0.1272797878356694 -0.088593758706814907 0 0.1528514968589437 -0.089382961028164357 0 0.1232061248222129 -0.075206297362028066 0 0.1272797878356694 -0.088593758706814907 0 0.13805891541926751 -0.078942206783145619 0 0.1232061248222129 -0.075206297362028066 0 0.13805891541926751 -0.078942206783145619 0 0.13548767730717889 -0.06580567532731052 0 0.13548767730717889 -0.06580567532731052 0 0.16423855373374319 -0.066809641750814969 0 0.13548767730717889 -0.06580567532731052 0 0.1516507619880918 -0.076739651506421189 0 0.16423855373374319 -0.066809641750814969 0 0.13548767730717889 -0.06580567532731052 0 0.16423855373374319 -0.066809641750814969 0 0.16004124225532049 -0.061841453839887157 0 0.13805891541926751 -0.078942206783145619 0 0.13548767730717889 -0.06580567532731052 0 0.1516507619880918 -0.076739651506421189 0 0.13805891541926751 -0.078942206783145619 0 0.1516507619880918 -0.076739651506421189 0 0.1528514968589437 -0.089382961028164357 0 0.15146120268426411 -0.099532086410862586 0 0.1528514968589437 -0.089382961028164357 0 0.15581646250916109 -0.090151240212135456 0 0.1528514968589437 -0.089382961028164357 0 0.15581646250916109 -0.090151240212135456 0 0.17842320588221819 -0.090172163349513806 0 0.1528514968589437 -0.089382961028164357 0 0.17842320588221819 -0.090172163349513806 0 0.15581646250916109 -0.090151240212135456 0 0.16859491992305889 -0.093070393687126218 0 0.17842320588221819 -0.090172163349513806 0 0.1528514968589437 -0.089382961028164357 0 0.1653897445003264 -0.079862578323319361 0 0.17842320588221819 -0.090172163349513806 0 0.1516507619880918 -0.076739651506421189 0 0.1528514968589437 -0.089382961028164357 0 0.1653897445003264 -0.079862578323319361 0 0.1516507619880918 -0.076739651506421189 0 0.1653897445003264 -0.079862578323319361 0 0.16423855373374319 -0.066809641750814969 0 0.1653897445003264 -0.079862578323319361 0 0.16423855373374319 -0.066809641750814969 0 0.17833356117891219 -0.077628002067558224 0 0.16423855373374319 -0.066809641750814969 0 0.1727598808088672 -0.056322389892066158 0 0.1929894301603077 -0.067813608174319001 0 0.16423855373374319 -0.066809641750814969 0 0.1929894301603077 -0.067813608174319001 0 0.16423855373374319 -0.066809641750814969 0 0.17833356117891219 -0.077628002067558224 0 0.1929894301603077 -0.067813608174319001 0 0.17833356117891219 -0.077628002067558224 0 0.19040307974074269 -0.080139672987034255 0 0.1929894301603077 -0.067813608174319001 0 0.16859491992305889 -0.093070393687126218 0 0.17842320588221819 -0.090172163349513806 0 0.17335524666804841 -0.094081054567607611 0 0.17842320588221819 -0.090172163349513806 0 0.17824607109877541 -0.095663109832525739 0 0.17335524666804841 -0.094081054567607611 0 0.1653897445003264 -0.079862578323319361 0 0.17833356117891219 -0.077628002067558224 0 0.17842320588221819 -0.090172163349513806 0 0.17833356117891219 -0.077628002067558224 0 0.1854866420256687 -0.084161575248007242 0 0.19040307974074269 -0.080139672987034255 0 0.17833356117891219 -0.077628002067558224 0 0.17842320588221819 -0.090172163349513806 0 0.1854866420256687 -0.084161575248007242 0 0.18404025852736719 -0.096743595743047278 0 0.18504385230606449 -0.10434071571553651 0 0.19243594079672521 -0.096163448387799222 0 0.17824607109877541 -0.095663109832525739 0 0.18504385230606449 -0.10434071571553651 0 0.16623581850283431 -0.10244093512288061 0 0.18504385230606449 -0.10434071571553651 0 0.18014950107347269 -0.1188522098678762 0 0.16623581850283431 -0.10244093512288061 0 0.18404025852736719 -0.096743595743047278 0 0.17824607109877541 -0.095663109832525739 0 0.18504385230606449 -0.10434071571553651 0 0.17842320588221819 -0.090172163349513806 0 0.18404025852736719 -0.096743595743047278 0 0.19243594079672521 -0.096163448387799222 0 0.17842320588221819 -0.090172163349513806 0 0.18404025852736719 -0.096743595743047278 0 0.17824607109877541 -0.095663109832525739 0 0.17824607109877541 -0.095663109832525739 0 0.17335524666804841 -0.094081054567607611 0 0.16623581850283431 -0.10244093512288061 0 0.17824607109877541 -0.095663109832525739 0 0.16623581850283431 -0.10244093512288061 0 0.18504385230606449 -0.10434071571553651 0 0.18014950107347269 -0.1188522098678762 0 0.1922879604253335 -0.1099500278873989 0 0.18014950107347269 -0.1188522098678762 0 0.16623581850283431 -0.10244093512288061 0 0.18014950107347269 -0.1188522098678762 0 0.16095359288685571 -0.1184472051676727 0 0.16623581850283431 -0.10244093512288061 0 0.14712201392247631 -0.1132275548916801 0 0.16095359288685571 -0.1184472051676727 0 0.16623581850283431 -0.10244093512288061 0 0.18014950107347269 -0.1188522098678762 0 0.16095359288685571 -0.1184472051676727 0 0.16265603278097029 -0.1302428005884553 0 0.14712201392247631 -0.1132275548916801 0 0.16623581850283431 -0.10244093512288061 0 0.15581646250916109 -0.090151240212135456 0 0.16859491992305889 -0.093070393687126218 0 0.16623581850283431 -0.10244093512288061 0 0.15146120268426411 -0.099532086410862586 0 0.15581646250916109 -0.090151240212135456 0 0.16623581850283431 -0.10244093512288061 0 0.15581646250916109 -0.090151240212135456 0 0.16623581850283431 -0.10244093512288061 0 0.16859491992305889 -0.093070393687126218 0 0.17335524666804841 -0.094081054567607611 0 0.16623581850283431 -0.10244093512288061 0 0.13735218555535891 0.001011181807127467 0 0.1449152044553462 -0.019939696741877431 0 0.14216046477152491 0.0049125148476896544 0 0.15727218843160701 -0.01758578836774349 0 0.15849764294065671 -0.0060544572746906826 0 0.14216046477152491 0.0049125148476896544 0 0.15727218843160701 -0.01758578836774349 0 0.14216046477152491 0.0049125148476896544 0 0.1449152044553462 -0.019939696741877431 0 0.15727218843160701 -0.01758578836774349 0 0.14216046477152491 0.0049125148476896544 0 0.13735218555535891 0.001011181807127467 0 0.1449152044553462 -0.019939696741877431 0 0.13735218555535891 0.001011181807127467 0 0.1175949646085984 -0.015019396993320021 0 0.13735218555535891 0.001011181807127467 0 0.1175949646085984 -0.015019396993320021 0 0.13165260102391191 -0.019660205177744808 0 0.13735218555535891 0.001011181807127467 0 0.13165260102391191 -0.019660205177744808 0 0.1449152044553462 -0.019939696741877431 0 0.13165260102391191 -0.019660205177744808 0 0.13984755105295521 -0.030525993742740402 0 0.1449152044553462 -0.019939696741877431 0 0.124582941869709 -0.030507807285028901 0 0.13165260102391191 -0.019660205177744808 0 0.13984755105295521 -0.030525993742740402 0 0.1449152044553462 -0.019939696741877431 0 0.15247822335533329 -0.040890575290882317 0 0.15727218843160701 -0.01758578836774349 0 0.13984755105295521 -0.030525993742740402 0 0.1449152044553462 -0.019939696741877431 0 0.15247822335533329 -0.040890575290882317 0 0.1449152044553462 -0.019939696741877431 0 0.15247822335533329 -0.040890575290882317 0 0.15247822335533329 -0.040890575290882317 0 0.1379109625223634 -0.045605004272587249 0 0.14629243763992239 -0.054068479542427092 0 0.13984755105295521 -0.030525993742740402 0 0.15247822335533329 -0.040890575290882317 0 0.1379109625223634 -0.045605004272587249 0 0.1232921759667842 -0.047663851323270827 0 0.13984755105295521 -0.030525993742740402 0 0.1379109625223634 -0.045605004272587249 0 0.1232921759667842 -0.047663851323270827 0 0.124582941869709 -0.030507807285028901 0 0.13984755105295521 -0.030525993742740402 0 0.1232921759667842 -0.047663851323270827 0 0.13984755105295521 -0.030525993742740402 0 0.1232921759667842 -0.047663851323270827 0 0.13548767730717889 -0.06580567532731052 0 0.1379109625223634 -0.045605004272587249 0 0.13548767730717889 -0.06580567532731052 0 0.1379109625223634 -0.045605004272587249 0 0.14629243763992239 -0.054068479542427092 0 0.13548767730717889 -0.06580567532731052 0 0.14629243763992239 -0.054068479542427092 0 0.16004124225532049 -0.061841453839887157 0 0.15247822335533329 -0.040890575290882317 0 0.14629243763992239 -0.054068479542427092 0 0.16004124225532049 -0.061841453839887157 0 0.15247822335533329 -0.040890575290882317 0 0.16004124225532049 -0.061841453839887157 0 0.1644158146278025 -0.049784627651503079 0 0.1644158146278025 -0.049784627651503079 0 0.1727598808088672 -0.056322389892066158 0 0.1723839120916891 -0.040084091583176683 0 0.15247822335533329 -0.040890575290882317 0 0.16004124225532049 -0.061841453839887157 0 0.16423855373374319 -0.066809641750814969 0 0.16004124225532049 -0.061841453839887157 0 0.1727598808088672 -0.056322389892066158 0 0.16004124225532049 -0.061841453839887157 0 0.1644158146278025 -0.049784627651503079 0 0.1727598808088672 -0.056322389892066158 0 0.1727598808088672 -0.056322389892066158 0 0.18434240851125541 -0.050289724698312777 0 0.1723839120916891 -0.040084091583176683 0 0.1727598808088672 -0.056322389892066158 0 0.18434240851125541 -0.050289724698312777 0 0.1929894301603077 -0.067813608174319001 0 0.1723839120916891 -0.040084091583176683 0 0.18077822909658589 -0.032018797610549231 0 0.17598651952492231 -0.0227560541305885 0 0.18434240851125541 -0.050289724698312777 0 0.1723839120916891 -0.040084091583176683 0 0.18674227588606429 -0.037749552466939278 0 0.1723839120916891 -0.040084091583176683 0 0.18674227588606429 -0.037749552466939278 0 0.18077822909658589 -0.032018797610549231 0 0.18674227588606429 -0.037749552466939278 0 0.18077822909658589 -0.032018797610549231 0 0.18610830639217099 -0.030062433202775862 0 0.15247822335533329 -0.040890575290882317 0 0.1723839120916891 -0.040084091583176683 0 0.15727218843160701 -0.01758578836774349 0 0.15247822335533329 -0.040890575290882317 0 0.1644158146278025 -0.049784627651503079 0 0.1723839120916891 -0.040084091583176683 0 0.1723839120916891 -0.040084091583176683 0 0.15727218843160701 -0.01758578836774349 0 0.1723839120916891 -0.040084091583176683 0 0.1668946229318731 -0.019675061199070819 0 0.17598651952492231 -0.0227560541305885 0 0.1723839120916891 -0.040084091583176683 0 0.15727218843160701 -0.01758578836774349 0 0.1668946229318731 -0.019675061199070819 0 0.1668946229318731 -0.019675061199070819 0 0.17598651952492231 -0.0227560541305885 0 0.16985348277487761 -0.0099868764823510571 0 0.18077822909658589 -0.032018797610549231 0 0.18438258456793261 -0.021379302004443181 0 0.17598651952492231 -0.0227560541305885 0 0.18077822909658589 -0.032018797610549231 0 0.18610830639217099 -0.030062433202775862 0 0.18438258456793261 -0.021379302004443181 0 0.18438258456793261 -0.021379302004443181 0 0.17598651952492231 -0.0227560541305885 0 0.17878486519392331 -0.011645355321630489 0 0.17598651952492231 -0.0227560541305885 0 0.17878486519392331 -0.011645355321630489 0 0.16985348277487761 -0.0099868764823510571 0 0.17878486519392331 -0.011645355321630489 0 0.17506184651935949 -0.0021247232161890161 0 0.16985348277487761 -0.0099868764823510571 0 0.18438258456793261 -0.021379302004443181 0 0.17878486519392331 -0.011645355321630489 0 0.18863989258252481 -0.001979820774580698 0 0.17878486519392331 -0.011645355321630489 0 0.17506184651935949 -0.0021247232161890161 0 0.18863989258252481 -0.001979820774580698 0 0.1628037813635097 0.0015330777282007481 0 0.17506184651935949 -0.0021247232161890161 0 0.16985348277487761 -0.0099868764823510571 0 0.1668946229318731 -0.019675061199070819 0 0.16985348277487761 -0.0099868764823510571 0 0.15849764294065671 -0.0060544572746906826 0 0.15727218843160701 -0.01758578836774349 0 0.1668946229318731 -0.019675061199070819 0 0.15849764294065671 -0.0060544572746906826 0 0.1628037813635097 0.0015330777282007481 0 0.16985348277487761 -0.0099868764823510571 0 0.15849764294065671 -0.0060544572746906826 0 0.1628037813635097 0.0015330777282007481 0 0.15453230216132671 0.0032055715019124438 0 0.15849764294065671 -0.0060544572746906826 0 0.21174544862736719 0.0096628206364345465 0 0.20589386385567829 -0.0063134785331596111 0 0.2185782736923042 -0.0038367730406402641 0 0.20589386385567829 -0.0063134785331596111 0 0.2185782736923042 -0.0038367730406402641 0 0.2199828155312514 -0.0225516893132638 0 0.20589386385567829 -0.0063134785331596111 0 0.18863989258252481 -0.001979820774580698 0 0.1936475112771239 -0.030998707124919651 0 0.20589386385567829 -0.0063134785331596111 0 0.1936475112771239 -0.030998707124919651 0 0.20001428446098229 -0.034334459813343092 0 0.18863989258252481 -0.001979820774580698 0 0.1936475112771239 -0.030998707124919651 0 0.20589386385567829 -0.0063134785331596111 0 0.20001428446098229 -0.034334459813343092 0 0.18438258456793261 -0.021379302004443181 0 0.18863989258252481 -0.001979820774580698 0 0.1936475112771239 -0.030998707124919651 0 0.18610830639217099 -0.030062433202775862 0 0.18438258456793261 -0.021379302004443181 0 0.1936475112771239 -0.030998707124919651 0 0.20589386385567829 -0.0063134785331596111 0 0.20001428446098229 -0.034334459813343092 0 0.2199828155312514 -0.0225516893132638 0 0.20001428446098229 -0.034334459813343092 0 0.22061008072662569 -0.045125245157715169 0 0.20001428446098229 -0.034334459813343092 0 0.22061008072662569 -0.045125245157715169 0 0.2199828155312514 -0.0225516893132638 0 0.20001428446098229 -0.034334459813343092 0 0.19683654360934791 -0.049478981375062181 0 0.22061008072662569 -0.045125245157715169 0 0.1936475112771239 -0.030998707124919651 0 0.19683654360934791 -0.049478981375062181 0 0.18674227588606429 -0.037749552466939278 0 0.1936475112771239 -0.030998707124919651 0 0.19683654360934791 -0.049478981375062181 0 0.1936475112771239 -0.030998707124919651 0 0.20001428446098229 -0.034334459813343092 0 0.19683654360934791 -0.049478981375062181 0 0.1936475112771239 -0.030998707124919651 0 0.20001428446098229 -0.034334459813343092 0 0.18674227588606429 -0.037749552466939278 0 0.18610830639217099 -0.030062433202775862 0 0.1936475112771239 -0.030998707124919651 0 0.18434240851125541 -0.050289724698312777 0 0.18674227588606429 -0.037749552466939278 0 0.19683654360934791 -0.049478981375062181 0 0.20001428446098229 -0.034334459813343092 0 0.19683654360934791 -0.049478981375062181 0 0.19683654360934791 -0.049478981375062181 0 0.1929894301603077 -0.067813608174319001 0 0.2000429458732931 -0.068059913463883598 0 0.19683654360934791 -0.049478981375062181 0 0.21158346953455981 -0.057932445704329483 0 0.2000429458732931 -0.068059913463883598 0 0.19683654360934791 -0.049478981375062181 0 0.2000429458732931 -0.068059913463883598 0 0.19683654360934791 -0.049478981375062181 0 0.1929894301603077 -0.067813608174319001 0 0.18434240851125541 -0.050289724698312777 0 0.19683654360934791 -0.049478981375062181 0 0.1929894301603077 -0.067813608174319001 0 0.19683654360934791 -0.049478981375062181 0 0.21158346953455981 -0.057932445704329483 0 0.22061008072662569 -0.045125245157715169 0 0.24120587699226881 -0.055916030502087773 0 0.22061008072662569 -0.045125245157715169 0 0.2288443079289719 -0.069065642820655804 0 0.21158346953455981 -0.057932445704329483 0 0.22061008072662569 -0.045125245157715169 0 0.2288443079289719 -0.069065642820655804 0 0.24120587699226881 -0.055916030502087773 0 0.22061008072662569 -0.045125245157715169 0 0.25030159180115191 -0.034143426788088307 0 0.24120587699226881 -0.055916030502087773 0 0.23430517811137791 -0.037629801295311363 0 0.25030159180115191 -0.034143426788088307 0 0.23430517811137791 -0.037629801295311363 0 0.23651070060392609 -0.023431292744830981 0 0.22061008072662569 -0.045125245157715169 0 0.23430517811137791 -0.037629801295311363 0 0.2199828155312514 -0.0225516893132638 0 0.24120587699226881 -0.055916030502087773 0 0.22061008072662569 -0.045125245157715169 0 0.23430517811137791 -0.037629801295311363 0 0.2199828155312514 -0.0225516893132638 0 0.23651070060392609 -0.023431292744830981 0 0.2300866381754704 -0.0072438550720441714 0 0.23430517811137791 -0.037629801295311363 0 0.2199828155312514 -0.0225516893132638 0 0.23651070060392609 -0.023431292744830981 0 0.25030159180115191 -0.034143426788088307 0 0.23651070060392609 -0.023431292744830981 0 0.2464198669495459 -0.012097030270161889 0 0.23790413247208811 0.0091049515404343275 0 0.2464198669495459 -0.012097030270161889 0 0.2300866381754704 -0.0072438550720441714 0 0.23651070060392609 -0.023431292744830981 0 0.2464198669495459 -0.012097030270161889 0 0.2300866381754704 -0.0072438550720441714 0 0.2185782736923042 -0.0038367730406402641 0 0.2199828155312514 -0.0225516893132638 0 0.2300866381754704 -0.0072438550720441714 0 0.22518260227175371 0.0072623370788317187 0 0.2185782736923042 -0.0038367730406402641 0 0.2300866381754704 -0.0072438550720441714 0 0.20666963866093291 -0.1113398018781358 0 0.20399491490549271 -0.090961365670864353 0 0.20666963866093291 -0.1113398018781358 0 0.23081911420975029 -0.091789222750733895 0 0.20666963866093291 -0.1113398018781358 0 0.20399491490549271 -0.090961365670864353 0 0.23081911420975029 -0.091789222750733895 0 0.2184940671700534 -0.12394732724419751 0 0.20666963866093291 -0.1113398018781358 0 0.22056261316880149 -0.1108234873110058 0 0.2184940671700534 -0.12394732724419751 0 0.20975191972323501 -0.12432290509972491 0 0.20666963866093291 -0.1113398018781358 0 0.2184940671700534 -0.12394732724419751 0 0.20666963866093291 -0.1113398018781358 0 0.20975191972323501 -0.12432290509972491 0 0.20666963866093291 -0.1113398018781358 0 0.1971408692894723 -0.1190539635876471 0 0.20975191972323501 -0.12432290509972491 0 0.20666963866093291 -0.1113398018781358 0 0.18014950107347269 -0.1188522098678762 0 0.1971408692894723 -0.1190539635876471 0 0.19406318364410949 -0.13526348461287321 0 0.20666963866093291 -0.1113398018781358 0 0.1971408692894723 -0.1190539635876471 0 0.18014950107347269 -0.1188522098678762 0 0.1971408692894723 -0.1190539635876471 0 0.1922879604253335 -0.1099500278873989 0 0.20666963866093291 -0.1113398018781358 0 0.1971408692894723 -0.1190539635876471 0 0.1922879604253335 -0.1099500278873989 0 0.20666963866093291 -0.1113398018781358 0 0.19243594079672521 -0.096163448387799222 0 0.20399491490549271 -0.090961365670864353 0 0.18504385230606449 -0.10434071571553651 0 0.1922879604253335 -0.1099500278873989 0 0.19243594079672521 -0.096163448387799222 0 0.20666963866093291 -0.1113398018781358 0 0.1922879604253335 -0.1099500278873989 0 0.19243594079672521 -0.096163448387799222 0 0.20666963866093291 -0.1113398018781358 0 0.19243594079672521 -0.096163448387799222 0 0.1854866420256687 -0.084161575248007242 0 0.19040307974074269 -0.080139672987034255 0 0.20399491490549271 -0.090961365670864353 0 0.17842320588221819 -0.090172163349513806 0 0.19243594079672521 -0.096163448387799222 0 0.20399491490549271 -0.090961365670864353 0 0.17842320588221819 -0.090172163349513806 0 0.20399491490549271 -0.090961365670864353 0 0.17842320588221819 -0.090172163349513806 0 0.1854866420256687 -0.084161575248007242 0 0.20399491490549271 -0.090961365670864353 0 0.2000429458732931 -0.068059913463883598 0 0.20399491490549271 -0.090961365670864353 0 0.19040307974074269 -0.080139672987034255 0 0.2000429458732931 -0.068059913463883598 0 0.20399491490549271 -0.090961365670864353 0 0.19040307974074269 -0.080139672987034255 0 0.1929894301603077 -0.067813608174319001 0 0.2000429458732931 -0.068059913463883598 0 0.19040307974074269 -0.080139672987034255 0 0.1929894301603077 -0.067813608174319001 0 0.1929894301603077 -0.067813608174319001 0 0.2000429458732931 -0.068059913463883598 0 0.2000429458732931 -0.068059913463883598 0 0.2288443079289719 -0.069065642820655804 0 0.2000429458732931 -0.068059913463883598 0 0.21771238563745279 -0.081480669998114597 0 0.2288443079289719 -0.069065642820655804 0 0.21158346953455981 -0.057932445704329483 0 0.2000429458732931 -0.068059913463883598 0 0.2288443079289719 -0.069065642820655804 0 0.2000429458732931 -0.068059913463883598 0 0.20399491490549271 -0.090961365670864353 0 0.21771238563745279 -0.081480669998114597 0 0.20399491490549271 -0.090961365670864353 0 0.21771238563745279 -0.081480669998114597 0 0.23081911420975029 -0.091789222750733895 0 0.20399491490549271 -0.090961365670864353 0 0.23081911420975029 -0.091789222750733895 0 0.21771238563745279 -0.081480669998114597 0 0.23081911420975029 -0.091789222750733895 0 0.2288443079289719 -0.069065642820655804 0 0.25764566998465072 -0.070071372177431313 0 0.24120587699226881 -0.055916030502087773 0 0.2288443079289719 -0.069065642820655804 0 0.25764566998465072 -0.070071372177431313 0 0.2288443079289719 -0.069065642820655804 0 0.25764566998465072 -0.070071372177431313 0 0.2288443079289719 -0.069065642820655804 0 0.24423239209720191 -0.080930297464084477 0 0.25666672159796139 -0.092586939936295867 0 0.23081911420975029 -0.091789222750733895 0 0.23081911420975029 -0.091789222750733895 0 0.2288443079289719 -0.069065642820655804 0 0.24423239209720191 -0.080930297464084477 0 0.25666672159796139 -0.092586939936295867 0 0.23081911420975029 -0.091789222750733895 0 0.24423239209720191 -0.080930297464084477 0 0.23081911420975029 -0.091789222750733895 0 0.24423239209720191 -0.080930297464084477 0 0.25666672159796139 -0.092586939936295867 0 0.23081911420975029 -0.091789222750733895 0 0.23839025179526999 -0.1151992729885977 0 0.20666963866093291 -0.1113398018781358 0 0.23081911420975029 -0.091789222750733895 0 0.22056261316880149 -0.1108234873110058 0 0.23081911420975029 -0.091789222750733895 0 0.22056261316880149 -0.1108234873110058 0 0.23839025179526999 -0.1151992729885977 0 0.2184940671700534 -0.12394732724419751 0 0.22056261316880149 -0.1108234873110058 0 0.23839025179526999 -0.1151992729885977 0 0.2184940671700534 -0.12394732724419751 0 0.23839025179526999 -0.1151992729885977 0 0.22928680998153819 -0.13545484142638689 0 0.25915390151091949 -0.11811210275817149 0 0.25133622254172122 -0.13557462765415079 0 0.23839025179526999 -0.1151992729885977 0 0.25133622254172122 -0.13557462765415079 0 0.25208407187516418 -0.1419613505697605 0 0.23274332603383319 -0.13914027229300069 0 0.25133622254172122 -0.13557462765415079 0 0.23839025179526999 -0.1151992729885977 0 0.22928680998153819 -0.13545484142638689 0 0.25133622254172122 -0.13557462765415079 0 0.22928680998153819 -0.13545484142638689 0 0.25133622254172122 -0.13557462765415079 0 0.23274332603383319 -0.13914027229300069 0 0.22928680998153819 -0.13545484142638689 0 0.25208407187516418 -0.1419613505697605 0 0.23274332603383319 -0.13914027229300069 0 0.2530488896403309 -0.16079061319898569 0 0.23274332603383319 -0.13914027229300069 0 0.2530488896403309 -0.16079061319898569 0 0.23274332603383319 -0.13914027229300069 0 0.2334622085995452 -0.15779257262933219 0 0.2530488896403309 -0.16079061319898569 0 0.25208407187516418 -0.1419613505697605 0 0.23274332603383319 -0.13914027229300069 0 0.22694604844669111 -0.15137512496012309 0 0.2202725953444182 -0.1456731206256075 0 0.22100128495381829 -0.16152072110389429 0 0.22694604844669111 -0.15137512496012309 0 0.23274332603383319 -0.13914027229300069 0 0.2334622085995452 -0.15779257262933219 0 0.22694604844669111 -0.15137512496012309 0 0.2202725953444182 -0.1456731206256075 0 0.23274332603383319 -0.13914027229300069 0 0.23274332603383319 -0.13914027229300069 0 0.20959101376118139 -0.13576323162740581 0 0.22928680998153819 -0.13545484142638689 0 0.2116749968128239 -0.1353591630196288 0 0.23274332603383319 -0.13914027229300069 0 0.22928680998153819 -0.13545484142638689 0 0.2116749968128239 -0.1353591630196288 0 0.2184940671700534 -0.12394732724419751 0 0.22928680998153819 -0.13545484142638689 0 0.2116749968128239 -0.1353591630196288 0 0.2202725953444182 -0.1456731206256075 0 0.23274332603383319 -0.13914027229300069 0 0.20959101376118139 -0.13576323162740581 0 0.23274332603383319 -0.13914027229300069 0 0.22928680998153819 -0.13545484142638689 0 0.2184940671700534 -0.12394732724419751 0 0.22928680998153819 -0.13545484142638689 0 0.23274332603383319 -0.13914027229300069 0 0.20959101376118139 -0.13576323162740581 0 0.2116749968128239 -0.1353591630196288 0 0.20975191972323501 -0.12432290509972491 0 0.2116749968128239 -0.1353591630196288 0 0.19406318364410949 -0.13526348461287321 0 0.2184940671700534 -0.12394732724419751 0 0.20975191972323501 -0.12432290509972491 0 0.2116749968128239 -0.1353591630196288 0 0.20959101376118139 -0.13576323162740581 0 0.2116749968128239 -0.1353591630196288 0 0.19406318364410949 -0.13526348461287321 0 0.2202725953444182 -0.1456731206256075 0 0.21077041390333781 -0.15496976615408631 0 0.22100128495381829 -0.16152072110389429 0 0.2202725953444182 -0.1456731206256075 0 0.20959101376118139 -0.13576323162740581 0 0.21077041390333781 -0.15496976615408631 0 0.20959101376118139 -0.13576323162740581 0 0.21077041390333781 -0.15496976615408631 0 0.19406318364410949 -0.13526348461287321 0 0.21077041390333781 -0.15496976615408631 0 0.19019323353294471 -0.15547991582157239 0 0.19406318364410949 -0.13526348461287321 0 0.21077041390333781 -0.15496976615408631 0 0.19406318364410949 -0.13526348461287321 0 0.20975191972323501 -0.12432290509972491 0 0.1971408692894723 -0.1190539635876471 0 0.19406318364410949 -0.13526348461287321 0 0.2116749968128239 -0.1353591630196288 0 0.19406318364410949 -0.13526348461287321 0 0.2064216300685435 -0.1763378775815001 0 0.19333004299069351 -0.19482382871724169 0 0.185888281266576 -0.1738959907954824 0 0.21077041390333781 -0.15496976615408631 0 0.19019323353294471 -0.15547991582157239 0 0.2064216300685435 -0.1763378775815001 0 0.19019323353294471 -0.15547991582157239 0 0.2064216300685435 -0.1763378775815001 0 0.185888281266576 -0.1738959907954824 0 0.21077041390333781 -0.15496976615408631 0 0.2064216300685435 -0.1763378775815001 0 0.22100128495381829 -0.16152072110389429 0 0.2064216300685435 -0.1763378775815001 0 0.22637928715471201 -0.1750627007060517 0 0.22100128495381829 -0.16152072110389429 0 0.2064216300685435 -0.1763378775815001 0 0.22637928715471201 -0.1750627007060517 0 0.2213864998634191 -0.19074186604973761 0 0.22637928715471201 -0.1750627007060517 0 0.2363010186387848 -0.18586727398715949 0 0.2213864998634191 -0.19074186604973761 0 0.22637928715471201 -0.1750627007060517 0 0.22100128495381829 -0.16152072110389429 0 0.2334622085995452 -0.15779257262933219 0 0.22637928715471201 -0.1750627007060517 0 0.2334622085995452 -0.15779257262933219 0 0.24133419147104179 -0.17110858194103351 0 0.22694604844669111 -0.15137512496012309 0 0.22100128495381829 -0.16152072110389429 0 0.2334622085995452 -0.15779257262933219 0 0.2530488896403309 -0.16079061319898569 0 0.2334622085995452 -0.15779257262933219 0 0.24133419147104179 -0.17110858194103351 0 0.2550208565069661 -0.17514012483034949 0 0.2530488896403309 -0.16079061319898569 0 0.24133419147104179 -0.17110858194103351 0 0.22637928715471201 -0.1750627007060517 0 0.24133419147104179 -0.17110858194103351 0 0.2363010186387848 -0.18586727398715949 0 0.25030889548151403 -0.1837077448593728 0 0.2550208565069661 -0.17514012483034949 0 0.24133419147104179 -0.17110858194103351 0 0.25030889548151403 -0.1837077448593728 0 0.24133419147104179 -0.17110858194103351 0 0.2363010186387848 -0.18586727398715949 0 0.25030889548151403 -0.1837077448593728 0 0.2363010186387848 -0.18586727398715949 0 0.24624710011957149 -0.19756578472926509 0 0.2363010186387848 -0.18586727398715949 0 0.24624710011957149 -0.19756578472926509 0 0.23232272155890341 -0.19906227567560569 0 0.24624710011957149 -0.19756578472926509 0 0.2390873575194972 -0.2119906927462733 0 0.23232272155890341 -0.19906227567560569 0 0.25806059678156651 -0.21160485628964759 0 0.24624710011957149 -0.19756578472926509 0 0.2390873575194972 -0.2119906927462733 0 0.25806059678156651 -0.21160485628964759 0 0.2390873575194972 -0.2119906927462733 0 0.2485278721491469 -0.22983386195931649 0 0.22156570902884701 -0.2081716276760221 0 0.2275965143199381 -0.22680811778712909 0 0.21130945108473639 -0.22000441216527869 0 0.2390873575194972 -0.2119906927462733 0 0.22156570902884701 -0.2081716276760221 0 0.23232272155890341 -0.19906227567560569 0 0.2390873575194972 -0.2119906927462733 0 0.22156570902884701 -0.2081716276760221 0 0.2275965143199381 -0.22680811778712909 0 0.22156570902884701 -0.2081716276760221 0 0.2213864998634191 -0.19074186604973761 0 0.23232272155890341 -0.19906227567560569 0 0.2363010186387848 -0.18586727398715949 0 0.2213864998634191 -0.19074186604973761 0 0.23232272155890341 -0.19906227567560569 0 0.2410490216361528 -0.25300372010805161 0 0.2485278721491469 -0.22983386195931649 0 0.2275965143199381 -0.22680811778712909 0 0.25787859859726192 -0.24372773219337371 0 0.2410490216361528 -0.25300372010805161 0 0.2485278721491469 -0.22983386195931649 0 0.2390873575194972 -0.2119906927462733 0 0.2485278721491469 -0.22983386195931649 0 0.2275965143199381 -0.22680811778712909 0 0.2410490216361528 -0.25300372010805161 0 0.2275965143199381 -0.22680811778712909 0 0.2136455624920251 -0.24586339942155419 0 0.2410490216361528 -0.25300372010805161 0 0.2136455624920251 -0.24586339942155419 0 0.2136455624920251 -0.24586339942155419 0 0.1995187067769538 -0.22648505830905971 0 0.1970165427207646 -0.2431475676051908 0 0.2275965143199381 -0.22680811778712909 0 0.2136455624920251 -0.24586339942155419 0 0.21130945108473639 -0.22000441216527869 0 0.2136455624920251 -0.24586339942155419 0 0.21130945108473639 -0.22000441216527869 0 0.1995187067769538 -0.22648505830905971 0 0.1995187067769538 -0.22648505830905971 0 0.1970165427207646 -0.2431475676051908 0 0.1843931124890181 -0.23269732176232691 0 0.21130945108473639 -0.22000441216527869 0 0.1995187067769538 -0.22648505830905971 0 0.19847161958806309 -0.21206345826637629 0 0.2064216300685435 -0.1763378775815001 0 0.2213864998634191 -0.19074186604973761 0 0.20705859430259141 -0.20063481153153051 0 0.22156570902884701 -0.2081716276760221 0 0.2213864998634191 -0.19074186604973761 0 0.20705859430259141 -0.20063481153153051 0 0.22156570902884701 -0.2081716276760221 0 0.21130945108473639 -0.22000441216527869 0 0.20705859430259141 -0.20063481153153051 0 0.21130945108473639 -0.22000441216527869 0 0.20705859430259141 -0.20063481153153051 0 0.19847161958806309 -0.21206345826637629 0 0.19847161958806309 -0.21206345826637629 0 0.19333004299069351 -0.19482382871724169 0 0.184507054165965 -0.21658659277756609 0 0.1995187067769538 -0.22648505830905971 0 0.19847161958806309 -0.21206345826637629 0 0.184507054165965 -0.21658659277756609 0 0.20705859430259141 -0.20063481153153051 0 0.19847161958806309 -0.21206345826637629 0 0.19333004299069351 -0.19482382871724169 0 0.2064216300685435 -0.1763378775815001 0 0.20705859430259141 -0.20063481153153051 0 0.19333004299069351 -0.19482382871724169 0 0.1776330785524223 -0.18942424135099509 0 0.184507054165965 -0.21658659277756609 0 0.16837846483810831 -0.20319749351435479 0 0.19333004299069351 -0.19482382871724169 0 0.1776330785524223 -0.18942424135099509 0 0.184507054165965 -0.21658659277756609 0 0.1776330785524223 -0.18942424135099509 0 0.184507054165965 -0.21658659277756609 0 0.184507054165965 -0.21658659277756609 0 0.1749867686249286 -0.21735889230250449 0 0.16837846483810831 -0.20319749351435479 0 0.1749867686249286 -0.21735889230250449 0 0.16837846483810831 -0.20319749351435479 0 0.15045483047290331 -0.2082327262959493 0 0.1749867686249286 -0.21735889230250449 0 0.15045483047290331 -0.2082327262959493 0 0.1749867686249286 -0.21735889230250449 0 0.16226861639455931 -0.22172210758959859 0 0.15045483047290331 -0.2082327262959493 0 0.16837846483810831 -0.20319749351435479 0 0.15045483047290331 -0.2082327262959493 0 0.15431059237432221 -0.18438501484475869 0 0.1776330785524223 -0.18942424135099509 0 0.16837846483810831 -0.20319749351435479 0 0.15431059237432221 -0.18438501484475869 0 0.1970165427207646 -0.2431475676051908 0 0.18013525364959199 -0.24590787480667409 0 0.1843931124890181 -0.23269732176232691 0 0.18013525364959199 -0.24590787480667409 0 0.1843931124890181 -0.23269732176232691 0 0.17030829067285161 -0.2305872157882054 0 0.1995187067769538 -0.22648505830905971 0 0.1749867686249286 -0.21735889230250449 0 0.1995187067769538 -0.22648505830905971 0 0.1749867686249286 -0.21735889230250449 0 0.1843931124890181 -0.23269732176232691 0 0.1995187067769538 -0.22648505830905971 0 0.184507054165965 -0.21658659277756609 0 0.1749867686249286 -0.21735889230250449 0 0.1749867686249286 -0.21735889230250449 0 0.1843931124890181 -0.23269732176232691 0 0.17030829067285161 -0.2305872157882054 0 0.16226861639455931 -0.22172210758959859 0 0.17030829067285161 -0.2305872157882054 0 0.15332457580755371 -0.23070959597173549 0 0.1749867686249286 -0.21735889230250449 0 0.16226861639455931 -0.22172210758959859 0 0.17030829067285161 -0.2305872157882054 0 0.16103468924722281 -0.25381861710109321 0 0.18013525364959199 -0.24590787480667409 0 0.17030829067285161 -0.2305872157882054 0 0.16103468924722281 -0.25381861710109321 0 0.17030829067285161 -0.2305872157882054 0 0.15332457580755371 -0.23070959597173549 0 0.16103468924722281 -0.25381861710109321 0 0.1412434604122122 -0.24631040783256791 0 0.15332457580755371 -0.23070959597173549 0 0.1412434604122122 -0.24631040783256791 0 0.15332457580755371 -0.23070959597173549 0 0.1284413173888232 -0.22347585252773641 0 0.15332457580755371 -0.23070959597173549 0 0.1284413173888232 -0.22347585252773641 0 0.15045483047290331 -0.2082327262959493 0 0.16226861639455931 -0.22172210758959859 0 0.15332457580755371 -0.23070959597173549 0 0.15045483047290331 -0.2082327262959493 0 0.1200034520355143 -0.24749468667538321 0 0.1412434604122122 -0.24631040783256791 0 0.1284413173888232 -0.22347585252773641 0 0.15045483047290331 -0.2082327262959493 0 0.12592289232087811 -0.19910656028939411 0 0.15431059237432221 -0.18438501484475869 0 0.15045483047290331 -0.2082327262959493 0 0.12592289232087811 -0.19910656028939411 0 0.1284413173888232 -0.22347585252773641 0 0.15045483047290331 -0.2082327262959493 0 0.12592289232087811 -0.19910656028939411 0 0.11404320040195411 -0.17785048998131209 0 0.12592289232087811 -0.19910656028939411 0 0.1362427207560932 -0.1734399905344442 0 0.12592289232087811 -0.19910656028939411 0 0.1362427207560932 -0.1734399905344442 0 0.15431059237432221 -0.18438501484475869 0 0.1362427207560932 -0.1734399905344442 0 0.15431059237432221 -0.18438501484475869 0 0.1498051255961938 -0.157092757972084 0 0.11404320040195411 -0.17785048998131209 0 0.1362427207560932 -0.1734399905344442 0 0.1305387904294309 -0.15561497697083931 0 0.1362427207560932 -0.1734399905344442 0 0.1498051255961938 -0.157092757972084 0 0.1305387904294309 -0.15561497697083931 0 0.1498051255961938 -0.157092757972084 0 0.1305387904294309 -0.15561497697083931 0 0.13638976604354719 -0.13495016646355951 0 0.1161887790728692 -0.1476769396888597 0 0.1305387904294309 -0.15561497697083931 0 0.13638976604354719 -0.13495016646355951 0 0.12800820934211829 -0.12401417466047961 0 0.13638976604354719 -0.13495016646355951 0 0.1486045981545247 -0.12747252536747111 0 0.13638976604354719 -0.13495016646355951 0 0.16388512732533739 -0.13509953849785281 0 0.13638976604354719 -0.13495016646355951 0 0.1486045981545247 -0.12747252536747111 0 0.16388512732533739 -0.13509953849785281 0 0.1498051255961938 -0.157092757972084 0 0.13638976604354719 -0.13495016646355951 0 0.16388512732533739 -0.13509953849785281 0 0.16388512732533739 -0.13509953849785281 0 0.17075910293887969 -0.16226188992442411 0 0.1498051255961938 -0.157092757972084 0 0.16388512732533739 -0.13509953849785281 0 0.17075910293887969 -0.16226188992442411 0 0.18014950107347269 -0.1188522098678762 0 0.16265603278097029 -0.1302428005884553 0 0.16388512732533739 -0.13509953849785281 0 0.16095359288685571 -0.1184472051676727 0 0.1486045981545247 -0.12747252536747111 0 0.16265603278097029 -0.1302428005884553 0 0.1486045981545247 -0.12747252536747111 0 0.16265603278097029 -0.1302428005884553 0 0.16388512732533739 -0.13509953849785281 0 0.16265603278097029 -0.1302428005884553 0 0.16388512732533739 -0.13509953849785281 0 0.19406318364410949 -0.13526348461287321 0 0.16388512732533739 -0.13509953849785281 0 0.18014950107347269 -0.1188522098678762 0 0.19406318364410949 -0.13526348461287321 0 0.18014950107347269 -0.1188522098678762 0 0.19406318364410949 -0.13526348461287321 0 0.16388512732533739 -0.13509953849785281 0 0.19019323353294471 -0.15547991582157239 0 0.16388512732533739 -0.13509953849785281 0 0.17075910293887969 -0.16226188992442411 0 0.19019323353294471 -0.15547991582157239 0 0.19406318364410949 -0.13526348461287321 0 0.16388512732533739 -0.13509953849785281 0 0.19019323353294471 -0.15547991582157239 0 0.185888281266576 -0.1738959907954824 0 0.17075910293887969 -0.16226188992442411 0 0.1776330785524223 -0.18942424135099509 0 0.185888281266576 -0.1738959907954824 0 0.17075910293887969 -0.16226188992442411 0 0.1776330785524223 -0.18942424135099509 0 0.17075910293887969 -0.16226188992442411 0 0.19333004299069351 -0.19482382871724169 0 0.1776330785524223 -0.18942424135099509 0 0.185888281266576 -0.1738959907954824 0 0.1776330785524223 -0.18942424135099509 0 0.15431059237432221 -0.18438501484475869 0 0.17075910293887969 -0.16226188992442411 0 0.15431059237432221 -0.18438501484475869 0 0.1498051255961938 -0.157092757972084 0 0.17075910293887969 -0.16226188992442411 0 
</DataArray>
</Points>
<Cells>
<DataArray type="UInt32" Name="connectivity" format="ascii">
0 1 2 3 4 5 6 7 8 9 10 11 12 13 14 15 16 17 18 19 20 21 22 23 24 25 26 27 28 29 30 31 32 33 34 35 36 37 38 39 40 41 42 43 44 45 46 47 48 49 50 51 52 53 54 55 56 57 58 59 60 61 62 63 64 65 66 67 68 69 70 71 72 73 74 75 76 77 78 79 80 81 82 83 84 85 86 87 88 89 90 91 92 93 94 95 96 97 98 99 100 101 102 103 104 105 106 107 108 109 110 111 112 113 114 115 116 117 118 119 120 121 122 123 124 125 126 127 128 129 130 131 132 133 134 135 136 137 138 139 140 141 142 143 144 145 146 147 148 149 150 151 152 153 154 155 156 157 158 159 160 161 162 163 164 165 166 167 168 169 170 171 172 173 174 175 176 177 178 179 180 181 182 183 184 185 186 187 188 189 190 191 192 193 194 195 196 197 198 199 200 201 202 203 204 205 206 207 208 209 210 211 212 213 214 215 216 217 218 219 220 221 222 223 224 225 226 227 228 229 230 231 232 233 234 235 236 237 238 239 240 241 242 243 244 245 246 247 248 249 250 251 252 253 254 255 256 257 258 259 260 261 262 263 264 265 266 267 268 269 270 271 272 273 274 275 276 277 278 279 280 281 282 283 284 285 286 287 288 289 290 291 292 293 294 295 296 297 298 299 300 301 302 303 304 305 306 307 308 309 310 311 312 313 314 315 316 317 318 319 320 321 322 323 324 325 326 327 328 329 330 331 332 333 334 335 336 337 338 339 340 341 342 343 344 345 346 347 348 349 350 351 352 353 354 355 356 357 358 359 360 361 362 363 364 365 366 367 368 369 370 371 372 373 374 375 376 377 378 379 380 381 382 383 384 385 386 387 388 389 390 391 392 393 394 395 396 397 398 399 400 401 402 403 404 405 406 407 408 409 410 411 412 413 414 415 416 417 418 419 420 421 422 423 424 425 426 427 428 429 430 431 432 433 434 435 436 437 438 439 440 441 442 443 444 445 446 447 448 449 450 451 452 453 454 455 456 457 458 459 460 461 462 463 464 465 466 467 468 469 470 471 472 473 474 475 476 477 478 479 480 481 482 483 484 485 486 487 488 489 490 491 492 493 494 495 496 497 498 499 500 501 502 503 504 505 506 507 508 509 510 511 512 513 514 515 516 517 518 519 520 521 522 523 524 525 526 527 528 529 530 531 532 533 534 535 536 537 538 539 540 541 542 543 544 545 546 547 548 549 550 551 552 553 554 555 556 557 558 559 560 561 562 563 564 565 566 567 568 569 570 571 572 573 574 575 576 577 578 579 580 581 582 583 584 585 586 587 588 589 590 591 592 593 594 595 596 597 598 599 600 601 602 603 604 605 606 607 608 609 610 611 612 613 614 615 616 617 618 619 620 621 622 623 624 625 626 627 628 629 630 631 632 633 634 635 636 637 638 639 640 641 642 643 644 645 646 647 648 649 650 651 652 653 654 655 656 657 658 659 660 661 662 663 664 665 666 667 668 669 670 671 672 673 674 675 676 677 678 679 680 681 682 683 684 685 686 687 688 689 690 691 692 693 694 695 696 697 698 699 700 701 702 703 704 705 706 707 708 709 710 711 712 713 714 715 716 717 718 719 720 721 722 723 724 725 726 727 728 729 730 731 732 733 734 735 736 737 738 739 740 741 742 743 744 745 746 747 748 749 750 751 752 753 754 755 756 757 758 759 760 761 762 763 764 765 766 767 768 769 770 771 772 773 774 775 776 777 778 779 780 781 782 783 784 785 786 787 788 789 790 791 792 793 794 795 796 797 798 799 800 801 802 803 804 805 806 807 808 809 810 811 812 813 814 815 816 817 818 819 820 821 822 823 824 825 826 827 828 829 830 831 832 833 834 835 836 837 838 839 840 841 842 843 844 845 846 847 848 849 850 851 852 853 854 855 856 857 858 859 860 861 862 863 864 865 866 867 868 869 870 871 872 873 874 875 876 877 878 879 880 881 882 883 884 885 886 887 888 889 890 891 892 893 894 895 896 897 898 899 900 901 902 903 904 905 906 907 908 909 910 911 912 913 914 915 916 917 918 919 920 921 922 923 924 925 926 927 928 929 930 931 932 933 934 935 936 937 938 939 940 941 942 943 944 945 946 947 948 949 950 951 952 953 954 955 956 957 958 959 960 961 962 963 964 965 966 967 968 969 970 971 972 973 974 975 976 977 978 979 980 981 982 983 984 985 986 987 988 989 990 991 992 993 994 995 996 997 998 999 1000 1001 1002 1003 1004 1005 1006 1007 1008 1009 1010 1011 1012 1013 1014 1015 1016 1017 1018 1019 1020 1021 1022 1023 1024 1025 1026 1027 1028 1029 1030 1031 1032 1033 1034 1035 1036 1037 1038 1039 1040 1041 1042 1043 1044 1045 1046 1047 1048 1049 1050 1051 1052 1053 1054 1055 1056 1057 1058 1059 1060 1061 1062 1063 1064 1065 1066 1067 1068 1069 1070 1071 1072 1073 1074 1075 1076 1077 1078 1079 1080 1081 1082 1083 1084 1085 1086 1087 1088 1089 1090 1091 1092 1093 1094 1095 1096 1097 1098 1099 1100 1101 1102 1103 1104 1105 1106 1107 1108 1109 1110 1111 1112 1113 1114 1115 1116 1117 1118 1119 1120 1121 1122 1123 1124 1125 1126 1127 1128 1129 1130 1131 1132 1133 1134 1135 1136 1137 1138 1139 1140 1141 1142 1143 1144 1145 1146 1147 1148 1149 1150 1151 1152 1153 1154 1155 1156 1157 1158 1159 1160 1161 1162 1163 1164 1165 1166 1167 1168 1169 1170 1171 1172 1173 1174 1175 1176 1177 1178 1179 1180 1181 1182 1183 1184 1185 1186 1187 1188 1189 1190 1191 1192 1193 1194 1195 1196 1197 1198 1199 1200 1201 1202 1203 1204 1205 1206 1207 1208 1209 1210 1211 1212 1213 1214 1215 1216 1217 1218 1219 1220 1221 1222 1223 1224 1225 1226 1227 1228 1229 1230 1231 1232 1233 1234 1235 1236 1237 1238 1239 1240 1241 1242 1243 1244 1245 1246 1247 1248 1249 1250 1251 1252 1253 1254 1255 1256 1257 1258 1259 1260 1261 1262 1263 1264 1265 1266 1267 1268 1269 1270 1271 1272 1273 1274 1275 1276 1277 1278 1279 1280 1281 1282 1283 1284 1285 1286 1287 1288 1289 1290 1291 1292 1293 1294 1295 1296 1297 1298 1299 1300 1301 1302 1303 1304 1305 1306 1307 1308 1309 1310 1311 1312 1313 1314 1315 1316 1317 1318 1319 1320 1321 1322 1323 1324 1325 1326 1327 1328 1329 1330 1331 1332 1333 1334 1335 1336 1337 1338 1339 1340 1341 1342 1343 1344 1345 1346 1347 1348 1349 1350 1351 1352 1353 1354 1355 1356 1357 1358 1359 1360 1361 1362 1363 1364 1365 1366 1367 1368 1369 1370 1371 1372 1373 1374 1375 1376 1377 1378 1379 1380 1381 1382 1383 1384 1385 1386 1387 1388 1389 1390 1391 1392 1393 1394 1395 1396 1397 1398 1399 1400 1401 1402 1403 1404 1405 1406 1407 1408 1409 1410 1411 1412 1413 1414 1415 1416 1417 1418 1419 1420 1421 1422 1423 1424 1425 1426 1427 1428 1429 1430 1431 1432 1433 1434 1435 1436 1437 1438 1439 1440 1441 1442 1443 1444 1445 1446 1447 1448 1449 1450 1451 1452 1453 1454 1455 1456 1457 1458 1459 1460 1461 1462 1463 1464 1465 1466 1467 1468 1469 1470 1471 1472 1473 1474 1475 1476 1477 1478 1479 1480 1481 1482 1483 1484 1485 1486 1487 1488 1489 1490 1491 1492 1493 1494 1495 1496 1497 1498 1499 1500 1501 1502 1503 1504 1505 1506 1507 1508 1509 1510 1511 1512 1513 1514 1515 1516 1517 1518 1519 1520 1521 1522 1523 1524 1525 1526 1527 1528 1529 1530 1531 1532 1533 1534 1535 1536 1537 1538 1539 1540 1541 1542 1543 1544 1545 1546 1547 1548 1549 1550 1551 1552 1553 1554 1555 1556 1557 1558 1559 1560 1561 1562 1563 1564 1565 1566 1567 1568 1569 1570 1571 1572 1573 1574 1575 1576 1577 1578 1579 1580 1581 1582 1583 1584 1585 1586 1587 1588 1589 1590 1591 1592 1593 1594 1595 1596 1597 1598 1599 1600 1601 1602 1603 1604 1605 1606 1607 1608 1609 1610 1611 1612 1613 1614 1615 1616 1617 1618 1619 1620 1621 1622 1623 1624 1625 1626 1627 1628 1629 1630 1631 1632 1633 1634 1635 1636 1637 1638 1639 1640 1641 1642 1643 1644 1645 1646 1647 1648 1649 1650 1651 1652 1653 1654 1655 1656 1657 1658 1659 1660 1661 1662 1663 1664 1665 1666 1667 1668 1669 1670 1671 1672 1673 1674 1675 1676 1677 1678 1679 1680 1681 1682 1683 1684 1685 1686 1687 1688 1689 1690 1691 1692 1693 1694 1695 1696 1697 1698 1699 1700 1701 1702 1703 1704 1705 1706 1707 1708 1709 1710 1711 1712 1713 1714 1715 1716 1717 1718 1719 1720 1721 1722 1723 1724 1725 1726 1727 1728 1729 1730 1731 1732 1733 1734 1735 1736 1737 1738 1739 1740 1741 1742 1743 1744 1745 1746 1747 1748 1749 1750 1751 1752 1753 1754 1755 1756 1757 1758 1759 1760 1761 1762 1763 1764 1765 1766 1767 1768 1769 1770 1771 1772 1773 1774 1775 1776 1777 1778 1779 1780 1781 1782 1783 1784 1785 1786 1787 1788 1789 1790 1791 1792 1793 1794 1795 1796 1797 1798 1799 1800 1801 1802 1803 1804 1805 1806 1807 1808 1809 1810 1811 1812 1813 1814 1815 1816 1817 1818 1819 1820 1821 1822 1823 1824 1825 1826 1827 1828 1829 1830 1831 1832 1833 1834 1835 1836 1837 1838 1839 1840 1841 1842 1843 1844 1845 1846 1847 1848 1849 1850 1851 1852 1853 1854 1855 1856 1857 1858 1859 1860 1861 1862 1863 1864 1865 1866 1867 1868 1869 1870 1871 1872 1873 1874 1875 1876 1877 1878 1879 1880 1881 1882 1883 1884 1885 1886 1887 1888 1889 1890 1891 1892 1893 1894 1895 1896 1897 1898 1899 1900 1901 1902 1903 1904 1905 1906 1907 1908 1909 1910 1911 1912 1913 1914 1915 1916 1917 1918 1919 1920 1921 1922 1923 1924 1925 1926 1927 1928 1929 1930 1931 1932 1933 1934 1935 1936 1937 1938 1939 1940 1941 1942 1943 1944 1945 1946 1947 1948 1949 1950 1951 1952 1953 1954 1955 1956 1957 1958 1959 1960 1961 1962 1963 1964 1965 1966 1967 1968 1969 1970 1971 1972 1973 1974 1975 1976 1977 1978 1979 1980 1981 1982 1983 1984 1985 1986 1987 1988 1989 1990 1991 1992 1993 1994 1995 1996 1997 1998 1999 2000 2001 2002 2003 2004 2005 2006 2007 2008 2009 2010 2011 2012 2013 2014 2015 2016 2017 2018 2019 2020 2021 2022 2023 2024 2025 2026 2027 2028 2029 2030 2031 2032 2033 2034 2035 2036 2037 2038 2039 2040 2041 2042 2043 2044 2045 2046 2047 2048 2049 2050 2051 2052 2053 2054 2055 2056 2057 2058 2059 2060 2061 2062 2063 2064 2065 2066 2067 2068 2069 2070 2071 2072 2073 2074 2075 2076 2077 2078 2079 2080 2081 2082 2083 2084 2085 2086 2087 2088 2089 2090 2091 2092 2093 2094 2095 2096 2097 2098 2099 2100 2101 2102 2103 2104 2105 2106 2107 2108 2109 2110 2111 2112 2113 2114 2115 2116 2117 2118 2119 2120 2121 2122 2123 2124 2125 2126 2127 2128 2129 2130 2131 2132 2133 2134 2135 2136 2137 2138 2139 2140 2141 2142 2143 2144 2145 2146 2147 2148 2149 2150 2151 2152 2153 2154 2155 2156 2157 2158 2159 2160 2161 2162 2163 2164 2165 2166 2167 2168 2169 2170 2171 2172 2173 2174 2175 2176 2177 2178 2179 2180 2181 2182 2183 2184 2185 2186 2187 2188 2189 2190 2191 2192 2193 2194 2195 2196 2197 2198 2199 2200 2201 2202 2203 2204 2205 2206 2207 2208 2209 2210 2211 2212 2213 2214 2215 2216 2217 2218 2219 2220 2221 2222 2223 2224 2225 2226 2227 2228 2229 2230 2231 2232 2233 2234 2235 2236 2237 2238 2239 2240 2241 2242 2243 2244 2245 2246 2247 2248 2249 2250 2251 2252 2253 2254 2255 2256 2257 2258 2259 2260 2261 2262 2263 2264 2265 2266 2267 2268 2269 2270 2271 2272 2273 2274 2275 2276 2277 2278 2279 2280 2281 2282 2283 2284 2285 2286 2287 2288 2289 2290 2291 2292 2293 2294 2295 2296 2297 2298 2299 2300 2301 2302 2303 2304 2305 2306 2307 2308 2309 2310 2311 2312 2313 2314 2315 2316 2317 2318 2319 2320 2321 2322 2323 2324 2325 2326 2327 2328 2329 2330 2331 2332 2333 2334 2335 2336 2337 2338 2339 2340 2341 2342 2343 2344 2345 2346 2347 2348 2349 2350 2351 2352 2353 2354 2355 2356 2357 2358 2359 2360 2361 2362 2363 2364 2365 2366 2367 2368 2369 2370 2371 2372 2373 2374 2375 2376 2377 2378 2379 2380 2381 2382 2383 2384 2385 2386 2387 2388 2389 2390 2391 2392 2393 2394 2395 2396 2397 2398 2399 2400 2401 2402 2403 2404 2405 2406 2407 2408 2409 2410 2411 2412 2413 2414 2415 2416 2417 2418 2419 2420 2421 2422 2423 2424 2425 2426 2427 2428 2429 2430 2431 2432 2433 2434 2435 2436 2437 2438 2439 2440 2441 2442 2443 2444 2445 2446 2447 2448 2449 2450 2451 2452 2453 2454 2455 2456 2457 2458 2459 2460 2461 2462 2463 2464 2465 2466 2467 2468 2469 2470 2471 2472 2473 2474 2475 2476 2477 2478 2479 2480 2481 2482 2483 2484 2485 2486 2487 2488 2489 2490 2491 2492 2493 2494 2495 2496 2497 2498 2499 2500 2501 2502 2503 2504 2505 2506 2507 2508 2509 2510 2511 2512 2513 2514 2515 2516 2517 2518 2519 2520 2521 2522 2523 2524 2525 2526 2527 2528 2529 2530 2531 2532 2533 2534 2535 2536 2537 2538 2539 2540 2541 2542 2543 2544 2545 2546 2547 2548 2549 2550 2551 2552 2553 2554 2555 2556 2557 2558 2559 2560 2561 2562 2563 2564 2565 2566 2567 2568 2569 2570 2571 2572 2573 2574 2575 2576 2577 2578 2579 2580 2581 2582 2583 2584 2585 2586 2587 2588 2589 2590 2591 2592 2593 2594 2595 2596 2597 2598 2599 2600 2601 2602 2603 2604 2605 2606 2607 2608 2609 2610 2611 2612 2613 2614 2615 2616 2617 2618 2619 2620 2621 2622 2623 2624 2625 2626 2627 2628 2629 2630 2631 2632 2633 2634 2635 2636 2637 2638 2639 2640 2641 2642 2643 2644 2645 2646 2647 2648 2649 2650 2651 2652 2653 2654 2655 2656 2657 2658 2659 2660 2661 2662 2663 2664 2665 2666 2667 2668 2669 2670 2671 2672 2673 2674 2675 2676 2677 2678 2679 2680 2681 2682 2683 2684 2685 2686 2687 2688 2689 2690 2691 2692 2693 2694 2695 2696 2697 2698 2699 2700 2701 2702 2703 2704 2705 2706 2707 2708 2709 2710 2711 2712 2713 2714 2715 2716 2717 2718 2719 2720 2721 2722 2723 2724 2725 2726 2727 2728 2729 2730 2731 2732 2733 2734 2735 2736 2737 2738 2739 2740 2741 2742 2743 2744 2745 2746 2747 2748 2749 2750 2751 2752 2753 2754 2755 2756 2757 2758 2759 2760 2761 2762 2763 2764 2765 2766 2767 2768 2769 2770 2771 2772 2773 2774 2775 2776 2777 2778 2779 2780 2781 2782 2783 2784 2785 2786 2787 2788 2789 2790 2791 2792 2793 2794 2795 2796 2797 2798 2799 2800 2801 2802 2803 2804 2805 2806 2807 2808 2809 2810 2811 2812 2813 2814 2815 2816 2817 2818 2819 2820 2821 2822 2823 2824 2825 2826 2827 2828 2829 2830 2831 2832 2833 2834 2835 2836 2837 2838 2839 2840 2841 2842 2843 2844 2845 2846 2847 2848 2849 2850 2851 2852 2853 2854 2855 2856 2857 2858 2859 2860 2861 2862 2863 2864 2865 2866 2867 2868 2869 2870 2871 2872 2873 2874 2875 2876 2877 2878 2879 2880 2881 2882 2883 2884 2885 2886 2887 2888 2889 2890 2891 2892 2893 2894 2895 2896 2897 2898 2899 2900 2901 2902 2903 2904 2905 2906 2907 2908 2909 2910 2911 2912 2913 2914 2915 2916 2917 2918 2919 2920 2921 2922 2923 2924 2925 2926 2927 2928 2929 2930 2931 2932 2933 2934 2935 2936 2937 2938 2939 2940 2941 2942 2943 2944 2945 2946 2947 2948 2949 2950 2951 2952 2953 2954 2955 2956 2957 2958 2959 2960 2961 2962 2963 2964 2965 2966 2967 2968 2969 2970 2971 2972 2973 2974 2975 2976 2977 2978 2979 2980 2981 2982 2983 2984 2985 2986 2987 2988 2989 2990 2991 2992 2993 2994 2995 2996 2997 2998 2999 3000 3001 3002 3003 3004 3005 3006 3007 3008 3009 3010 3011 3012 3013 3014 3015 3016 3017 3018 3019 3020 3021 3022 3023 3024 3025 3026 3027 3028 3029 3030 3031 3032 3033 3034 3035 3036 3037 3038 3039 3040 3041 3042 3043 3044 3045 3046 3047 3048 3049 3050 3051 3052 3053 3054 3055 3056 3057 3058 3059 3060 3061 3062 3063 3064 3065 3066 3067 3068 3069 3070 3071 3072 3073 3074 3075 3076 3077 3078 3079 3080 3081 3082 3083 3084 3085 3086 3087 3088 3089 3090 3091 3092 3093 3094 3095 3096 3097 3098 3099 3100 3101 3102 3103 3104 3105 3106 3107 3108 3109 3110 3111 3112 3113 3114 3115 3116 3117 3118 3119 3120 3121 3122 3123 3124 3125 3126 3127 3128 3129 3130 3131 3132 3133 3134 3135 3136 3137 3138 3139 3140 3141 3142 3143 3144 3145 3146 3147 3148 3149 3150 3151 3152 3153 3154 3155 3156 3157 3158 3159 3160 3161 3162 3163 3164 3165 3166 3167 3168 3169 3170 3171 3172 3173 3174 3175 3176 3177 3178 3179 3180 3181 3182 3183 3184 3185 3186 3187 3188 3189 3190 3191 3192 3193 3194 3195 3196 3197 3198 3199 3200 3201 3202 3203 3204 3205 3206 3207 3208 3209 3210 3211 3212 3213 3214 3215 3216 3217 3218 3219 3220 3221 3222 3223 3224 3225 3226 3227 3228 3229 3230 3231 3232 3233 3234 3235 3236 3237 3238 3239 3240 3241 3242 3243 3244 3245 3246 3247 3248 3249 3250 3251 3252 3253 3254 3255 3256 3257 3258 3259 3260 3261 3262 3263 3264 3265 3266 3267 3268 3269 3270 3271 3272 3273 3274 3275 3276 3277 3278 3279 3280 3281 3282 3283 3284 3285 3286 3287 3288 3289 3290 3291 3292 3293 3294 3295 3296 3297 3298 3299 3300 3301 3302 3303 3304 3305 3306 3307 3308 3309 3310 3311 3312 3313 3314 3315 3316 3317 3318 3319 3320 3321 3322 3323 3324 3325 3326 3327 3328 3329 3330 3331 3332 3333 3334 3335 3336 3337 3338 3339 3340 3341 3342 3343 3344 3345 3346 3347 3348 3349 3350 3351 3352 3353 3354 3355 3356 3357 3358 3359 3360 3361 3362 3363 3364 3365 3366 3367 3368 3369 3370 3371 3372 3373 3374 3375 3376 3377 3378 3379 3380 3381 3382 3383 3384 3385 3386 3387 3388 3389 3390 3391 3392 3393 3394 3395 3396 3397 3398 3399 3400 3401 3402 3403 3404 3405 3406 3407 3408 3409 3410 3411 3412 3413 3414 3415 3416 3417 3418 3419 3420 3421 3422 3423 3424 3425 3426 3427 3428 3429 3430 3431 3432 3433 3434 3435 3436 3437 3438 3439 3440 3441 3442 3443 3444 3445 3446 3447 3448 3449 3450 3451 3452 3453 3454 3455 3456 3457 3458 3459 3460 3461 3462 3463 3464 3465 3466 3467 3468 3469 3470 3471 3472 3473 3474 3475 3476 3477 3478 3479 3480 3481 3482 3483 3484 3485 3486 3487 3488 3489 3490 3491 3492 3493 3494 3495 3496 3497 3498 3499 3500 3501 3502 3503 3504 3505 3506 3507 3508 3509 3510 3511 3512 3513 3514 3515 3516 3517 3518 3519 3520 3521 3522 3523 3524 3525 3526 3527 3528 3529 3530 3531 3532 3533 3534 3535 3536 3537 3538 3539 3540 3541 3542 3543 3544 3545 3546 3547 3548 3549 3550 3551 3552 3553 3554 3555 3556 3557 3558 3559 3560 3561 3562 3563 3564 3565 3566 3567 3568 3569 3570 3571 3572 3573 3574 3575 3576 3577 3578 3579 3580 3581 3582 3583 3584 3585 3586 3587 3588 3589 3590 3591 3592 3593 3594 3595 3596 3597 3598 3599 3600 3601 3602 3603 3604 3605 3606 3607 3608 3609 3610 3611 3612 3613 3614 3615 3616 3617 3618 3619 3620 3621 3622 3623 3624 3625 3626 3627 3628 3629 3630 3631 3632 3633 3634 3635 3636 3637 3638 3639 3640 3641 3642 3643 3644 3645 3646 3647 3648 3649 3650 3651 3652 3653 3654 3655 3656 3657 3658 3659 3660 3661 3662 3663 3664 3665 3666 3667 3668 3669 3670 3671 3672 3673 3674 3675 3676 3677 3678 3679 3680 3681 3682 3683 3684 3685 3686 3687 3688 3689 3690 3691 3692 3693 3694 3695 3696 3697 3698 3699 3700 3701 3702 3703 3704 3705 3706 3707 3708 3709 3710 3711 3712 3713 3714 3715 3716 3717 3718 3719 3720 3721 3722 3723 3724 3725 3726 3727 3728 3729 3730 3731 3732 3733 3734 3735 3736 3737 3738 3739 3740 3741 3742 3743 3744 3745 3746 3747 3748 3749 3750 3751 3752 3753 3754 3755 3756 3757 3758 3759 3760 3761 3762 3763 3764 3765 3766 3767 3768 3769 3770 3771 3772 3773 3774 3775 3776 3777 3778 3779 3780 3781 3782 3783 3784 3785 3786 3787 3788 3789 3790 3791 3792 3793 3794 3795 3796 3797 3798 3799 3800 3801 3802 3803 3804 3805 3806 3807 3808 3809 3810 3811 3812 3813 3814 3815 3816 3817 3818 3819 3820 3821 3822 3823 3824 3825 3826 3827 3828 3829 3830 3831 3832 3833 3834 3835 3836 3837 3838 3839 3840 3841 3842 3843 3844 3845 3846 3847 3848 3849 3850 3851 3852 3853 3854 3855 3856 3857 3858 3859 3860 3861 3862 3863 3864 3865 3866 3867 3868 3869 3870 3871 3872 3873 3874 3875 3876 3877 3878 3879 3880 3881 3882 3883 3884 3885 3886 3887 3888 3889 3890 3891 3892 3893 3894 3895 3896 3897 3898 3899 3900 3901 3902 3903 3904 3905 3906 3907 3908 3909 3910 3911 3912 3913 3914 3915 3916 3917 3918 3919 3920 3921 3922 3923 3924 3925 3926 3927 3928 3929 3930 3931 3932 3933 3934 3935 3936 3937 3938 3939 3940 3941 3942 3943 3944 3945 3946 3947 3948 3949 3950 3951 3952 3953 3954 3955 3956 3957 3958 3959 3960 3961 3962 3963 3964 3965 3966 3967 3968 3969 3970 3971 3972 3973 3974 3975 3976 3977 3978 3979 3980 3981 3982 3983 3984 3985 3986 3987 3988 3989 3990 3991 3992 3993 3994 3995 3996 3997 3998 3999 4000 4001 4002 4003 4004 4005 4006 4007 4008 4009 4010 4011 4012 4013 4014 4015 4016 4017 4018 4019 4020 4021 4022 4023 4024 4025 4026 4027 4028 4029 4030 4031 4032 4033 4034 4035 4036 4037 4038 4039 4040 4041 4042 4043 4044 4045 4046 4047 4048 4049 4050 4051 4052 4053 4054 4055 4056 4057 4058 4059 4060 4061 4062 4063 4064 4065 4066 4067 4068 4069 4070 4071 4072 4073 4074 4075 4076 4077 4078 4079 4080 4081 4082 4083 4084 4085 4086 4087 4088 4089 4090 4091 4092 4093 4094 4095 4096 4097 4098 4099 4100 4101 4102 4103 4104 4105 4106 4107 4108 4109 4110 4111 4112 4113 4114 4115 4116 4117 4118 4119 4120 4121 4122 4123 4124 4125 4126 4127 4128 4129 4130 4131 4132 4133 4134 4135 4136 4137 4138 4139 4140 4141 4142 4143 4144 4145 4146 4147 4148 4149 4150 4151 4152 4153 4154 4155 4156 4157 4158 4159 4160 4161 4162 4163 4164 4165 4166 4167 4168 4169 4170 4171 4172 4173 4174 4175 4176 4177 4178 4179 4180 4181 4182 4183 4184 4185 4186 4187 4188 4189 4190 4191 4192 4193 4194 4195 4196 4197 4198 4199 4200 4201 4202 4203 4204 4205 4206 4207 4208 4209 4210 4211 4212 4213 4214 4215 4216 4217 4218 4219 4220 4221 4222 4223 4224 4225 4226 4227 4228 4229 4230 4231 4232 4233 4234 4235 4236 4237 4238 4239 4240 4241 4242 4243 4244 4245 4246 4247 4248 4249 4250 4251 4252 4253 4254 4255 4256 4257 4258 4259 4260 4261 4262 4263 4264 4265 4266 4267 4268 4269 4270 4271 4272 4273 4274 4275 4276 4277 4278 4279 4280 4281 4282 4283 4284 4285 4286 4287 4288 4289 4290 4291 4292 4293 4294 4295 4296 4297 4298 4299 4300 4301 4302 4303 4304 4305 4306 4307 4308 4309 4310 4311 4312 4313 4314 4315 4316 4317 4318 4319 4320 4321 4322 4323 4324 4325 4326 4327 4328 4329 4330 4331 4332 4333 4334 4335 4336 4337 4338 4339 4340 4341 4342 4343 4344 4345 4346 4347 4348 4349 4350 4351 4352 4353 4354 4355 4356 4357 4358 4359 4360 4361 4362 4363 4364 4365 4366 4367 4368 4369 4370 4371 4372 4373 4374 4375 4376 4377 4378 4379 4380 4381 4382 4383 4384 4385 4386 4387 4388 4389 4390 4391 4392 4393 4394 4395 4396 4397 4398 4399 4400 4401 4402 4403 4404 4405 4406 4407 4408 4409 4410 4411 4412 4413 4414 4415 4416 4417 4418 4419 4420 4421 4422 4423 4424 4425 4426 4427 4428 4429 4430 4431 4432 4433 4434 4435 4436 4437 4438 4439 4440 4441 4442 4443 4444 4445 4446 4447 4448 4449 4450 4451 4452 4453 4454 4455 4456 4457 4458 4459 4460 4461 4462 4463 4464 4465 4466 4467 4468 4469 4470 4471 4472 4473 4474 4475 4476 4477 4478 4479 4480 4481 4482 4483 4484 4485 4486 4487 4488 4489 4490 4491 4492 4493 4494 4495 4496 4497 4498 4499 4500 4501 4502 4503 4504 4505 4506 4507 4508 4509 4510 4511 4512 4513 4514 4515 4516 4517 4518 4519 4520 4521 4522 4523 4524 4525 4526 4527 4528 4529 4530 4531 4532 4533 4534 4535 4536 4537 4538 4539 4540 4541 4542 4543 4544 4545 4546 4547 4548 4549 4550 4551 4552 4553 4554 4555 4556 4557 4558 4559 4560 4561 4562 4563 4564 4565 4566 4567 4568 4569 4570 4571 4572 4573 4574 4575 4576 4577 4578 4579 4580 4581 4582 4583 4584 4585 4586 4587 4588 4589 4590 4591 4592 4593 4594 4595 4596 4597 4598 4599 4600 4601 4602 4603 4604 4605 4606 4607 4608 4609 4610 4611 4612 4613 4614 4615 4616 4617 4618 4619 4620 4621 4622 4623 4624 4625 4626 4627 4628 4629 4630 4631 4632 4633 4634 4635 4636 4637 4638 4639 4640 4641 4642 4643 4644 4645 4646 4647 4648 4649 4650 4651 4652 4653 4654 4655 4656 4657 4658 4659 4660 4661 4662 4663 4664 4665 4666 4667 4668 4669 4670 4671 4672 4673 4674 4675 4676 4677 4678 4679 4680 4681 4682 4683 4684 4685 4686 4687 4688 4689 4690 4691 4692 4693 4694 4695 4696 4697 4698 4699 4700 4701 4702 4703 4704 4705 4706 4707 4708 4709 4710 4711 4712 4713 4714 4715 4716 4717 4718 4719 4720 4721 4722 4723 4724 4725 4726 4727 4728 4729 4730 4731 4732 4733 4734 4735 4736 4737 4738 4739 4740 4741 4742 4743 4744 4745 4746 4747 4748 4749 4750 4751 4752 4753 4754 4755 4756 4757 4758 4759 4760 4761 4762 4763 4764 4765 4766 4767 4768 4769 4770 4771 4772 4773 4774 4775 4776 4777 4778 4779 4780 4781 4782 4783 4784 4785 4786 4787 4788 4789 4790 4791 4792 4793 4794 4795 4796 4797 4798 4799 4800 4801 4802 4803 4804 4805 4806 4807 4808 4809 4810 4811 4812 4813 4814 4815 4816 4817 4818 4819 4820 4821 4822 4823 4824 4825 4826 4827 4828 4829 4830 4831 4832 4833 4834 4835 4836 4837 4838 4839 4840 4841 4842 4843 4844 4845 4846 4847 4848 4849 4850 4851 4852 4853 4854 4855 4856 4857 4858 4859 4860 4861 4862 4863 4864 4865 4866 4867 4868 4869 4870 4871 4872 4873 4874 4875 4876 4877 4878 4879 4880 4881 4882 4883 4884 4885 4886 4887 4888 4889 4890 4891 4892 4893 4894 4895 4896 4897 4898 4899 4900 4901 4902 4903 4904 4905 4906 4907 4908 4909 4910 4911 4912 4913 4914 4915 4916 4917 4918 4919 4920 4921 4922 4923 4924 4925 4926 4927 4928 4929 4930 4931 4932 4933 4934 4935 4936 4937 4938 4939 4940 4941 4942 4943 4944 4945 4946 4947 4948 4949 4950 4951 4952 4953 4954 4955 4956 4957 4958 4959 4960 4961 4962 4963 4964 4965 4966 4967 4968 4969 4970 4971 4972 4973 4974 4975 4976 4977 4978 4979 4980 4981 4982 4983 4984 4985 4986 4987 4988 4989 4990 4991 4992 4993 4994 4995 4996 4997 4998 4999 5000 5001 5002 5003 5004 5005 5006 5007 5008 5009 5010 5011 5012 5013 5014 5015 5016 5017 5018 5019 5020 5021 5022 5023 5024 5025 5026 5027 5028 5029 5030 5031 5032 5033 5034 5035 5036 5037 5038 5039 5040 5041 5042 5043 5044 5045 5046 5047 5048 5049 5050 5051 5052 5053 5054 5055 5056 5057 5058 5059 5060 5061 5062 5063 5064 5065 5066 5067 5068 5069 5070 5071 5072 5073 5074 5075 5076 5077 5078 5079 5080 5081 5082 5083 5084 5085 5086 5087 5088 5089 5090 5091 5092 5093 5094 5095 5096 5097 5098 5099 5100 5101 5102 5103 5104 5105 5106 5107 5108 5109 5110 5111 5112 5113 5114 5115 5116 5117 5118 5119 5120 5121 5122 5123 5124 5125 5126 5127 5128 5129 5130 5131 5132 5133 5134 5135 5136 5137 5138 5139 5140 5141 5142 5143 5144 5145 5146 5147 5148 5149 5150 5151 5152 5153 5154 5155 5156 5157 5158 5159 5160 5161 5162 5163 5164 5165 5166 5167 5168 5169 5170 5171 5172 5173 5174 5175 5176 5177 5178 5179 5180 5181 5182 5183 5184 5185 5186 5187 5188 5189 5190 5191 5192 5193 5194 5195 5196 5197 5198 5199 5200 5201 5202 5203 5204 5205 5206 5207 5208 5209 5210 5211 5212 5213 5214 5215 5216 5217 5218 5219 5220 5221 5222 5223 5224 5225 5226 5227 5228 5229 5230 5231 5232 5233 5234 5235 5236 5237 5238 5239 5240 5241 5242 5243 5244 5245 5246 5247 5248 5249 5250 5251 5252 5253 5254 5255 5256 5257 5258 5259 5260 5261 5262 5263 5264 5265 5266 5267 5268 5269 5270 5271 5272 5273 5274 5275 5276 5277 5278 5279 5280 5281 5282 5283 5284 5285 5286 5287 5288 5289 5290 5291 5292 5293 5294 5295 5296 5297 5298 5299 5300 5301 5302 5303 5304 5305 5306 5307 5308 5309 5310 5311 5312 5313 5314 5315 5316 5317 5318 5319 5320 5321 5322 5323 5324 5325 5326 5327 5328 5329 5330 5331 5332 5333 5334 5335 5336 5337 5338 5339 5340 5341 5342 5343 5344 5345 5346 5347 5348 5349 5350 5351 5352 5353 5354 5355 5356 5357 5358 5359 5360 5361 5362 5363 5364 5365 5366 5367 5368 5369 5370 5371 5372 5373 5374 5375 5376 5377 5378 5379 5380 5381 5382 5383 5384 5385 5386 5387 5388 5389 5390 5391 5392 5393 5394 5395 5396 5397 5398 5399 5400 5401 5402 5403 5404 5405 5406 5407 5408 5409 5410 5411 5412 5413 5414 5415 5416 5417 5418 5419 5420 5421 5422 5423 5424 5425 5426 5427 5428 5429 5430 5431 5432 5433 5434 5435 5436 5437 5438 5439 5440 5441 5442 5443 5444 5445 5446 5447 5448 5449 5450 5451 5452 5453 5454 5455 5456 5457 5458 5459 5460 5461 5462 5463 5464 5465 5466 5467 5468 5469 5470 5471 5472 5473 5474 5475 5476 5477 5478 5479 5480 5481 5482 5483 5484 5485 5486 5487 5488 5489 5490 5491 5492 5493 5494 5495 5496 5497 5498 5499 5500 5501 5502 5503 5504 5505 5506 5507 5508 5509 5510 5511 5512 5513 5514 5515 5516 5517 5518 5519 5520 5521 5522 5523 5524 5525 5526 5527 5528 5529 5530 5531 5532 5533 5534 5535 5536 5537 5538 5539 5540 5541 5542 5543 5544 5545 5546 5547 5548 5549 5550 5551 5552 5553 5554 5555 5556 5557 5558 5559 5560 5561 5562 5563 5564 5565 5566 5567 5568 5569 5570 5571 5572 5573 5574 5575 5576 5577 5578 5579 5580 5581 5582 5583 5584 5585 5586 5587 5588 5589 5590 5591 5592 5593 5594 5595 5596 5597 5598 5599 5600 5601 5602 5603 5604 5605 5606 5607 5608 5609 5610 5611 5612 5613 5614 5615 5616 5617 5618 5619 5620 5621 5622 5623 5624 5625 5626 5627 5628 5629 5630 5631 5632 5633 5634 5635 5636 5637 5638 5639 5640 5641 5642 5643 5644 5645 5646 5647 5648 5649 5650 5651 5652 5653 5654 5655 5656 5657 5658 5659 5660 5661 5662 5663 5664 5665 5666 5667 5668 5669 5670 5671 5672 5673 5674 5675 5676 5677 5678 5679 5680 5681 5682 5683 5684 5685 5686 5687 5688 5689 5690 5691 5692 5693 5694 5695 5696 5697 5698 5699 5700 5701 5702 5703 5704 5705 5706 5707 5708 5709 5710 5711 5712 5713 5714 5715 5716 5717 5718 5719 5720 5721 5722 5723 5724 5725 5726 5727 5728 5729 5730 5731 5732 5733 5734 5735 5736 5737 5738 5739 5740 5741 5742 5743 5744 5745 5746 5747 5748 5749 5750 5751 5752 5753 5754 5755 5756 5757 5758 5759 5760 5761 5762 5763 5764 5765 5766 5767 5768 5769 5770 5771 5772 5773 5774 5775 5776 5777 5778 5779 5780 5781 5782 5783 5784 5785 5786 5787 5788 5789 5790 5791 5792 5793 5794 5795 5796 5797 5798 5799 5800 5801 5802 5803 5804 5805 5806 5807 5808 5809 5810 5811 5812 5813 5814 5815 5816 5817 5818 5819 5820 5821 5822 5823 5824 5825 5826 5827 5828 5829 5830 5831 5832 5833 5834 5835 5836 5837 5838 5839 5840 5841 5842 5843 5844 5845 5846 5847 5848 5849 5850 5851 5852 5853 5854 5855 5856 5857 5858 5859 5860 5861 5862 5863 5864 5865 5866 5867 5868 5869 5870 5871 5872 5873 5874 5875 5876 5877 5878 5879 5880 5881 5882 5883 5884 5885 5886 5887 5888 5889 5890 5891 5892 5893 5894 5895 5896 5897 5898 5899 5900 5901 5902 5903 5904 5905 5906 5907 5908 5909 5910 5911 5912 5913 5914 5915 5916 5917 5918 5919 5920 5921 5922 5923 5924 5925 5926 5927 5928 5929 5930 5931 5932 5933 5934 5935 5936 5937 5938 5939 5940 5941 5942 5943 5944 5945 5946 5947 5948 5949 5950 5951 5952 5953 5954 5955 5956 5957 5958 5959 5960 5961 5962 5963 5964 5965 5966 5967 5968 5969 5970 5971 5972 5973 5974 5975 5976 5977 5978 5979 5980 5981 5982 5983 5984 5985 5986 5987 5988 5989 5990 5991 5992 5993 5994 5995 5996 5997 5998 5999 6000 6001 6002 6003 6004 6005 6006 6007 6008 6009 6010 6011 6012 6013 6014 6015 6016 6017 6018 6019 6020 6021 6022 6023 6024 6025 6026 6027 6028 6029 6030 6031 6032 6033 6034 6035 6036 6037 6038 6039 6040 6041 6042 6043 6044 6045 6046 6047 6048 6049 6050 6051 6052 6053 6054 6055 6056 6057 6058 6059 6060 6061 6062 6063 6064 6065 6066 6067 6068 6069 6070 6071 6072 6073 6074 6075 6076 6077 6078 6079 6080 6081 6082 6083 6084 6085 6086 6087 6088 6089 6090 6091 6092 6093 6094 6095 6096 6097 6098 6099 6100 6101 6102 6103 6104 6105 6106 6107 6108 6109 6110 6111 6112 6113 6114 6115 6116 6117 6118 6119 6120 6121 6122 6123 6124 6125 6126 6127 6128 6129 6130 6131 6132 6133 6134 6135 6136 6137 6138 6139 6140 6141 6142 6143 6144 6145 6146 6147 6148 6149 6150 6151 6152 6153 6154 6155 6156 6157 6158 6159 6160 6161 6162 6163 6164 6165 6166 6167 6168 6169 6170 6171 6172 6173 6174 6175 6176 6177 6178 6179 6180 6181 6182 6183 6184 6185 6186 6187 6188 6189 6190 6191 6192 6193 6194 6195 6196 6197 6198 6199 6200 6201 6202 6203 6204 6205 6206 6207 6208 6209 6210 6211 6212 6213 6214 6215 6216 6217 6218 6219 6220 6221 6222 6223 6224 6225 6226 6227 6228 6229 6230 6231 6232 6233 6234 6235 6236 6237 6238 6239 6240 6241 6242 6243 6244 6245 6246 6247 6248 6249 6250 6251 6252 6253 6254 6255 6256 6257 6258 6259 6260 6261 6262 6263 6264 6265 6266 6267 6268 6269 6270 6271 6272 6273 6274 6275 6276 6277 6278 6279 6280 6281 6282 6283 6284 6285 6286 6287 6288 6289 6290 6291 6292 6293 6294 6295 6296 6297 6298 6299 6300 6301 6302 6303 6304 6305 6306 6307 6308 6309 6310 6311 6312 6313 6314 6315 6316 6317 6318 6319 6320 6321 6322 6323 6324 6325 6326 6327 6328 6329 6330 6331 6332 6333 6334 6335 6336 6337 6338 6339 6340 6341 6342 6343 6344 6345 6346 6347 6348 6349 6350 6351 6352 6353 6354 6355 6356 6357 6358 6359 6360 6361 6362 6363 6364 6365 6366 6367 6368 6369 6370 6371 6372 6373 6374 6375 6376 6377 6378 6379 6380 6381 6382 6383 6384 6385 6386 6387 6388 6389 6390 6391 6392 6393 6394 6395 6396 6397 6398 6399 6400 6401 6402 6403 6404 6405 6406 6407 6408 6409 6410 6411 6412 6413 6414 6415 6416 6417 6418 6419 6420 6421 6422 6423 6424 6425 6426 6427 6428 6429 6430 6431 6432 6433 6434 6435 6436 6437 6438 6439 6440 6441 6442 6443 6444 6445 6446 6447 6448 6449 6450 6451 6452 6453 6454 6455 6456 6457 6458 6459 6460 6461 6462 6463 6464 6465 6466 6467 6468 6469 6470 6471 6472 6473 6474 6475 6476 6477 6478 6479 6480 6481 6482 6483 6484 6485 6486 6487 6488 6489 6490 6491 6492 6493 6494 6495 6496 6497 6498 6499 6500 6501 6502 6503 6504 6505 6506 6507 6508 6509 6510 6511 6512 6513 6514 6515 6516 6517 6518 6519 6520 6521 6522 6523 6524 6525 6526 6527 6528 6529 6530 6531 6532 6533 6534 6535 6536 6537 6538 6539 6540 6541 6542 6543 6544 6545 6546 6547 6548 6549 6550 6551 6552 6553 6554 6555 6556 6557 6558 6559 6560 6561 6562 6563 6564 6565 6566 6567 6568 6569 6570 6571 6572 6573 6574 6575 6576 6577 6578 6579 6580 6581 6582 6583 6584 6585 6586 6587 6588 6589 6590 6591 6592 6593 6594 6595 6596 6597 6598 6599 6600 6601 6602 6603 6604 6605 6606 6607 6608 6609 6610 6611 6612 6613 6614 6615 6616 6617 6618 6619 6620 6621 6622 6623 6624 6625 6626 6627 6628 6629 6630 6631 6632 6633 6634 6635 6636 6637 6638 6639 6640 6641 6642 6643 6644 6645 6646 6647 6648 6649 6650 6651 6652 6653 6654 6655 6656 6657 6658 6659 6660 6661 6662 6663 6664 6665 6666 6667 6668 6669 6670 6671 6672 6673 6674 6675 6676 6677 6678 6679 6680 6681 6682 6683 6684 6685 6686 6687 6688 6689 6690 6691 6692 6693 6694 6695 6696 6697 6698 6699 6700 6701 6702 6703 6704 6705 6706 6707 6708 6709 6710 6711 6712 6713 6714 6715 6716 6717 6718 6719 6720 6721 6722 6723 6724 6725 6726 6727 6728 6729 6730 6731 6732 6733 6734 6735 6736 6737 6738 6739 6740 6741 6742 6743 6744 6745 6746 6747 6748 6749 6750 6751 6752 6753 6754 6755 6756 6757 6758 6759 6760 6761 6762 6763 6764 6765 6766 6767 6768 6769 6770 6771 6772 6773 6774 6775 6776 6777 6778 6779 6780 6781 6782 6783 6784 6785 6786 6787 6788 6789 6790 6791 6792 6793 6794 6795 6796 6797 6798 6799 6800 6801 6802 6803 6804 6805 6806 6807 6808 6809 6810 6811 6812 6813 6814 6815 6816 6817 6818 6819 6820 6821 6822 6823 6824 6825 6826 6827 6828 6829 6830 6831 6832 6833 6834 6835 6836 6837 6838 6839 6840 6841 6842 6843 6844 6845 6846 6847 6848 6849 6850 6851 6852 6853 6854 6855 6856 6857 6858 6859 6860 6861 6862 6863 6864 6865 6866 6867 6868 6869 6870 6871 6872 6873 6874 6875 6876 6877 6878 6879 6880 6881 6882 6883 6884 6885 6886 6887 6888 6889 6890 6891 6892 6893 6894 6895 6896 6897 6898 6899 6900 6901 6902 6903 6904 6905 6906 6907 6908 6909 6910 6911 6912 6913 6914 6915 6916 6917 6918 6919 6920 6921 6922 6923 6924 6925 6926 6927 6928 6929 6930 6931 6932 6933 6934 6935 6936 6937 6938 6939 6940 6941 6942 6943 6944 6945 6946 6947 6948 6949 6950 6951 6952 6953 6954 6955 6956 6957 6958 6959 6960 6961 6962 6963 6964 6965 6966 6967 6968 6969 6970 6971 6972 6973 6974 6975 6976 6977 6978 6979 6980 6981 6982 6983 6984 6985 6986 6987 6988 6989 6990 6991 6992 6993 6994 6995 6996 6997 6998 6999 7000 7001 7002 7003 7004 7005 7006 7007 7008 7009 7010 7011 7012 7013 7014 7015 7016 7017 7018 7019 7020 7021 7022 7023 7024 7025 7026 7027 7028 7029 7030 7031 7032 7033 7034 7035 7036 7037 7038 7039 7040 7041 7042 7043 7044 7045 7046 7047 7048 7049 7050 7051 7052 7053 7054 7055 7056 7057 7058 7059 7060 7061 7062 7063 7064 7065 7066 7067 7068 7069 7070 7071 7072 7073 7074 7075 7076 7077 7078 7079 7080 7081 7082 7083 7084 7085 7086 7087 7088 7089 7090 7091 7092 7093 7094 7095 7096 7097 7098 7099 7100 7101 7102 7103 7104 7105 7106 7107 7108 7109 7110 7111 7112 7113 7114 7115 7116 7117 7118 7119 7120 7121 7122 7123 7124 7125 7126 7127 7128 7129 7130 7131 7132 7133 7134 7135 7136 7137 7138 7139 7140 7141 7142 7143 7144 7145 7146 7147 7148 7149 7150 7151 7152 7153 7154 7155 7156 7157 7158 7159 7160 7161 7162 7163 7164 7165 7166 7167 7168 7169 7170 7171 7172 7173 7174 7175 7176 7177 7178 7179 7180 7181 7182 7183 7184 7185 7186 7187 7188 7189 7190 7191 7192 7193 7194 7195 7196 7197 7198 7199 7200 7201 7202 7203 7204 7205 7206 7207 7208 7209 7210 7211 7212 7213 7214 7215 7216 7217 7218 7219 7220 7221 7222 7223 7224 7225 7226 7227 7228 7229 7230 7231 7232 7233 7234 7235 7236 7237 7238 7239 7240 7241 7242 7243 7244 7245 7246 7247 7248 7249 7250 7251 7252 7253 7254 7255 7256 7257 7258 7259 7260 7261 7262 7263 7264 7265 7266 7267 7268 7269 7270 7271 7272 7273 7274 7275 7276 7277 7278 7279 7280 7281 7282 7283 7284 7285 7286 7287 7288 7289 7290 7291 7292 7293 7294 7295 7296 7297 7298 7299 7300 7301 7302 7303 7304 7305 7306 7307 7308 7309 7310 7311 7312 7313 7314 7315 7316 7317 7318 7319 7320 7321 7322 7323 7324 7325 7326 7327 7328 7329 7330 7331 7332 7333 7334 7335 7336 7337 7338 7339 7340 7341 7342 7343 7344 7345 7346 7347 7348 7349 7350 7351 7352 7353 7354 7355 7356 7357 7358 7359 7360 7361 7362 7363 7364 7365 7366 7367 7368 7369 7370 7371 7372 7373 7374 7375 7376 7377 7378 7379 7380 7381 7382 7383 7384 7385 7386 7387 7388 7389 7390 7391 7392 7393 7394 7395 7396 7397 7398 7399 7400 7401 7402 7403 7404 7405 7406 7407 7408 7409 7410 7411 7412 7413 7414 7415 7416 7417 7418 7419 7420 7421 7422 7423 7424 7425 7426 7427 7428 7429 7430 7431 7432 7433 7434 7435 7436 7437 7438 7439 7440 7441 7442 7443 7444 7445 7446 7447 7448 7449 7450 7451 7452 7453 7454 7455 7456 7457 7458 7459 7460 7461 7462 7463 7464 7465 7466 7467 7468 7469 7470 7471 7472 7473 7474 7475 7476 7477 7478 7479 7480 7481 7482 7483 7484 7485 7486 7487 7488 7489 7490 7491 7492 7493 7494 7495 7496 7497 7498 7499 7500 7501 7502 7503 7504 7505 7506 7507 7508 7509 7510 7511 7512 7513 7514 7515 7516 7517 7518 7519 7520 7521 7522 7523 7524 7525 7526 7527 7528 7529 7530 7531 7532 7533 7534 7535 7536 7537 7538 7539 7540 7541 7542 7543 7544 7545 7546 7547 7548 7549 7550 7551 7552 7553 7554 7555 7556 7557 7558 7559 7560 7561 7562 7563 7564 7565 7566 7567 7568 7569 7570 7571 7572 7573 7574 7575 7576 7577 7578 7579 7580 7581 7582 7583 7584 7585 7586 7587 7588 7589 7590 7591 7592 7593 7594 7595 7596 7597 7598 7599 7600 7601 7602 7603 7604 7605 7606 7607 7608 7609 7610 7611 7612 7613 7614 7615 7616 7617 7618 7619 7620 7621 7622 7623 7624 7625 7626 7627 7628 7629 7630 7631 7632 7633 7634 7635 7636 7637 7638 7639 7640 7641 7642 7643 7644 7645 7646 7647 7648 7649 7650 7651 7652 7653 7654 7655 7656 7657 7658 7659 7660 7661 7662 7663 7664 7665 7666 7667 7668 7669 7670 7671 7672 7673 7674 7675 7676 7677 7678 7679 7680 7681 7682 7683 7684 7685 7686 7687 7688 7689 7690 7691 7692 7693 7694 7695 7696 7697 7698 7699 7700 7701 7702 7703 7704 7705 7706 7707 7708 7709 7710 7711 7712 7713 7714 7715 7716 7717 7718 7719 7720 7721 7722 7723 7724 7725 7726 7727 7728 7729 7730 7731 7732 7733 7734 7735 7736 7737 7738 7739 7740 7741 7742 7743 7744 7745 7746 7747 7748 7749 7750 7751 7752 7753 7754 7755 7756 7757 7758 7759 7760 7761 7762 7763 7764 7765 7766 7767 7768 7769 7770 7771 7772 7773 7774 7775 7776 7777 7778 7779 7780 7781 7782 7783 7784 7785 7786 7787 7788 7789 7790 7791 7792 7793 7794 7795 7796 7797 7798 7799 7800 7801 7802 7803 7804 7805 7806 7807 7808 7809 7810 7811 7812 7813 7814 7815 7816 7817 7818 7819 7820 7821 7822 7823 7824 7825 7826 7827 7828 7829 7830 7831 7832 7833 7834 7835 7836 7837 7838 7839 7840 7841 7842 7843 7844 7845 7846 7847 7848 7849 7850 7851 7852 7853 7854 7855 7856 7857 7858 7859 7860 7861 7862 7863 7864 7865 7866 7867 7868 7869 7870 7871 7872 7873 7874 7875 7876 7877 7878 7879 7880 7881 7882 7883 7884 7885 7886 7887 7888 7889 7890 7891 7892 7893 7894 7895 7896 7897 7898 7899 7900 7901 7902 7903 7904 7905 7906 7907 7908 7909 7910 7911 7912 7913 7914 7915 7916 7917 7918 7919 7920 7921 7922 7923 7924 7925 7926 7927 7928 7929 7930 7931 7932 7933 7934 7935 7936 7937 7938 7939 7940 7941 7942 7943 7944 7945 7946 7947 7948 7949 7950 7951 7952 7953 7954 7955 7956 7957 7958 7959 7960 7961 7962 7963 7964 7965 7966 7967 7968 7969 7970 7971 7972 7973 7974 7975 7976 7977 7978 7979 7980 7981 7982 7983 7984 7985 7986 7987 7988 7989 7990 7991 7992 7993 7994 7995 7996 7997 7998 7999 8000 8001 8002 8003 8004 8005 8006 8007 8008 8009 8010 8011 8012 8013 8014 8015 8016 8017 8018 8019 8020 8021 8022 8023 8024 8025 8026 8027 8028 8029 8030 8031 8032 8033 8034 8035 8036 8037 8038 8039 8040 8041 8042 8043 8044 8045 8046 8047 8048 8049 8050 8051 8052 8053 8054 8055 8056 8057 8058 8059 8060 8061 8062 8063 8064 8065 8066 8067 8068 8069 8070 8071 8072 8073 8074 8075 8076 8077 8078 8079 8080 8081 8082 8083 8084 8085 8086 8087 8088 8089 8090 8091 8092 8093 8094 8095 8096 8097 8098 8099 8100 8101 8102 8103 8104 8105 8106 8107 8108 8109 8110 8111 8112 8113 8114 8115 8116 8117 8118 8119 8120 8121 8122 8123 8124 8125 8126 8127 8128 8129 8130 8131 8132 8133 8134 8135 8136 8137 8138 8139 8140 8141 8142 8143 8144 8145 8146 8147 8148 8149 8150 8151 8152 8153 8154 8155 8156 8157 8158 8159 8160 8161 8162 8163 8164 8165 8166 8167 8168 8169 8170 8171 8172 8173 8174 8175 8176 8177 8178 8179 8180 8181 8182 8183 8184 8185 8186 8187 8188 8189 8190 8191 8192 8193 8194 8195 8196 8197 8198 8199 8200 8201 8202 8203 8204 8205 8206 8207 8208 8209 8210 8211 8212 8213 8214 8215 8216 8217 8218 8219 8220 8221 8222 8223 8224 8225 8226 8227 8228 8229 8230 8231 8232 8233 8234 8235 8236 8237 8238 8239 8240 8241 8242 8243 8244 8245 8246 8247 8248 8249 8250 8251 8252 8253 8254 8255 8256 8257 8258 8259 8260 8261 8262 8263 8264 8265 8266 8267 8268 8269 8270 8271 8272 8273 8274 8275 8276 8277 8278 8279 8280 8281 8282 8283 8284 8285 8286 8287 8288 8289 8290 8291 8292 8293 8294 8295 8296 8297 8298 8299 8300 8301 8302 8303 8304 8305 8306 8307 8308 8309 8310 8311 8312 8313 8314 8315 8316 8317 8318 8319 8320 8321 8322 8323 8324 8325 8326 8327 8328 8329 8330 8331 8332 8333 8334 8335 8336 8337 8338 8339 8340 8341 8342 8343 8344 8345 8346 8347 8348 8349 8350 8351 8352 8353 8354 8355 8356 8357 8358 8359 8360 8361 8362 8363 8364 8365 8366 8367 8368 8369 8370 8371 8372 8373 8374 8375 8376 8377 8378 8379 8380 8381 8382 8383 8384 8385 8386 8387 8388 8389 8390 8391 8392 8393 8394 8395 8396 8397 8398 8399 8400 8401 8402 8403 8404 8405 8406 8407 8408 8409 8410 8411 8412 8413 8414 8415 8416 8417 8418 8419 8420 8421 8422 8423 8424 8425 8426 8427 8428 8429 8430 8431 8432 8433 8434 8435 8436 8437 8438 8439 8440 8441 8442 8443 8444 8445 8446 8447 8448 8449 8450 8451 8452 8453 8454 8455 8456 8457 8458 8459 8460 8461 8462 8463 8464 8465 8466 8467 8468 8469 8470 8471 8472 8473 8474 8475 8476 8477 8478 8479 8480 8481 8482 8483 8484 8485 8486 8487 8488 8489 8490 8491 8492 8493 8494 8495 8496 8497 8498 8499 8500 8501 8502 8503 8504 8505 8506 8507 8508 8509 8510 8511 8512 8513 8514 8515 8516 8517 8518 8519 8520 8521 8522 8523 8524 8525 8526 8527 8528 8529 8530 8531 8532 8533 8534 8535 8536 8537 8538 8539 8540 8541 8542 8543 8544 8545 8546 8547 8548 8549 8550 8551 8552 8553 8554 8555 8556 8557 8558 8559 8560 8561 8562 8563 8564 8565 8566 8567 8568 8569 8570 8571 8572 8573 8574 8575 8576 8577 8578 8579 8580 8581 8582 8583 8584 8585 8586 8587 8588 8589 8590 8591 8592 8593 8594 8595 8596 8597 8598 8599 8600 8601 8602 8603 8604 8605 8606 8607 8608 8609 8610 8611 8612 8613 8614 8615 8616 8617 8618 8619 8620 8621 8622 8623 8624 8625 8626 8627 8628 8629 8630 8631 8632 8633 8634 8635 8636 8637 8638 8639 8640 8641 8642 8643 8644 8645 8646 8647 8648 8649 8650 8651 8652 8653 8654 8655 8656 8657 8658 8659 8660 8661 8662 8663 8664 8665 8666 8667 8668 8669 8670 8671 8672 8673 8674 8675 8676 8677 8678 8679 8680 8681 8682 8683 8684 8685 8686 8687 8688 8689 8690 8691 8692 8693 8694 8695 8696 8697 8698 8699 8700 8701 8702 8703 8704 8705 8706 8707 8708 8709 8710 8711 8712 8713 8714 8715 8716 8717 8718 8719 8720 8721 8722 8723 8724 8725 8726 8727 8728 8729 8730 8731 8732 8733 8734 8735 8736 8737 8738 8739 8740 8741 8742 8743 8744 8745 8746 8747 8748 8749 8750 8751 8752 8753 8754 8755 8756 8757 8758 8759 8760 8761 8762 8763 8764 8765 8766 8767 8768 8769 8770 8771 8772 8773 8774 8775 8776 8777 8778 8779 8780 8781 8782 8783 8784 8785 8786 8787 8788 8789 8790 8791 8792 8793 8794 8795 8796 8797 8798 8799 8800 8801 8802 8803 8804 8805 8806 8807 8808 8809 8810 8811 8812 8813 8814 8815 8816 8817 8818 8819 8820 8821 8822 8823 8824 8825 8826 8827 8828 8829 8830 8831 8832 8833 8834 8835 8836 8837 8838 8839 8840 8841 8842 8843 8844 8845 8846 8847 8848 8849 8850 8851 8852 8853 8854 8855 8856 8857 8858 8859 8860 8861 8862 8863 8864 8865 8866 8867 8868 8869 8870 8871 8872 8873 8874 8875 8876 8877 8878 8879 8880 8881 8882 8883 8884 8885 8886 8887 8888 8889 8890 8891 8892 8893 8894 8895 8896 8897 8898 8899 8900 8901 8902 8903 8904 8905 8906 8907 8908 8909 8910 8911 8912 8913 8914 8915 8916 8917 8918 8919 8920 8921 8922 8923 8924 8925 8926 8927 8928 8929 8930 8931 8932 8933 8934 8935 8936 8937 8938 8939 8940 8941 8942 8943 8944 8945 8946 8947 8948 8949 8950 8951 8952 8953 8954 8955 8956 8957 8958 8959 8960 8961 8962 8963 8964 8965 8966 8967 8968 8969 8970 8971 8972 8973 8974 8975 8976 8977 8978 8979 8980 8981 8982 8983 8984 8985 8986 8987 8988 8989 8990 8991 8992 8993 8994 8995 8996 8997 8998 8999 9000 9001 9002 9003 9004 9005 9006 9007 9008 9009 9010 9011 9012 9013 9014 9015 9016 9017 9018 9019 9020 9021 9022 9023 9024 9025 9026 9027 9028 9029 9030 9031 9032 9033 9034 9035 9036 9037 9038 9039 9040 9041 9042 9043 9044 9045 9046 9047 9048 9049 9050 9051 9052 9053 9054 9055 9056 9057 9058 9059 9060 9061 9062 9063 9064 9065 9066 9067 9068 9069 9070 9071 9072 9073 9074 9075 9076 9077 9078 9079 9080 9081 9082 9083 9084 9085 9086 9087 9088 9089 9090 9091 9092 9093 9094 9095 9096 9097 9098 9099 9100 9101 9102 9103 9104 9105 9106 9107 9108 9109 9110 9111 9112 9113 9114 9115 9116 9117 9118 9119 9120 9121 9122 9123 9124 9125 9126 9127 9128 9129 9130 9131 9132 9133 9134 9135 9136 9137 9138 9139 9140 9141 9142 9143 9144 9145 9146 9147 9148 9149 9150 9151 9152 9153 9154 9155 9156 9157 9158 9159 9160 9161 9162 9163 9164 9165 9166 9167 9168 9169 9170 9171 9172 9173 9174 9175 9176 9177 9178 9179 9180 9181 9182 9183 9184 9185 9186 9187 9188 9189 9190 9191 9192 9193 9194 9195 9196 9197 9198 9199 9200 9201 9202 9203 9204 9205 9206 9207 9208 9209 9210 9211 9212 9213 9214 9215 9216 9217 9218 9219 9220 9221 9222 9223 9224 9225 9226 9227 9228 9229 9230 9231 9232 9233 9234 9235 9236 9237 9238 9239 9240 9241 9242 9243 9244 9245 9246 9247 9248 9249 9250 9251 9252 9253 9254 9255 9256 9257 9258 9259 9260 9261 9262 9263 9264 9265 9266 9267 9268 9269 9270 9271 9272 9273 9274 9275 9276 9277 9278 9279 9280 9281 9282 9283 9284 9285 9286 9287 9288 9289 9290 9291 9292 9293 9294 9295 9296 9297 9298 9299 9300 9301 9302 9303 9304 9305 9306 9307 9308 9309 9310 9311 9312 9313 9314 9315 9316 9317 9318 9319 9320 9321 9322 9323 9324 9325 9326 9327 9328 9329 9330 9331 9332 9333 9334 9335 9336 9337 9338 9339 9340 9341 9342 9343 9344 9345 9346 9347 9348 9349 9350 9351 9352 9353 9354 9355 9356 9357 9358 9359 9360 9361 9362 9363 9364 9365 9366 9367 9368 9369 9370 9371 9372 9373 9374 9375 9376 9377 9378 9379 9380 9381 9382 9383 9384 9385 9386 9387 9388 9389 9390 9391 9392 9393 9394 9395 9396 9397 9398 9399 9400 9401 9402 9403 9404 9405 9406 9407 9408 9409 9410 9411 9412 9413 9414 9415 9416 9417 9418 9419 9420 9421 9422 9423 9424 9425 9426 9427 9428 9429 9430 9431 9432 9433 9434 9435 9436 9437 9438 9439 9440 9441 9442 9443 9444 9445 9446 9447 9448 9449 9450 9451 9452 9453 9454 9455 9456 9457 9458 9459 9460 9461 9462 9463 9464 9465 9466 9467 9468 9469 9470 9471 9472 9473 9474 9475 9476 9477 9478 9479 9480 9481 9482 9483 9484 9485 9486 9487 9488 9489 9490 9491 9492 9493 9494 9495 9496 9497 9498 9499 9500 9501 9502 9503 9504 9505 9506 9507 9508 9509 9510 9511 9512 9513 9514 9515 9516 9517 9518 9519 9520 9521 9522 9523 9524 9525 9526 9527 9528 9529 9530 9531 9532 9533 9534 9535 9536 9537 9538 9539 9540 9541 9542 9543 9544 9545 9546 9547 9548 9549 9550 9551 9552 9553 9554 9555 9556 9557 9558 9559 9560 9561 9562 9563 9564 9565 9566 9567 9568 9569 9570 9571 9572 9573 9574 9575 9576 9577 9578 9579 9580 9581 9582 9583 9584 9585 9586 9587 9588 9589 9590 9591 9592 9593 9594 9595 9596 9597 9598 9599 9600 9601 9602 9603 9604 9605 9606 9607 9608 9609 9610 9611 9612 9613 9614 9615 9616 9617 9618 9619 9620 9621 9622 9623 9624 9625 9626 9627 9628 9629 9630 9631 9632 9633 9634 9635 9636 9637 9638 9639 9640 9641 9642 9643 9644 9645 9646 9647 9648 9649 9650 9651 9652 9653 9654 9655 9656 9657 9658 9659 9660 9661 9662 9663 9664 9665 9666 9667 9668 9669 9670 9671 9672 9673 9674 9675 9676 9677 9678 9679 9680 9681 9682 9683 9684 9685 9686 9687 9688 9689 9690 9691 9692 9693 9694 9695 9696 9697 9698 9699 9700 9701 9702 9703 9704 9705 9706 9707 9708 9709 9710 9711 9712 9713 9714 9715 9716 9717 9718 9719 9720 9721 9722 9723 9724 9725 9726 9727 9728 9729 9730 9731 9732 9733 9734 9735 9736 9737 9738 9739 9740 9741 9742 9743 9744 9745 9746 9747 9748 9749 9750 9751 9752 9753 9754 9755 9756 9757 9758 9759 9760 9761 9762 9763 9764 9765 9766 9767 9768 9769 9770 9771 9772 9773 9774 9775 9776 9777 9778 9779 9780 9781 9782 9783 9784 9785 9786 9787 9788 9789 9790 9791 9792 9793 9794 9795 9796 9797 9798 9799 9800 9801 9802 9803 9804 9805 9806 9807 9808 9809 9810 9811 9812 9813 9814 9815 9816 9817 9818 9819 9820 9821 9822 9823 9824 9825 9826 9827 9828 9829 9830 9831 9832 9833 9834 9835 9836 9837 9838 9839 9840 9841 9842 9843 9844 9845 9846 9847 9848 9849 9850 9851 9852 9853 9854 9855 9856 9857 9858 9859 9860 9861 9862 9863 9864 9865 9866 9867 9868 9869 9870 9871 9872 9873 9874 9875 9876 9877 9878 9879 9880 9881 9882 9883 9884 9885 9886 9887 9888 9889 9890 9891 9892 9893 9894 9895 9896 9897 9898 9899 9900 9901 9902 9903 9904 9905 9906 9907 9908 9909 9910 9911 9912 9913 9914 9915 9916 9917 9918 9919 9920 9921 9922 9923 9924 9925 9926 9927 9928 9929 9930 9931 9932 9933 9934 9935 9936 9937 9938 9939 9940 9941 9942 9943 9944 9945 9946 9947 9948 9949 9950 9951 9952 9953 9954 9955 9956 9957 9958 9959 9960 9961 9962 9963 9964 9965 9966 9967 9968 9969 9970 9971 9972 9973 9974 9975 9976 9977 9978 9979 9980 9981 9982 9983 9984 9985 9986 9987 9988 9989 9990 9991 9992 9993 9994 9995 9996 9997 9998 9999 10000 10001 10002 10003 10004 10005 10006 10007 10008 10009 10010 10011 10012 10013 10014 10015 10016 10017 10018 10019 10020 10021 10022 10023 10024 10025 10026 10027 10028 10029 10030 10031 10032 10033 10034 10035 10036 10037 10038 10039 10040 10041 10042 10043 10044 10045 10046 10047 10048 10049 10050 10051 10052 10053 10054 10055 10056 10057 10058 10059 10060 10061 10062 10063 10064 10065 10066 10067 10068 10069 10070 10071 10072 10073 10074 10075 10076 10077 10078 10079 10080 10081 10082 10083 10084 10085 10086 10087 10088 10089 10090 10091 10092 10093 10094 10095 10096 10097 10098 10099 10100 10101 10102 10103 10104 10105 10106 10107 10108 10109 10110 10111 10112 10113 10114 10115 10116 10117 10118 10119 10120 10121 10122 10123 10124 10125 10126 10127 10128 10129 10130 10131 10132 10133 10134 10135 10136 10137 10138 10139 10140 10141 10142 10143 10144 10145 10146 10147 10148 10149 10150 10151 10152 10153 10154 10155 10156 10157 10158 10159 10160 10161 10162 10163 10164 10165 10166 10167 10168 10169 10170 10171 10172 10173 10174 10175 10176 10177 10178 10179 10180 10181 10182 10183 10184 10185 10186 10187 10188 10189 10190 10191 10192 10193 10194 10195 10196 10197 10198 10199 10200 10201 10202 10203 10204 10205 10206 10207 10208 10209 10210 10211 10212 10213 10214 10215 10216 10217 10218 10219 10220 10221 10222 10223 10224 10225 10226 10227 10228 10229 10230 10231 10232 10233 10234 10235 10236 10237 10238 10239 10240 10241 10242 10243 10244 10245 10246 10247 10248 10249 10250 10251 10252 10253 10254 10255 10256 10257 10258 10259 10260 10261 10262 10263 10264 10265 10266 10267 10268 10269 10270 10271 10272 10273 10274 10275 10276 10277 10278 10279 10280 10281 10282 10283 10284 10285 10286 10287 10288 10289 10290 10291 10292 10293 10294 10295 10296 10297 10298 10299 10300 10301 10302 10303 10304 10305 10306 10307 10308 10309 10310 10311 10312 10313 10314 10315 10316 10317 10318 10319 10320 10321 10322 10323 10324 10325 10326 10327 10328 10329 10330 10331 10332 10333 10334 10335 10336 10337 10338 10339 10340 10341 10342 10343 10344 10345 10346 10347 10348 10349 10350 10351 10352 10353 10354 10355 10356 10357 10358 10359 10360 10361 10362 10363 10364 10365 10366 10367 10368 10369 10370 10371 10372 10373 10374 10375 10376 10377 10378 10379 10380 10381 10382 10383 10384 10385 10386 10387 10388 10389 10390 10391 10392 10393 10394 10395 10396 10397 10398 10399 10400 10401 10402 10403 10404 10405 10406 10407 10408 10409 10410 10411 10412 10413 10414 10415 10416 10417 10418 10419 10420 10421 10422 10423 10424 10425 10426 10427 10428 10429 10430 10431 10432 10433 10434 10435 10436 10437 10438 10439 10440 10441 10442 10443 10444 10445 10446 10447 10448 10449 10450 10451 10452 10453 10454 10455 10456 10457 10458 10459 10460 10461 10462 10463 10464 10465 10466 10467 10468 10469 10470 10471 10472 10473 10474 10475 10476 10477 10478 10479 10480 10481 10482 10483 10484 10485 10486 10487 10488 10489 10490 10491 10492 10493 10494 10495 10496 10497 10498 10499 10500 10501 10502 10503 10504 10505 10506 10507 10508 10509 10510 10511 10512 10513 10514 10515 10516 10517 10518 10519 10520 10521 10522 10523 10524 10525 10526 10527 10528 10529 10530 10531 10532 10533 10534 10535 10536 10537 10538 10539 10540 10541 10542 10543 10544 10545 10546 10547 10548 10549 10550 10551 10552 10553 10554 10555 10556 10557 10558 10559 10560 10561 10562 10563 10564 10565 10566 10567 10568 10569 10570 10571 10572 10573 10574 10575 10576 10577 10578 10579 10580 10581 10582 10583 10584 10585 10586 10587 10588 10589 10590 10591 10592 10593 10594 10595 10596 10597 10598 10599 10600 10601 10602 10603 10604 10605 10606 10607 10608 10609 10610 10611 10612 10613 10614 10615 10616 10617 10618 10619 10620 10621 10622 10623 10624 10625 10626 10627 10628 10629 10630 10631 10632 10633 10634 10635 10636 10637 10638 10639 10640 10641 10642 10643 10644 10645 10646 10647 10648 10649 10650 10651 10652 10653 10654 10655 10656 10657 10658 10659 10660 10661 10662 10663 10664 10665 10666 10667 10668 10669 10670 10671 10672 10673 10674 10675 10676 10677 10678 10679 10680 10681 10682 10683 10684 10685 10686 10687 10688 10689 10690 10691 10692 10693 10694 10695 10696 10697 10698 10699 10700 10701 10702 10703 10704 10705 10706 10707 10708 10709 10710 10711 10712 10713 10714 10715 10716 10717 10718 10719 10720 10721 10722 10723 10724 10725 10726 10727 10728 10729 10730 10731 10732 10733 10734 10735 10736 10737 10738 10739 10740 10741 10742 10743 10744 10745 10746 10747 10748 10749 10750 10751 10752 10753 10754 10755 10756 10757 10758 10759 10760 10761 10762 10763 10764 10765 10766 10767 10768 10769 10770 10771 10772 10773 10774 10775 10776 10777 10778 10779 10780 10781 10782 10783 10784 10785 10786 10787 10788 10789 10790 10791 10792 10793 10794 10795 10796 10797 10798 10799 10800 10801 10802 10803 10804 10805 10806 10807 10808 10809 10810 10811 10812 10813 10814 10815 10816 10817 10818 10819 10820 10821 10822 10823 10824 10825 10826 10827 10828 10829 10830 10831 10832 10833 10834 10835 10836 10837 10838 10839 10840 10841 10842 10843 10844 10845 10846 10847 10848 10849 10850 10851 10852 10853 10854 10855 10856 10857 10858 10859 10860 10861 10862 10863 10864 10865 10866 10867 10868 10869 10870 10871 10872 10873 10874 10875 10876 10877 10878 10879 10880 10881 10882 10883 10884 10885 10886 10887 10888 10889 10890 10891 10892 10893 10894 10895 10896 10897 10898 10899 10900 10901 10902 10903 10904 10905 10906 10907 10908 10909 10910 10911 10912 10913 10914 10915 10916 10917 10918 10919 10920 10921 10922 10923 10924 10925 10926 10927 10928 10929 10930 10931 10932 10933 10934 10935 10936 10937 10938 10939 10940 10941 10942 10943 10944 10945 10946 10947 10948 10949 10950 10951 10952 10953 10954 10955 10956 10957 10958 10959 10960 10961 10962 10963 10964 10965 10966 10967 10968 10969 10970 10971 10972 10973 10974 10975 10976 10977 10978 10979 10980 10981 10982 10983 10984 10985 10986 10987 10988 10989 10990 10991 10992 10993 10994 10995 10996 10997 10998 10999 11000 11001 11002 11003 11004 11005 11006 11007 11008 11009 11010 11011 11012 11013 11014 11015 11016 11017 11018 11019 11020 11021 11022 11023 11024 11025 11026 11027 11028 11029 11030 11031 11032 11033 11034 11035 11036 11037 11038 11039 11040 11041 11042 11043 11044 11045 11046 11047 11048 11049 11050 11051 11052 11053 11054 11055 11056 11057 11058 11059 11060 11061 11062 11063 11064 11065 11066 11067 11068 11069 11070 11071 11072 11073 11074 11075 11076 11077 11078 11079 11080 11081 11082 11083 11084 11085 11086 11087 11088 11089 11090 11091 11092 11093 11094 11095 11096 11097 11098 11099 11100 11101 11102 11103 11104 11105 11106 11107 11108 11109 11110 11111 11112 11113 11114 11115 11116 11117 11118 11119 11120 11121 11122 11123 11124 11125 11126 11127 11128 11129 11130 11131 11132 11133 11134 11135 11136 11137 11138 11139 11140 11141 11142 11143 11144 11145 11146 11147 11148 11149 11150 11151 11152 11153 11154 11155 11156 11157 11158 11159 11160 11161 11162 11163 11164 11165 11166 11167 11168 11169 11170 11171 11172 11173 11174 11175 11176 11177 11178 11179 11180 11181 11182 11183 11184 11185 11186 11187 11188 11189 11190 11191 11192 11193 11194 11195 11196 11197 11198 11199 11200 11201 11202 11203 11204 11205 11206 11207 11208 11209 11210 11211 11212 11213 11214 11215 11216 11217 11218 11219 11220 11221 11222 11223 11224 11225 11226 11227 11228 11229 11230 11231 11232 11233 11234 11235 11236 11237 11238 11239 11240 11241 11242 11243 11244 11245 11246 11247 11248 11249 11250 11251 11252 11253 11254 11255 11256 11257 11258 11259 11260 11261 11262 11263 11264 11265 11266 11267 11268 11269 11270 11271 11272 11273 11274 11275 11276 11277 11278 11279 11280 11281 11282 11283 11284 11285 11286 11287 11288 11289 11290 11291 11292 11293 11294 11295 11296 11297 11298 11299 11300 11301 11302 11303 11304 11305 11306 11307 11308 11309 11310 11311 11312 11313 11314 11315 11316 11317 11318 11319 11320 11321 11322 11323 11324 11325 11326 11327 11328 11329 11330 11331 11332 11333 11334 11335 11336 11337 11338 11339 11340 11341 11342 11343 11344 11345 11346 11347 11348 11349 11350 11351 11352 11353 11354 11355 11356 11357 11358 11359 11360 11361 11362 11363 11364 11365 11366 11367 11368 11369 11370 11371 11372 11373 11374 11375 11376 11377 11378 11379 11380 11381 11382 11383 11384 11385 11386 11387 11388 11389 11390 11391 11392 11393 11394 11395 11396 11397 11398 11399 11400 11401 11402 11403 11404 11405 11406 11407 11408 11409 11410 11411 11412 11413 11414 11415 11416 11417 11418 11419 11420 11421 11422 11423 11424 11425 11426 11427 11428 11429 11430 11431 11432 11433 11434 11435 11436 11437 11438 11439 11440 11441 11442 11443 11444 11445 11446 11447 11448 11449 11450 11451 11452 11453 11454 11455 11456 11457 11458 11459 11460 11461 11462 11463 11464 11465 11466 11467 11468 11469 11470 11471 11472 11473 11474 11475 11476 11477 11478 11479 11480 11481 11482 11483 11484 11485 11486 11487 11488 11489 11490 11491 11492 11493 11494 11495 11496 11497 11498 11499 11500 11501 11502 11503 11504 11505 11506 11507 11508 11509 11510 11511 11512 11513 11514 11515 11516 11517 11518 11519 11520 11521 11522 11523 11524 11525 11526 11527 11528 11529 11530 11531 11532 11533 11534 11535 11536 11537 11538 11539 11540 11541 11542 11543 11544 11545 11546 11547 11548 11549 11550 11551 11552 11553 11554 11555 11556 11557 11558 11559 11560 11561 11562 11563 11564 11565 11566 11567 11568 11569 11570 11571 11572 11573 11574 11575 11576 11577 11578 11579 11580 11581 11582 11583 11584 11585 11586 11587 11588 11589 11590 11591 11592 11593 11594 11595 11596 11597 11598 11599 11600 11601 11602 11603 11604 11605 11606 11607 11608 11609 11610 11611 11612 11613 11614 11615 11616 11617 11618 11619 11620 11621 11622 11623 11624 11625 11626 11627 11628 11629 11630 11631 11632 11633 11634 11635 11636 11637 11638 11639 11640 11641 11642 11643 11644 11645 11646 11647 11648 11649 11650 11651 11652 11653 11654 11655 11656 11657 11658 11659 11660 11661 11662 11663 11664 11665 11666 11667 11668 11669 11670 11671 11672 11673 11674 11675 11676 11677 11678 11679 11680 11681 11682 11683 11684 11685 11686 11687 11688 11689 11690 11691 11692 11693 11694 11695 11696 11697 11698 11699 11700 11701 11702 11703 11704 11705 11706 11707 11708 11709 11710 11711 11712 11713 11714 11715 11716 11717 11718 11719 11720 11721 11722 11723 11724 11725 11726 11727 11728 11729 11730 11731 11732 11733 11734 11735 11736 11737 11738 11739 11740 11741 11742 11743 11744 11745 11746 11747 11748 11749 11750 11751 11752 11753 11754 11755 11756 11757 11758 11759 11760 11761 11762 11763 11764 11765 11766 11767 11768 11769 11770 11771 11772 11773 11774 11775 11776 11777 11778 11779 11780 11781 11782 11783 11784 11785 11786 11787 11788 11789 11790 11791 11792 11793 11794 11795 11796 11797 11798 11799 11800 11801 11802 11803 11804 11805 11806 11807 11808 11809 11810 11811 11812 11813 11814 11815 11816 11817 11818 11819 11820 11821 11822 11823 11824 11825 11826 11827 11828 11829 11830 11831 11832 11833 11834 11835 11836 11837 11838 11839 11840 11841 11842 11843 11844 11845 11846 11847 11848 11849 11850 11851 11852 11853 11854 11855 11856 11857 11858 11859 11860 11861 11862 11863 11864 11865 11866 11867 11868 11869 11870 11871 11872 11873 11874 11875 11876 11877 11878 11879 11880 11881 11882 11883 11884 11885 11886 11887 11888 11889 11890 11891 11892 11893 11894 11895 11896 11897 11898 11899 11900 11901 11902 11903 11904 11905 11906 11907 11908 11909 11910 11911 11912 11913 11914 11915 11916 11917 11918 11919 11920 11921 11922 11923 11924 11925 11926 11927 11928 11929 11930 11931 11932 11933 11934 11935 11936 11937 11938 11939 11940 11941 11942 11943 11944 11945 11946 11947 11948 11949 11950 11951 11952 11953 11954 11955 11956 11957 11958 11959 11960 11961 11962 11963 11964 11965 11966 11967 11968 11969 11970 11971 11972 11973 11974 11975 11976 11977 11978 11979 11980 11981 11982 11983 11984 11985 11986 11987 11988 11989 11990 11991 11992 11993 11994 11995 11996 11997 11998 11999 12000 12001 12002 12003 12004 12005 12006 12007 12008 12009 12010 12011 12012 12013 12014 12015 12016 12017 12018 12019 12020 12021 12022 12023 12024 12025 12026 12027 12028 12029 12030 12031 12032 12033 12034 12035 12036 12037 12038 12039 12040 12041 12042 12043 12044 12045 12046 12047 12048 12049 12050 12051 12052 12053 12054 12055 12056 12057 12058 12059 12060 12061 12062 12063 12064 12065 12066 12067 12068 12069 12070 12071 12072 12073 12074 12075 12076 12077 12078 12079 12080 12081 12082 12083 12084 12085 12086 12087 12088 12089 12090 12091 12092 12093 12094 12095 12096 12097 12098 12099 12100 12101 12102 12103 12104 12105 12106 12107 12108 12109 12110 12111 12112 12113 12114 12115 12116 12117 12118 12119 12120 12121 12122 12123 12124 12125 12126 12127 12128 12129 12130 12131 12132 12133 12134 12135 12136 12137 12138 12139 12140 12141 12142 12143 12144 12145 12146 12147 12148 12149 12150 12151 12152 12153 12154 12155 12156 12157 12158 12159 12160 12161 12162 12163 12164 12165 12166 12167 12168 12169 12170 12171 12172 12173 12174 12175 12176 12177 12178 12179 12180 12181 12182 12183 12184 12185 12186 12187 12188 12189 12190 12191 12192 12193 12194 12195 12196 12197 12198 12199 12200 12201 12202 12203 12204 12205 12206 12207 12208 12209 12210 12211 12212 12213 12214 12215 12216 12217 12218 12219 12220 12221 12222 12223 12224 12225 12226 12227 12228 12229 12230 12231 12232 12233 12234 12235 12236 12237 12238 12239 12240 12241 12242 12243 12244 12245 12246 12247 12248 12249 12250 12251 12252 12253 12254 12255 12256 12257 12258 12259 12260 12261 12262 12263 12264 12265 12266 12267 12268 12269 12270 12271 12272 12273 12274 12275 12276 12277 12278 12279 12280 12281 12282 12283 12284 12285 12286 12287 12288 12289 12290 12291 12292 12293 12294 12295 12296 12297 12298 12299 12300 12301 12302 12303 12304 12305 12306 12307 12308 12309 12310 12311 12312 12313 12314 12315 12316 12317 12318 12319 12320 12321 12322 12323 12324 12325 12326 12327 12328 12329 12330 12331 12332 12333 12334 12335 12336 12337 12338 12339 12340 12341 12342 12343 12344 12345 12346 12347 12348 12349 12350 12351 12352 12353 12354 12355 12356 12357 12358 12359 12360 12361 12362 12363 12364 12365 12366 12367 12368 12369 12370 12371 12372 12373 12374 12375 12376 12377 12378 12379 12380 12381 12382 12383 12384 12385 12386 12387 12388 12389 12390 12391 12392 12393 12394 12395 12396 12397 12398 12399 12400 12401 12402 12403 12404 12405 12406 12407 12408 12409 12410 12411 12412 12413 12414 12415 12416 12417 12418 12419 12420 12421 12422 12423 12424 12425 12426 12427 12428 12429 12430 12431 12432 12433 12434 12435 12436 12437 12438 12439 12440 12441 12442 12443 12444 12445 12446 12447 12448 12449 12450 12451 12452 12453 12454 12455 12456 12457 12458 12459 12460 12461 12462 12463 12464 12465 12466 12467 12468 12469 12470 12471 12472 12473 12474 12475 12476 12477 12478 12479 12480 12481 12482 12483 12484 12485 12486 12487 12488 12489 12490 12491 12492 12493 12494 12495 12496 12497 12498 12499 12500 12501 12502 12503 12504 12505 12506 12507 12508 12509 12510 12511 12512 12513 12514 12515 12516 12517 12518 12519 12520 12521 12522 12523 12524 12525 12526 12527 12528 12529 12530 12531 12532 12533 12534 12535 12536 12537 12538 12539 12540 12541 12542 12543 12544 12545 12546 12547 12548 12549 12550 12551 12552 12553 12554 12555 12556 12557 12558 12559 12560 12561 12562 12563 12564 12565 12566 12567 12568 12569 12570 12571 12572 12573 12574 12575 12576 12577 12578 12579 12580 12581 12582 12583 12584 12585 12586 12587 12588 12589 12590 12591 12592 12593 12594 12595 12596 12597 12598 12599 12600 12601 12602 12603 12604 12605 12606 12607 12608 12609 12610 12611 12612 12613 12614 12615 12616 12617 12618 12619 12620 12621 12622 12623 12624 12625 12626 12627 12628 12629 12630 12631 12632 12633 12634 12635 12636 12637 12638 12639 12640 12641 12642 12643 12644 12645 12646 12647 12648 12649 12650 12651 12652 12653 12654 12655 12656 12657 12658 12659 12660 12661 12662 12663 12664 12665 12666 12667 12668 12669 12670 12671 12672 12673 12674 12675 12676 12677 12678 12679 12680 12681 12682 12683 12684 12685 12686 12687 12688 12689 12690 12691 12692 12693 12694 12695 12696 12697 12698 12699 12700 12701 12702 12703 12704 12705 12706 12707 12708 12709 12710 12711 12712 12713 12714 12715 12716 12717 12718 12719 12720 12721 12722 12723 12724 12725 12726 12727 12728 12729 12730 12731 12732 12733 12734 12735 12736 12737 12738 12739 12740 12741 12742 12743 12744 12745 12746 12747 12748 12749 12750 12751 12752 12753 12754 12755 12756 12757 12758 12759 12760 12761 12762 12763 12764 12765 12766 12767 12768 12769 12770 12771 12772 12773 12774 12775 12776 12777 12778 12779 12780 12781 12782 12783 12784 12785 12786 12787 12788 12789 12790 12791 12792 12793 12794 12795 12796 12797 12798 12799 12800 12801 12802 12803 12804 12805 12806 12807 12808 12809 12810 12811 12812 12813 12814 12815 12816 12817 12818 12819 12820 12821 12822 12823 12824 12825 12826 12827 12828 12829 12830 12831 12832 12833 12834 12835 12836 12837 12838 12839 12840 12841 12842 12843 12844 12845 12846 12847 12848 12849 12850 12851 12852 12853 12854 12855 12856 12857 12858 12859 12860 12861 12862 12863 12864 12865 12866 12867 12868 12869 12870 12871 12872 12873 12874 12875 12876 12877 12878 12879 12880 12881 12882 12883 12884 12885 12886 12887 12888 12889 12890 12891 12892 12893 12894 12895 12896 12897 12898 12899 12900 12901 12902 12903 12904 12905 12906 12907 12908 12909 12910 12911 12912 12913 12914 12915 12916 12917 12918 12919 12920 12921 12922 12923 12924 12925 12926 12927 12928 12929 12930 12931 12932 12933 12934 12935 12936 12937 12938 12939 12940 12941 12942 12943 12944 12945 12946 12947 12948 12949 12950 12951 12952 12953 12954 12955 12956 12957 12958 12959 12960 12961 12962 12963 12964 12965 12966 12967 12968 12969 12970 12971 12972 12973 12974 12975 12976 12977 12978 12979 12980 12981 12982 12983 12984 12985 12986 12987 12988 12989 12990 12991 12992 12993 12994 12995 12996 12997 12998 12999 13000 13001 13002 13003 13004 13005 13006 13007 13008 13009 13010 13011 13012 13013 13014 13015 13016 13017 13018 13019 13020 13021 13022 13023 13024 13025 13026 13027 13028 13029 13030 13031 13032 13033 13034 13035 13036 13037 13038 13039 13040 13041 13042 13043 13044 13045 13046 13047 13048 13049 13050 13051 13052 13053 13054 13055 13056 13057 13058 13059 13060 13061 13062 13063 13064 13065 13066 13067 13068 13069 13070 13071 13072 13073 13074 13075 13076 13077 13078 13079 13080 13081 13082 13083 13084 13085 13086 13087 13088 13089 13090 13091 13092 13093 13094 13095 13096 13097 13098 13099 13100 13101 13102 13103 13104 13105 13106 13107 13108 13109 13110 13111 13112 13113 13114 13115 13116 13117 13118 13119 13120 13121 13122 13123 13124 13125 13126 13127 13128 13129 13130 13131 13132 13133 13134 13135 13136 13137 13138 13139 13140 13141 13142 13143 13144 13145 13146 13147 13148 13149 13150 13151 13152 13153 13154 13155 13156 13157 13158 13159 13160 13161 13162 13163 13164 13165 13166 13167 13168 13169 13170 13171 13172 13173 13174 13175 13176 13177 13178 13179 13180 13181 13182 13183 13184 13185 13186 13187 13188 13189 13190 13191 13192 13193 13194 13195 13196 13197 13198 13199 13200 13201 13202 13203 13204 13205 13206 13207 13208 13209 13210 13211 13212 13213 13214 13215 13216 13217 13218 13219 13220 13221 13222 13223 13224 13225 13226 13227 13228 13229 13230 13231 13232 13233 13234 13235 13236 13237 13238 13239 13240 13241 13242 13243 13244 13245 13246 13247 13248 13249 13250 13251 13252 13253 13254 13255 13256 13257 13258 13259 13260 13261 13262 13263 13264 13265 13266 13267 13268 13269 13270 13271 13272 13273 13274 13275 13276 13277 13278 13279 13280 13281 13282 13283 13284 13285 13286 13287 13288 13289 13290 13291 13292 13293 13294 13295 13296 13297 13298 13299 13300 13301 13302 13303 13304 13305 13306 13307 13308 13309 13310 13311 13312 13313 13314 13315 13316 13317 13318 13319 13320 13321 13322 13323 13324 13325 13326 13327 13328 13329 13330 13331 13332 13333 13334 13335 13336 13337 13338 13339 13340 13341 13342 13343 13344 13345 13346 13347 13348 13349 13350 13351 13352 13353 13354 13355 13356 13357 13358 13359 13360 13361 13362 13363 13364 13365 13366 13367 13368 13369 13370 13371 13372 13373 13374 13375 13376 13377 13378 13379 13380 13381 13382 13383 13384 13385 13386 13387 13388 13389 13390 13391 13392 13393 13394 13395 13396 13397 13398 13399 13400 13401 13402 13403 13404 13405 13406 13407 13408 13409 13410 13411 13412 13413 13414 13415 13416 13417 13418 13419 13420 13421 13422 13423 13424 13425 13426 13427 13428 13429 13430 13431 13432 13433 13434 13435 13436 13437 13438 13439 13440 13441 13442 13443 13444 13445 13446 13447 13448 13449 13450 13451 13452 13453 13454 13455 13456 13457 13458 13459 13460 13461 13462 13463 13464 13465 13466 13467 13468 13469 13470 13471 13472 13473 13474 13475 13476 13477 13478 13479 13480 13481 13482 13483 13484 13485 13486 13487 13488 13489 13490 13491 13492 13493 13494 13495 13496 13497 13498 13499 13500 13501 13502 13503 13504 13505 13506 13507 13508 13509 13510 13511 13512 13513 13514 13515 13516 13517 13518 13519 13520 13521 13522 13523 13524 13525 13526 13527 13528 13529 13530 13531 13532 13533 13534 13535 13536 13537 13538 13539 13540 13541 13542 13543 13544 13545 13546 13547 13548 13549 13550 13551 13552 13553 13554 13555 13556 13557 13558 13559 13560 13561 13562 13563 13564 13565 13566 13567 13568 13569 13570 13571 13572 13573 13574 13575 13576 13577 13578 13579 13580 13581 13582 13583 13584 13585 13586 13587 13588 13589 13590 13591 13592 13593 13594 13595 13596 13597 13598 13599 13600 13601 13602 13603 13604 13605 13606 13607 13608 13609 13610 13611 13612 13613 13614 13615 13616 13617 13618 13619 13620 13621 13622 13623 13624 13625 13626 13627 13628 13629 13630 13631 13632 13633 13634 13635 13636 13637 13638 13639 13640 13641 13642 13643 13644 13645 13646 13647 13648 13649 13650 13651 13652 13653 13654 13655 13656 13657 13658 13659 13660 13661 13662 13663 13664 13665 13666 13667 13668 13669 13670 13671 13672 13673 13674 13675 13676 13677 13678 13679 13680 13681 13682 13683 13684 13685 13686 13687 13688 13689 13690 13691 13692 13693 13694 13695 13696 13697 13698 13699 13700 13701 13702 13703 13704 13705 13706 13707 13708 13709 13710 13711 13712 13713 13714 13715 13716 13717 13718 13719 13720 13721 13722 13723 13724 13725 13726 13727 13728 13729 13730 13731 13732 13733 13734 13735 13736 13737 13738 13739 13740 13741 13742 13743 13744 13745 13746 13747 13748 13749 13750 13751 13752 13753 13754 13755 13756 13757 13758 13759 13760 13761 13762 13763 13764 13765 13766 13767 13768 13769 13770 13771 13772 13773 13774 13775 13776 13777 13778 13779 13780 13781 13782 13783 13784 13785 13786 13787 13788 13789 13790 13791 13792 13793 13794 13795 13796 13797 13798 13799 13800 13801 13802 13803 13804 13805 13806 13807 13808 13809 13810 13811 13812 13813 13814 13815 13816 13817 13818 13819 13820 13821 13822 13823 13824 13825 13826 13827 13828 13829 13830 13831 13832 13833 13834 13835 13836 13837 13838 13839 13840 13841 13842 13843 13844 13845 13846 13847 13848 13849 13850 13851 13852 13853 13854 13855 13856 13857 13858 13859 13860 13861 13862 13863 13864 13865 13866 13867 13868 13869 13870 13871 13872 13873 13874 13875 13876 13877 13878 13879 13880 13881 13882 13883 13884 13885 13886 13887 13888 13889 13890 13891 13892 13893 13894 13895 13896 13897 13898 13899 13900 13901 13902 13903 13904 13905 13906 13907 13908 13909 13910 13911 13912 13913 13914 13915 13916 13917 13918 13919 13920 13921 13922 13923 13924 13925 13926 13927 13928 13929 13930 13931 13932 13933 13934 13935 13936 13937 13938 13939 13940 13941 13942 13943 13944 13945 13946 13947 13948 13949 13950 13951 13952 13953 13954 13955 13956 13957 13958 13959 13960 13961 13962 13963 13964 13965 13966 13967 13968 13969 13970 13971 13972 13973 13974 13975 13976 13977 13978 13979 13980 13981 13982 13983 13984 13985 13986 13987 13988 13989 13990 13991 13992 13993 13994 13995 13996 13997 13998 13999 14000 14001 14002 14003 14004 14005 14006 14007 14008 14009 14010 14011 14012 14013 14014 14015 14016 14017 14018 14019 14020 14021 14022 14023 14024 14025 14026 14027 14028 14029 14030 14031 14032 14033 14034 14035 14036 14037 14038 14039 14040 14041 14042 14043 14044 14045 14046 14047 14048 14049 14050 14051 14052 14053 14054 14055 14056 14057 14058 14059 14060 14061 14062 14063 14064 14065 14066 14067 14068 14069 14070 14071 14072 14073 14074 14075 14076 14077 14078 14079 14080 14081 14082 14083 14084 14085 14086 14087 14088 14089 14090 14091 14092 14093 14094 14095 14096 14097 14098 14099 14100 14101 14102 14103 14104 14105 14106 14107 14108 14109 14110 14111 14112 14113 14114 14115 14116 14117 14118 14119 14120 14121 14122 14123 14124 14125 14126 14127 14128 14129 14130 14131 14132 14133 14134 14135 14136 14137 14138 14139 14140 14141 14142 14143 14144 14145 14146 14147 14148 14149 14150 14151 14152 14153 14154 14155 14156 14157 14158 14159 14160 14161 14162 14163 14164 14165 14166 14167 14168 14169 14170 14171 14172 14173 14174 14175 14176 14177 14178 14179 14180 14181 14182 14183 14184 14185 14186 14187 14188 14189 14190 14191 14192 14193 14194 14195 14196 14197 14198 14199 14200 14201 14202 14203 14204 14205 14206 14207 14208 14209 14210 14211 14212 14213 14214 14215 14216 14217 14218 14219 14220 14221 14222 14223 14224 14225 14226 14227 14228 14229 14230 14231 14232 14233 14234 14235 14236 14237 14238 14239 14240 14241 14242 14243 14244 14245 14246 14247 14248 14249 14250 14251 14252 14253 14254 14255 14256 14257 14258 14259 14260 14261 14262 14263 14264 14265 14266 14267 14268 14269 14270 14271 14272 14273 14274 14275 14276 14277 14278 14279 14280 14281 14282 14283 14284 14285 14286 14287 14288 14289 14290 14291 14292 14293 14294 14295 14296 14297 14298 14299 14300 14301 14302 14303 14304 14305 14306 14307 14308 14309 14310 14311 14312 14313 14314 14315 14316 14317 14318 14319 14320 14321 14322 14323 14324 14325 14326 14327 14328 14329 14330 14331 14332 14333 14334 14335 14336 14337 14338 14339 14340 14341 14342 14343 14344 14345 14346 14347 14348 14349 14350 14351 14352 14353 14354 14355 14356 14357 14358 14359 14360 14361 14362 14363 14364 14365 14366 14367 14368 14369 14370 14371 14372 14373 14374 14375 14376 14377 14378 14379 14380 14381 14382 14383 14384 14385 14386 14387 14388 14389 14390 14391 14392 14393 14394 14395 14396 14397 14398 14399 14400 14401 14402 14403 14404 14405 14406 14407 14408 14409 14410 14411 14412 14413 14414 14415 14416 14417 14418 14419 14420 14421 14422 14423 14424 14425 14426 14427 14428 14429 14430 14431 14432 14433 14434 14435 14436 14437 14438 14439 14440 14441 14442 14443 14444 14445 14446 14447 14448 14449 14450 14451 14452 14453 14454 14455 14456 14457 14458 14459 14460 14461 14462 14463 14464 14465 14466 14467 14468 14469 14470 14471 14472 14473 14474 14475 14476 14477 14478 14479 14480 14481 14482 14483 14484 14485 14486 14487 14488 14489 14490 14491 14492 14493 14494 14495 14496 14497 14498 14499 14500 14501 14502 14503 14504 14505 14506 14507 14508 14509 14510 14511 14512 14513 14514 14515 14516 14517 14518 14519 14520 14521 14522 14523 14524 14525 14526 14527 14528 14529 14530 14531 14532 14533 14534 14535 14536 14537 14538 14539 14540 14541 14542 14543 14544 14545 14546 14547 14548 14549 14550 14551 14552 14553 14554 14555 14556 14557 14558 14559 14560 14561 14562 14563 14564 14565 14566 14567 14568 14569 14570 14571 14572 14573 14574 14575 14576 14577 14578 14579 14580 14581 14582 14583 14584 14585 14586 14587 14588 14589 14590 14591 14592 14593 14594 14595 14596 14597 14598 14599 14600 14601 14602 14603 14604 14605 14606 14607 14608 14609 14610 14611 14612 14613 14614 14615 14616 14617 14618 14619 14620 14621 14622 14623 14624 14625 14626 14627 14628 14629 14630 14631 14632 14633 14634 14635 14636 14637 14638 14639 14640 14641 14642 14643 14644 14645 14646 14647 14648 14649 14650 14651 14652 14653 14654 14655 14656 14657 14658 14659 14660 14661 14662 14663 14664 14665 14666 14667 14668 14669 14670 14671 14672 14673 14674 14675 14676 14677 14678 14679 14680 14681 14682 14683 14684 14685 14686 14687 14688 14689 14690 14691 14692 14693 14694 14695 14696 14697 14698 14699 14700 14701 14702 14703 14704 14705 14706 14707 14708 14709 14710 14711 14712 14713 14714 14715 14716 14717 14718 14719 14720 14721 14722 14723 14724 14725 14726 14727 14728 14729 14730 14731 14732 14733 14734 14735 14736 14737 14738 14739 14740 14741 14742 14743 14744 14745 14746 14747 14748 14749 14750 14751 14752 14753 14754 14755 14756 14757 14758 14759 14760 14761 14762 14763 14764 14765 14766 14767 14768 14769 14770 14771 14772 14773 14774 14775 14776 14777 14778 14779 14780 14781 14782 14783 14784 14785 14786 14787 14788 14789 14790 14791 14792 14793 14794 14795 14796 14797 14798 14799 14800 14801 14802 14803 14804 14805 14806 14807 14808 14809 14810 14811 14812 14813 14814 14815 14816 14817 14818 14819 14820 14821 14822 14823 14824 14825 14826 14827 14828 14829 14830 14831 14832 14833 14834 14835 14836 14837 14838 14839 14840 14841 14842 14843 14844 14845 14846 14847 14848 14849 14850 14851 14852 14853 14854 14855 14856 14857 14858 14859 14860 14861 14862 14863 14864 14865 14866 14867 14868 14869 14870 14871 14872 14873 14874 14875 14876 14877 14878 14879 14880 14881 14882 14883 14884 14885 14886 14887 14888 14889 14890 14891 14892 14893 14894 14895 14896 14897 14898 14899 14900 14901 14902 14903 14904 14905 14906 14907 14908 14909 14910 14911 14912 14913 14914 14915 14916 14917 14918 14919 14920 14921 14922 14923 14924 14925 14926 14927 14928 14929 14930 14931 14932 14933 14934 14935 14936 14937 14938 14939 14940 14941 14942 14943 14944 14945 14946 14947 14948 14949 14950 14951 14952 14953 14954 14955 14956 14957 14958 14959 14960 14961 14962 14963 14964 14965 14966 14967 14968 14969 14970 14971 14972 14973 14974 14975 14976 14977 14978 14979 14980 14981 14982 14983 14984 14985 14986 14987 14988 14989 14990 14991 14992 14993 14994 14995 14996 14997 14998 14999 15000 15001 15002 15003 15004 15005 15006 15007 15008 15009 15010 15011 15012 15013 15014 15015 15016 15017 15018 15019 15020 15021 15022 15023 15024 15025 15026 15027 15028 15029 15030 15031 15032 15033 15034 15035 15036 15037 15038 15039 15040 15041 15042 15043 15044 15045 15046 15047 15048 15049 15050 15051 15052 15053 15054 15055 15056 15057 15058 15059 15060 15061 15062 15063 15064 15065 15066 15067 15068 15069 15070 15071 15072 15073 15074 15075 15076 15077 15078 15079 15080 15081 15082 15083 15084 15085 15086 15087 15088 15089 15090 15091 15092 15093 15094 15095 15096 15097 15098 15099 15100 15101 15102 15103 15104 15105 15106 15107 15108 15109 15110 15111 15112 15113 15114 15115 15116 15117 15118 15119 15120 15121 15122 15123 15124 15125 15126 15127 15128 15129 15130 15131 15132 15133 15134 15135 15136 15137 15138 15139 15140 15141 15142 15143 15144 15145 15146 15147 15148 15149 15150 15151 15152 15153 15154 15155 15156 15157 15158 15159 15160 15161 15162 15163 15164 15165 15166 15167 15168 15169 15170 15171 15172 15173 15174 15175 15176 15177 15178 15179 15180 15181 15182 15183 15184 15185 15186 15187 15188 15189 15190 15191 15192 15193 15194 15195 15196 15197 15198 15199 15200 15201 15202 15203 15204 15205 15206 15207 15208 15209 15210 15211 15212 15213 15214 15215 15216 15217 15218 15219 15220 15221 15222 15223 15224 15225 15226 15227 15228 15229 15230 15231 15232 15233 15234 15235 15236 15237 15238 15239 15240 15241 15242 15243 15244 15245 15246 15247 15248 15249 15250 15251 15252 15253 15254 15255 15256 15257 15258 15259 15260 15261 15262 15263 15264 15265 15266 15267 15268 15269 15270 15271 15272 15273 15274 15275 15276 15277 15278 15279 15280 15281 15282 15283 15284 15285 15286 15287 15288 15289 15290 15291 15292 15293 15294 15295 15296 15297 15298 15299 15300 15301 15302 15303 15304 15305 15306 15307 15308 15309 15310 15311 15312 15313 15314 15315 15316 15317 15318 15319 15320 15321 15322 15323 15324 15325 15326 15327 15328 15329 15330 15331 15332 15333 15334 15335 15336 15337 15338 15339 15340 15341 15342 15343 15344 15345 15346 15347 15348 15349 15350 15351 15352 15353 15354 15355 15356 15357 15358 15359 15360 15361 15362 15363 15364 15365 15366 15367 15368 15369 15370 15371 15372 15373 15374 15375 15376 15377 15378 15379 15380 15381 15382 15383 15384 15385 15386 15387 15388 15389 15390 15391 15392 15393 15394 15395 15396 15397 15398 15399 15400 15401 15402 15403 15404 15405 15406 15407 15408 15409 15410 15411 15412 15413 15414 15415 15416 15417 15418 15419 15420 15421 15422 15423 15424 15425 15426 15427 15428 15429 15430 15431 15432 15433 15434 15435 15436 15437 15438 15439 15440 15441 15442 15443 15444 15445 15446 15447 15448 15449 15450 15451 15452 15453 15454 15455 15456 15457 15458 15459 15460 15461 15462 15463 15464 15465 15466 15467 15468 15469 15470 15471 15472 15473 15474 15475 15476 15477 15478 15479 15480 15481 15482 15483 15484 15485 15486 15487 15488 15489 15490 15491 15492 15493 15494 15495 15496 15497 15498 15499 15500 15501 15502 15503 15504 15505 15506 15507 15508 15509 15510 15511 15512 15513 15514 15515 15516 15517 15518 15519 15520 15521 15522 15523 15524 15525 15526 15527 15528 15529 15530 15531 15532 15533 15534 15535 15536 15537 15538 15539 15540 15541 15542 15543 15544 15545 15546 15547 15548 15549 15550 15551 15552 15553 15554 15555 15556 15557 15558 15559 15560 15561 15562 15563 15564 15565 15566 15567 15568 15569 15570 15571 15572 15573 15574 15575 15576 15577 15578 15579 15580 15581 15582 15583 15584 15585 15586 15587 15588 15589 15590 15591 15592 15593 15594 15595 15596 15597 15598 15599 15600 15601 15602 15603 15604 15605 15606 15607 15608 15609 15610 15611 15612 15613 15614 15615 15616 15617 15618 15619 15620 15621 15622 15623 15624 15625 15626 15627 15628 15629 15630 15631 15632 15633 15634 15635 15636 15637 15638 15639 15640 15641 15642 15643 15644 15645 15646 15647 15648 15649 15650 15651 15652 15653 15654 15655 15656 15657 15658 15659 15660 15661 15662 15663 15664 15665 15666 15667 15668 15669 15670 15671 15672 15673 15674 15675 15676 15677 15678 15679 15680 15681 15682 15683 15684 15685 15686 15687 15688 15689 15690 15691 15692 15693 15694 15695 15696 15697 15698 15699 15700 15701 15702 15703 15704 15705 15706 15707 15708 15709 15710 15711 15712 15713 15714 15715 15716 15717 15718 15719 15720 15721 15722 15723 15724 15725 15726 15727 15728 15729 15730 15731 15732 15733 15734 15735 15736 15737 15738 15739 15740 15741 15742 15743 15744 15745 15746 15747 15748 15749 15750 15751 15752 15753 15754 15755 15756 15757 15758 15759 15760 15761 15762 15763 15764 15765 15766 15767 15768 15769 15770 15771 15772 15773 15774 15775 15776 15777 15778 15779 15780 15781 15782 15783 15784 15785 15786 15787 15788 15789 15790 15791 15792 15793 15794 15795 15796 15797 15798 15799 15800 15801 15802 15803 15804 15805 15806 15807 15808 15809 15810 15811 15812 15813 15814 15815 15816 15817 15818 15819 15820 15821 15822 15823 15824 15825 15826 15827 15828 15829 15830 15831 15832 15833 15834 15835 15836 15837 15838 15839 15840 15841 15842 15843 15844 15845 15846 15847 15848 15849 15850 15851 15852 15853 15854 15855 15856 15857 15858 15859 15860 15861 15862 15863 15864 15865 15866 15867 15868 15869 15870 15871 15872 15873 15874 15875 15876 15877 15878 15879 15880 15881 15882 15883 15884 15885 15886 15887 15888 15889 15890 15891 15892 15893 15894 15895 15896 15897 15898 15899 15900 15901 15902 15903 15904 15905 15906 15907 15908 15909 15910 15911 15912 15913 15914 15915 15916 15917 15918 15919 15920 15921 15922 15923 15924 15925 15926 15927 15928 15929 15930 15931 15932 15933 15934 15935 15936 15937 15938 15939 15940 15941 15942 15943 15944 15945 15946 15947 15948 15949 15950 15951 15952 15953 15954 15955 15956 15957 15958 15959 15960 15961 15962 15963 15964 15965 15966 15967 15968 15969 15970 15971 15972 15973 15974 15975 15976 15977 15978 15979 15980 15981 15982 15983 15984 15985 15986 15987 15988 15989 15990 15991 15992 15993 15994 15995 15996 15997 15998 15999 16000 16001 16002 16003 16004 16005 16006 16007 16008 16009 16010 16011 16012 16013 16014 16015 16016 16017 16018 16019 16020 16021 16022 16023 16024 16025 16026 16027 16028 16029 16030 16031 16032 16033 16034 16035 16036 16037 16038 16039 16040 16041 16042 16043 16044 16045 16046 16047 16048 16049 16050 16051 16052 16053 16054 16055 16056 16057 16058 16059 16060 16061 16062 16063 16064 16065 16066 16067 16068 16069 16070 16071 16072 16073 16074 16075 16076 16077 16078 16079 16080 16081 16082 16083 16084 16085 16086 16087 16088 16089 16090 16091 16092 16093 16094 16095 16096 16097 16098 16099 16100 16101 16102 16103 16104 16105 16106 16107 16108 16109 16110 16111 16112 16113 16114 16115 16116 16117 16118 16119 16120 16121 16122 16123 16124 16125 16126 16127 16128 16129 16130 16131 16132 16133 16134 16135 16136 16137 16138 16139 16140 16141 16142 16143 16144 16145 16146 16147 16148 16149 16150 16151 16152 16153 16154 16155 16156 16157 16158 16159 16160 16161 16162 16163 16164 16165 16166 16167 16168 16169 16170 16171 16172 16173 16174 16175 16176 16177 16178 16179 16180 16181 16182 16183 16184 16185 16186 16187 16188 16189 16190 16191 16192 16193 16194 16195 16196 16197 16198 16199 16200 16201 16202 16203 16204 16205 16206 16207 16208 16209 16210 16211 16212 16213 16214 16215 16216 16217 16218 16219 16220 16221 16222 16223 16224 16225 16226 16227 16228 16229 16230 16231 16232 16233 16234 16235 16236 16237 16238 16239 16240 16241 16242 16243 16244 16245 16246 16247 16248 16249 16250 16251 16252 16253 16254 16255 16256 16257 16258 16259 16260 16261 16262 16263 16264 16265 16266 16267 16268 16269 16270 16271 16272 16273 16274 16275 16276 16277 16278 16279 16280 16281 16282 16283 16284 16285 16286 16287 16288 16289 16290 16291 16292 16293 16294 16295 16296 16297 16298 16299 16300 16301 16302 16303 16304 16305 16306 16307 16308 16309 16310 16311 16312 16313 16314 16315 16316 16317 16318 16319 16320 16321 16322 16323 16324 16325 16326 16327 16328 16329 16330 16331 16332 16333 16334 16335 16336 16337 16338 16339 16340 16341 16342 16343 16344 16345 16346 16347 16348 16349 16350 16351 16352 16353 16354 16355 16356 16357 16358 16359 16360 16361 16362 16363 16364 16365 16366 16367 16368 16369 16370 16371 16372 16373 16374 16375 16376 16377 16378 16379 16380 16381 16382 16383 16384 16385 16386 16387 16388 16389 16390 16391 16392 16393 16394 16395 16396 16397 16398 16399 16400 16401 16402 16403 16404 16405 16406 16407 16408 16409 16410 16411 16412 16413 16414 16415 16416 16417 16418 16419 16420 16421 16422 16423 16424 16425 16426 16427 16428 16429 16430 16431 16432 16433 16434 16435 16436 16437 16438 16439 16440 16441 16442 16443 16444 16445 16446 16447 16448 16449 16450 16451 16452 16453 16454 16455 16456 16457 16458 16459 16460 16461 16462 16463 16464 16465 16466 16467 16468 16469 16470 16471 16472 16473 16474 16475 16476 16477 16478 16479 16480 16481 16482 16483 16484 16485 16486 16487 16488 16489 16490 16491 16492 16493 16494 16495 16496 16497 16498 16499 16500 16501 16502 16503 16504 16505 16506 16507 16508 16509 16510 16511 16512 16513 16514 16515 16516 16517 16518 16519 16520 16521 16522 16523 16524 16525 16526 16527 16528 16529 16530 16531 16532 16533 16534 16535 16536 16537 16538 16539 16540 16541 16542 16543 16544 16545 16546 16547 16548 16549 16550 16551 16552 16553 16554 16555 16556 16557 16558 16559 16560 16561 16562 16563 16564 16565 16566 16567 16568 16569 16570 16571 16572 16573 16574 16575 16576 16577 16578 16579 16580 16581 16582 16583 16584 16585 16586 16587 16588 16589 16590 16591 16592 16593 16594 16595 16596 16597 16598 16599 16600 16601 16602 16603 16604 16605 16606 16607 16608 16609 16610 16611 16612 16613 16614 16615 16616 16617 16618 16619 16620 16621 16622 16623 16624 16625 16626 16627 16628 16629 16630 16631 16632 16633 16634 16635 16636 16637 16638 16639 16640 16641 16642 16643 16644 16645 16646 16647 16648 16649 16650 16651 16652 16653 16654 16655 16656 16657 16658 16659 16660 16661 16662 16663 16664 16665 16666 16667 16668 16669 16670 16671 16672 16673 16674 16675 16676 16677 16678 16679 16680 16681 16682 16683 16684 16685 16686 16687 16688 16689 16690 16691 16692 16693 16694 16695 16696 16697 16698 16699 16700 16701 16702 16703 16704 16705 16706 16707 16708 16709 16710 16711 16712 16713 16714 16715 16716 16717 16718 16719 16720 16721 16722 16723 16724 16725 16726 16727 16728 16729 16730 16731 16732 16733 16734 16735 16736 16737 16738 16739 16740 16741 16742 16743 16744 16745 16746 16747 16748 16749 16750 16751 16752 16753 16754 16755 16756 16757 16758 16759 16760 16761 16762 16763 16764 16765 16766 16767 16768 16769 16770 16771 16772 16773 16774 16775 16776 16777 16778 16779 16780 16781 16782 16783 16784 16785 16786 16787 16788 16789 16790 16791 16792 16793 16794 16795 16796 16797 16798 16799 16800 16801 16802 16803 16804 16805 16806 16807 16808 16809 16810 16811 16812 16813 16814 16815 16816 16817 16818 16819 16820 16821 16822 16823 16824 16825 16826 16827 16828 16829 16830 16831 16832 16833 16834 16835 16836 16837 16838 16839 16840 16841 16842 16843 16844 16845 16846 16847 16848 16849 16850 16851 16852 16853 16854 16855 16856 16857 16858 16859 16860 16861 16862 16863 16864 16865 16866 16867 16868 16869 16870 16871 16872 16873 16874 16875 16876 16877 16878 16879 16880 16881 16882 16883 16884 16885 16886 16887 16888 16889 16890 16891 16892 16893 16894 16895 16896 16897 16898 16899 16900 16901 16902 16903 16904 16905 16906 16907 16908 16909 16910 16911 16912 16913 16914 16915 16916 16917 16918 16919 16920 16921 16922 16923 16924 16925 16926 16927 16928 16929 16930 16931 16932 16933 16934 16935 16936 16937 16938 16939 16940 16941 16942 16943 16944 16945 16946 16947 16948 16949 16950 16951 16952 16953 16954 16955 16956 16957 16958 16959 16960 16961 16962 16963 16964 16965 16966 16967 16968 16969 16970 16971 16972 16973 16974 16975 16976 16977 16978 16979 16980 16981 16982 16983 16984 16985 16986 16987 16988 16989 16990 16991 16992 16993 16994 16995 16996 16997 16998 16999 17000 17001 17002 17003 17004 17005 17006 17007 17008 17009 17010 17011 17012 17013 17014 17015 17016 17017 17018 17019 17020 17021 17022 17023 17024 17025 17026 17027 17028 17029 17030 17031 17032 17033 17034 17035 17036 17037 17038 17039 17040 17041 17042 17043 17044 17045 17046 17047 17048 17049 17050 17051 17052 17053 17054 17055 17056 17057 17058 17059 17060 17061 17062 17063 17064 17065 17066 17067 17068 17069 17070 17071 17072 17073 17074 17075 17076 17077 17078 17079 17080 17081 17082 17083 17084 17085 17086 17087 17088 17089 17090 17091 17092 17093 17094 17095 17096 17097 17098 17099 17100 17101 17102 17103 17104 17105 17106 17107 17108 17109 17110 17111 17112 17113 17114 17115 17116 17117 17118 17119 17120 17121 17122 17123 17124 17125 17126 17127 17128 17129 17130 17131 17132 17133 17134 17135 17136 17137 17138 17139 17140 17141 17142 17143 17144 17145 17146 17147 17148 17149 17150 17151 17152 17153 17154 17155 17156 17157 17158 17159 17160 17161 17162 17163 17164 17165 17166 17167 17168 17169 17170 17171 17172 17173 17174 17175 17176 17177 17178 17179 17180 17181 17182 17183 17184 17185 17186 17187 17188 17189 17190 17191 17192 17193 17194 17195 17196 17197 17198 17199 17200 17201 17202 17203 17204 17205 17206 17207 17208 17209 17210 17211 17212 17213 17214 17215 17216 17217 17218 17219 17220 17221 17222 17223 17224 17225 17226 17227 17228 17229 17230 17231 17232 17233 17234 17235 17236 17237 17238 17239 17240 17241 17242 17243 17244 17245 17246 17247 17248 17249 17250 17251 17252 17253 17254 17255 17256 17257 17258 17259 17260 17261 17262 17263 17264 17265 17266 17267 17268 17269 17270 17271 17272 17273 17274 17275 17276 17277 17278 17279 17280 17281 17282 17283 17284 17285 17286 17287 17288 17289 17290 17291 17292 17293 17294 17295 17296 17297 17298 17299 17300 17301 17302 17303 17304 17305 17306 17307 17308 17309 17310 17311 17312 17313 17314 17315 17316 17317 17318 17319 17320 17321 17322 17323 17324 17325 17326 17327 17328 17329 17330 17331 17332 17333 17334 17335 17336 17337 17338 17339 17340 17341 17342 17343 17344 17345 17346 17347 17348 17349 17350 17351 17352 17353 17354 17355 17356 17357 17358 17359 17360 17361 17362 17363 17364 17365 17366 17367 17368 17369 17370 17371 17372 17373 17374 17375 17376 17377 17378 17379 17380 17381 17382 17383 17384 17385 17386 17387 17388 17389 17390 17391 17392 17393 17394 17395 17396 17397 17398 17399 17400 17401 17402 17403 17404 17405 17406 17407 17408 17409 17410 17411 17412 17413 17414 17415 17416 17417 17418 17419 17420 17421 17422 17423 17424 17425 17426 17427 17428 17429 17430 17431 17432 17433 17434 17435 17436 17437 17438 17439 17440 17441 17442 17443 17444 17445 17446 17447 17448 17449 17450 17451 17452 17453 17454 17455 17456 17457 17458 17459 17460 17461 17462 17463 17464 17465 17466 17467 17468 17469 17470 17471 17472 17473 17474 17475 17476 17477 17478 17479 17480 17481 17482 17483 17484 17485 17486 17487 17488 17489 17490 17491 17492 17493 17494 17495 17496 17497 17498 17499 17500 17501 17502 17503 17504 17505 17506 17507 17508 17509 17510 17511 17512 17513 17514 17515 17516 17517 17518 17519 17520 17521 17522 17523 17524 17525 17526 17527 17528 17529 17530 17531 17532 17533 17534 17535 17536 17537 17538 17539 17540 17541 17542 17543 17544 17545 17546 17547 17548 17549 17550 17551 17552 17553 17554 17555 17556 17557 17558 17559 17560 17561 17562 17563 17564 17565 17566 17567 17568 17569 17570 17571 17572 17573 17574 17575 17576 17577 17578 17579 17580 17581 17582 17583 17584 17585 17586 17587 17588 17589 17590 17591 17592 17593 17594 17595 17596 17597 17598 17599 17600 17601 17602 17603 17604 17605 17606 17607 17608 17609 17610 17611 17612 17613 17614 17615 17616 17617 17618 17619 17620 17621 17622 17623 17624 17625 17626 17627 17628 17629 17630 17631 17632 17633 17634 17635 17636 17637 17638 17639 17640 17641 17642 17643 17644 17645 17646 17647 17648 17649 17650 17651 17652 17653 17654 17655 17656 17657 17658 17659 17660 17661 17662 17663 17664 17665 17666 17667 17668 17669 17670 17671 17672 17673 17674 17675 17676 17677 17678 17679 17680 17681 17682 17683 17684 17685 17686 17687 17688 17689 17690 17691 17692 17693 17694 17695 17696 17697 17698 17699 17700 17701 17702 17703 17704 17705 17706 17707 17708 17709 17710 17711 17712 17713 17714 17715 17716 17717 17718 17719 17720 17721 17722 17723 17724 17725 17726 17727 17728 17729 17730 17731 17732 17733 17734 17735 17736 17737 17738 17739 17740 17741 17742 17743 17744 17745 17746 17747 17748 17749 17750 17751 17752 17753 17754 17755 17756 17757 17758 17759 17760 17761 17762 17763 17764 17765 17766 17767 17768 17769 17770 17771 17772 17773 17774 17775 17776 17777 17778 17779 17780 17781 17782 17783 17784 17785 17786 17787 17788 17789 17790 17791 17792 17793 17794 17795 17796 17797 17798 17799 17800 17801 17802 17803 17804 17805 17806 17807 17808 17809 17810 17811 17812 17813 17814 17815 17816 17817 17818 17819 17820 17821 17822 17823 17824 17825 17826 17827 17828 17829 17830 17831 17832 17833 17834 17835 17836 17837 17838 17839 17840 17841 17842 17843 17844 17845 17846 17847 17848 17849 17850 17851 17852 17853 17854 17855 17856 17857 17858 17859 17860 17861 17862 17863 17864 17865 17866 17867 17868 17869 17870 17871 17872 17873 17874 17875 17876 17877 17878 17879 17880 17881 17882 17883 17884 17885 17886 17887 17888 17889 17890 17891 17892 17893 17894 17895 17896 17897 17898 17899 17900 17901 17902 17903 17904 17905 17906 17907 17908 17909 17910 17911 17912 17913 17914 17915 17916 17917 17918 17919 17920 17921 17922 17923 17924 17925 17926 17927 17928 17929 17930 17931 17932 17933 17934 17935 17936 17937 17938 17939 17940 17941 17942 17943 17944 17945 17946 17947 17948 17949 17950 17951 17952 17953 17954 17955 17956 17957 17958 17959 17960 17961 17962 17963 17964 17965 17966 17967 17968 17969 17970 17971 17972 17973 17974 17975 17976 17977 17978 17979 17980 17981 17982 17983 17984 17985 17986 17987 17988 17989 17990 17991 17992 17993 17994 17995 17996 17997 17998 17999 18000 18001 18002 18003 18004 18005 18006 18007 18008 18009 18010 18011 18012 18013 18014 18015 18016 18017 18018 18019 18020 18021 18022 18023 18024 18025 18026 18027 18028 18029 18030 18031 18032 18033 18034 18035 18036 18037 18038 18039 18040 18041 18042 18043 18044 18045 18046 18047 18048 18049 18050 18051 18052 18053 18054 18055 18056 18057 18058 18059 18060 18061 18062 18063 18064 18065 18066 18067 18068 18069 18070 18071 18072 18073 18074 18075 18076 18077 18078 18079 18080 18081 18082 18083 18084 18085 18086 18087 18088 18089 18090 18091 18092 18093 18094 18095 18096 18097 18098 18099 18100 18101 18102 18103 18104 18105 18106 18107 18108 18109 18110 18111 18112 18113 18114 18115 18116 18117 18118 18119 18120 18121 18122 18123 18124 18125 18126 18127 18128 18129 18130 18131 18132 18133 18134 18135 18136 18137 18138 18139 18140 18141 18142 18143 18144 18145 18146 18147 18148 18149 18150 18151 18152 18153 18154 18155 18156 18157 18158 18159 18160 18161 18162 18163 18164 18165 18166 18167 18168 18169 18170 18171 18172 18173 18174 18175 18176 18177 18178 18179 18180 18181 18182 18183 18184 18185 18186 18187 18188 18189 18190 18191 18192 18193 18194 18195 18196 18197 18198 18199 18200 18201 18202 18203 18204 18205 18206 18207 18208 18209 18210 18211 18212 18213 18214 18215 18216 18217 18218 18219 18220 18221 18222 18223 18224 18225 18226 18227 18228 18229 18230 18231 18232 18233 18234 18235 18236 18237 18238 18239 18240 18241 18242 18243 18244 18245 18246 18247 18248 18249 18250 18251 18252 18253 18254 18255 18256 18257 18258 18259 18260 18261 18262 18263 18264 18265 18266 18267 18268 18269 18270 18271 18272 18273 18274 18275 18276 18277 18278 18279 18280 18281 18282 18283 18284 18285 18286 18287 18288 18289 18290 18291 18292 18293 18294 18295 18296 18297 18298 18299 18300 18301 18302 18303 18304 18305 18306 18307 18308 18309 18310 18311 18312 18313 18314 18315 18316 18317 18318 18319 18320 18321 18322 18323 18324 18325 18326 18327 18328 18329 18330 18331 18332 18333 18334 18335 18336 18337 18338 18339 18340 18341 18342 18343 18344 18345 18346 18347 18348 18349 18350 18351 18352 18353 18354 18355 18356 18357 18358 18359 18360 18361 18362 18363 18364 18365 18366 18367 18368 18369 18370 18371 18372 18373 18374 18375 18376 18377 18378 18379 18380 18381 18382 18383 18384 18385 18386 18387 18388 18389 18390 18391 18392 18393 18394 18395 18396 18397 18398 18399 18400 18401 18402 18403 18404 18405 18406 18407 18408 18409 18410 18411 18412 18413 18414 18415 18416 18417 18418 18419 18420 18421 18422 18423 18424 18425 18426 18427 18428 18429 18430 18431 18432 18433 18434 18435 18436 18437 18438 18439 18440 18441 18442 18443 18444 18445 18446 18447 18448 18449 18450 18451 18452 18453 18454 18455 18456 18457 18458 18459 18460 18461 18462 18463 18464 18465 18466 18467 18468 18469 18470 18471 18472 18473 18474 18475 18476 18477 18478 18479 18480 18481 18482 18483 18484 18485 18486 18487 18488 18489 18490 18491 18492 18493 18494 18495 18496 18497 18498 18499 18500 18501 18502 18503 18504 18505 18506 18507 18508 18509 18510 18511 18512 18513 18514 18515 18516 18517 18518 18519 18520 18521 18522 18523 18524 18525 18526 18527 18528 18529 18530 18531 18532 18533 18534 18535 18536 18537 18538 18539 18540 18541 18542 18543 18544 18545 18546 18547 18548 18549 18550 18551 18552 18553 18554 18555 18556 18557 18558 18559 18560 18561 18562 18563 18564 18565 18566 18567 18568 18569 18570 18571 18572 18573 18574 18575 18576 18577 18578 18579 18580 18581 18582 18583 18584 18585 18586 18587 18588 18589 18590 18591 18592 18593 18594 18595 18596 18597 18598 18599 18600 18601 18602 18603 18604 18605 18606 18607 18608 18609 18610 18611 18612 18613 18614 18615 18616 18617 18618 18619 18620 18621 18622 18623 18624 18625 18626 18627 18628 18629 18630 18631 18632 18633 18634 18635 18636 18637 18638 18639 18640 18641 18642 18643 18644 18645 18646 18647 18648 18649 18650 18651 18652 18653 18654 18655 18656 18657 18658 18659 18660 18661 18662 18663 18664 18665 18666 18667 18668 18669 18670 18671 18672 18673 18674 18675 18676 18677 18678 18679 18680 18681 18682 18683 18684 18685 18686 18687 18688 18689 18690 18691 18692 18693 18694 18695 18696 18697 18698 18699 18700 18701 18702 18703 18704 18705 18706 18707 18708 18709 18710 18711 18712 18713 18714 18715 18716 18717 18718 18719 18720 18721 18722 18723 18724 18725 18726 18727 18728 18729 18730 18731 18732 18733 18734 18735 18736 18737 18738 18739 18740 18741 18742 18743 18744 18745 18746 18747 18748 18749 18750 18751 18752 18753 18754 18755 18756 18757 18758 18759 18760 18761 18762 18763 18764 18765 18766 18767 18768 18769 18770 18771 18772 18773 18774 18775 18776 18777 18778 18779 18780 18781 18782 18783 18784 18785 18786 18787 18788 18789 18790 18791 18792 18793 18794 18795 18796 18797 18798 18799 18800 18801 18802 18803 18804 18805 18806 18807 18808 18809 18810 18811 18812 18813 18814 18815 18816 18817 18818 18819 18820 18821 18822 18823 18824 18825 18826 18827 18828 18829 18830 18831 18832 18833 18834 18835 18836 18837 18838 18839 18840 18841 18842 18843 18844 18845 18846 18847 18848 18849 18850 18851 18852 18853 18854 18855 18856 18857 18858 18859 18860 18861 18862 18863 18864 18865 18866 18867 18868 18869 18870 18871 18872 18873 18874 18875 18876 18877 18878 18879 18880 18881 18882 18883 18884 18885 18886 18887 18888 18889 18890 18891 18892 18893 18894 18895 18896 18897 18898 18899 18900 18901 18902 18903 18904 18905 18906 18907 18908 18909 18910 18911 18912 18913 18914 18915 18916 18917 18918 18919 18920 18921 18922 18923 18924 18925 18926 18927 18928 18929 18930 18931 18932 18933 18934 18935 18936 18937 18938 18939 18940 18941 18942 18943 18944 18945 18946 18947 18948 18949 18950 18951 18952 18953 18954 18955 18956 18957 18958 18959 18960 18961 18962 18963 18964 18965 18966 18967 18968 18969 18970 18971 18972 18973 18974 18975 18976 18977 18978 18979 18980 18981 18982 18983 18984 18985 18986 18987 18988 18989 18990 18991 18992 18993 18994 18995 18996 18997 18998 18999 19000 19001 19002 19003 19004 19005 19006 19007 19008 19009 19010 19011 19012 19013 19014 19015 19016 19017 19018 19019 19020 19021 19022 19023 19024 19025 19026 19027 19028 19029 19030 19031 19032 19033 19034 19035 19036 19037 19038 19039 19040 19041 19042 19043 19044 19045 19046 19047 19048 19049 19050 19051 19052 19053 19054 19055 19056 19057 19058 19059 19060 19061 19062 19063 19064 19065 19066 19067 19068 19069 19070 19071 19072 19073 19074 19075 19076 19077 19078 19079 19080 19081 19082 19083 19084 19085 19086 19087 19088 19089 19090 19091 19092 19093 19094 19095 19096 19097 19098 19099 19100 19101 19102 19103 19104 19105 19106 19107 19108 19109 19110 19111 19112 19113 19114 19115 19116 19117 19118 19119 19120 19121 19122 19123 19124 19125 19126 19127 19128 19129 19130 19131 19132 19133 19134 19135 19136 19137 19138 19139 19140 19141 19142 19143 19144 19145 19146 19147 19148 19149 19150 19151 19152 19153 19154 19155 19156 19157 19158 19159 19160 19161 19162 19163 19164 19165 19166 19167 19168 19169 19170 19171 19172 19173 19174 19175 19176 19177 19178 19179 19180 19181 19182 19183 19184 19185 19186 19187 19188 19189 19190 19191 19192 19193 19194 19195 19196 19197 19198 19199 19200 19201 19202 19203 19204 19205 19206 19207 19208 19209 19210 19211 19212 19213 19214 19215 19216 19217 19218 19219 19220 19221 19222 19223 19224 19225 19226 19227 19228 19229 19230 19231 19232 19233 19234 19235 19236 19237 19238 19239 19240 19241 19242 19243 19244 19245 19246 19247 19248 19249 19250 19251 19252 19253 19254 19255 19256 19257 19258 19259 19260 19261 19262 19263 19264 19265 19266 19267 19268 19269 19270 19271 19272 19273 19274 19275 19276 19277 19278 19279 19280 19281 19282 19283 19284 19285 19286 19287 19288 19289 19290 19291 19292 19293 19294 19295 19296 19297 19298 19299 19300 19301 19302 19303 19304 19305 19306 19307 19308 19309 19310 19311 19312 19313 19314 19315 19316 19317 19318 19319 19320 19321 19322 19323 19324 19325 19326 19327 19328 19329 19330 19331 19332 19333 19334 19335 19336 19337 19338 19339 19340 19341 19342 19343 19344 19345 19346 19347 19348 19349 19350 19351 19352 19353 19354 19355 19356 19357 19358 19359 19360 19361 19362 19363 19364 19365 19366 19367 19368 19369 19370 19371 19372 19373 19374 19375 19376 19377 19378 19379 19380 19381 19382 19383 19384 19385 19386 19387 19388 19389 19390 19391 19392 19393 19394 19395 19396 19397 19398 19399 19400 19401 19402 19403 19404 19405 19406 19407 19408 19409 19410 19411 19412 19413 19414 19415 19416 19417 19418 19419 19420 19421 19422 19423 19424 19425 19426 19427 19428 19429 19430 19431 19432 19433 19434 19435 19436 19437 19438 19439 19440 19441 19442 19443 19444 19445 19446 19447 19448 19449 19450 19451 19452 19453 19454 19455 19456 19457 19458 19459 19460 19461 19462 19463 19464 19465 19466 19467 19468 19469 19470 19471 19472 19473 19474 19475 19476 19477 19478 19479 19480 19481 19482 19483 19484 19485 19486 19487 19488 19489 19490 19491 19492 19493 19494 19495 19496 19497 19498 19499 19500 19501 19502 19503 19504 19505 19506 19507 19508 19509 19510 19511 19512 19513 19514 19515 19516 19517 19518 19519 19520 19521 19522 19523 19524 19525 19526 19527 19528 19529 19530 19531 19532 19533 19534 19535 19536 19537 19538 19539 19540 19541 19542 19543 19544 19545 19546 19547 19548 19549 19550 19551 19552 19553 19554 19555 19556 19557 19558 19559 19560 19561 19562 19563 19564 19565 19566 19567 19568 19569 19570 19571 19572 19573 19574 19575 19576 19577 19578 19579 19580 19581 19582 19583 19584 19585 19586 19587 19588 19589 19590 19591 19592 19593 19594 19595 19596 19597 19598 19599 19600 19601 19602 19603 19604 19605 19606 19607 19608 19609 19610 19611 19612 19613 19614 19615 19616 19617 19618 19619 19620 19621 19622 19623 19624 19625 19626 19627 19628 19629 19630 19631 19632 19633 19634 19635 19636 19637 19638 19639 19640 19641 19642 19643 19644 19645 19646 19647 19648 19649 19650 19651 19652 19653 19654 19655 19656 19657 19658 19659 19660 19661 19662 19663 19664 19665 19666 19667 19668 19669 19670 19671 19672 19673 19674 19675 19676 19677 19678 19679 19680 19681 19682 19683 19684 19685 19686 19687 19688 19689 19690 19691 19692 19693 19694 19695 19696 19697 19698 19699 19700 19701 19702 19703 19704 19705 19706 19707 19708 19709 19710 19711 19712 19713 19714 19715 19716 19717 19718 19719 19720 19721 19722 19723 19724 19725 19726 19727 19728 19729 19730 19731 19732 19733 19734 19735 19736 19737 19738 19739 19740 19741 19742 19743 19744 19745 19746 19747 19748 19749 19750 19751 19752 19753 19754 19755 19756 19757 19758 19759 19760 19761 19762 19763 19764 19765 19766 19767 19768 19769 19770 19771 19772 19773 19774 19775 19776 19777 19778 19779 19780 19781 19782 19783 19784 19785 19786 19787 19788 19789 19790 19791 19792 19793 19794 19795 19796 19797 19798 19799 19800 19801 19802 19803 19804 19805 19806 19807 19808 19809 19810 19811 19812 19813 19814 19815 19816 19817 19818 19819 19820 19821 19822 19823 19824 19825 19826 19827 19828 19829 19830 19831 19832 19833 19834 19835 19836 19837 19838 19839 19840 19841 19842 19843 19844 19845 19846 19847 19848 19849 19850 19851 19852 19853 19854 19855 19856 19857 19858 19859 19860 19861 19862 19863 19864 19865 19866 19867 19868 19869 19870 19871 19872 19873 19874 19875 19876 19877 19878 19879 19880 19881 19882 19883 19884 19885 19886 19887 19888 19889 19890 19891 19892 19893 19894 19895 19896 19897 19898 19899 19900 19901 19902 19903 19904 19905 19906 19907 19908 19909 19910 19911 19912 19913 19914 19915 19916 19917 19918 19919 19920 19921 19922 19923 19924 19925 19926 19927 19928 19929 19930 19931 19932 19933 19934 19935 19936 19937 19938 19939 19940 19941 19942 19943 19944 19945 19946 19947 19948 19949 19950 19951 19952 19953 19954 19955 19956 19957 19958 19959 19960 19961 19962 19963 19964 19965 19966 19967 19968 19969 19970 19971 19972 19973 19974 19975 19976 19977 19978 19979 19980 19981 19982 19983 19984 19985 19986 19987 19988 19989 19990 19991 19992 19993 19994 19995 19996 19997 19998 19999 20000 20001 20002 20003 20004 20005 20006 20007 20008 20009 20010 20011 20012 20013 20014 20015 20016 20017 20018 20019 20020 20021 20022 20023 20024 20025 20026 20027 20028 20029 20030 20031 20032 20033 20034 20035 20036 20037 20038 20039 20040 20041 20042 20043 20044 20045 20046 20047 20048 20049 20050 20051 20052 20053 20054 20055 20056 20057 20058 20059 20060 20061 20062 20063 20064 20065 20066 20067 20068 20069 20070 20071 20072 20073 20074 20075 20076 20077 20078 20079 20080 20081 20082 20083 20084 20085 20086 20087 20088 20089 20090 20091 20092 20093 20094 20095 20096 20097 20098 20099 20100 20101 20102 20103 20104 20105 20106 20107 20108 20109 20110 20111 20112 20113 20114 20115 20116 20117 20118 20119 20120 20121 20122 20123 20124 20125 20126 20127 20128 20129 20130 20131 20132 20133 20134 20135 20136 20137 20138 20139 20140 20141 20142 20143 20144 20145 20146 20147 20148 20149 20150 20151 20152 20153 20154 20155 20156 20157 20158 20159 20160 20161 20162 20163 20164 20165 20166 20167 20168 20169 20170 20171 20172 20173 20174 20175 20176 20177 20178 20179 20180 20181 20182 20183 20184 20185 20186 20187 20188 20189 20190 20191 20192 20193 20194 20195 20196 20197 20198 20199 20200 20201 20202 20203 20204 20205 20206 20207 20208 20209 20210 20211 20212 20213 20214 20215 20216 20217 20218 20219 20220 20221 20222 20223 20224 20225 20226 20227 20228 20229 20230 20231 20232 20233 20234 20235 20236 20237 20238 20239 20240 20241 20242 20243 20244 20245 20246 20247 20248 20249 20250 20251 20252 20253 20254 20255 20256 20257 20258 20259 20260 20261 20262 20263 20264 20265 20266 20267 20268 20269 20270 20271 20272 20273 20274 20275 20276 20277 20278 20279 20280 20281 20282 20283 20284 20285 20286 20287 20288 20289 20290 20291 20292 20293 20294 20295 20296 20297 20298 20299 20300 20301 20302 20303 20304 20305 20306 20307 20308 20309 20310 20311 20312 20313 20314 20315 20316 20317 20318 20319 20320 20321 20322 20323 20324 20325 20326 20327 20328 20329 20330 20331 20332 20333 20334 20335 20336 20337 20338 20339 20340 20341 20342 20343 20344 20345 20346 20347 20348 20349 20350 20351 20352 20353 20354 20355 20356 20357 20358 20359 20360 20361 20362 20363 20364 20365 20366 20367 20368 20369 20370 20371 20372 20373 20374 20375 20376 20377 20378 20379 20380 20381 20382 20383 20384 20385 20386 20387 20388 20389 20390 20391 20392 20393 20394 20395 20396 20397 20398 20399 20400 20401 20402 20403 20404 20405 20406 20407 20408 20409 20410 20411 20412 20413 20414 20415 20416 20417 20418 20419 20420 20421 20422 20423 20424 20425 20426 20427 20428 20429 20430 20431 20432 20433 20434 20435 20436 20437 20438 20439 20440 20441 20442 20443 20444 20445 20446 20447 20448 20449 20450 20451 20452 20453 20454 20455 20456 20457 20458 20459 20460 20461 20462 20463 20464 20465 20466 20467 20468 20469 20470 20471 20472 20473 20474 20475 20476 20477 20478 20479 20480 20481 20482 20483 20484 20485 20486 20487 20488 20489 20490 20491 20492 20493 20494 20495 20496 20497 20498 20499 20500 20501 20502 20503 20504 20505 20506 20507 20508 20509 20510 20511 20512 20513 20514 20515 20516 20517 20518 20519 20520 20521 20522 20523 20524 20525 20526 20527 20528 20529 20530 20531 20532 20533 20534 20535 20536 20537 20538 20539 20540 20541 20542 20543 20544 20545 20546 20547 20548 20549 20550 20551 20552 20553 20554 20555 20556 20557 20558 20559 20560 20561 20562 20563 20564 20565 20566 20567 20568 20569 20570 20571 20572 20573 20574 20575 20576 20577 20578 20579 20580 20581 20582 20583 20584 20585 20586 20587 20588 20589 20590 20591 20592 20593 20594 20595 20596 20597 20598 20599 20600 20601 20602 20603 20604 20605 20606 20607 20608 20609 20610 20611 20612 20613 20614 20615 20616 20617 20618 20619 20620 20621 20622 20623 20624 20625 20626 20627 20628 20629 20630 20631 20632 20633 20634 20635 20636 20637 20638 20639 20640 20641 20642 20643 20644 20645 20646 20647 20648 20649 20650 20651 20652 20653 20654 20655 20656 20657 20658 20659 20660 20661 20662 20663 20664 20665 20666 20667 20668 20669 20670 20671 20672 20673 20674 20675 20676 20677 20678 20679 20680 20681 20682 20683 20684 20685 20686 20687 20688 20689 20690 20691 20692 20693 20694 20695 20696 20697 20698 20699 20700 20701 20702 20703 20704 20705 20706 20707 20708 20709 20710 20711 20712 20713 20714 20715 20716 20717 20718 20719 20720 20721 20722 20723 20724 20725 20726 20727 20728 20729 20730 20731 20732 20733 20734 20735 20736 20737 20738 20739 20740 20741 20742 20743 20744 20745 20746 20747 20748 20749 20750 20751 20752 20753 20754 20755 20756 20757 20758 20759 20760 20761 20762 20763 20764 20765 20766 20767 20768 20769 20770 20771 20772 20773 20774 20775 20776 20777 20778 20779 20780 20781 20782 20783 20784 20785 20786 20787 20788 20789 20790 20791 20792 20793 20794 20795 20796 20797 20798 20799 20800 20801 20802 20803 20804 20805 20806 20807 20808 20809 20810 20811 20812 20813 20814 20815 20816 20817 20818 20819 20820 20821 20822 20823 20824 20825 20826 20827 20828 20829 20830 20831 20832 20833 20834 20835 20836 20837 20838 20839 20840 20841 20842 20843 20844 20845 20846 20847 20848 20849 20850 20851 20852 20853 20854 20855 20856 20857 20858 20859 20860 20861 20862 20863 20864 20865 20866 20867 20868 20869 20870 20871 20872 20873 20874 20875 20876 20877 20878 20879 20880 20881 20882 20883 20884 20885 20886 20887 20888 20889 20890 20891 20892 20893 20894 20895 20896 20897 20898 20899 20900 20901 20902 20903 20904 20905 20906 20907 20908 20909 20910 20911 20912 20913 20914 20915 20916 20917 20918 20919 20920 20921 20922 20923 20924 20925 20926 20927 20928 20929 20930 20931 20932 20933 20934 20935 20936 20937 20938 20939 20940 20941 20942 20943 20944 20945 20946 20947 20948 20949 20950 20951 20952 20953 20954 20955 20956 20957 20958 20959 20960 20961 20962 20963 20964 20965 20966 20967 20968 20969 20970 20971 20972 20973 20974 20975 20976 20977 20978 20979 20980 20981 20982 20983 20984 20985 20986 20987 20988 20989 20990 20991 20992 20993 20994 20995 20996 20997 20998 20999 21000 21001 21002 21003 21004 21005 21006 21007 21008 21009 21010 21011 21012 21013 21014 21015 21016 21017 21018 21019 21020 21021 21022 21023 21024 21025 21026 21027 21028 21029 21030 21031 21032 21033 21034 21035 21036 21037 21038 21039 21040 21041 21042 21043 21044 21045 21046 21047 21048 21049 21050 21051 21052 21053 21054 21055 21056 21057 21058 21059 21060 21061 21062 21063 21064 21065 21066 21067 21068 21069 21070 21071 21072 21073 21074 21075 21076 21077 21078 21079 21080 21081 21082 21083 21084 21085 21086 21087 21088 21089 21090 21091 21092 21093 21094 21095 21096 21097 21098 21099 21100 21101 21102 21103 21104 21105 21106 21107 21108 21109 21110 21111 21112 21113 21114 21115 21116 21117 21118 21119 21120 21121 21122 21123 21124 21125 21126 21127 21128 21129 21130 21131 21132 21133 21134 21135 21136 21137 21138 21139 21140 21141 21142 21143 21144 21145 21146 21147 21148 21149 21150 21151 21152 21153 21154 21155 21156 21157 21158 21159 21160 21161 21162 21163 21164 21165 21166 21167 21168 21169 21170 21171 21172 21173 21174 21175 21176 21177 21178 21179 21180 21181 21182 21183 21184 21185 21186 21187 21188 21189 21190 21191 21192 21193 21194 21195 21196 21197 21198 21199 21200 21201 21202 21203 21204 21205 21206 21207 21208 21209 21210 21211 21212 21213 21214 21215 21216 21217 21218 21219 21220 21221 21222 21223 21224 21225 21226 21227 21228 21229 21230 21231 21232 21233 21234 21235 21236 21237 21238 21239 21240 21241 21242 21243 21244 21245 21246 21247 21248 21249 21250 21251 21252 21253 21254 21255 21256 21257 21258 21259 21260 21261 21262 21263 21264 21265 21266 21267 21268 21269 21270 21271 21272 21273 21274 21275 21276 21277 21278 21279 21280 21281 21282 21283 21284 21285 21286 21287 21288 21289 21290 21291 21292 21293 21294 21295 21296 21297 21298 21299 21300 21301 21302 21303 21304 21305 21306 21307 21308 21309 21310 21311 21312 21313 21314 21315 21316 21317 21318 21319 21320 21321 21322 21323 21324 21325 21326 21327 21328 21329 21330 21331 21332 21333 21334 21335 21336 21337 21338 21339 21340 21341 21342 21343 21344 21345 21346 21347 21348 21349 21350 21351 21352 21353 21354 21355 21356 21357 21358 21359 21360 21361 21362 21363 21364 21365 21366 21367 21368 21369 21370 21371 21372 21373 21374 21375 21376 21377 21378 21379 21380 21381 21382 21383 21384 21385 21386 21387 21388 21389 21390 21391 21392 21393 21394 21395 21396 21397 21398 21399 21400 21401 21402 21403 21404 21405 21406 21407 21408 21409 21410 21411 21412 21413 21414 21415 21416 21417 21418 21419 21420 21421 21422 21423 21424 21425 21426 21427 21428 21429 21430 21431 21432 21433 21434 21435 21436 21437 21438 21439 21440 21441 21442 21443 21444 21445 21446 21447 21448 21449 21450 21451 21452 21453 21454 21455 21456 21457 21458 21459 21460 21461 21462 21463 21464 21465 21466 21467 21468 21469 21470 21471 21472 21473 21474 21475 21476 21477 21478 21479 21480 21481 21482 21483 21484 21485 21486 21487 21488 21489 21490 21491 21492 21493 21494 21495 21496 21497 21498 21499 21500 21501 21502 21503 21504 21505 21506 21507 21508 21509 21510 21511 21512 21513 21514 21515 21516 21517 21518 21519 21520 21521 21522 21523 21524 21525 21526 21527 21528 21529 21530 21531 21532 21533 21534 21535 21536 21537 21538 21539 21540 21541 21542 21543 21544 21545 21546 21547 21548 21549 21550 21551 21552 21553 21554 21555 21556 21557 21558 21559 21560 21561 21562 21563 21564 21565 21566 21567 21568 21569 21570 21571 21572 21573 21574 21575 21576 21577 21578 21579 21580 21581 21582 21583 21584 21585 21586 21587 21588 21589 21590 21591 21592 21593 21594 21595 21596 21597 21598 21599 21600 21601 21602 21603 21604 21605 21606 21607 21608 21609 21610 21611 21612 21613 21614 21615 21616 21617 21618 21619 21620 21621 21622 21623 21624 21625 21626 21627 21628 21629 21630 21631 21632 21633 21634 21635 21636 21637 21638 21639 21640 21641 21642 21643 21644 21645 21646 21647 21648 21649 21650 21651 21652 21653 21654 21655 21656 21657 21658 21659 21660 21661 21662 21663 21664 21665 21666 21667 21668 21669 21670 21671 21672 21673 21674 21675 21676 21677 21678 21679 21680 21681 21682 21683 21684 21685 21686 21687 21688 21689 21690 21691 21692 21693 21694 21695 21696 21697 21698 21699 21700 21701 21702 21703 21704 21705 21706 21707 21708 21709 21710 21711 21712 21713 21714 21715 21716 21717 21718 21719 21720 21721 21722 21723 21724 21725 21726 21727 21728 21729 21730 21731 21732 21733 21734 21735 21736 21737 21738 21739 21740 21741 21742 21743 21744 21745 21746 21747 21748 21749 21750 21751 21752 21753 21754 21755 21756 21757 21758 21759 21760 21761 21762 21763 21764 21765 21766 21767 21768 21769 21770 21771 21772 21773 21774 21775 21776 21777 21778 21779 21780 21781 21782 21783 21784 21785 21786 21787 21788 21789 21790 21791 21792 21793 21794 21795 21796 21797 21798 21799 21800 21801 21802 21803 21804 21805 21806 21807 21808 21809 21810 21811 21812 21813 21814 21815 21816 21817 21818 21819 21820 21821 21822 21823 21824 21825 21826 21827 21828 21829 21830 21831 21832 21833 21834 21835 21836 21837 21838 21839 21840 21841 21842 21843 21844 21845 21846 21847 21848 21849 21850 21851 21852 21853 21854 21855 21856 21857 21858 21859 21860 21861 21862 21863 21864 21865 21866 21867 21868 21869 21870 21871 21872 21873 21874 21875 21876 21877 21878 21879 21880 21881 21882 21883 21884 21885 21886 21887 21888 21889 21890 21891 21892 21893 21894 21895 21896 21897 21898 21899 21900 21901 21902 21903 21904 21905 21906 21907 21908 21909 21910 21911 21912 21913 21914 21915 21916 21917 21918 21919 21920 21921 21922 21923 21924 21925 21926 21927 21928 21929 21930 21931 21932 21933 21934 21935 21936 21937 21938 21939 21940 21941 21942 21943 21944 21945 21946 21947 21948 21949 21950 21951 21952 21953 21954 21955 21956 21957 21958 21959 21960 21961 21962 21963 21964 21965 21966 21967 21968 21969 21970 21971 21972 21973 21974 21975 21976 21977 21978 21979 21980 21981 21982 21983 21984 21985 21986 21987 21988 21989 21990 21991 21992 21993 21994 21995 21996 21997 21998 21999 22000 22001 22002 22003 22004 22005 22006 22007 22008 22009 22010 22011 22012 22013 22014 22015 22016 22017 22018 22019 22020 22021 22022 22023 22024 22025 22026 22027 22028 22029 22030 22031 22032 22033 22034 22035 22036 22037 22038 22039 22040 22041 22042 22043 22044 22045 22046 22047 22048 22049 22050 22051 22052 22053 22054 22055 22056 22057 22058 22059 22060 22061 22062 22063 22064 22065 22066 22067 22068 22069 22070 22071 22072 22073 22074 22075 22076 22077 22078 22079 22080 22081 22082 22083 22084 22085 22086 22087 22088 22089 22090 22091 22092 22093 22094 22095 22096 22097 22098 22099 22100 22101 22102 22103 22104 22105 22106 22107 22108 22109 22110 22111 22112 22113 22114 22115 22116 22117 22118 22119 22120 22121 22122 22123 22124 22125 22126 22127 22128 22129 22130 22131 22132 22133 22134 22135 22136 22137 22138 22139 22140 22141 22142 22143 22144 22145 22146 22147 22148 22149 22150 22151 22152 22153 22154 22155 22156 22157 22158 22159 22160 22161 22162 22163 22164 22165 22166 22167 22168 22169 22170 22171 22172 22173 22174 22175 22176 22177 22178 22179 22180 22181 22182 22183 22184 22185 22186 22187 22188 22189 22190 22191 22192 22193 22194 22195 22196 22197 22198 22199 22200 22201 22202 22203 22204 22205 22206 22207 22208 22209 22210 22211 22212 22213 22214 22215 22216 22217 22218 22219 22220 22221 22222 22223 22224 22225 22226 22227 22228 22229 22230 22231 22232 22233 22234 22235 22236 22237 22238 22239 22240 22241 22242 22243 22244 22245 22246 22247 22248 22249 22250 22251 22252 22253 22254 22255 22256 22257 22258 22259 22260 22261 22262 22263 22264 22265 22266 22267 22268 22269 22270 22271 22272 22273 22274 22275 22276 22277 22278 22279 22280 22281 22282 22283 22284 22285 22286 22287 22288 22289 22290 22291 22292 22293 22294 22295 22296 22297 22298 22299 22300 22301 22302 22303 22304 22305 22306 22307 22308 22309 22310 22311 22312 22313 22314 22315 22316 22317 22318 22319 22320 22321 22322 22323 22324 22325 22326 22327 22328 22329 22330 22331 22332 22333 22334 22335 22336 22337 22338 22339 22340 22341 22342 22343 22344 22345 22346 22347 22348 22349 22350 22351 22352 22353 22354 22355 22356 22357 22358 22359 22360 22361 22362 22363 22364 22365 22366 22367 22368 22369 22370 22371 22372 22373 22374 22375 22376 22377 22378 22379 22380 22381 22382 22383 22384 22385 22386 22387 22388 22389 22390 22391 22392 22393 22394 22395 22396 22397 22398 22399 22400 22401 22402 22403 22404 22405 22406 22407 22408 22409 22410 22411 22412 22413 22414 22415 22416 22417 22418 22419 22420 22421 22422 22423 22424 22425 22426 22427 22428 22429 22430 22431 22432 22433 22434 22435 22436 22437 22438 22439 22440 22441 22442 22443 22444 22445 22446 22447 22448 22449 22450 22451 22452 22453 22454 22455 22456 22457 22458 22459 22460 22461 22462 22463 22464 22465 22466 22467 22468 22469 22470 22471 22472 22473 22474 22475 22476 22477 22478 22479 22480 22481 22482 22483 22484 22485 22486 22487 22488 22489 22490 22491 22492 22493 22494 22495 22496 22497 22498 22499 22500 22501 22502 22503 22504 22505 22506 22507 22508 22509 22510 22511 22512 22513 22514 22515 22516 22517 22518 22519 22520 22521 22522 22523 22524 22525 22526 22527 22528 22529 22530 22531 22532 22533 22534 22535 22536 22537 22538 22539 22540 22541 22542 22543 22544 22545 22546 22547 22548 22549 22550 22551 22552 22553 22554 22555 22556 22557 22558 22559 22560 22561 22562 22563 22564 22565 22566 22567 22568 22569 22570 22571 22572 22573 22574 22575 22576 22577 22578 22579 22580 22581 22582 22583 22584 22585 22586 22587 22588 22589 22590 22591 22592 22593 22594 22595 22596 22597 22598 22599 22600 22601 22602 22603 22604 22605 22606 22607 22608 22609 22610 22611 22612 22613 22614 22615 22616 22617 22618 22619 22620 22621 22622 22623 22624 22625 22626 22627 22628 22629 22630 22631 22632 22633 22634 22635 22636 22637 22638 22639 22640 22641 22642 22643 22644 22645 22646 22647 22648 22649 22650 22651 22652 22653 22654 22655 22656 22657 22658 22659 22660 22661 22662 22663 22664 22665 22666 22667 22668 22669 22670 22671 22672 22673 22674 22675 22676 22677 22678 22679 22680 22681 22682 22683 22684 22685 22686 22687 22688 22689 22690 22691 22692 22693 22694 22695 22696 22697 22698 22699 22700 22701 22702 22703 22704 22705 22706 22707 22708 22709 22710 22711 22712 22713 22714 22715 22716 22717 22718 22719 22720 22721 22722 22723 22724 22725 22726 22727 22728 22729 22730 22731 22732 22733 22734 22735 22736 22737 22738 22739 22740 22741 22742 22743 22744 22745 22746 22747 22748 22749 22750 22751 22752 22753 22754 22755 22756 22757 22758 22759 22760 22761 22762 22763 22764 22765 22766 22767 22768 22769 22770 22771 22772 22773 22774 22775 22776 22777 22778 22779 22780 22781 22782 22783 22784 22785 22786 22787 22788 22789 22790 22791 22792 22793 22794 22795 22796 22797 22798 22799 22800 22801 22802 22803 22804 22805 22806 22807 22808 22809 22810 22811 22812 22813 22814 22815 22816 22817 22818 22819 22820 22821 22822 22823 22824 22825 22826 22827 22828 22829 22830 22831 22832 22833 22834 22835 22836 22837 22838 22839 22840 22841 22842 22843 22844 22845 22846 22847 22848 22849 22850 22851 22852 22853 22854 22855 22856 22857 22858 22859 22860 22861 22862 22863 22864 22865 22866 22867 22868 22869 22870 22871 22872 22873 22874 22875 22876 22877 22878 22879 22880 22881 22882 22883 22884 22885 22886 22887 22888 22889 22890 22891 22892 22893 22894 22895 22896 22897 22898 22899 22900 22901 22902 22903 22904 22905 22906 22907 22908 22909 22910 22911 22912 22913 22914 22915 22916 22917 22918 22919 22920 22921 22922 22923 22924 22925 22926 22927 22928 22929 22930 22931 22932 22933 22934 22935 22936 22937 22938 22939 22940 22941 22942 22943 22944 22945 22946 22947 22948 22949 22950 22951 22952 22953 22954 22955 22956 22957 22958 22959 22960 22961 22962 22963 22964 22965 22966 22967 22968 22969 22970 22971 22972 22973 22974 22975 22976 22977 22978 22979 22980 22981 22982 22983 22984 22985 22986 22987 22988 22989 22990 22991 22992 22993 22994 22995 22996 22997 22998 22999 23000 23001 23002 23003 23004 23005 23006 23007 23008 23009 23010 23011 23012 23013 23014 23015 23016 23017 23018 23019 23020 23021 23022 23023 23024 23025 23026 23027 23028 23029 23030 23031 23032 23033 23034 23035 23036 23037 23038 23039 23040 23041 23042 23043 23044 23045 23046 23047 23048 23049 23050 23051 23052 23053 23054 23055 23056 23057 23058 23059 23060 23061 23062 23063 23064 23065 23066 23067 23068 23069 23070 23071 23072 23073 23074 23075 23076 23077 23078 23079 23080 23081 23082 23083 23084 23085 23086 23087 23088 23089 23090 23091 23092 23093 23094 23095 23096 23097 23098 23099 23100 23101 23102 23103 23104 23105 23106 23107 23108 23109 23110 23111 23112 23113 23114 23115 23116 23117 23118 23119 23120 23121 23122 23123 23124 23125 23126 23127 23128 23129 23130 23131 23132 23133 23134 23135 23136 23137 23138 23139 23140 23141 23142 23143 23144 23145 23146 23147 23148 23149 23150 23151 23152 23153 23154 23155 23156 23157 23158 23159 23160 23161 23162 23163 23164 23165 23166 23167 23168 23169 23170 23171 23172 23173 23174 23175 23176 23177 23178 23179 23180 23181 23182 23183 23184 23185 23186 23187 23188 23189 23190 23191 23192 23193 23194 23195 23196 23197 23198 23199 23200 23201 23202 23203 23204 23205 23206 23207 23208 23209 23210 23211 23212 23213 23214 23215 23216 23217 23218 23219 23220 23221 23222 23223 23224 23225 23226 23227 23228 23229 23230 23231 23232 23233 23234 23235 23236 23237 23238 23239 23240 23241 23242 23243 23244 23245 23246 23247 23248 23249 23250 23251 23252 23253 23254 23255 23256 23257 23258 23259 23260 23261 23262 23263 23264 23265 23266 23267 23268 23269 23270 23271 23272 23273 23274 23275 23276 23277 23278 23279 23280 23281 23282 23283 23284 23285 23286 23287 23288 23289 23290 23291 23292 23293 23294 23295 23296 23297 23298 23299 23300 23301 23302 23303 23304 23305 23306 23307 23308 23309 23310 23311 23312 23313 23314 23315 23316 23317 23318 23319 23320 23321 23322 23323 23324 23325 23326 23327 23328 23329 23330 23331 23332 23333 23334 23335 23336 23337 23338 23339 23340 23341 23342 23343 23344 23345 23346 23347 23348 23349 23350 23351 23352 23353 23354 23355 23356 23357 23358 23359 23360 23361 23362 23363 23364 23365 23366 23367 23368 23369 23370 23371 23372 23373 23374 23375 23376 23377 23378 23379 23380 23381 23382 23383 23384 23385 23386 23387 23388 23389 23390 23391 23392 23393 23394 23395 23396 23397 23398 23399 23400 23401 23402 23403 23404 23405 23406 23407 23408 23409 23410 23411 23412 23413 23414 23415 23416 23417 23418 23419 23420 23421 23422 23423 23424 23425 23426 23427 23428 23429 23430 23431 23432 23433 23434 23435 23436 23437 23438 23439 23440 23441 23442 23443 23444 23445 23446 23447 23448 23449 23450 23451 23452 23453 23454 23455 23456 23457 23458 23459 23460 23461 23462 23463 23464 23465 23466 23467 23468 23469 23470 23471 23472 23473 23474 23475 23476 23477 23478 23479 23480 23481 23482 23483 23484 23485 23486 23487 23488 23489 23490 23491 23492 23493 23494 23495 23496 23497 23498 23499 23500 23501 23502 23503 23504 23505 23506 23507 23508 23509 23510 23511 23512 23513 23514 23515 23516 23517 23518 23519 23520 23521 23522 23523 23524 23525 23526 23527 23528 23529 23530 23531 23532 23533 23534 23535 23536 23537 23538 23539 23540 23541 23542 23543 23544 23545 23546 23547 23548 23549 23550 23551 23552 23553 23554 23555 23556 23557 23558 23559 23560 23561 23562 23563 23564 23565 23566 23567 23568 23569 23570 23571 23572 23573 23574 23575 23576 23577 23578 23579 23580 23581 23582 23583 23584 23585 23586 23587 23588 23589 23590 23591 23592 23593 23594 23595 23596 23597 23598 23599 23600 23601 23602 23603 23604 23605 23606 23607 23608 23609 23610 23611 23612 23613 23614 23615 23616 23617 23618 23619 23620 23621 23622 23623 23624 23625 23626 23627 23628 23629 23630 23631 23632 23633 23634 23635 23636 23637 23638 23639 23640 23641 23642 23643 23644 23645 23646 23647 23648 23649 23650 23651 23652 23653 23654 23655 23656 23657 23658 23659 23660 23661 23662 23663 23664 23665 23666 23667 23668 23669 23670 23671 23672 23673 23674 23675 23676 23677 23678 23679 23680 23681 23682 23683 23684 23685 23686 23687 23688 23689 23690 23691 23692 23693 23694 23695 23696 23697 23698 23699 23700 23701 23702 23703 23704 23705 23706 23707 23708 23709 23710 23711 23712 23713 23714 23715 23716 23717 23718 23719 23720 23721 23722 23723 23724 23725 23726 23727 23728 23729 23730 23731 23732 23733 23734 23735 23736 23737 23738 23739 23740 23741 23742 23743 23744 23745 23746 23747 23748 23749 23750 23751 23752 23753 23754 23755 23756 23757 23758 23759 23760 23761 23762 23763 23764 23765 23766 23767 23768 23769 23770 23771 23772 23773 23774 23775 23776 23777 23778 23779 23780 23781 23782 23783 23784 23785 23786 23787 23788 23789 23790 23791 23792 23793 23794 23795 23796 23797 23798 23799 23800 23801 23802 23803 23804 23805 23806 23807 23808 23809 23810 23811 23812 23813 23814 23815 23816 23817 23818 23819 23820 23821 23822 23823 23824 23825 23826 23827 23828 23829 23830 23831 23832 23833 23834 23835 23836 23837 23838 23839 23840 23841 23842 23843 23844 23845 23846 23847 23848 23849 23850 23851 23852 23853 23854 23855 23856 23857 23858 23859 23860 23861 23862 23863 23864 23865 23866 23867 23868 23869 23870 23871 23872 23873 23874 23875 23876 23877 23878 23879 23880 23881 23882 23883 23884 23885 23886 23887 23888 23889 23890 23891 23892 23893 23894 23895 23896 23897 23898 23899 23900 23901 23902 23903 23904 23905 23906 23907 23908 23909 23910 23911 23912 23913 23914 23915 23916 23917 23918 23919 23920 23921 23922 23923 23924 23925 23926 23927 23928 23929 23930 23931 23932 23933 23934 23935 23936 23937 23938 23939 23940 23941 23942 23943 23944 23945 23946 23947 23948 23949 23950 23951 23952 23953 23954 23955 23956 23957 23958 23959 23960 23961 23962 23963 23964 23965 23966 23967 23968 23969 23970 23971 23972 23973 23974 23975 23976 23977 23978 23979 23980 23981 23982 23983 23984 23985 23986 23987 23988 23989 23990 23991 23992 23993 23994 23995 23996 23997 23998 23999 24000 24001 24002 24003 24004 24005 24006 24007 24008 24009 24010 24011 24012 24013 24014 24015 24016 24017 24018 24019 24020 24021 24022 24023 24024 24025 24026 24027 24028 24029 24030 24031 24032 24033 24034 24035 24036 24037 24038 24039 24040 24041 24042 24043 24044 24045 24046 24047 24048 24049 24050 24051 24052 24053 24054 24055 24056 24057 24058 24059 24060 24061 24062 24063 24064 24065 24066 24067 24068 24069 24070 24071 24072 24073 24074 24075 24076 24077 24078 24079 24080 24081 24082 24083 24084 24085 24086 24087 24088 24089 24090 24091 24092 24093 24094 24095 24096 24097 24098 24099 24100 24101 24102 24103 24104 24105 24106 24107 24108 24109 24110 24111 24112 24113 24114 24115 24116 24117 24118 24119 24120 24121 24122 24123 24124 24125 24126 24127 24128 24129 24130 24131 24132 24133 24134 24135 24136 24137 24138 24139 24140 24141 24142 24143 24144 24145 24146 24147 24148 24149 24150 24151 24152 24153 24154 24155 24156 24157 24158 24159 24160 24161 24162 24163 24164 24165 24166 24167 24168 24169 24170 24171 24172 24173 24174 24175 24176 24177 24178 24179 24180 24181 24182 24183 24184 24185 24186 24187 24188 24189 24190 24191 24192 24193 24194 24195 24196 24197 24198 24199 24200 24201 24202 24203 24204 24205 24206 24207 24208 24209 24210 24211 24212 24213 24214 24215 24216 24217 24218 24219 24220 24221 24222 24223 24224 24225 24226 24227 24228 24229 24230 24231 24232 24233 24234 24235 24236 24237 24238 24239 24240 24241 24242 24243 24244 24245 24246 24247 24248 24249 24250 24251 24252 24253 24254 24255 24256 24257 24258 24259 24260 24261 24262 24263 24264 24265 24266 24267 24268 24269 24270 24271 24272 24273 24274 24275 24276 24277 24278 24279 24280 24281 24282 24283 24284 24285 24286 24287 24288 24289 24290 24291 24292 24293 24294 24295 24296 24297 24298 24299 24300 24301 24302 24303 24304 24305 24306 24307 24308 24309 24310 24311 24312 24313 24314 24315 24316 24317 24318 24319 24320 24321 24322 24323 24324 24325 24326 24327 24328 24329 24330 24331 24332 24333 24334 24335 24336 24337 24338 24339 24340 24341 24342 24343 24344 24345 24346 24347 24348 24349 24350 24351 24352 24353 24354 24355 24356 24357 24358 24359 24360 24361 24362 24363 24364 24365 24366 24367 24368 24369 24370 24371 24372 24373 24374 24375 24376 24377 24378 24379 24380 24381 24382 24383 24384 24385 24386 24387 24388 24389 24390 24391 24392 24393 24394 24395 24396 24397 24398 24399 24400 24401 24402 24403 24404 24405 24406 24407 24408 24409 24410 24411 24412 24413 24414 24415 24416 24417 24418 24419 24420 24421 24422 24423 24424 24425 24426 24427 24428 24429 24430 24431 24432 24433 24434 24435 24436 24437 24438 24439 24440 24441 24442 24443 24444 24445 24446 24447 24448 24449 24450 24451 24452 24453 24454 24455 24456 24457 24458 24459 24460 24461 24462 24463 24464 24465 24466 24467 24468 24469 24470 24471 24472 24473 24474 24475 24476 24477 24478 24479 24480 24481 24482 24483 24484 24485 24486 24487 24488 24489 24490 24491 24492 24493 24494 24495 24496 24497 24498 24499 24500 24501 24502 24503 24504 24505 24506 24507 24508 24509 24510 24511 24512 24513 24514 24515 24516 24517 24518 24519 24520 24521 24522 24523 24524 24525 24526 24527 24528 24529 24530 24531 24532 24533 24534 24535 24536 24537 24538 24539 24540 24541 24542 24543 24544 24545 24546 24547 24548 24549 24550 24551 24552 24553 24554 24555 24556 24557 24558 24559 24560 24561 24562 24563 24564 24565 24566 24567 24568 24569 24570 24571 24572 24573 24574 24575 24576 24577 24578 24579 24580 24581 24582 24583 24584 24585 24586 24587 24588 24589 24590 24591 24592 24593 24594 24595 24596 24597 24598 24599 24600 24601 24602 24603 24604 24605 24606 24607 24608 24609 24610 24611 24612 24613 24614 24615 24616 24617 24618 24619 24620 24621 24622 24623 24624 24625 24626 24627 24628 24629 24630 24631 24632 24633 24634 24635 24636 24637 24638 24639 24640 24641 24642 24643 24644 24645 24646 24647 24648 24649 24650 24651 24652 24653 24654 24655 24656 24657 24658 24659 24660 24661 24662 24663 24664 24665 24666 24667 24668 24669 24670 24671 24672 24673 24674 24675 24676 24677 24678 24679 24680 24681 24682 24683 24684 24685 24686 24687 24688 24689 24690 24691 24692 24693 24694 24695 24696 24697 24698 24699 24700 24701 24702 24703 24704 24705 24706 24707 24708 24709 24710 24711 24712 24713 24714 24715 24716 24717 24718 24719 24720 24721 24722 24723 24724 24725 24726 24727 24728 24729 24730 24731 24732 24733 24734 24735 24736 24737 24738 24739 24740 24741 24742 24743 24744 24745 24746 24747 24748 24749 24750 24751 24752 24753 24754 24755 24756 24757 24758 24759 24760 24761 24762 24763 24764 24765 24766 24767 24768 24769 24770 24771 24772 24773 24774 24775 24776 24777 24778 24779 24780 24781 24782 24783 24784 24785 24786 24787 24788 24789 24790 24791 24792 24793 24794 24795 24796 24797 24798 24799 24800 24801 24802 24803 24804 24805 24806 24807 24808 24809 24810 24811 24812 24813 24814 24815 24816 24817 24818 24819 24820 24821 24822 24823 24824 24825 24826 24827 24828 24829 24830 24831 24832 24833 24834 24835 24836 24837 24838 24839 24840 24841 24842 24843 24844 24845 24846 24847 24848 24849 24850 24851 24852 24853 24854 24855 24856 24857 24858 24859 24860 24861 24862 24863 24864 24865 24866 24867 24868 24869 24870 24871 24872 24873 24874 24875 24876 24877 24878 24879 24880 24881 24882 24883 24884 24885 24886 24887 24888 24889 24890 24891 24892 24893 24894 24895 24896 24897 24898 24899 24900 24901 24902 24903 24904 24905 24906 24907 24908 24909 24910 24911 24912 24913 24914 24915 24916 24917 24918 24919 24920 24921 24922 24923 24924 24925 24926 24927 24928 24929 24930 24931 24932 24933 24934 24935 24936 24937 24938 24939 24940 24941 24942 24943 24944 24945 24946 24947 24948 24949 24950 24951 24952 24953 24954 24955 24956 24957 24958 24959 24960 24961 24962 24963 24964 24965 24966 24967 24968 24969 24970 24971 24972 24973 24974 24975 24976 24977 24978 24979 24980 24981 24982 24983 24984 24985 24986 24987 24988 24989 24990 24991 24992 24993 24994 24995 24996 24997 24998 24999 25000 25001 25002 25003 25004 25005 25006 25007 25008 25009 25010 25011 25012 25013 25014 25015 25016 25017 25018 25019 25020 25021 25022 25023 25024 25025 25026 25027 25028 25029 25030 25031 25032 25033 25034 25035 25036 25037 25038 25039 25040 25041 25042 25043 25044 25045 25046 25047 25048 25049 25050 25051 25052 25053 25054 25055 25056 25057 25058 25059 25060 25061 25062 25063 25064 25065 25066 25067 25068 25069 25070 25071 25072 25073 25074 25075 25076 25077 25078 25079 25080 25081 25082 25083 25084 25085 25086 25087 25088 25089 25090 25091 25092 25093 25094 25095 25096 25097 25098 25099 25100 25101 25102 25103 25104 25105 25106 25107 25108 25109 25110 25111 25112 25113 25114 25115 25116 25117 25118 25119 25120 25121 25122 25123 25124 25125 25126 25127 25128 25129 25130 25131 25132 25133 25134 25135 25136 25137 25138 25139 25140 25141 25142 25143 25144 25145 25146 25147 25148 25149 25150 25151 25152 25153 25154 25155 25156 25157 25158 25159 25160 25161 25162 25163 25164 25165 25166 25167 25168 25169 25170 25171 25172 25173 25174 25175 25176 25177 25178 25179 25180 25181 25182 25183 25184 25185 25186 25187 25188 25189 25190 25191 25192 25193 25194 25195 25196 25197 25198 25199 25200 25201 25202 25203 25204 25205 25206 25207 25208 25209 25210 25211 25212 25213 25214 25215 25216 25217 25218 25219 25220 25221 25222 25223 25224 25225 25226 25227 25228 25229 25230 25231 25232 25233 25234 25235 25236 25237 25238 25239 25240 25241 25242 25243 25244 25245 25246 25247 25248 25249 25250 25251 25252 25253 25254 25255 25256 25257 25258 25259 25260 25261 25262 25263 25264 25265 25266 25267 25268 25269 25270 25271 25272 25273 25274 25275 25276 25277 25278 25279 25280 25281 25282 25283 25284 25285 25286 25287 25288 25289 25290 25291 25292 25293 25294 25295 25296 25297 25298 25299 25300 25301 25302 25303 25304 25305 25306 25307 25308 25309 25310 25311 25312 25313 25314 25315 25316 25317 25318 25319 25320 25321 25322 25323 25324 25325 25326 25327 25328 25329 25330 25331 25332 25333 25334 25335 25336 25337 25338 25339 25340 25341 25342 25343 25344 25345 25346 25347 25348 25349 25350 25351 25352 25353 25354 25355 25356 25357 25358 25359 25360 25361 25362 25363 25364 25365 25366 25367 25368 25369 25370 25371 25372 25373 25374 25375 25376 25377 25378 25379 25380 25381 25382 25383 25384 25385 25386 25387 25388 25389 25390 25391 25392 25393 25394 25395 25396 25397 25398 25399 25400 25401 25402 25403 25404 25405 25406 25407 25408 25409 25410 25411 25412 25413 25414 25415 25416 25417 25418 25419 25420 25421 25422 25423 25424 25425 25426 25427 25428 25429 25430 25431 25432 25433 25434 25435 25436 25437 25438 25439 25440 25441 25442 25443 25444 25445 25446 25447 25448 25449 25450 25451 25452 25453 25454 25455 25456 25457 25458 25459 25460 25461 25462 25463 25464 25465 25466 25467 25468 25469 25470 25471 25472 25473 25474 25475 25476 25477 25478 25479 25480 25481 25482 25483 25484 25485 25486 25487 25488 25489 25490 25491 25492 25493 25494 25495 25496 25497 25498 25499 25500 25501 25502 25503 25504 25505 25506 25507 25508 25509 25510 25511 25512 25513 25514 25515 25516 25517 25518 25519 25520 25521 25522 25523 25524 25525 25526 25527 25528 25529 25530 25531 25532 25533 25534 25535 25536 25537 25538 25539 25540 25541 25542 25543 25544 25545 25546 25547 25548 25549 25550 25551 25552 25553 25554 25555 25556 25557 25558 25559 25560 25561 25562 25563 25564 25565 25566 25567 25568 25569 25570 25571 25572 25573 25574 25575 25576 25577 25578 25579 25580 25581 25582 25583 25584 25585 25586 25587 25588 25589 25590 25591 25592 25593 25594 25595 25596 25597 25598 25599 25600 25601 25602 25603 25604 25605 25606 25607 25608 25609 25610 25611 25612 25613 25614 25615 25616 25617 25618 25619 25620 25621 25622 25623 25624 25625 25626 25627 25628 25629 25630 25631 25632 25633 25634 25635 25636 25637 25638 25639 25640 25641 25642 25643 25644 25645 25646 25647 25648 25649 25650 25651 25652 25653 25654 25655 25656 25657 25658 25659 25660 25661 25662 25663 25664 25665 25666 25667 25668 25669 25670 25671 25672 25673 25674 25675 25676 25677 25678 25679 25680 25681 25682 25683 25684 25685 25686 25687 25688 25689 25690 25691 25692 25693 25694 25695 25696 25697 25698 25699 25700 25701 25702 25703 25704 25705 25706 25707 25708 25709 25710 25711 25712 25713 25714 25715 25716 25717 25718 25719 25720 25721 25722 25723 25724 25725 25726 25727 25728 25729 25730 25731 25732 25733 25734 25735 25736 25737 25738 25739 25740 25741 25742 25743 25744 25745 25746 25747 25748 25749 25750 25751 25752 25753 25754 25755 25756 25757 25758 25759 25760 25761 25762 25763 25764 25765 25766 25767 25768 25769 25770 25771 25772 25773 25774 25775 25776 25777 25778 25779 25780 25781 25782 25783 25784 25785 25786 25787 25788 25789 25790 25791 25792 25793 25794 25795 25796 25797 25798 25799 25800 25801 25802 25803 25804 25805 25806 25807 25808 25809 25810 25811 25812 25813 25814 25815 25816 25817 25818 25819 25820 25821 25822 25823 25824 25825 25826 25827 25828 25829 25830 25831 25832 25833 25834 25835 25836 25837 25838 25839 25840 25841 25842 25843 25844 25845 25846 25847 25848 25849 25850 25851 25852 25853 25854 25855 25856 25857 25858 25859 25860 25861 25862 25863 25864 25865 25866 25867 25868 25869 25870 25871 25872 25873 25874 25875 25876 25877 25878 25879 25880 25881 25882 25883 25884 25885 25886 25887 25888 25889 25890 25891 25892 25893 25894 25895 25896 25897 25898 25899 25900 25901 25902 25903 25904 25905 25906 25907 25908 25909 25910 25911 25912 25913 25914 25915 25916 25917 25918 25919 25920 25921 25922 25923 25924 25925 25926 25927 25928 25929 25930 25931 25932 25933 25934 25935 25936 25937 25938 25939 25940 25941 25942 25943 25944 25945 25946 25947 25948 25949 25950 25951 25952 25953 25954 25955 25956 25957 25958 25959 25960 25961 25962 25963 25964 25965 25966 25967 25968 25969 25970 25971 25972 25973 25974 25975 25976 25977 25978 25979 25980 25981 25982 25983 25984 25985 25986 25987 25988 25989 25990 25991 25992 25993 25994 25995 25996 25997 25998 25999 26000 26001 26002 26003 26004 26005 26006 26007 26008 26009 26010 26011 26012 26013 26014 26015 26016 26017 26018 26019 26020 26021 26022 26023 26024 26025 26026 26027 26028 26029 26030 26031 26032 26033 26034 26035 26036 26037 26038 26039 26040 26041 26042 26043 26044 26045 26046 26047 26048 26049 26050 26051 26052 26053 26054 26055 26056 26057 26058 26059 26060 26061 26062 26063 26064 26065 26066 26067 26068 26069 26070 26071 26072 26073 26074 26075 26076 26077 26078 26079 26080 26081 26082 26083 26084 26085 26086 26087 26088 26089 26090 26091 26092 26093 26094 26095 26096 26097 26098 26099 26100 26101 26102 26103 26104 26105 26106 26107 26108 26109 26110 26111 26112 26113 26114 26115 26116 26117 26118 26119 26120 26121 26122 26123 26124 26125 26126 26127 26128 26129 26130 26131 26132 26133 26134 26135 26136 26137 26138 26139 26140 26141 26142 26143 26144 26145 26146 26147 26148 26149 26150 26151 26152 26153 26154 26155 26156 26157 26158 26159 26160 26161 26162 26163 26164 26165 26166 26167 26168 26169 26170 26171 26172 26173 26174 26175 26176 26177 26178 26179 26180 26181 26182 26183 26184 26185 26186 26187 26188 26189 26190 26191 26192 26193 26194 26195 26196 26197 26198 26199 26200 26201 26202 26203 26204 26205 26206 26207 26208 26209 26210 26211 26212 26213 26214 26215 26216 26217 26218 26219 26220 26221 26222 26223 26224 26225 26226 26227 26228 26229 26230 26231 26232 26233 26234 26235 26236 26237 26238 26239 26240 26241 26242 26243 26244 26245 26246 26247 26248 26249 26250 26251 26252 26253 26254 26255 26256 26257 26258 26259 26260 26261 26262 26263 26264 26265 26266 26267 26268 26269 26270 26271 26272 26273 26274 26275 26276 26277 26278 26279 26280 26281 26282 26283 26284 26285 26286 26287 26288 26289 26290 26291 26292 26293 26294 26295 26296 26297 26298 26299 26300 26301 26302 26303 26304 26305 26306 26307 26308 26309 26310 26311 26312 26313 26314 26315 26316 26317 26318 26319 26320 26321 26322 26323 26324 26325 26326 26327 26328 26329 26330 26331 26332 26333 26334 26335 26336 26337 26338 26339 26340 26341 26342 26343 26344 26345 26346 26347 26348 26349 26350 26351 26352 26353 26354 26355 26356 26357 26358 26359 26360 26361 26362 26363 26364 26365 26366 26367 26368 26369 26370 26371 26372 26373 26374 26375 26376 26377 26378 26379 26380 26381 26382 26383 26384 26385 26386 26387 26388 26389 26390 26391 26392 26393 26394 26395 26396 26397 26398 26399 26400 26401 26402 26403 26404 26405 26406 26407 26408 26409 26410 26411 26412 26413 26414 26415 26416 26417 26418 26419 26420 26421 26422 26423 26424 26425 26426 26427 26428 26429 26430 26431 26432 26433 26434 26435 26436 26437 26438 26439 26440 26441 26442 26443 26444 26445 26446 26447 26448 26449 26450 26451 26452 26453 26454 26455 26456 26457 26458 26459 26460 26461 26462 26463 26464 26465 26466 26467 26468 26469 26470 26471 26472 26473 26474 26475 26476 26477 26478 26479 26480 26481 26482 26483 26484 26485 26486 26487 26488 26489 26490 26491 26492 26493 26494 26495 26496 26497 26498 26499 26500 26501 26502 26503 26504 26505 26506 26507 26508 26509 26510 26511 26512 26513 26514 26515 26516 26517 26518 26519 26520 26521 26522 26523 26524 26525 26526 26527 26528 26529 26530 26531 26532 26533 26534 26535 26536 26537 26538 26539 26540 26541 26542 26543 26544 26545 26546 26547 26548 26549 26550 26551 26552 26553 26554 26555 26556 26557 26558 26559 26560 26561 26562 26563 26564 26565 26566 26567 26568 26569 26570 26571 26572 26573 26574 26575 26576 26577 26578 26579 26580 26581 26582 26583 26584 26585 26586 26587 26588 26589 26590 26591 26592 26593 26594 26595 26596 26597 26598 26599 26600 26601 26602 26603 26604 26605 26606 26607 26608 26609 26610 26611 26612 26613 26614 26615 26616 26617 26618 26619 26620 26621 26622 26623 26624 26625 26626 26627 26628 26629 26630 26631 26632 26633 26634 26635 26636 26637 26638 26639 26640 26641 26642 26643 26644 26645 26646 26647 26648 26649 26650 26651 26652 26653 26654 26655 26656 26657 26658 26659 26660 26661 26662 26663 26664 26665 26666 26667 26668 26669 26670 26671 26672 26673 26674 26675 26676 26677 26678 26679 26680 26681 26682 26683 26684 26685 26686 26687 26688 26689 26690 26691 26692 26693 26694 26695 26696 26697 26698 26699 26700 26701 26702 26703 26704 26705 26706 26707 26708 26709 26710 26711 26712 26713 26714 26715 26716 26717 26718 26719 26720 26721 26722 26723 26724 26725 26726 26727 26728 26729 26730 26731 26732 26733 26734 26735 26736 26737 26738 26739 26740 26741 26742 26743 26744 26745 26746 26747 26748 26749 26750 26751 26752 26753 26754 26755 26756 26757 26758 26759 26760 26761 26762 26763 26764 26765 26766 26767 26768 26769 26770 26771 26772 26773 26774 26775 26776 26777 26778 26779 26780 26781 26782 26783 26784 26785 26786 26787 26788 26789 26790 26791 26792 26793 26794 26795 26796 26797 26798 26799 26800 26801 26802 26803 26804 26805 26806 26807 26808 26809 26810 26811 26812 26813 26814 26815 26816 26817 26818 26819 26820 26821 26822 26823 26824 26825 26826 26827 26828 26829 26830 26831 26832 26833 26834 26835 26836 26837 26838 26839 26840 26841 26842 26843 26844 26845 26846 26847 26848 26849 26850 26851 26852 26853 26854 26855 26856 26857 26858 26859 26860 26861 26862 26863 26864 26865 26866 26867 26868 26869 26870 26871 26872 26873 26874 26875 26876 26877 26878 26879 26880 26881 26882 26883 26884 26885 26886 26887 26888 26889 26890 26891 26892 26893 26894 26895 26896 26897 26898 26899 26900 26901 26902 26903 26904 26905 26906 26907 26908 26909 26910 26911 26912 26913 26914 26915 26916 26917 26918 26919 26920 26921 26922 26923 26924 26925 26926 26927 26928 26929 26930 26931 26932 26933 26934 26935 26936 26937 26938 26939 26940 26941 26942 26943 26944 26945 26946 26947 26948 26949 26950 26951 26952 26953 26954 26955 26956 26957 26958 26959 26960 26961 26962 26963 26964 26965 26966 26967 26968 26969 26970 26971 26972 26973 26974 26975 26976 26977 26978 26979 26980 26981 26982 26983 26984 26985 26986 26987 26988 26989 26990 26991 26992 26993 26994 26995 26996 26997 26998 26999 27000 27001 27002 27003 27004 27005 27006 27007 27008 27009 27010 27011 27012 27013 27014 27015 27016 27017 27018 27019 27020 27021 27022 27023 27024 27025 27026 27027 27028 27029 27030 27031 27032 27033 27034 27035 27036 27037 27038 27039 27040 27041 27042 27043 27044 27045 27046 27047 27048 27049 27050 27051 27052 27053 27054 27055 27056 27057 27058 27059 27060 27061 27062 27063 27064 27065 27066 27067 27068 27069 27070 27071 27072 27073 27074 27075 27076 27077 27078 27079 27080 27081 27082 27083 27084 27085 27086 27087 27088 27089 27090 27091 27092 27093 27094 27095 27096 27097 27098 27099 27100 27101 27102 27103 27104 27105 27106 27107 27108 27109 27110 27111 27112 27113 27114 27115 27116 27117 27118 27119 27120 27121 27122 27123 27124 27125 27126 27127 27128 27129 27130 27131 27132 27133 27134 27135 27136 27137 27138 27139 27140 27141 27142 27143 27144 27145 27146 27147 27148 27149 27150 27151 27152 27153 27154 27155 27156 27157 27158 27159 27160 27161 27162 27163 27164 27165 27166 27167 27168 27169 27170 27171 27172 27173 27174 27175 27176 27177 27178 27179 27180 27181 27182 27183 27184 27185 27186 27187 27188 27189 27190 27191 27192 27193 27194 27195 27196 27197 27198 27199 27200 27201 27202 27203 27204 27205 27206 27207 27208 27209 27210 27211 27212 27213 27214 27215 27216 27217 27218 27219 27220 27221 27222 27223 27224 27225 27226 27227 27228 27229 27230 27231 27232 27233 27234 27235 27236 27237 27238 27239 27240 27241 27242 27243 27244 27245 27246 27247 27248 27249 27250 27251 27252 27253 27254 27255 27256 27257 27258 27259 27260 27261 27262 27263 27264 27265 27266 27267 27268 27269 27270 27271 27272 27273 27274 27275 27276 27277 27278 27279 27280 27281 27282 27283 27284 27285 27286 27287 27288 27289 27290 27291 27292 27293 27294 27295 27296 27297 27298 27299 27300 27301 27302 27303 27304 27305 27306 27307 27308 27309 27310 27311 27312 27313 27314 27315 27316 27317 27318 27319 27320 27321 27322 27323 27324 27325 27326 27327 27328 27329 27330 27331 27332 27333 27334 27335 27336 27337 27338 27339 27340 27341 27342 27343 27344 27345 27346 27347 27348 27349 27350 27351 27352 27353 27354 27355 27356 27357 27358 27359 27360 27361 27362 27363 27364 27365 27366 27367 27368 27369 27370 27371 27372 27373 27374 27375 27376 27377 27378 27379 27380 27381 27382 27383 27384 27385 27386 27387 27388 27389 27390 27391 27392 27393 27394 27395 27396 27397 27398 27399 27400 27401 27402 27403 27404 27405 27406 27407 27408 27409 27410 27411 27412 27413 27414 27415 27416 27417 27418 27419 27420 27421 27422 27423 27424 27425 27426 27427 27428 27429 27430 27431 27432 27433 27434 27435 27436 27437 27438 27439 27440 27441 27442 27443 27444 27445 27446 27447 27448 27449 27450 27451 27452 27453 27454 27455 27456 27457 27458 27459 27460 27461 27462 27463 27464 27465 27466 27467 27468 27469 27470 27471 27472 27473 27474 27475 27476 27477 27478 27479 27480 27481 27482 27483 27484 27485 27486 27487 27488 27489 27490 27491 27492 27493 27494 27495 27496 27497 27498 27499 27500 27501 27502 27503 27504 27505 27506 27507 27508 27509 27510 27511 27512 27513 27514 27515 27516 27517 27518 27519 27520 27521 27522 27523 27524 27525 27526 27527 27528 27529 27530 27531 27532 27533 27534 27535 27536 27537 27538 27539 27540 27541 27542 27543 27544 27545 27546 27547 27548 27549 27550 27551 27552 27553 27554 27555 27556 27557 27558 27559 27560 27561 27562 27563 27564 27565 27566 27567 27568 27569 27570 27571 27572 27573 27574 27575 27576 27577 27578 27579 27580 27581 27582 27583 27584 27585 27586 27587 27588 27589 27590 27591 27592 27593 27594 27595 27596 27597 27598 27599 27600 27601 27602 27603 27604 27605 27606 27607 27608 27609 27610 27611 27612 27613 27614 27615 27616 27617 27618 27619 27620 27621 27622 27623 27624 27625 27626 27627 27628 27629 27630 27631 27632 27633 27634 27635 27636 27637 27638 27639 27640 27641 27642 27643 27644 27645 27646 27647 27648 27649 27650 27651 27652 27653 27654 27655 27656 27657 27658 27659 27660 27661 27662 27663 27664 27665 27666 27667 27668 27669 27670 27671 27672 27673 27674 27675 27676 27677 27678 27679 27680 27681 27682 27683 27684 27685 27686 27687 27688 27689 27690 27691 27692 27693 27694 27695 27696 27697 27698 27699 27700 27701 27702 27703 27704 27705 27706 27707 27708 27709 27710 27711 27712 27713 27714 27715 27716 27717 27718 27719 27720 27721 27722 27723 27724 27725 27726 27727 27728 27729 27730 27731 27732 27733 27734 27735 27736 27737 27738 27739 27740 27741 27742 27743 27744 27745 27746 27747 27748 27749 27750 27751 27752 27753 27754 27755 27756 27757 27758 27759 27760 27761 27762 27763 27764 27765 27766 27767 27768 27769 27770 27771 27772 27773 27774 27775 27776 27777 27778 27779 27780 27781 27782 27783 27784 27785 27786 27787 27788 27789 27790 27791 27792 27793 27794 27795 27796 27797 27798 27799 27800 27801 27802 27803 27804 27805 27806 27807 27808 27809 27810 27811 27812 27813 27814 27815 27816 27817 27818 27819 27820 27821 27822 27823 27824 27825 27826 27827 27828 27829 27830 27831 27832 27833 27834 27835 27836 27837 27838 27839 27840 27841 27842 27843 27844 27845 27846 27847 27848 27849 27850 27851 27852 27853 27854 27855 27856 27857 27858 27859 27860 27861 27862 27863 27864 27865 27866 27867 27868 27869 27870 27871 27872 27873 27874 27875 27876 27877 27878 27879 27880 27881 27882 27883 27884 27885 27886 27887 27888 27889 27890 27891 27892 27893 27894 27895 27896 27897 27898 27899 27900 27901 27902 27903 27904 27905 27906 27907 27908 27909 27910 27911 27912 27913 27914 27915 27916 27917 27918 27919 27920 27921 27922 27923 27924 27925 27926 27927 27928 27929 27930 27931 27932 27933 27934 27935 27936 27937 27938 27939 27940 27941 27942 27943 27944 27945 27946 27947 27948 27949 27950 27951 27952 27953 27954 27955 27956 27957 27958 27959 27960 27961 27962 27963 27964 27965 27966 27967 27968 27969 27970 27971 27972 27973 27974 27975 27976 27977 27978 27979 27980 27981 27982 27983 27984 27985 27986 27987 27988 27989 27990 27991 27992 27993 27994 27995 27996 27997 27998 27999 28000 28001 28002 28003 28004 28005 28006 28007 28008 28009 28010 28011 28012 28013 28014 28015 28016 28017 28018 28019 28020 28021 28022 28023 28024 28025 28026 28027 28028 28029 28030 28031 28032 28033 28034 28035 28036 28037 28038 28039 28040 28041 28042 28043 28044 28045 28046 28047 28048 28049 28050 28051 28052 28053 28054 28055 28056 28057 28058 28059 28060 28061 28062 28063 28064 28065 28066 28067 28068 28069 28070 28071 28072 28073 28074 28075 28076 28077 28078 28079 28080 28081 28082 28083 28084 28085 28086 28087 28088 28089 28090 28091 28092 28093 28094 28095 28096 28097 28098 28099 28100 28101 28102 28103 28104 28105 28106 28107 28108 28109 28110 28111 28112 28113 28114 28115 28116 28117 28118 28119 28120 28121 28122 28123 28124 28125 28126 28127 28128 28129 28130 28131 28132 28133 28134 28135 28136 28137 28138 28139 28140 28141 28142 28143 28144 28145 28146 28147 28148 28149 28150 28151 28152 28153 28154 28155 28156 28157 28158 28159 28160 28161 28162 28163 28164 28165 28166 28167 28168 28169 28170 28171 28172 28173 28174 28175 28176 28177 28178 28179 28180 28181 28182 28183 28184 28185 28186 28187 28188 28189 28190 28191 28192 28193 28194 28195 28196 28197 28198 28199 28200 28201 28202 28203 28204 28205 28206 28207 28208 28209 28210 28211 28212 28213 28214 28215 28216 28217 28218 28219 28220 28221 28222 28223 28224 28225 28226 28227 28228 28229 28230 28231 28232 28233 28234 28235 28236 28237 28238 28239 28240 28241 28242 28243 28244 28245 28246 28247 28248 28249 28250 28251 28252 28253 28254 28255 28256 28257 28258 28259 28260 28261 28262 28263 28264 28265 28266 28267 28268 28269 28270 28271 28272 28273 28274 28275 28276 28277 28278 28279 28280 28281 28282 28283 28284 28285 28286 28287 28288 28289 28290 28291 28292 28293 28294 28295 28296 28297 28298 28299 28300 28301 28302 28303 28304 28305 28306 28307 28308 28309 28310 28311 28312 28313 28314 28315 28316 28317 28318 28319 28320 28321 28322 28323 28324 28325 28326 28327 28328 28329 28330 28331 28332 28333 28334 28335 28336 28337 28338 28339 28340 28341 28342 28343 28344 28345 28346 28347 28348 28349 28350 28351 28352 28353 28354 28355 28356 28357 28358 28359 28360 28361 28362 28363 28364 28365 28366 28367 28368 28369 28370 28371 28372 28373 28374 28375 28376 28377 28378 28379 28380 28381 28382 28383 28384 28385 28386 28387 28388 28389 28390 28391 28392 28393 28394 28395 28396 28397 28398 28399 28400 28401 28402 28403 28404 28405 28406 28407 28408 28409 28410 28411 28412 28413 28414 28415 28416 28417 28418 28419 28420 28421 28422 28423 28424 28425 28426 28427 28428 28429 28430 28431 28432 28433 28434 28435 28436 28437 28438 28439 28440 28441 28442 28443 28444 28445 28446 28447 28448 28449 28450 28451 28452 28453 28454 28455 28456 28457 28458 28459 28460 28461 28462 28463 28464 28465 28466 28467 28468 28469 28470 28471 28472 28473 28474 28475 28476 28477 28478 28479 28480 28481 28482 28483 28484 28485 28486 28487 28488 28489 28490 28491 28492 28493 28494 28495 28496 28497 28498 28499 28500 28501 28502 28503 28504 28505 28506 28507 28508 28509 28510 28511 28512 28513 28514 28515 28516 28517 28518 28519 28520 28521 28522 28523 28524 28525 28526 28527 28528 28529 28530 28531 28532 28533 28534 28535 28536 28537 28538 28539 28540 28541 28542 28543 28544 28545 28546 28547 28548 28549 28550 28551 28552 28553 28554 28555 28556 28557 28558 28559 28560 28561 28562 28563 28564 28565 28566 28567 28568 28569 28570 28571 28572 28573 28574 28575 28576 28577 28578 28579 28580 28581 28582 28583 28584 28585 28586 28587 28588 28589 28590 28591 28592 28593 28594 28595 28596 28597 28598 28599 28600 28601 28602 28603 28604 28605 28606 28607 28608 28609 28610 28611 28612 28613 28614 28615 28616 28617 28618 28619 28620 28621 28622 28623 28624 28625 28626 28627 28628 28629 28630 28631 28632 28633 28634 28635 28636 28637 28638 28639 28640 28641 28642 28643 28644 28645 28646 28647 28648 28649 28650 28651 28652 28653 28654 28655 28656 28657 28658 28659 28660 28661 28662 28663 28664 28665 28666 28667 28668 28669 28670 28671 28672 28673 28674 28675 28676 28677 28678 28679 28680 28681 28682 28683 28684 28685 28686 28687 28688 28689 28690 28691 28692 28693 28694 28695 28696 28697 28698 28699 28700 28701 28702 28703 28704 28705 28706 28707 28708 28709 28710 28711 28712 28713 28714 28715 28716 28717 28718 28719 28720 28721 28722 28723 28724 28725 28726 28727 28728 28729 28730 28731 28732 28733 28734 28735 28736 28737 28738 28739 28740 28741 28742 28743 28744 28745 28746 28747 28748 28749 28750 28751 28752 28753 28754 28755 28756 28757 28758 28759 28760 28761 28762 28763 28764 28765 28766 28767 28768 28769 28770 28771 28772 28773 28774 28775 28776 28777 28778 28779 28780 28781 28782 28783 28784 28785 28786 28787 28788 28789 28790 28791 28792 28793 28794 28795 28796 28797 28798 28799 28800 28801 28802 28803 28804 28805 28806 28807 28808 28809 28810 28811 28812 28813 28814 28815 28816 28817 28818 28819 28820 28821 28822 28823 28824 28825 28826 28827 28828 28829 28830 28831 28832 28833 28834 28835 28836 28837 28838 28839 28840 28841 28842 28843 28844 28845 28846 28847 28848 28849 28850 28851 28852 28853 28854 28855 28856 28857 28858 28859 28860 28861 28862 28863 28864 28865 28866 28867 28868 28869 28870 28871 28872 28873 28874 28875 28876 28877 28878 28879 28880 28881 28882 28883 28884 28885 28886 28887 28888 28889 28890 28891 28892 28893 28894 28895 28896 28897 28898 28899 28900 28901 28902 28903 28904 28905 28906 28907 28908 28909 28910 28911 28912 28913 28914 28915 28916 28917 28918 28919 28920 28921 28922 28923 28924 28925 28926 28927 28928 28929 28930 28931 28932 28933 28934 28935 28936 28937 28938 28939 28940 28941 28942 28943 28944 28945 28946 28947 28948 28949 28950 28951 28952 28953 28954 28955 28956 28957 28958 28959 28960 28961 28962 28963 28964 28965 28966 28967 28968 28969 28970 28971 28972 28973 28974 28975 28976 28977 28978 28979 28980 28981 28982 28983 28984 28985 28986 28987 28988 28989 28990 28991 28992 28993 28994 28995 28996 28997 28998 28999 29000 29001 29002 29003 29004 29005 29006 29007 29008 29009 29010 29011 29012 29013 29014 29015 29016 29017 29018 29019 29020 29021 29022 29023 29024 29025 29026 29027 29028 29029 29030 29031 29032 29033 29034 29035 29036 29037 29038 29039 29040 29041 29042 29043 29044 29045 29046 29047 29048 29049 29050 29051 29052 29053 29054 29055 29056 29057 29058 29059 29060 29061 29062 29063 29064 29065 29066 29067 29068 29069 29070 29071 29072 29073 29074 29075 29076 29077 29078 29079 29080 29081 29082 29083 29084 29085 29086 29087 29088 29089 29090 29091 29092 29093 29094 29095 29096 29097 29098 29099 29100 29101 29102 29103 29104 29105 29106 29107 29108 29109 29110 29111 29112 29113 29114 29115 29116 29117 29118 29119 29120 29121 29122 29123 29124 29125 29126 29127 29128 29129 29130 29131 29132 29133 29134 29135 29136 29137 29138 29139 29140 29141 29142 29143 29144 29145 29146 29147 29148 29149 29150 29151 29152 29153 29154 29155 29156 29157 29158 29159 29160 29161 29162 29163 29164 29165 29166 29167 29168 29169 29170 29171 29172 29173 29174 29175 29176 29177 29178 29179 29180 29181 29182 29183 29184 29185 29186 29187 29188 29189 29190 29191 29192 29193 29194 29195 29196 29197 29198 29199 29200 29201 29202 29203 29204 29205 29206 29207 29208 29209 29210 29211 29212 29213 29214 29215 29216 29217 29218 29219 29220 29221 29222 29223 29224 29225 29226 29227 29228 29229 29230 29231 29232 29233 29234 29235 29236 29237 29238 29239 29240 29241 29242 29243 29244 29245 29246 29247 29248 29249 29250 29251 29252 29253 29254 29255 29256 29257 29258 29259 29260 29261 29262 29263 29264 29265 29266 29267 29268 29269 29270 29271 29272 29273 29274 29275 29276 29277 29278 29279 29280 29281 29282 29283 29284 29285 29286 29287 29288 29289 29290 29291 29292 29293 29294 29295 29296 29297 29298 29299 29300 29301 29302 29303 29304 29305 29306 29307 29308 29309 29310 29311 29312 29313 29314 29315 29316 29317 29318 29319 29320 29321 29322 29323 29324 29325 29326 29327 29328 29329 29330 29331 29332 29333 29334 29335 29336 29337 29338 29339 29340 29341 29342 29343 29344 29345 29346 29347 29348 29349 29350 29351 29352 29353 29354 29355 29356 29357 29358 29359 29360 29361 29362 29363 29364 29365 29366 29367 29368 29369 29370 29371 29372 29373 29374 29375 29376 29377 29378 29379 29380 29381 29382 29383 29384 29385 29386 29387 29388 29389 29390 29391 29392 29393 29394 29395 29396 29397 29398 29399 29400 29401 29402 29403 29404 29405 29406 29407 29408 29409 29410 29411 29412 29413 29414 29415 29416 29417 29418 29419 29420 29421 29422 29423 29424 29425 29426 29427 29428 29429 29430 29431 29432 29433 29434 29435 29436 29437 29438 29439 29440 29441 29442 29443 29444 29445 29446 29447 29448 29449 29450 29451 29452 29453 29454 29455 29456 29457 29458 29459 29460 29461 29462 29463 29464 29465 29466 29467 29468 29469 29470 29471 29472 29473 29474 29475 29476 29477 29478 29479 29480 29481 29482 29483 29484 29485 29486 29487 29488 29489 29490 29491 29492 29493 29494 29495 29496 29497 29498 29499 29500 29501 29502 29503 29504 29505 29506 29507 29508 29509 29510 29511 29512 29513 29514 29515 29516 29517 29518 29519 29520 29521 29522 29523 29524 29525 29526 29527 29528 29529 29530 29531 29532 29533 29534 29535 29536 29537 29538 29539 29540 29541 29542 29543 29544 29545 29546 29547 29548 29549 29550 29551 29552 29553 29554 29555 29556 29557 29558 29559 29560 29561 29562 29563 29564 29565 29566 29567 29568 29569 29570 29571 29572 29573 29574 29575 29576 29577 29578 29579 29580 29581 29582 29583 29584 29585 29586 29587 29588 29589 29590 29591 29592 29593 29594 29595 29596 29597 29598 29599 29600 29601 29602 29603 29604 29605 29606 29607 29608 29609 29610 29611 29612 29613 29614 29615 29616 29617 29618 29619 29620 29621 29622 29623 29624 29625 29626 29627 29628 29629 29630 29631 29632 29633 29634 29635 29636 29637 29638 29639 29640 29641 29642 29643 29644 29645 29646 29647 29648 29649 29650 29651 29652 29653 29654 29655 29656 29657 29658 29659 29660 29661 29662 29663 29664 29665 29666 29667 29668 29669 29670 29671 29672 29673 29674 29675 29676 29677 29678 29679 29680 29681 29682 29683 29684 29685 29686 29687 29688 29689 29690 29691 29692 29693 29694 29695 29696 29697 29698 29699 29700 29701 29702 29703 29704 29705 29706 29707 29708 29709 29710 29711 29712 29713 29714 29715 29716 29717 29718 29719 29720 29721 29722 29723 29724 29725 29726 29727 29728 29729 29730 29731 29732 29733 29734 29735 29736 29737 29738 29739 29740 29741 29742 29743 29744 29745 29746 29747 29748 29749 29750 29751 29752 29753 29754 29755 29756 29757 29758 29759 29760 29761 29762 29763 29764 29765 29766 29767 29768 29769 29770 29771 29772 29773 29774 29775 29776 29777 29778 29779 29780 29781 29782 29783 29784 29785 29786 29787 29788 29789 29790 29791 29792 29793 29794 29795 29796 29797 29798 29799 29800 29801 29802 29803 29804 29805 29806 29807 29808 29809 29810 29811 29812 29813 29814 29815 29816 29817 29818 29819 29820 29821 29822 29823 29824 29825 29826 29827 29828 29829 29830 29831 29832 29833 29834 29835 29836 29837 29838 29839 29840 29841 29842 29843 29844 29845 29846 29847 29848 29849 29850 29851 29852 29853 29854 29855 29856 29857 29858 29859 29860 29861 29862 29863 29864 29865 29866 29867 29868 29869 29870 29871 29872 29873 29874 29875 29876 29877 29878 29879 29880 29881 29882 29883 29884 29885 29886 29887 29888 29889 29890 29891 29892 29893 29894 29895 29896 29897 29898 29899 29900 29901 29902 29903 29904 29905 29906 29907 29908 29909 29910 29911 29912 29913 29914 29915 29916 29917 29918 29919 29920 29921 29922 29923 29924 29925 29926 29927 29928 29929 29930 29931 29932 29933 29934 29935 29936 29937 29938 29939 29940 29941 29942 29943 29944 29945 29946 29947 29948 29949 29950 29951 29952 29953 29954 29955 29956 29957 29958 29959 29960 29961 29962 29963 29964 29965 29966 29967 29968 29969 29970 29971 29972 29973 29974 29975 29976 29977 29978 29979 29980 29981 29982 29983 29984 29985 29986 29987 29988 29989 29990 29991 29992 29993 29994 29995 29996 29997 29998 29999 30000 30001 30002 30003 30004 30005 30006 30007 30008 30009 30010 30011 30012 30013 30014 30015 30016 30017 30018 30019 30020 30021 30022 30023 30024 30025 30026 30027 30028 30029 30030 30031 30032 30033 30034 30035 30036 30037 30038 30039 30040 30041 30042 30043 30044 30045 30046 30047 30048 30049 30050 30051 30052 30053 30054 30055 30056 30057 30058 30059 30060 30061 30062 30063 30064 30065 30066 30067 30068 30069 30070 30071 30072 30073 30074 30075 30076 30077 30078 30079 30080 30081 30082 30083 30084 30085 30086 30087 30088 30089 30090 30091 30092 30093 30094 30095 30096 30097 30098 30099 30100 30101 30102 30103 30104 30105 30106 30107 30108 30109 30110 30111 30112 30113 30114 30115 30116 30117 30118 30119 30120 30121 30122 30123 30124 30125 30126 30127 30128 30129 30130 30131 30132 30133 30134 30135 30136 30137 30138 30139 30140 30141 30142 30143 30144 30145 30146 30147 30148 30149 30150 30151 30152 30153 30154 30155 30156 30157 30158 30159 30160 30161 30162 30163 30164 30165 30166 30167 30168 30169 30170 30171 30172 30173 30174 30175 30176 30177 30178 30179 30180 30181 30182 30183 30184 30185 30186 30187 30188 30189 30190 30191 30192 30193 30194 30195 30196 30197 30198 30199 30200 30201 30202 30203 30204 30205 30206 30207 30208 30209 30210 30211 30212 30213 30214 30215 30216 30217 30218 30219 30220 30221 30222 30223 30224 30225 30226 30227 30228 30229 30230 30231 30232 30233 30234 30235 30236 30237 30238 30239 30240 30241 30242 30243 30244 30245 30246 30247 30248 30249 30250 30251 30252 30253 30254 30255 30256 30257 30258 30259 30260 30261 30262 30263 30264 30265 30266 30267 30268 30269 30270 30271 30272 30273 30274 30275 30276 30277 30278 30279 30280 30281 30282 30283 30284 30285 30286 30287 30288 30289 30290 30291 30292 30293 30294 30295 30296 30297 30298 30299 30300 30301 30302 30303 30304 30305 30306 30307 30308 30309 30310 30311 30312 30313 30314 30315 30316 30317 30318 30319 30320 30321 30322 30323 30324 30325 30326 30327 30328 30329 30330 30331 30332 30333 30334 30335 30336 30337 30338 30339 30340 30341 30342 30343 30344 30345 30346 30347 30348 30349 30350 30351 30352 30353 30354 30355 30356 30357 30358 30359 30360 30361 30362 30363 30364 30365 30366 30367 30368 30369 30370 30371 30372 30373 30374 30375 30376 30377 30378 30379 30380 30381 30382 30383 30384 30385 30386 30387 30388 30389 30390 30391 30392 30393 30394 30395 30396 30397 30398 30399 30400 30401 30402 30403 30404 30405 30406 30407 30408 30409 30410 30411 30412 30413 30414 30415 30416 30417 30418 30419 30420 30421 30422 30423 30424 30425 30426 30427 30428 30429 30430 30431 30432 30433 30434 30435 30436 30437 30438 30439 30440 30441 30442 30443 30444 30445 30446 30447 30448 30449 30450 30451 30452 30453 30454 30455 30456 30457 30458 30459 30460 30461 30462 30463 30464 30465 30466 30467 30468 30469 30470 30471 30472 30473 30474 30475 30476 30477 30478 30479 30480 30481 30482 30483 30484 30485 30486 30487 30488 30489 30490 30491 30492 30493 30494 30495 30496 30497 30498 30499 30500 30501 30502 30503 30504 30505 30506 30507 30508 30509 30510 30511 30512 30513 30514 30515 30516 30517 30518 30519 30520 30521 30522 30523 30524 30525 30526 30527 30528 30529 30530 30531 30532 30533 30534 30535 30536 30537 30538 30539 30540 30541 30542 30543 30544 30545 30546 30547 30548 30549 30550 30551 30552 30553 30554 30555 30556 30557 30558 30559 30560 30561 30562 30563 30564 30565 30566 30567 30568 30569 30570 30571 30572 30573 30574 30575 30576 30577 30578 30579 30580 30581 30582 30583 30584 30585 30586 30587 30588 30589 30590 30591 30592 30593 30594 30595 30596 30597 30598 30599 30600 30601 30602 30603 30604 30605 30606 30607 30608 30609 30610 30611 30612 30613 30614 30615 30616 30617 30618 30619 30620 30621 30622 30623 30624 30625 30626 30627 30628 30629 30630 30631 30632 30633 30634 30635 30636 30637 30638 30639 30640 30641 30642 30643 30644 30645 30646 30647 30648 30649 30650 30651 30652 30653 30654 30655 30656 30657 30658 30659 30660 30661 30662 30663 30664 30665 30666 30667 30668 30669 30670 30671 30672 30673 30674 30675 30676 30677 30678 30679 30680 30681 30682 30683 30684 30685 30686 30687 30688 30689 30690 30691 30692 30693 30694 30695 30696 30697 30698 30699 30700 30701 30702 30703 30704 30705 30706 30707 30708 30709 30710 30711 30712 30713 30714 30715 30716 30717 30718 30719 30720 30721 30722 30723 30724 30725 30726 30727 30728 30729 30730 30731 30732 30733 30734 30735 30736 30737 30738 30739 30740 30741 30742 30743 30744 30745 30746 30747 30748 30749 30750 30751 30752 30753 30754 30755 30756 30757 30758 30759 30760 30761 30762 30763 30764 30765 30766 30767 30768 30769 30770 30771 30772 30773 30774 30775 30776 30777 30778 30779 30780 30781 30782 30783 30784 30785 30786 30787 30788 30789 30790 30791 30792 30793 30794 30795 30796 30797 30798 30799 30800 30801 30802 30803 30804 30805 30806 30807 30808 30809 30810 30811 30812 30813 30814 30815 30816 30817 30818 30819 30820 30821 30822 30823 30824 30825 30826 30827 30828 30829 30830 30831 30832 30833 30834 30835 30836 30837 30838 30839 30840 30841 30842 30843 30844 30845 30846 30847 30848 30849 30850 30851 30852 30853 30854 30855 30856 30857 30858 30859 30860 30861 30862 30863 30864 30865 30866 30867 30868 30869 30870 30871 30872 30873 30874 30875 30876 30877 30878 30879 30880 
</DataArray>
<DataArray type="UInt32" Name="offsets" format="ascii">
3 6 8 11 14 17 20 22 25 28 31 34 37 40 43 46 49 52 55 58 60 63 66 69 72 74 77 80 83 86 89 92 95 97 100 103 106 109 112 115 118 121 123 126 129 132 135 138 141 144 147 150 153 156 158 160 163 166 169 172 175 178 181 184 186 189 192 195 198 201 204 207 210 213 216 219 222 225 228 231 234 237 240 243 246 249 252 254 257 260 263 266 269 272 275 278 281 284 287 289 292 295 298 300 303 306 309 312 315 318 321 324 327 330 333 336 339 342 345 348 351 354 357 360 363 366 369 372 375 378 381 384 387 390 393 396 399 402 405 408 411 414 417 420 423 426 429 432 435 437 440 442 445 448 451 454 457 460 463 466 469 472 475 478 481 484 487 490 493 496 499 502 505 508 511 514 517 520 522 525 528 530 533 535 538 541 544 547 550 553 556 559 562 565 568 571 574 577 579 582 584 587 590 593 596 599 602 605 607 610 612 615 618 621 624 627 630 632 635 638 640 643 646 649 652 655 658 660 662 665 668 670 673 675 678 680 682 685 688 691 693 696 699 702 705 708 711 714 717 720 723 726 729 732 734 737 740 743 746 749 752 755 757 760 763 766 769 772 775 778 780 783 786 789 792 794 797 800 803 806 809 812 814 817 820 823 825 828 831 834 837 840 843 846 848 851 854 857 860 863 866 868 871 874 877 880 883 886 888 891 894 897 900 903 906 909 911 914 917 920 923 926 929 932 935 938 941 944 947 950 953 956 959 962 965 968 971 974 976 978 981 984 987 990 993 995 998 1001 1004 1007 1010 1013 1016 1018 1021 1023 1026 1029 1032 1034 1037 1040 1043 1045 1048 1050 1053 1056 1059 1062 1065 1068 1071 1073 1076 1079 1082 1085 1088 1091 1094 1096 1099 1102 1105 1107 1110 1113 1116 1119 1122 1125 1128 1131 1134 1137 1140 1143 1146 1149 1152 1155 1158 1161 1164 1167 1170 1173 1176 1179 1182 1185 1188 1191 1194 1197 1200 1203 1205 1208 1211 1214 1217 1220 1223 1226 1229 1232 1235 1238 1241 1244 1247 1250 1253 1256 1259 1262 1265 1268 1271 1274 1277 1280 1283 1286 1289 1292 1295 1298 1301 1303 1306 1309 1312 1315 1318 1321 1324 1327 1330 1333 1336 1339 1342 1345 1348 1351 1354 1357 1360 1363 1365 1368 1371 1374 1377 1380 1383 1386 1388 1391 1394 1397 1400 1403 1405 1408 1411 1413 1416 1418 1421 1424 1427 1430 1432 1435 1438 1440 1443 1446 1449 1452 1455 1458 1460 1463 1466 1469 1472 1475 1478 1481 1484 1487 1490 1493 1496 1499 1502 1505 1508 1511 1514 1517 1519 1522 1525 1528 1531 1534 1537 1540 1543 1546 1549 1552 1554 1556 1559 1562 1565 1568 1571 1574 1577 1580 1583 1586 1589 1592 1595 1598 1601 1604 1607 1610 1613 1616 1619 1621 1624 1626 1628 1631 1634 1636 1639 1642 1645 1648 1651 1654 1657 1660 1663 1666 1669 1672 1675 1677 1680 1683 1686 1689 1692 1695 1698 1700 1702 1705 1708 1711 1714 1717 1720 1723 1726 1728 1730 1733 1736 1739 1741 1744 1747 1750 1753 1756 1759 1762 1765 1768 1771 1774 1777 1780 1783 1786 1789 1792 1795 1798 1801 1804 1807 1810 1813 1816 1819 1822 1825 1828 1831 1834 1837 1840 1843 1846 1848 1851 1854 1856 1859 1862 1865 1868 1870 1873 1876 1879 1881 1884 1887 1890 1892 1895 1898 1900 1903 1906 1909 1912 1915 1918 1921 1924 1927 1930 1933 1936 1939 1942 1945 1948 1951 1954 1957 1960 1963 1965 1968 1971 1974 1976 1979 1982 1985 1988 1991 1993 1996 1999 2002 2005 2008 2011 2013 2016 2019 2022 2025 2028 2031 2034 2037 2040 2043 2046 2049 2052 2055 2058 2061 2064 2067 2069 2072 2075 2078 2081 2084 2087 2090 2093 2096 2099 2102 2105 2108 2111 2114 2117 2120 2123 2126 2129 2132 2134 2137 2140 2143 2146 2149 2152 2155 2158 2161 2164 2167 2170 2173 2176 2179 2181 2184 2187 2190 2193 2196 2199 2202 2205 2208 2211 2214 2217 2220 2223 2226 2229 2232 2235 2237 2240 2243 2246 2249 2252 2255 2258 2260 2263 2266 2269 2272 2275 2278 2281 2284 2287 2290 2293 2296 2299 2302 2305 2308 2311 2314 2317 2320 2323 2325 2328 2331 2334 2337 2340 2343 2346 2349 2352 2354 2357 2360 2363 2366 2369 2372 2375 2378 2380 2383 2386 2389 2392 2395 2398 2401 2404 2407 2410 2413 2416 2419 2422 2425 2428 2431 2434 2437 2439 2442 2445 2448 2451 2454 2456 2459 2462 2465 2467 2470 2473 2476 2479 2482 2485 2487 2490 2493 2496 2499 2502 2505 2508 2511 2514 2517 2519 2522 2525 2528 2531 2534 2537 2540 2543 2546 2549 2552 2555 2557 2560 2562 2565 2568 2571 2574 2577 2580 2583 2585 2588 2590 2593 2596 2599 2602 2605 2608 2611 2614 2617 2620 2623 2626 2629 2632 2635 2638 2641 2644 2647 2650 2653 2656 2659 2662 2665 2668 2671 2674 2677 2680 2683 2686 2689 2692 2695 2698 2701 2704 2707 2710 2713 2716 2719 2722 2725 2727 2729 2732 2735 2737 2740 2743 2746 2749 2752 2755 2758 2761 2764 2767 2770 2773 2776 2779 2782 2785 2787 2790 2793 2796 2799 2801 2804 2807 2809 2812 2815 2818 2821 2824 2827 2829 2832 2834 2837 2840 2842 2845 2848 2851 2854 2857 2860 2863 2866 2869 2872 2874 2877 2880 2883 2886 2889 2891 2893 2896 2899 2902 2905 2907 2910 2913 2915 2918 2920 2923 2926 2929 2932 2935 2937 2940 2943 2945 2948 2951 2954 2957 2960 2963 2966 2969 2972 2975 2978 2981 2983 2986 2989 2992 2995 2998 3001 3004 3007 3010 3013 3016 3019 3022 3025 3028 3030 3033 3035 3038 3040 3042 3045 3047 3050 3053 3055 3058 3061 3064 3067 3070 3073 3075 3078 3080 3083 3086 3088 3091 3094 3097 3099 3102 3105 3107 3110 3113 3116 3119 3122 3124 3127 3130 3132 3135 3138 3141 3144 3147 3149 3152 3154 3157 3160 3162 3165 3168 3170 3173 3176 3179 3182 3185 3188 3191 3194 3196 3199 3202 3205 3208 3211 3214 3217 3220 3223 3226 3228 3231 3234 3237 3240 3242 3245 3248 3250 3253 3256 3259 3262 3265 3267 3270 3273 3276 3279 3282 3284 3287 3289 3292 3295 3298 3301 3304 3307 3309 3312 3315 3318 3321 3324 3327 3330 3333 3335 3337 3339 3342 3345 3348 3351 3353 3356 3358 3361 3364 3367 3369 3371 3374 3377 3380 3382 3385 3388 3391 3393 3396 3398 3401 3403 3405 3408 3410 3413 3416 3419 3422 3424 3427 3430 3433 3435 3438 3440 3443 3445 3448 3451 3454 3457 3460 3463 3466 3468 3471 3474 3477 3480 3482 3485 3488 3491 3494 3497 3500 3503 3506 3508 3511 3513 3515 3518 3521 3524 3526 3529 3532 3535 3538 3540 3542 3545 3548 3550 3552 3555 3558 3561 3564 3567 3569 3572 3575 3578 3581 3584 3587 3590 3593 3595 3598 3600 3603 3606 3609 3612 3615 3618 3621 3624 3627 3630 3633 3636 3639 3642 3645 3648 3651 3653 3656 3659 3662 3665 3668 3671 3674 3677 3680 3683 3686 3689 3692 3695 3698 3701 3704 3707 3710 3713 3716 3719 3722 3725 3728 3730 3733 3735 3738 3741 3744 3747 3750 3752 3754 3757 3760 3763 3766 3768 3770 3773 3775 3778 3781 3783 3786 3789 3791 3794 3797 3800 3803 3805 3807 3810 3813 3816 3819 3822 3825 3828 3831 3833 3836 3839 3841 3844 3847 3850 3852 3855 3858 3860 3863 3866 3869 3872 3875 3878 3880 3883 3886 3889 3892 3895 3898 3900 3903 3906 3909 3912 3915 3917 3920 3923 3925 3927 3930 3933 3935 3938 3941 3943 3946 3949 3952 3955 3958 3961 3964 3967 3970 3973 3976 3979 3981 3984 3986 3989 3992 3994 3997 4000 4003 4006 4009 4012 4014 4017 4020 4023 4025 4027 4029 4032 4035 4038 4040 4042 4045 4047 4049 4052 4055 4057 4060 4063 4065 4068 4070 4073 4075 4078 4081 4084 4086 4088 4091 4094 4096 4098 4100 4102 4105 4108 4111 4113 4115 4118 4121 4123 4125 4127 4130 4132 4134 4137 4140 4142 4145 4147 4149 4152 4154 4157 4160 4162 4165 4167 4169 4172 4175 4178 4181 4183 4185 4188 4191 4193 4196 4199 4202 4204 4207 4210 4213 4216 4219 4222 4225 4228 4231 4234 4237 4240 4243 4246 4249 4252 4255 4258 4261 4264 4267 4270 4273 4276 4279 4282 4285 4288 4291 4294 4297 4300 4303 4306 4309 4312 4315 4318 4321 4324 4327 4330 4333 4336 4339 4342 4345 4348 4351 4354 4357 4360 4363 4366 4369 4372 4375 4378 4380 4383 4385 4388 4391 4394 4397 4400 4403 4406 4409 4412 4415 4418 4421 4424 4427 4429 4432 4435 4438 4441 4444 4447 4450 4453 4456 4459 4461 4464 4467 4470 4473 4476 4479 4482 4485 4488 4491 4494 4497 4500 4503 4506 4509 4512 4515 4518 4521 4524 4527 4530 4533 4536 4539 4542 4545 4548 4551 4554 4557 4560 4563 4566 4569 4572 4575 4578 4581 4584 4587 4590 4593 4596 4599 4601 4604 4607 4610 4612 4615 4617 4620 4623 4626 4629 4632 4634 4637 4639 4642 4645 4648 4651 4654 4657 4660 4663 4666 4669 4672 4675 4678 4681 4684 4687 4690 4693 4696 4699 4702 4705 4708 4711 4714 4716 4719 4722 4725 4728 4731 4734 4736 4739 4741 4744 4747 4750 4752 4755 4758 4760 4763 4766 4769 4772 4775 4778 4781 4784 4787 4790 4793 4796 4799 4802 4805 4808 4811 4814 4817 4820 4823 4826 4829 4832 4835 4838 4841 4844 4847 4850 4853 4856 4859 4862 4865 4868 4871 4873 4876 4878 4881 4884 4887 4890 4893 4896 4899 4902 4905 4908 4910 4913 4916 4919 4922 4925 4928 4931 4934 4937 4940 4943 4946 4949 4952 4955 4958 4961 4963 4966 4969 4972 4974 4976 4979 4981 4984 4987 4990 4993 4996 4999 5002 5005 5007 5010 5013 5016 5019 5021 5024 5027 5030 5033 5036 5039 5042 5044 5047 5050 5052 5055 5057 5060 5063 5065 5068 5071 5073 5075 5078 5081 5084 5087 5090 5093 5096 5099 5102 5105 5108 5111 5114 5117 5120 5122 5125 5127 5130 5133 5136 5138 5141 5143 5146 5149 5152 5155 5158 5161 5164 5167 5170 5173 5176 5179 5181 5184 5186 5189 5192 5195 5198 5201 5204 5207 5210 5212 5215 5218 5220 5223 5226 5229 5231 5233 5236 5239 5242 5245 5248 5251 5254 5257 5260 5263 5266 5269 5272 5275 5278 5281 5284 5287 5290 5293 5296 5298 5301 5304 5307 5310 5313 5315 5318 5320 5323 5326 5329 5332 5334 5337 5340 5342 5345 5348 5351 5354 5357 5359 5362 5365 5368 5371 5373 5376 5379 5382 5385 5388 5391 5394 5396 5399 5402 5405 5407 5410 5413 5416 5419 5422 5425 5428 5431 5434 5437 5440 5442 5445 5448 5451 5454 5457 5460 5463 5466 5468 5471 5474 5477 5480 5483 5486 5488 5491 5494 5497 5500 5503 5506 5508 5511 5514 5517 5520 5523 5526 5529 5532 5535 5538 5541 5543 5546 5549 5552 5554 5557 5560 5563 5565 5568 5570 5573 5576 5579 5582 5585 5588 5590 5593 5596 5599 5602 5605 5608 5611 5614 5617 5620 5623 5626 5629 5632 5635 5637 5640 5643 5646 5649 5652 5654 5657 5660 5663 5666 5669 5672 5675 5678 5680 5683 5686 5689 5692 5695 5698 5701 5704 5707 5710 5713 5716 5719 5722 5725 5728 5730 5733 5736 5739 5742 5744 5747 5750 5753 5756 5759 5762 5765 5768 5771 5774 5777 5780 5783 5786 5789 5792 5795 5798 5801 5804 5807 5810 5813 5816 5819 5822 5824 5827 5830 5833 5835 5838 5840 5843 5846 5849 5852 5854 5857 5859 5862 5865 5868 5871 5874 5876 5879 5882 5885 5888 5891 5894 5897 5900 5903 5905 5908 5911 5914 5917 5920 5923 5926 5929 5932 5935 5938 5941 5944 5947 5950 5953 5956 5959 5962 5965 5968 5971 5974 5977 5979 5981 5984 5987 5990 5993 5996 5998 6001 6004 6007 6009 6012 6015 6018 6020 6023 6026 6028 6031 6033 6036 6039 6042 6045 6047 6050 6053 6056 6059 6061 6063 6066 6069 6072 6075 6078 6081 6084 6087 6090 6093 6096 6099 6101 6104 6107 6110 6113 6115 6118 6121 6124 6127 6130 6132 6135 6138 6140 6143 6146 6149 6152 6155 6158 6161 6164 6167 6170 6173 6176 6179 6182 6185 6188 6190 6193 6196 6198 6201 6204 6207 6209 6212 6215 6218 6221 6224 6227 6230 6233 6236 6239 6242 6244 6247 6250 6253 6256 6259 6262 6265 6268 6271 6274 6277 6280 6283 6286 6289 6292 6294 6297 6300 6302 6305 6307 6310 6313 6315 6318 6320 6323 6325 6328 6331 6334 6337 6340 6343 6346 6349 6352 6355 6358 6361 6364 6366 6369 6371 6373 6376 6379 6381 6383 6386 6389 6391 6393 6396 6399 6402 6404 6407 6409 6412 6415 6417 6420 6423 6426 6429 6431 6433 6436 6438 6441 6444 6446 6448 6451 6454 6456 6459 6462 6465 6467 6470 6473 6476 6478 6480 6482 6485 6488 6490 6493 6495 6497 6500 6503 6506 6509 6512 6515 6518 6521 6524 6527 6530 6532 6534 6537 6539 6542 6544 6547 6549 6552 6555 6558 6560 6563 6566 6569 6572 6575 6577 6580 6583 6586 6589 6592 6595 6598 6601 6604 6607 6610 6613 6616 6619 6622 6625 6628 6631 6634 6637 6640 6643 6646 6649 6651 6654 6657 6660 6663 6666 6669 6672 6675 6678 6681 6684 6687 6690 6693 6696 6699 6702 6705 6707 6710 6713 6716 6719 6722 6725 6728 6731 6734 6737 6740 6742 6745 6748 6751 6754 6757 6759 6762 6765 6768 6771 6774 6777 6780 6783 6786 6789 6792 6795 6798 6801 6803 6806 6809 6812 6815 6818 6821 6824 6827 6830 6833 6836 6839 6842 6845 6847 6850 6852 6855 6858 6861 6864 6866 6869 6872 6875 6878 6881 6884 6887 6890 6893 6896 6899 6902 6904 6907 6909 6912 6915 6918 6921 6923 6926 6929 6932 6935 6938 6941 6944 6946 6949 6952 6955 6958 6961 6964 6967 6969 6972 6975 6978 6980 6983 6985 6988 6991 6994 6997 7000 7003 7006 7009 7012 7014 7017 7020 7023 7026 7029 7032 7035 7038 7041 7044 7047 7050 7053 7056 7059 7062 7065 7068 7071 7074 7077 7080 7083 7086 7089 7092 7095 7098 7101 7104 7107 7110 7113 7116 7119 7122 7125 7128 7131 7134 7137 7140 7143 7145 7148 7151 7153 7156 7159 7162 7165 7168 7171 7174 7177 7180 7183 7185 7188 7191 7194 7197 7200 7202 7205 7208 7210 7213 7216 7219 7222 7225 7228 7230 7233 7236 7239 7242 7244 7247 7250 7252 7255 7257 7260 7263 7266 7269 7272 7275 7278 7281 7284 7287 7290 7292 7295 7297 7300 7303 7306 7309 7311 7314 7317 7320 7323 7326 7329 7332 7335 7338 7341 7344 7347 7350 7353 7356 7359 7362 7365 7368 7371 7374 7376 7379 7382 7385 7388 7390 7393 7396 7399 7402 7405 7408 7411 7413 7416 7419 7422 7425 7428 7430 7433 7436 7439 7441 7444 7447 7450 7452 7455 7458 7460 7463 7466 7469 7471 7474 7477 7479 7482 7485 7488 7491 7494 7497 7500 7503 7506 7509 7512 7515 7518 7521 7524 7527 7530 7533 7536 7539 7542 7545 7548 7551 7554 7557 7560 7563 7566 7569 7572 7574 7577 7580 7583 7586 7589 7592 7595 7598 7601 7604 7607 7609 7612 7615 7618 7621 7624 7627 7630 7633 7636 7639 7642 7645 7648 7651 7654 7656 7658 7661 7664 7667 7669 7672 7675 7678 7681 7683 7686 7689 7691 7694 7697 7700 7703 7706 7709 7712 7715 7718 7721 7724 7727 7730 7732 7734 7737 7740 7743 7746 7749 7752 7755 7758 7761 7764 7767 7769 7772 7775 7777 7780 7783 7786 7789 7792 7795 7798 7801 7804 7807 7810 7813 7816 7819 7822 7825 7828 7831 7834 7836 7839 7842 7845 7847 7850 7853 7856 7859 7862 7864 7867 7870 7873 7876 7879 7882 7885 7888 7891 7894 7897 7900 7903 7906 7909 7912 7915 7918 7921 7924 7926 7929 7932 7934 7937 7940 7943 7946 7949 7952 7955 7958 7961 7964 7967 7970 7973 7976 7979 7982 7985 7988 7991 7993 7996 7999 8002 8005 8008 8011 8014 8017 8020 8023 8026 8029 8032 8035 8038 8041 8044 8047 8050 8053 8056 8059 8062 8065 8068 8071 8074 8077 8080 8083 8086 8089 8091 8094 8097 8100 8103 8106 8109 8111 8114 8117 8120 8123 8126 8128 8131 8134 8137 8140 8142 8145 8148 8151 8154 8157 8160 8163 8166 8169 8172 8175 8178 8181 8184 8187 8190 8193 8196 8199 8202 8205 8208 8210 8213 8216 8219 8222 8225 8228 8231 8233 8236 8239 8241 8244 8247 8249 8252 8255 8258 8261 8264 8267 8269 8272 8275 8278 8281 8284 8287 8290 8293 8296 8299 8301 8304 8306 8309 8312 8315 8318 8321 8324 8327 8330 8332 8335 8338 8340 8343 8346 8349 8351 8354 8357 8360 8362 8365 8368 8371 8373 8375 8378 8381 8383 8386 8389 8391 8394 8397 8399 8402 8405 8408 8411 8414 8417 8420 8423 8426 8428 8431 8434 8437 8439 8442 8445 8448 8450 8453 8456 8459 8461 8464 8466 8469 8472 8474 8477 8480 8483 8486 8489 8492 8495 8498 8500 8503 8506 8508 8511 8514 8517 8520 8523 8526 8529 8532 8535 8538 8541 8544 8547 8549 8552 8554 8557 8560 8563 8565 8567 8570 8572 8575 8578 8581 8584 8586 8589 8591 8594 8597 8600 8603 8606 8609 8612 8615 8618 8620 8623 8626 8629 8632 8635 8638 8641 8644 8647 8650 8653 8656 8659 8662 8665 8668 8671 8674 8677 8680 8683 8686 8689 8692 8695 8698 8701 8704 8706 8709 8712 8715 8718 8721 8724 8726 8729 8732 8735 8738 8741 8744 8746 8749 8752 8755 8758 8761 8764 8766 8769 8772 8775 8777 8780 8783 8786 8788 8791 8794 8796 8799 8802 8805 8808 8811 8814 8816 8819 8822 8825 8827 8829 8832 8835 8838 8841 8844 8847 8850 8853 8856 8859 8862 8865 8868 8871 8874 8877 8880 8882 8885 8888 8891 8894 8897 8900 8903 8905 8908 8911 8914 8917 8920 8922 8925 8928 8931 8934 8937 8939 8942 8945 8947 8950 8953 8956 8959 8961 8964 8967 8970 8973 8976 8979 8981 8984 8986 8989 8991 8993 8996 8998 9001 9004 9007 9009 9012 9015 9018 9021 9024 9026 9029 9032 9035 9037 9040 9043 9046 9049 9051 9053 9055 9058 9061 9064 9067 9069 9071 9074 9076 9079 9082 9085 9088 9091 9094 9096 9099 9101 9104 9107 9109 9112 9115 9118 9120 9123 9126 9128 9131 9134 9137 9140 9143 9146 9149 9152 9155 9158 9161 9164 9166 9169 9172 9175 9178 9180 9183 9186 9189 9192 9194 9197 9200 9203 9206 9209 9212 9215 9218 9221 9223 9225 9227 9230 9233 9236 9238 9240 9243 9246 9248 9251 9253 9256 9259 9262 9265 9268 9271 9274 9276 9279 9282 9285 9288 9291 9294 9297 9300 9303 9306 9309 9312 9315 9318 9321 9324 9326 9329 9332 9335 9338 9341 9344 9347 9350 9353 9355 9358 9361 9363 9366 9368 9371 9373 9376 9379 9381 9384 9387 9390 9392 9394 9397 9400 9402 9405 9408 9411 9413 9416 9419 9422 9425 9427 9430 9433 9436 9439 9442 9445 9448 9451 9454 9457 9460 9462 9464 9467 9470 9473 9476 9479 9482 9485 9488 9491 9494 9497 9500 9503 9506 9509 9512 9515 9518 9521 9524 9527 9530 9533 9536 9539 9542 9545 9548 9551 9554 9557 9560 9562 9565 9568 9571 9574 9577 9580 9583 9586 9589 9592 9595 9598 9601 9604 9607 9610 9613 9616 9619 9621 9624 9627 9630 9633 9636 9639 9641 9643 9646 9649 9651 9653 9656 9659 9662 9664 9667 9670 9673 9676 9679 9682 9685 9688 9691 9694 9697 9700 9703 9706 9709 9712 9715 9718 9721 9724 9727 9730 9733 9735 9738 9740 9743 9745 9748 9751 9754 9757 9760 9763 9765 9768 9770 9772 9775 9778 9780 9783 9786 9789 9792 9795 9798 9800 9802 9805 9808 9810 9812 9815 9818 9820 9822 9825 9828 9831 9834 9837 9840 9843 9846 9848 9851 9854 9857 9860 9863 9865 9868 9871 9873 9876 9879 9882 9884 9887 9890 9893 9896 9899 9902 9905 9908 9911 9914 9917 9920 9923 9926 9929 9932 9935 9938 9941 9944 9947 9950 9953 9956 9959 9962 9965 9968 9971 9974 9977 9980 9983 9986 9988 9991 9994 9996 9999 10001 10003 10006 10009 10012 10015 10018 10021 10024 10027 10030 10032 10035 10038 10041 10044 10047 10049 10052 10055 10058 10061 10064 10067 10070 10072 10075 10078 10081 10084 10087 10090 10093 10096 10098 10101 10104 10107 10110 10113 10115 10118 10121 10124 10127 10130 10133 10136 10139 10142 10145 10148 10151 10154 10157 10160 10163 10166 10169 10172 10175 10178 10181 10184 10187 10190 10193 10196 10199 10202 10205 10207 10209 10212 10215 10218 10221 10224 10227 10230 10232 10235 10238 10241 10243 10246 10248 10251 10254 10257 10260 10263 10266 10269 10272 10275 10278 10281 10284 10287 10290 10293 10296 10299 10302 10305 10308 10311 10313 10316 10319 10322 10325 10328 10331 10333 10336 10339 10342 10345 10348 10351 10354 10356 10359 10362 10364 10367 10370 10373 10376 10379 10382 10384 10387 10390 10393 10395 10398 10401 10403 10405 10408 10411 10414 10417 10420 10423 10426 10429 10432 10435 10438 10441 10444 10447 10450 10453 10456 10459 10462 10465 10468 10471 10474 10477 10480 10483 10486 10489 10491 10494 10497 10500 10503 10506 10509 10512 10515 10518 10521 10524 10527 10530 10533 10536 10539 10542 10545 10548 10550 10553 10556 10559 10561 10563 10566 10569 10572 10575 10578 10580 10583 10586 10589 10591 10594 10597 10600 10603 10606 10608 10611 10614 10617 10620 10623 10626 10629 10632 10635 10638 10641 10644 10647 10650 10653 10656 10659 10662 10665 10668 10671 10673 10676 10679 10682 10685 10688 10691 10693 10696 10699 10702 10705 10708 10711 10714 10717 10720 10723 10726 10729 10731 10734 10737 10740 10743 10745 10748 10750 10753 10756 10759 10762 10765 10768 10771 10774 10777 10780 10783 10786 10789 10791 10794 10797 10800 10803 10806 10808 10811 10814 10817 10820 10823 10826 10828 10831 10834 10837 10840 10843 10846 10849 10852 10855 10858 10861 10864 10866 10869 10872 10874 10877 10880 10882 10885 10888 10890 10893 10896 10899 10902 10905 10908 10911 10914 10917 10920 10922 10925 10928 10931 10934 10937 10940 10943 10946 10948 10951 10954 10957 10959 10962 10965 10968 10970 10973 10976 10978 10981 10984 10987 10989 10992 10995 10998 11001 11004 11006 11009 11011 11014 11017 11020 11023 11025 11027 11030 11033 11036 11038 11041 11044 11047 11050 11052 11055 11058 11061 11064 11067 11070 11073 11076 11079 11082 11085 11088 11091 11094 11097 11099 11102 11105 11107 11109 11112 11115 11118 11121 11123 11126 11129 11132 11135 11138 11141 11143 11146 11149 11152 11155 11158 11161 11163 11166 11169 11172 11175 11178 11181 11184 11187 11189 11192 11195 11198 11201 11204 11207 11210 11213 11216 11219 11221 11224 11227 11229 11232 11235 11237 11240 11243 11246 11249 11252 11254 11256 11259 11262 11264 11266 11269 11271 11274 11276 11279 11281 11283 11286 11289 11291 11294 11296 11299 11301 11304 11306 11309 11311 11314 11317 11319 11322 11324 11327 11329 11332 11335 11338 11341 11344 11347 11349 11352 11355 11358 11360 11363 11366 11369 11372 11375 11378 11381 11384 11387 11389 11392 11395 11397 11400 11402 11405 11407 11410 11413 11416 11418 11420 11423 11426 11429 11432 11435 11438 11441 11444 11447 11450 11453 11455 11458 11461 11464 11467 11470 11472 11475 11478 11481 11484 11487 11490 11493 11496 11499 11502 11505 11508 11511 11514 11517 11520 11523 11525 11528 11531 11534 11537 11540 11543 11545 11548 11551 11554 11556 11559 11562 11564 11567 11570 11573 11575 11578 11580 11582 11585 11588 11591 11594 11597 11600 11603 11606 11609 11611 11614 11617 11620 11623 11626 11629 11632 11634 11637 11639 11642 11644 11647 11650 11653 11656 11659 11662 11665 11668 11671 11674 11677 11680 11683 11686 11689 11692 11695 11698 11701 11704 11707 11710 11713 11716 11719 11722 11725 11728 11731 11734 11737 11740 11743 11746 11749 11752 11755 11757 11760 11763 11765 11767 11770 11773 11776 11779 11781 11784 11787 11790 11793 11796 11798 11801 11804 11806 11808 11811 11814 11817 11820 11823 11826 11828 11831 11833 11836 11839 11841 11843 11846 11848 11851 11854 11857 11859 11862 11865 11868 11871 11873 11876 11879 11882 11884 11887 11890 11892 11894 11897 11900 11903 11905 11908 11911 11914 11917 11919 11922 11925 11927 11930 11933 11936 11938 11941 11944 11946 11949 11952 11955 11957 11960 11962 11965 11968 11970 11973 11976 11978 11980 11983 11986 11988 11991 11993 11995 11998 12001 12004 12007 12009 12012 12015 12018 12021 12023 12026 12029 12032 12035 12038 12041 12044 12047 12050 12053 12056 12059 12061 12064 12067 12070 12073 12075 12078 12080 12083 12086 12089 12092 12095 12097 12099 12101 12104 12107 12110 12113 12116 12119 12122 12125 12127 12130 12133 12136 12139 12142 12145 12147 12150 12153 12156 12159 12161 12164 12167 12170 12173 12176 12179 12182 12185 12188 12191 12194 12197 12200 12203 12206 12209 12212 12215 12217 12220 12222 12225 12228 12230 12232 12235 12237 12240 12243 12245 12248 12250 12253 12255 12258 12260 12263 12266 12269 12272 12274 12277 12280 12283 12285 12288 12291 12294 12297 12300 12303 12306 12309 12312 12315 12318 12321 12324 12327 12330 12333 12336 12339 12342 12345 12348 12351 12354 12357 12360 12362 12365 12368 12371 12374 12377 12379 12382 12385 12388 12391 12394 12397 12400 12403 12406 12409 12412 12414 12417 12420 12423 12426 12429 12431 12434 12437 12439 12441 12444 12447 12450 12452 12455 12458 12460 12462 12465 12467 12470 12473 12476 12479 12482 12485 12488 12491 12494 12497 12500 12503 12506 12509 12512 12515 12517 12520 12523 12526 12529 12531 12534 12537 12540 12543 12546 12549 12552 12555 12557 12559 12562 12565 12567 12570 12573 12576 12579 12582 12585 12588 12591 12594 12596 12598 12601 12604 12606 12609 12612 12615 12617 12620 12623 12626 12629 12632 12635 12638 12641 12644 12647 12650 12653 12656 12659 12662 12665 12668 12671 12674 12677 12680 12683 12686 12689 12692 12695 12697 12700 12703 12706 12709 12712 12715 12718 12721 12724 12727 12730 12733 12736 12739 12742 12745 12748 12751 12754 12757 12759 12762 12765 12768 12770 12772 12775 12778 12781 12783 12786 12789 12791 12794 12797 12800 12803 12806 12808 12811 12813 12816 12819 12822 12825 12828 12831 12834 12837 12839 12842 12845 12848 12850 12853 12856 12858 12861 12863 12866 12869 12872 12874 12877 12880 12883 12885 12888 12891 12894 12897 12900 12903 12906 12909 12912 12915 12918 12921 12924 12927 12930 12933 12936 12938 12941 12944 12947 12950 12953 12956 12959 12962 12965 12967 12970 12973 12976 12979 12982 12985 12988 12991 12993 12996 12999 13002 13005 13008 13011 13014 13017 13020 13023 13026 13029 13032 13034 13037 13040 13043 13045 13048 13051 13054 13057 13060 13063 13066 13069 13072 13075 13078 13081 13084 13087 13090 13093 13096 13099 13102 13104 13107 13110 13113 13115 13118 13120 13123 13126 13129 13131 13134 13137 13140 13142 13144 13147 13150 13153 13156 13159 13162 13165 13168 13171 13174 13177 13180 13183 13186 13189 13192 13195 13198 13201 13204 13207 13210 13212 13215 13218 13221 13224 13226 13229 13232 13235 13238 13240 13243 13246 13249 13252 13255 13258 13261 13263 13266 13269 13272 13275 13277 13280 13283 13286 13289 13292 13295 13297 13300 13303 13306 13309 13312 13315 13317 13320 13323 13326 13328 13331 13334 13337 13340 13343 13346 13349 13352 13355 13357 13360 13363 13366 13369 13372 13375 13377 13380 13383 13386 13389 13392 13395 13398 13401 13404 13407 13410 13412 13415 13418 13420 13423 13426 13429 13432 13435 13437 13440 13443 13445 13448 13451 13454 13457 13460 13463 13466 13468 13470 13473 13476 13479 13482 13484 13487 13490 13493 13496 13499 13502 13504 13507 13510 13513 13516 13519 13522 13525 13528 13531 13534 13536 13539 13542 13545 13548 13551 13554 13557 13560 13563 13566 13569 13572 13574 13577 13579 13582 13585 13588 13590 13593 13596 13598 13601 13604 13607 13610 13612 13615 13618 13621 13624 13627 13629 13632 13635 13638 13641 13644 13647 13650 13653 13655 13658 13661 13664 13667 13669 13672 13675 13678 13681 13684 13687 13690 13692 13695 13698 13701 13704 13707 13710 13713 13716 13719 13722 13724 13727 13730 13733 13735 13738 13740 13743 13746 13749 13752 13755 13758 13760 13763 13765 13768 13770 13773 13776 13779 13782 13784 13787 13790 13793 13796 13799 13802 13805 13808 13811 13814 13817 13820 13823 13826 13828 13831 13833 13836 13839 13842 13845 13848 13851 13854 13856 13859 13862 13865 13868 13871 13874 13877 13880 13883 13886 13889 13892 13895 13897 13900 13903 13906 13909 13911 13914 13917 13920 13923 13926 13929 13932 13935 13938 13941 13944 13947 13950 13953 13956 13959 13962 13965 13968 13971 13974 13977 13980 13983 13985 13988 13991 13994 13997 13999 14002 14005 14008 14010 14013 14016 14018 14021 14024 14026 14029 14032 14035 14038 14041 14044 14047 14050 14053 14056 14059 14062 14065 14068 14071 14073 14076 14079 14081 14084 14087 14090 14093 14096 14099 14102 14104 14107 14110 14113 14116 14119 14121 14124 14127 14130 14132 14135 14138 14141 14143 14146 14149 14152 14155 14158 14161 14164 14166 14169 14172 14175 14177 14180 14182 14184 14187 14190 14193 14196 14199 14201 14204 14207 14210 14213 14216 14219 14222 14225 14228 14231 14233 14236 14239 14242 14245 14248 14251 14254 14257 14260 14263 14266 14269 14272 14275 14278 14281 14284 14287 14290 14293 14296 14299 14302 14305 14308 14311 14314 14317 14320 14323 14326 14329 14332 14335 14338 14341 14344 14346 14349 14352 14355 14358 14361 14364 14367 14370 14373 14376 14379 14382 14385 14388 14391 14394 14396 14399 14402 14405 14408 14411 14414 14417 14420 14423 14425 14428 14431 14434 14437 14440 14443 14446 14448 14451 14454 14457 14460 14463 14466 14469 14472 14475 14478 14481 14484 14487 14490 14493 14496 14499 14502 14505 14508 14511 14513 14516 14519 14522 14525 14528 14531 14534 14537 14540 14543 14546 14549 14552 14555 14558 14561 14564 14566 14569 14572 14575 14578 14581 14584 14587 14590 14593 14596 14599 14602 14605 14608 14611 14614 14617 14620 14623 14626 14629 14632 14635 14638 14641 14644 14647 14650 14653 14656 14659 14662 14665 14668 14671 14674 14677 14680 14683 14686 14689 14692 14695 14698 14701 14704 14706 14709 14712 14715 14718 14721 14724 14727 14730 14733 14736 14739 14742 14745 14747 14750 14752 14755 14758 14761 14764 14767 14769 14772 14775 14778 14781 14784 14786 14788 14791 14794 14797 14800 14803 14806 14809 14812 14815 14818 14821 14824 14827 14830 14833 14836 14839 14841 14843 14846 14849 14852 14855 14858 14861 14863 14866 14868 14871 14874 14877 14880 14883 14886 14889 14892 14895 14897 14900 14903 14906 14909 14912 14915 14918 14921 14924 14927 14930 14933 14936 14939 14942 14945 14948 14951 14954 14956 14959 14962 14965 14968 14971 14973 14976 14978 14981 14984 14987 14990 14993 14996 14999 15001 15004 15007 15010 15012 15015 15018 15021 15023 15026 15029 15031 15034 15037 15040 15042 15045 15048 15050 15053 15055 15058 15060 15063 15066 15068 15071 15074 15077 15080 15083 15086 15089 15092 15095 15098 15101 15104 15107 15110 15113 15116 15119 15122 15125 15128 15131 15133 15136 15138 15141 15144 15147 15150 15153 15156 15159 15161 15164 15167 15170 15173 15176 15179 15182 15185 15188 15191 15194 15197 15200 15203 15206 15209 15212 15215 15218 15220 15223 15226 15229 15231 15234 15237 15240 15243 15246 15249 15252 15255 15258 15261 15263 15266 15269 15272 15275 15277 15280 15283 15285 15288 15291 15294 15297 15300 15302 15305 15308 15311 15314 15316 15319 15321 15324 15327 15329 15332 15335 15338 15341 15344 15347 15350 15352 15355 15358 15360 15363 15365 15368 15371 15374 15377 15380 15383 15386 15389 15392 15395 15398 15401 15404 15407 15410 15413 15416 15419 15421 15424 15427 15430 15433 15436 15439 15442 15444 15447 15450 15453 15456 15458 15461 15464 15467 15470 15473 15476 15479 15482 15485 15487 15490 15493 15496 15499 15501 15504 15507 15510 15513 15516 15519 15522 15525 15528 15531 15534 15537 15539 15542 15545 15548 15551 15554 15557 15560 15563 15566 15568 15571 15574 15577 15580 15583 15586 15589 15592 15595 15598 15601 15604 15606 15609 15612 15614 15617 15620 15623 15626 15629 15632 15635 15638 15641 15643 15645 15647 15650 15653 15656 15658 15661 15664 15667 15670 15673 15676 15678 15681 15684 15687 15689 15691 15694 15697 15700 15703 15706 15709 15712 15715 15718 15721 15724 15727 15729 15732 15735 15738 15740 15742 15745 15748 15751 15754 15757 15759 15762 15765 15768 15771 15773 15776 15779 15782 15785 15787 15790 15793 15796 15799 15802 15804 15806 15808 15811 15814 15817 15819 15821 15824 15827 15830 15833 15836 15839 15842 15845 15848 15850 15852 15855 15858 15861 15863 15865 15868 15871 15874 15877 15880 15883 15886 15889 15892 15895 15898 15901 15904 15907 15910 15913 15916 15918 15921 15923 15926 15929 15932 15935 15937 15940 15943 15946 15949 15952 15955 15958 15960 15963 15966 15969 15972 15975 15978 15981 15983 15986 15989 15991 15994 15996 15998 16001 16004 16007 16009 16011 16014 16017 16020 16022 16024 16027 16030 16033 16036 16039 16042 16045 16048 16051 16054 16056 16059 16062 16065 16068 16071 16074 16077 16079 16082 16085 16088 16091 16093 16096 16099 16102 16105 16108 16111 16113 16116 16119 16122 16125 16127 16130 16132 16135 16138 16141 16144 16147 16150 16153 16156 16159 16162 16165 16168 16171 16174 16176 16179 16182 16185 16188 16191 16194 16197 16199 16202 16205 16208 16211 16213 16216 16219 16222 16224 16227 16230 16233 16236 16239 16242 16245 16248 16251 16254 16257 16260 16263 16266 16269 16272 16275 16278 16281 16284 16287 16290 16292 16295 16297 16300 16303 16305 16308 16311 16314 16316 16319 16322 16324 16327 16330 16333 16336 16339 16342 16345 16348 16351 16354 16357 16360 16363 16366 16369 16372 16375 16378 16381 16384 16386 16388 16390 16393 16396 16399 16402 16405 16408 16411 16414 16417 16420 16423 16426 16429 16431 16434 16437 16440 16442 16445 16448 16450 16453 16456 16459 16462 16464 16467 16470 16472 16474 16477 16480 16483 16486 16488 16491 16494 16496 16499 16501 16504 16507 16510 16513 16516 16519 16522 16525 16528 16531 16534 16537 16539 16542 16545 16548 16551 16554 16557 16560 16562 16565 16567 16570 16573 16576 16579 16581 16584 16587 16590 16593 16596 16599 16602 16605 16608 16611 16614 16617 16620 16623 16626 16629 16632 16635 16638 16641 16644 16647 16650 16652 16655 16658 16661 16663 16666 16668 16671 16674 16677 16679 16682 16685 16688 16691 16694 16696 16699 16702 16704 16707 16710 16713 16716 16719 16722 16725 16728 16730 16733 16736 16739 16742 16745 16747 16750 16753 16756 16759 16762 16765 16768 16771 16774 16777 16780 16783 16786 16789 16791 16794 16797 16800 16803 16805 16808 16811 16814 16817 16820 16823 16826 16829 16832 16835 16838 16841 16843 16846 16849 16852 16855 16857 16860 16863 16866 16869 16872 16875 16878 16881 16884 16887 16890 16893 16896 16898 16901 16904 16906 16909 16912 16915 16917 16920 16923 16926 16929 16932 16935 16938 16941 16944 16947 16950 16953 16956 16958 16960 16963 16965 16967 16970 16973 16976 16978 16980 16983 16985 16988 16990 16993 16995 16998 17001 17004 17006 17009 17011 17014 17017 17020 17023 17025 17028 17031 17034 17037 17040 17043 17045 17048 17051 17054 17057 17060 17062 17065 17068 17070 17073 17076 17078 17081 17084 17086 17089 17092 17095 17098 17101 17103 17106 17108 17111 17114 17117 17120 17123 17126 17129 17132 17135 17138 17141 17144 17147 17149 17152 17155 17157 17160 17163 17166 17169 17172 17175 17178 17181 17184 17186 17189 17192 17195 17198 17201 17204 17207 17210 17213 17215 17218 17221 17223 17226 17228 17231 17234 17237 17240 17243 17246 17249 17251 17254 17257 17260 17263 17266 17269 17272 17274 17277 17279 17282 17285 17287 17290 17293 17296 17298 17301 17304 17307 17310 17312 17315 17318 17321 17324 17327 17329 17332 17335 17338 17341 17344 17347 17350 17353 17356 17359 17362 17365 17368 17371 17374 17377 17380 17383 17386 17389 17392 17394 17397 17400 17402 17405 17408 17411 17413 17416 17419 17422 17425 17427 17430 17433 17436 17439 17442 17445 17448 17451 17454 17457 17460 17463 17466 17469 17472 17475 17478 17481 17484 17487 17490 17493 17496 17498 17501 17504 17507 17510 17513 17516 17518 17521 17524 17527 17530 17533 17536 17539 17542 17545 17548 17551 17554 17557 17559 17562 17564 17567 17570 17572 17575 17578 17581 17584 17586 17588 17591 17593 17596 17598 17601 17604 17607 17610 17613 17615 17618 17621 17623 17625 17628 17631 17634 17637 17640 17642 17645 17648 17650 17653 17656 17659 17662 17665 17668 17671 17674 17676 17678 17681 17684 17687 17689 17692 17694 17697 17700 17703 17706 17709 17711 17714 17716 17719 17722 17725 17728 17731 17733 17735 17738 17741 17744 17747 17749 17752 17755 17758 17761 17763 17766 17769 17772 17775 17778 17781 17784 17787 17790 17793 17796 17799 17802 17805 17808 17811 17814 17816 17819 17822 17824 17827 17830 17833 17835 17838 17841 17844 17847 17850 17853 17856 17859 17862 17865 17868 17871 17874 17877 17880 17883 17886 17889 17892 17894 17897 17900 17903 17906 17909 17912 17915 17918 17921 17924 17927 17930 17933 17936 17938 17940 17943 17946 17949 17951 17954 17957 17960 17963 17966 17968 17971 17974 17977 17980 17983 17986 17989 17992 17995 17998 18001 18003 18006 18009 18011 18014 18017 18020 18023 18026 18029 18032 18035 18038 18041 18043 18046 18049 18052 18054 18057 18059 18062 18064 18067 18070 18073 18075 18077 18080 18082 18085 18088 18090 18093 18096 18098 18100 18103 18106 18109 18111 18114 18117 18119 18122 18124 18127 18130 18133 18135 18138 18141 18143 18145 18148 18150 18153 18156 18158 18161 18163 18166 18169 18172 18175 18178 18181 18184 18187 18190 18192 18195 18198 18201 18204 18207 18209 18212 18215 18218 18221 18224 18227 18230 18233 18236 18239 18241 18244 18247 18250 18253 18255 18257 18260 18263 18265 18268 18270 18273 18276 18279 18282 18285 18287 18290 18293 18295 18298 18300 18303 18306 18309 18312 18315 18318 18321 18323 18326 18329 18332 18335 18338 18341 18344 18347 18350 18352 18355 18357 18360 18362 18365 18367 18370 18373 18376 18379 18381 18384 18387 18390 18393 18396 18398 18400 18403 18406 18409 18412 18415 18418 18420 18423 18426 18429 18432 18435 18437 18440 18443 18446 18449 18451 18454 18457 18459 18462 18464 18467 18470 18473 18475 18478 18480 18483 18486 18488 18490 18492 18495 18498 18501 18504 18507 18510 18512 18514 18516 18519 18522 18525 18528 18530 18533 18535 18538 18540 18543 18546 18549 18552 18555 18558 18560 18563 18566 18569 18572 18575 18578 18581 18584 18587 18590 18593 18596 18599 18602 18605 18608 18611 18614 18617 18620 18623 18626 18629 18632 18635 18638 18641 18644 18647 18650 18653 18656 18659 18662 18665 18668 18671 18674 18677 18680 18683 18686 18689 18692 18695 18698 18701 18704 18707 18709 18712 18715 18718 18720 18722 18725 18728 18731 18734 18737 18740 18743 18746 18749 18752 18755 18758 18761 18764 18767 18770 18773 18776 18779 18781 18784 18787 18790 18793 18796 18799 18802 18804 18807 18810 18812 18815 18818 18820 18823 18826 18828 18831 18833 18836 18839 18841 18844 18847 18850 18852 18855 18857 18860 18862 18864 18867 18870 18873 18875 18877 18880 18883 18885 18888 18891 18893 18896 18899 18902 18905 18908 18911 18914 18917 18920 18923 18926 18929 18931 18934 18937 18940 18943 18945 18948 18951 18954 18957 18959 18962 18965 18968 18971 18974 18977 18980 18983 18986 18988 18991 18993 18996 18999 19002 19005 19007 19010 19013 19016 19018 19021 19024 19027 19030 19033 19036 19038 19041 19044 19046 19049 19052 19055 19057 19060 19063 19066 19069 19072 19075 19078 19080 19083 19086 19089 19092 19095 19097 19100 19103 19106 19109 19112 19115 19118 19121 19124 19127 19130 19133 19136 19139 19142 19144 19147 19150 19153 19156 19159 19161 19164 19167 19169 19172 19174 19177 19180 19183 19186 19188 19190 19193 19196 19198 19201 19204 19207 19210 19213 19216 19219 19222 19225 19228 19231 19233 19236 19238 19241 19244 19247 19250 19253 19255 19258 19261 19264 19266 19269 19272 19275 19277 19280 19283 19286 19289 19292 19295 19298 19301 19304 19307 19310 19313 19316 19318 19321 19324 19327 19330 19333 19336 19339 19341 19344 19346 19349 19352 19355 19358 19361 19364 19367 19369 19371 19374 19377 19380 19383 19386 19389 19392 19395 19398 19400 19403 19406 19409 19412 19415 19418 19420 19422 19424 19427 19429 19432 19435 19438 19441 19444 19447 19449 19452 19454 19457 19459 19462 19464 19467 19470 19473 19476 19479 19482 19484 19487 19490 19492 19495 19498 19501 19504 19506 19509 19512 19515 19518 19521 19524 19527 19530 19533 19536 19539 19542 19545 19548 19551 19554 19557 19560 19563 19566 19569 19571 19574 19576 19579 19582 19585 19588 19591 19594 19597 19600 19603 19606 19609 19612 19615 19618 19621 19624 19627 19630 19633 19636 19639 19642 19645 19648 19651 19654 19657 19660 19663 19666 19669 19672 19675 19678 19681 19684 19687 19690 19693 19696 19699 19702 19705 19708 19711 19714 19717 19720 19723 19726 19729 19732 19735 19738 19741 19744 19747 19750 19752 19755 19758 19761 19764 19767 19770 19773 19776 19779 19782 19785 19788 19791 19794 19797 19800 19803 19806 19809 19812 19815 19818 19821 19823 19826 19829 19832 19834 19837 19839 19842 19845 19848 19851 19854 19857 19860 19863 19866 19869 19872 19875 19878 19881 19884 19887 19890 19893 19896 19899 19902 19905 19908 19911 19914 19917 19920 19923 19926 19929 19932 19935 19938 19941 19944 19947 19950 19953 19956 19958 19961 19963 19966 19969 19972 19975 19978 19981 19984 19987 19990 19993 19996 19999 20002 20005 20008 20011 20014 20017 20020 20023 20026 20029 20032 20035 20038 20040 20043 20046 20049 20052 20055 20058 20061 20064 20067 20070 20073 20076 20079 20082 20085 20088 20091 20094 20097 20100 20103 20106 20109 20112 20115 20118 20121 20124 20127 20130 20133 20136 20139 20142 20145 20148 20151 20154 20157 20160 20163 20166 20169 20172 20175 20178 20181 20184 20187 20190 20193 20196 20199 20202 20205 20208 20211 20214 20217 20220 20223 20226 20229 20232 20235 20238 20241 20244 20247 20249 20252 20255 20258 20261 20264 20267 20270 20272 20275 20278 20280 20283 20286 20289 20292 20295 20298 20301 20304 20307 20310 20313 20316 20319 20322 20325 20328 20331 20334 20337 20340 20342 20345 20348 20351 20354 20357 20360 20363 20366 20369 20372 20375 20378 20381 20384 20387 20390 20393 20396 20399 20402 20405 20408 20411 20414 20417 20420 20423 20426 20429 20432 20435 20438 20440 20443 20446 20449 20452 20454 20457 20459 20462 20465 20468 20471 20474 20477 20479 20482 20485 20487 20490 20493 20495 20497 20500 20502 20505 20508 20511 20513 20516 20519 20522 20525 20528 20531 20534 20537 20540 20543 20546 20549 20552 20555 20558 20560 20563 20566 20569 20572 20575 20578 20581 20584 20586 20589 20592 20595 20598 20601 20604 20607 20610 20613 20616 20619 20622 20625 20628 20631 20634 20637 20640 20643 20646 20649 20652 20655 20658 20661 20664 20667 20670 20673 20676 20679 20682 20685 20688 20691 20694 20696 20699 20702 20705 20708 20711 20714 20717 20719 20722 20725 20727 20730 20732 20735 20738 20741 20744 20747 20750 20753 20756 20759 20762 20765 20767 20769 20772 20775 20777 20780 20783 20785 20787 20790 20793 20796 20799 20801 20804 20806 20809 20812 20814 20817 20819 20821 20824 20826 20829 20831 20834 20837 20840 20843 20846 20849 20852 20854 20857 20859 20862 20865 20868 20871 20874 20876 20879 20882 20885 20887 20890 20893 20895 20898 20900 20903 20905 20907 20910 20913 20915 20918 20921 20924 20927 20930 20933 20935 20938 20941 20944 20947 20950 20953 20956 20959 20961 20963 20966 20969 20972 20974 20977 20980 20983 20986 20988 20990 20993 20995 20998 21001 21004 21006 21009 21012 21015 21018 21021 21024 21027 21030 21033 21036 21039 21042 21045 21048 21051 21054 21056 21059 21062 21065 21068 21071 21074 21076 21079 21081 21084 21087 21090 21092 21094 21097 21100 21102 21105 21107 21110 21113 21116 21119 21122 21125 21128 21131 21134 21137 21140 21143 21145 21147 21150 21153 21156 21159 21162 21164 21167 21170 21173 21176 21179 21182 21185 21187 21190 21193 21196 21198 21201 21203 21206 21209 21211 21214 21217 21220 21223 21226 21229 21232 21235 21238 21240 21243 21246 21248 21251 21254 21257 21260 21263 21266 21269 21272 21275 21278 21281 21283 21286 21289 21292 21295 21298 21301 21304 21307 21310 21313 21316 21319 21322 21325 21328 21331 21334 21337 21340 21343 21346 21349 21351 21354 21357 21360 21363 21366 21369 21372 21375 21378 21381 21384 21386 21389 21392 21395 21398 21400 21403 21406 21409 21412 21415 21418 21421 21424 21427 21430 21433 21435 21438 21441 21444 21447 21450 21452 21455 21457 21460 21463 21466 21469 21472 21475 21478 21481 21484 21486 21489 21492 21494 21497 21500 21502 21505 21508 21511 21514 21516 21519 21522 21525 21528 21531 21534 21537 21540 21543 21546 21549 21552 21555 21558 21561 21564 21567 21570 21573 21576 21579 21581 21584 21587 21589 21592 21594 21597 21600 21603 21606 21609 21612 21615 21618 21621 21623 21626 21629 21631 21633 21635 21638 21641 21644 21646 21649 21652 21655 21658 21661 21664 21666 21668 21671 21673 21676 21679 21681 21684 21687 21689 21692 21695 21698 21701 21703 21706 21709 21712 21715 21717 21720 21723 21726 21729 21732 21735 21738 21741 21744 21747 21750 21752 21755 21758 21760 21763 21765 21767 21770 21773 21775 21777 21779 21782 21785 21788 21791 21794 21797 21800 21803 21806 21809 21811 21814 21817 21820 21823 21826 21829 21832 21835 21838 21840 21843 21846 21849 21852 21855 21857 21860 21863 21866 21869 21872 21875 21878 21881 21884 21887 21889 21892 21895 21898 21901 21904 21907 21910 21913 21916 21919 21922 21925 21928 21931 21934 21937 21940 21943 21946 21949 21952 21955 21958 21961 21963 21965 21968 21971 21974 21977 21980 21983 21986 21989 21991 21994 21997 22000 22003 22006 22009 22012 22015 22018 22021 22024 22027 22030 22033 22036 22039 22041 22044 22047 22050 22053 22055 22058 22061 22064 22066 22068 22071 22074 22077 22080 22083 22086 22088 22091 22093 22096 22099 22102 22104 22107 22110 22113 22116 22119 22122 22125 22128 22130 22133 22135 22137 22140 22143 22146 22149 22152 22155 22158 22161 22164 22167 22170 22173 22175 22178 22181 22183 22186 22188 22191 22194 22197 22200 22203 22206 22209 22212 22215 22218 22221 22224 22227 22230 22233 22236 22239 22242 22245 22248 22251 22254 22257 22259 22262 22265 22268 22271 22274 22276 22279 22282 22285 22288 22291 22294 22297 22300 22303 22306 22308 22311 22314 22317 22319 22322 22325 22328 22331 22334 22337 22340 22343 22346 22349 22352 22354 22356 22359 22362 22365 22368 22371 22373 22376 22379 22382 22384 22387 22390 22393 22396 22399 22402 22405 22408 22411 22414 22416 22419 22422 22425 22428 22431 22434 22437 22439 22441 22444 22446 22449 22452 22455 22458 22460 22463 22466 22469 22472 22475 22477 22480 22483 22486 22489 22492 22495 22498 22501 22504 22507 22509 22512 22515 22518 22521 22524 22527 22530 22533 22536 22539 22541 22544 22547 22550 22553 22556 22559 22562 22564 22567 22570 22573 22576 22579 22582 22585 22588 22591 22594 22597 22600 22603 22606 22609 22612 22615 22618 22621 22624 22626 22629 22632 22635 22637 22640 22643 22646 22649 22652 22655 22658 22661 22664 22667 22670 22673 22676 22678 22681 22683 22685 22688 22690 22692 22695 22698 22701 22704 22707 22709 22712 22715 22718 22721 22724 22727 22730 22732 22735 22738 22740 22743 22746 22748 22751 22754 22756 22759 22762 22764 22766 22768 22770 22773 22776 22778 22780 22783 22786 22788 22791 22794 22796 22799 22802 22805 22808 22810 22812 22814 22816 22819 22822 22825 22827 22830 22832 22835 22837 22840 22842 22844 22847 22850 22853 22856 22859 22862 22865 22867 22870 22873 22875 22878 22880 22883 22886 22888 22890 22893 22896 22899 22902 22905 22908 22911 22914 22917 22920 22923 22926 22929 22932 22935 22938 22941 22943 22946 22949 22952 22955 22958 22961 22964 22967 22970 22973 22976 22979 22982 22985 22988 22991 22994 22996 22999 23002 23005 23008 23011 23014 23017 23020 23023 23026 23029 23032 23035 23038 23040 23042 23045 23048 23051 23054 23056 23059 23061 23064 23067 23070 23072 23074 23077 23079 23082 23085 23088 23091 23094 23097 23100 23103 23106 23109 23112 23115 23118 23121 23124 23127 23130 23133 23136 23138 23141 23143 23146 23149 23152 23155 23157 23160 23163 23166 23169 23172 23175 23178 23181 23184 23187 23190 23193 23196 23199 23202 23205 23208 23211 23214 23217 23219 23222 23225 23228 23231 23234 23237 23240 23243 23246 23249 23252 23255 23258 23261 23263 23266 23269 23272 23275 23278 23281 23284 23287 23290 23293 23296 23299 23302 23305 23308 23311 23314 23317 23320 23323 23326 23329 23332 23335 23338 23341 23344 23347 23350 23353 23356 23359 23362 23365 23368 23371 23374 23377 23380 23383 23386 23389 23392 23395 23398 23401 23404 23407 23410 23413 23416 23419 23422 23425 23428 23431 23434 23437 23440 23443 23446 23449 23451 23454 23457 23460 23462 23465 23468 23470 23473 23476 23479 23482 23485 23488 23491 23494 23497 23500 23503 23505 23508 23511 23514 23517 23519 23522 23525 23528 23531 23534 23537 23540 23543 23546 23549 23552 23555 23558 23561 23564 23567 23570 23573 23576 23579 23582 23585 23588 23591 23594 23597 23600 23603 23606 23608 23611 23614 23617 23620 23622 23625 23628 23631 23634 23637 23640 23643 23646 23649 23652 23654 23657 23660 23662 23665 23668 23671 23674 23677 23680 23683 23686 23689 23692 23695 23698 23700 23703 23706 23709 23712 23715 23718 23721 23724 23726 23729 23732 23735 23738 23741 23744 23747 23750 23753 23756 23758 23761 23763 23766 23769 23772 23774 23777 23780 23783 23785 23788 23790 23793 23795 23797 23800 23803 23806 23809 23812 23814 23817 23820 23823 23826 23829 23832 23835 23838 23841 23844 23847 23850 23853 23856 23859 23862 23865 23868 23871 23874 23877 23880 23883 23885 23888 23891 23893 23896 23899 23902 23904 23907 23909 23912 23915 23918 23921 23924 23927 23930 23933 23936 23939 23942 23945 23947 23950 23953 23956 23959 23962 23965 23968 23971 23974 23977 23980 23983 23986 23989 23992 23995 23998 24001 24004 24006 24009 24012 24015 24018 24021 24024 24027 24030 24033 24036 24039 24042 24045 24048 24051 24054 24057 24060 24063 24066 24069 24072 24075 24078 24081 24084 24087 24089 24092 24095 24098 24101 24104 24107 24110 24113 24116 24119 24122 24125 24128 24131 24134 24137 24140 24143 24145 24148 24151 24154 24156 24159 24162 24165 24167 24169 24172 24175 24178 24181 24184 24186 24189 24192 24195 24198 24201 24204 24207 24209 24211 24214 24217 24220 24222 24225 24227 24230 24233 24236 24239 24242 24245 24247 24249 24252 24255 24257 24259 24262 24265 24268 24271 24274 24277 24280 24283 24286 24289 24291 24294 24297 24300 24303 24306 24309 24311 24314 24317 24320 24323 24326 24329 24332 24335 24338 24341 24344 24347 24350 24353 24356 24359 24362 24364 24367 24370 24373 24376 24378 24381 24384 24386 24389 24392 24395 24398 24401 24404 24407 24410 24413 24416 24419 24421 24424 24426 24429 24431 24434 24437 24440 24443 24446 24449 24452 24455 24458 24461 24464 24467 24470 24473 24476 24479 24482 24485 24488 24490 24493 24496 24498 24501 24504 24507 24509 24512 24515 24517 24520 24523 24526 24529 24531 24534 24537 24540 24543 24546 24549 24552 24554 24557 24560 24563 24566 24569 24572 24575 24578 24581 24584 24587 24590 24593 24596 24599 24602 24605 24608 24611 24614 24617 24620 24623 24626 24629 24632 24635 24638 24641 24643 24646 24649 24652 24655 24658 24661 24664 24667 24670 24673 24676 24679 24682 24685 24688 24691 24694 24697 24700 24703 24706 24709 24712 24715 24718 24721 24724 24727 24730 24733 24736 24739 24742 24745 24748 24751 24754 24756 24758 24760 24763 24766 24768 24771 24774 24777 24779 24782 24784 24787 24790 24793 24796 24799 24801 24804 24807 24810 24813 24816 24819 24822 24824 24827 24830 24833 24836 24839 24842 24845 24848 24851 24854 24857 24860 24863 24866 24868 24871 24874 24877 24879 24882 24884 24887 24890 24893 24896 24899 24902 24905 24908 24910 24913 24916 24919 24922 24925 24928 24931 24933 24936 24938 24941 24943 24946 24949 24952 24955 24958 24961 24964 24967 24969 24972 24975 24977 24979 24981 24984 24986 24989 24991 24994 24997 25000 25003 25006 25009 25012 25015 25018 25021 25024 25027 25030 25033 25036 25039 25042 25045 25048 25051 25054 25056 25059 25062 25064 25066 25069 25072 25075 25077 25080 25083 25086 25089 25092 25095 25098 25100 25103 25105 25108 25111 25114 25117 25119 25122 25125 25127 25130 25133 25136 25139 25142 25145 25148 25150 25153 25156 25158 25161 25164 25167 25169 25172 25175 25178 25181 25184 25187 25190 25193 25196 25198 25201 25204 25207 25210 25213 25216 25218 25221 25224 25226 25229 25232 25235 25238 25240 25243 25246 25249 25252 25255 25258 25260 25262 25264 25267 25270 25273 25275 25278 25280 25283 25285 25288 25291 25294 25297 25300 25303 25305 25308 25311 25314 25316 25319 25322 25325 25327 25330 25333 25336 25339 25342 25345 25348 25351 25354 25357 25360 25363 25365 25368 25371 25374 25376 25379 25382 25385 25388 25391 25393 25395 25398 25401 25403 25406 25408 25410 25412 25415 25418 25421 25423 25426 25429 25432 25435 25438 25440 25443 25446 25449 25452 25455 25458 25461 25464 25467 25470 25473 25476 25478 25481 25484 25487 25490 25493 25496 25498 25501 25504 25506 25509 25512 25514 25517 25520 25523 25526 25529 25531 25534 25537 25539 25542 25544 25547 25549 25552 25555 25558 25561 25564 25567 25569 25572 25575 25578 25581 25583 25586 25589 25592 25595 25598 25601 25604 25607 25610 25613 25615 25618 25621 25624 25627 25630 25632 25635 25638 25641 25644 25647 25650 25653 25656 25659 25662 25665 25668 25671 25674 25677 25679 25682 25685 25688 25691 25694 25696 25699 25701 25704 25707 25710 25713 25716 25718 25721 25724 25727 25730 25733 25735 25738 25741 25744 25747 25750 25752 25755 25758 25761 25764 25767 25770 25773 25776 25779 25782 25784 25787 25789 25792 25794 25797 25800 25802 25805 25808 25811 25814 25817 25820 25823 25826 25828 25831 25833 25836 25839 25842 25845 25848 25851 25854 25857 25860 25863 25865 25868 25871 25874 25877 25880 25883 25886 25889 25892 25895 25897 25900 25903 25906 25908 25911 25913 25915 25918 25921 25924 25926 25929 25932 25935 25937 25939 25942 25945 25948 25951 25954 25957 25960 25963 25966 25969 25971 25973 25976 25979 25982 25985 25988 25990 25993 25996 25999 26002 26005 26008 26011 26014 26017 26020 26022 26025 26027 26029 26031 26034 26037 26040 26043 26046 26049 26052 26055 26057 26060 26063 26066 26069 26072 26075 26078 26081 26084 26087 26090 26093 26096 26099 26102 26105 26108 26111 26114 26117 26120 26123 26126 26129 26132 26135 26138 26141 26144 26146 26149 26152 26155 26158 26160 26163 26166 26169 26172 26175 26178 26181 26184 26186 26189 26192 26195 26198 26201 26204 26207 26210 26212 26215 26218 26221 26224 26227 26230 26233 26236 26239 26242 26245 26248 26251 26254 26257 26260 26263 26266 26269 26272 26275 26278 26281 26284 26287 26290 26292 26295 26298 26301 26304 26307 26310 26312 26315 26317 26320 26323 26325 26328 26331 26334 26336 26339 26341 26344 26347 26350 26352 26355 26358 26361 26363 26366 26369 26372 26375 26378 26381 26383 26386 26389 26392 26395 26398 26401 26404 26407 26410 26413 26416 26419 26422 26425 26428 26431 26434 26437 26440 26443 26446 26449 26452 26455 26458 26461 26464 26466 26469 26471 26474 26477 26480 26483 26485 26488 26491 26494 26497 26500 26503 26506 26509 26512 26515 26518 26521 26524 26526 26529 26532 26534 26537 26540 26542 26545 26548 26551 26554 26557 26559 26562 26565 26568 26571 26574 26577 26580 26583 26585 26588 26590 26593 26596 26599 26602 26605 26607 26609 26612 26615 26617 26620 26623 26626 26628 26631 26634 26637 26640 26643 26646 26649 26651 26654 26657 26660 26663 26666 26669 26672 26675 26678 26681 26684 26687 26690 26693 26696 26699 26701 26704 26707 26710 26713 26716 26718 26721 26723 26726 26729 26732 26735 26738 26741 26744 26747 26750 26753 26756 26759 26761 26764 26766 26769 26772 26775 26778 26781 26784 26786 26788 26791 26794 26797 26800 26803 26806 26809 26812 26815 26818 26821 26824 26827 26830 26833 26836 26839 26842 26845 26848 26851 26853 26856 26859 26861 26864 26867 26870 26873 26876 26878 26881 26884 26887 26890 26893 26896 26898 26901 26904 26907 26910 26913 26916 26919 26922 26925 26928 26931 26934 26937 26940 26943 26946 26948 26951 26954 26956 26959 26962 26965 26968 26970 26973 26976 26979 26982 26985 26988 26991 26994 26997 27000 27003 27005 27008 27011 27014 27017 27020 27023 27026 27029 27032 27035 27038 27041 27044 27047 27050 27053 27056 27059 27062 27064 27067 27070 27073 27076 27079 27082 27085 27088 27091 27094 27097 27100 27102 27105 27108 27111 27114 27117 27120 27123 27126 27129 27132 27135 27138 27141 27143 27145 27148 27151 27154 27157 27160 27163 27165 27168 27171 27174 27177 27180 27183 27186 27189 27192 27195 27198 27201 27204 27207 27210 27213 27216 27219 27222 27225 27228 27231 27234 27237 27240 27243 27246 27249 27252 27255 27258 27261 27264 27267 27270 27272 27275 27278 27281 27284 27287 27290 27293 27296 27298 27301 27304 27307 27310 27313 27316 27319 27322 27325 27328 27331 27334 27336 27339 27342 27345 27348 27350 27353 27355 27358 27361 27364 27367 27370 27373 27376 27379 27381 27384 27387 27390 27393 27396 27399 27402 27405 27408 27411 27413 27416 27419 27422 27424 27427 27430 27432 27435 27438 27441 27444 27446 27449 27452 27454 27457 27460 27463 27466 27469 27472 27475 27478 27480 27483 27486 27489 27491 27494 27497 27500 27503 27506 27509 27512 27514 27517 27519 27522 27524 27527 27529 27531 27534 27537 27540 27542 27544 27546 27549 27552 27554 27557 27560 27563 27565 27568 27571 27574 27577 27579 27582 27585 27588 27591 27594 27597 27600 27603 27606 27609 27612 27615 27618 27621 27624 27627 27630 27633 27636 27639 27642 27645 27648 27651 27654 27657 27660 27663 27666 27669 27672 27675 27678 27681 27684 27687 27690 27693 27695 27698 27701 27704 27707 27710 27713 27716 27719 27721 27724 27727 27730 27733 27735 27738 27741 27743 27746 27749 27751 27754 27757 27760 27763 27765 27768 27771 27774 27777 27780 27782 27785 27788 27791 27794 27797 27800 27803 27806 27809 27812 27815 27818 27821 27823 27825 27828 27831 27834 27836 27839 27842 27845 27848 27851 27854 27857 27860 27863 27866 27869 27872 27875 27878 27880 27883 27886 27889 27892 27895 27898 27900 27903 27906 27908 27911 27914 27917 27920 27923 27926 27929 27932 27935 27938 27940 27943 27946 27949 27952 27955 27957 27960 27963 27966 27969 27972 27975 27978 27981 27984 27987 27989 27992 27995 27998 28001 28004 28007 28010 28013 28016 28019 28022 28025 28028 28031 28034 28036 28039 28042 28045 28048 28051 28054 28057 28060 28063 28066 28069 28072 28075 28078 28081 28084 28087 28090 28093 28096 28099 28102 28105 28107 28110 28112 28115 28118 28121 28123 28126 28129 28132 28135 28138 28141 28144 28147 28150 28152 28155 28158 28161 28163 28166 28169 28172 28175 28178 28181 28184 28187 28190 28193 28196 28199 28202 28205 28208 28211 28213 28216 28219 28222 28225 28228 28230 28233 28236 28239 28241 28244 28246 28249 28252 28255 28258 28261 28264 28266 28269 28272 28275 28278 28281 28284 28287 28290 28293 28296 28299 28302 28305 28308 28311 28314 28317 28320 28323 28326 28329 28332 28335 28338 28341 28344 28347 28349 28352 28355 28357 28360 28363 28366 28369 28372 28375 28378 28380 28383 28386 28389 28392 28394 28397 28400 28402 28405 28408 28411 28414 28417 28420 28422 28425 28428 28431 28433 28436 28439 28442 28444 28447 28450 28453 28456 28459 28461 28464 28467 28470 28473 28476 28478 28481 28484 28487 28490 28493 28496 28499 28502 28504 28507 28510 28512 28515 28518 28521 28524 28526 28529 28532 28535 28538 28540 28543 28546 28549 28552 28554 28557 28560 28563 28565 28568 28570 28573 28576 28579 28582 28585 28588 28591 28594 28597 28600 28602 28605 28608 28611 28614 28617 28620 28623 28625 28627 28630 28633 28636 28639 28642 28644 28647 28650 28653 28656 28659 28661 28664 28667 28670 28672 28675 28678 28680 28683 28686 28688 28691 28694 28697 28699 28702 28705 28708 28711 28714 28717 28719 28722 28725 28728 28731 28734 28736 28739 28742 28745 28748 28751 28753 28756 28759 28762 28765 28768 28771 28773 28776 28779 28782 28785 28787 28790 28793 28796 28799 28802 28804 28807 28810 28813 28816 28819 28822 28825 28828 28831 28834 28836 28839 28842 28845 28848 28851 28854 28857 28859 28862 28865 28868 28871 28873 28875 28878 28881 28883 28886 28889 28892 28895 28898 28901 28904 28906 28909 28912 28915 28918 28921 28924 28927 28929 28932 28934 28937 28940 28942 28945 28948 28951 28954 28956 28959 28961 28964 28967 28970 28973 28976 28979 28982 28985 28988 28991 28993 28996 28999 29002 29005 29008 29010 29013 29016 29019 29021 29024 29027 29030 29033 29035 29038 29041 29043 29046 29049 29052 29055 29058 29060 29063 29065 29068 29070 29072 29075 29078 29081 29084 29086 29088 29091 29094 29097 29100 29103 29106 29109 29112 29115 29118 29121 29124 29127 29129 29132 29135 29138 29141 29144 29147 29149 29151 29154 29157 29160 29163 29166 29169 29172 29175 29178 29181 29184 29187 29190 29192 29195 29198 29201 29204 29207 29210 29213 29216 29219 29222 29225 29228 29231 29234 29237 29240 29243 29246 29249 29252 29255 29258 29261 29264 29267 29270 29273 29276 29279 29282 29285 29288 29291 29293 29296 29299 29301 29304 29307 29310 29313 29316 29319 29322 29324 29327 29330 29333 29335 29338 29341 29343 29346 29349 29352 29354 29356 29359 29362 29365 29368 29370 29372 29375 29378 29381 29384 29387 29390 29393 29396 29399 29402 29405 29408 29411 29414 29416 29419 29422 29424 29427 29430 29433 29435 29438 29441 29444 29447 29449 29452 29455 29457 29460 29463 29466 29469 29472 29475 29478 29481 29484 29487 29490 29492 29495 29498 29501 29504 29507 29510 29513 29515 29518 29521 29524 29527 29530 29533 29536 29539 29542 29545 29548 29551 29554 29557 29560 29563 29566 29569 29571 29574 29577 29580 29583 29586 29589 29591 29594 29596 29599 29602 29605 29608 29611 29613 29616 29619 29621 29624 29627 29630 29632 29635 29638 29641 29643 29646 29649 29652 29655 29658 29661 29664 29667 29670 29673 29676 29679 29682 29685 29687 29690 29693 29696 29699 29701 29703 29706 29709 29712 29715 29718 29721 29724 29727 29730 29733 29736 29739 29742 29745 29748 29751 29754 29757 29760 29762 29765 29768 29771 29774 29777 29780 29783 29786 29788 29791 29793 29796 29799 29802 29805 29808 29811 29814 29816 29819 29821 29824 29827 29830 29833 29836 29838 29841 29844 29847 29850 29853 29856 29858 29861 29864 29867 29870 29873 29875 29877 29880 29883 29886 29888 29890 29892 29895 29898 29901 29904 29907 29909 29912 29915 29918 29921 29924 29926 29929 29932 29935 29938 29940 29943 29945 29947 29950 29952 29954 29957 29960 29963 29965 29968 29971 29974 29976 29979 29982 29985 29987 29990 29993 29996 29998 30001 30004 30007 30010 30013 30016 30019 30022 30024 30027 30030 30033 30035 30038 30041 30044 30047 30050 30053 30055 30058 30061 30064 30067 30070 30073 30075 30078 30081 30084 30087 30090 30093 30096 30099 30102 30105 30108 30111 30114 30117 30119 30122 30124 30127 30130 30133 30135 30138 30141 30143 30146 30148 30151 30153 30156 30159 30161 30164 30167 30170 30173 30176 30179 30181 30184 30187 30190 30193 30195 30198 30201 30204 30207 30210 30213 30215 30218 30221 30224 30227 30230 30233 30236 30239 30242 30245 30247 30250 30253 30256 30259 30262 30265 30268 30271 30274 30277 30280 30283 30286 30289 30292 30295 30298 30301 30304 30306 30308 30311 30314 30317 30319 30322 30325 30327 30330 30333 30335 30338 30341 30343 30346 30349 30351 30353 30356 30359 30362 30365 30367 30370 30373 30376 30379 30382 30385 30388 30391 30394 30397 30400 30402 30404 30407 30410 30413 30415 30418 30420 30423 30425 30428 30431 30434 30437 30440 30442 30445 30448 30450 30453 30455 30458 30461 30463 30465 30467 30470 30473 30476 30479 30481 30484 30487 30489 30492 30494 30497 30500 30502 30505 30508 30511 30514 30517 30520 30523 30526 30528 30531 30533 30535 30538 30541 30544 30547 30550 30552 30554 30557 30560 30563 30565 30567 30570 30573 30576 30579 30582 30585 30588 30591 30593 30596 30598 30601 30604 30607 30610 30613 30616 30619 30622 30625 30628 30631 30634 30637 30640 30643 30646 30649 30652 30655 30658 30661 30664 30667 30670 30673 30676 30679 30682 30685 30687 30690 30693 30696 30699 30702 30705 30708 30711 30714 30717 30720 30723 30726 30729 30732 30734 30737 30740 30742 30745 30748 30751 30754 30757 30759 30762 30765 30768 30771 30774 30777 30780 30783 30786 30789 30792 30795 30798 30800 30803 30806 30809 30812 30815 30818 30821 30824 30827 30829 30832 30835 30837 30840 30843 30846 30849 30851 30853 30855 30858 30861 30864 30867 30870 30872 30875 30878 30881 
</DataArray>
<DataArray type="UInt32" Name="types" format="ascii">
5 5 3 5 5 5 5 3 5 5 5 5 5 5 5 5 5 5 5 5 3 5 5 5 5 3 5 5 5 5 5 5 5 3 5 5 5 5 5 5 5 5 3 5 5 5 5 5 5 5 5 5 5 5 3 3 5 5 5 5 5 5 5 5 3 5 5 5 5 5 5 5 5 5 5 5 5 5 5 5 5 5 5 5 5 5 5 3 5 5 5 5 5 5 5 5 5 5 5 3 5 5 5 3 5 5 5 5 5 5 5 5 5 5 5 5 5 5 5 5 5 5 5 5 5 5 5 5 5 5 5 5 5 5 5 5 5 5 5 5 5 5 5 5 5 5 5 5 5 3 5 3 5 5 5 5 5 5 5 5 5 5 5 5 5 5 5 5 5 5 5 5 5 5 5 5 5 5 3 5 5 3 5 3 5 5 5 5 5 5 5 5 5 5 5 5 5 5 3 5 3 5 5 5 5 5 5 5 3 5 3 5 5 5 5 5 5 3 5 5 3 5 5 5 5 5 5 3 3 5 5 3 5 3 5 3 3 5 5 5 3 5 5 5 5 5 5 5 5 5 5 5 5 5 3 5 5 5 5 5 5 5 3 5 5 5 5 5 5 5 3 5 5 5 5 3 5 5 5 5 5 5 3 5 5 5 3 5 5 5 5 5 5 5 3 5 5 5 5 5 5 3 5 5 5 5 5 5 3 5 5 5 5 5 5 5 3 5 5 5 5 5 5 5 5 5 5 5 5 5 5 5 5 5 5 5 5 5 3 3 5 5 5 5 5 3 5 5 5 5 5 5 5 3 5 3 5 5 5 3 5 5 5 3 5 3 5 5 5 5 5 5 5 3 5 5 5 5 5 5 5 3 5 5 5 3 5 5 5 5 5 5 5 5 5 5 5 5 5 5 5 5 5 5 5 5 5 5 5 5 5 5 5 5 5 5 5 5 3 5 5 5 5 5 5 5 5 5 5 5 5 5 5 5 5 5 5 5 5 5 5 5 5 5 5 5 5 5 5 5 5 3 5 5 5 5 5 5 5 5 5 5 5 5 5 5 5 5 5 5 5 5 3 5 5 5 5 5 5 5 3 5 5 5 5 5 3 5 5 3 5 3 5 5 5 5 3 5 5 3 5 5 5 5 5 5 3 5 5 5 5 5 5 5 5 5 5 5 5 5 5 5 5 5 5 5 3 5 5 5 5 5 5 5 5 5 5 5 3 3 5 5 5 5 5 5 5 5 5 5 5 5 5 5 5 5 5 5 5 5 5 3 5 3 3 5 5 3 5 5 5 5 5 5 5 5 5 5 5 5 5 3 5 5 5 5 5 5 5 3 3 5 5 5 5 5 5 5 5 3 3 5 5 5 3 5 5 5 5 5 5 5 5 5 5 5 5 5 5 5 5 5 5 5 5 5 5 5 5 5 5 5 5 5 5 5 5 5 5 5 3 5 5 3 5 5 5 5 3 5 5 5 3 5 5 5 3 5 5 3 5 5 5 5 5 5 5 5 5 5 5 5 5 5 5 5 5 5 5 5 5 3 5 5 5 3 5 5 5 5 5 3 5 5 5 5 5 5 3 5 5 5 5 5 5 5 5 5 5 5 5 5 5 5 5 5 5 3 5 5 5 5 5 5 5 5 5 5 5 5 5 5 5 5 5 5 5 5 5 3 5 5 5 5 5 5 5 5 5 5 5 5 5 5 5 3 5 5 5 5 5 5 5 5 5 5 5 5 5 5 5 5 5 5 3 5 5 5 5 5 5 5 3 5 5 5 5 5 5 5 5 5 5 5 5 5 5 5 5 5 5 5 5 5 3 5 5 5 5 5 5 5 5 5 3 5 5 5 5 5 5 5 5 3 5 5 5 5 5 5 5 5 5 5 5 5 5 5 5 5 5 5 5 3 5 5 5 5 5 3 5 5 5 3 5 5 5 5 5 5 3 5 5 5 5 5 5 5 5 5 5 3 5 5 5 5 5 5 5 5 5 5 5 5 3 5 3 5 5 5 5 5 5 5 3 5 3 5 5 5 5 5 5 5 5 5 5 5 5 5 5 5 5 5 5 5 5 5 5 5 5 5 5 5 5 5 5 5 5 5 5 5 5 5 5 5 5 5 5 5 5 5 3 3 5 5 3 5 5 5 5 5 5 5 5 5 5 5 5 5 5 5 5 3 5 5 5 5 3 5 5 3 5 5 5 5 5 5 3 5 3 5 5 3 5 5 5 5 5 5 5 5 5 5 3 5 5 5 5 5 3 3 5 5 5 5 3 5 5 3 5 3 5 5 5 5 5 3 5 5 3 5 5 5 5 5 5 5 5 5 5 5 5 3 5 5 5 5 5 5 5 5 5 5 5 5 5 5 5 3 5 3 5 3 3 5 3 5 5 3 5 5 5 5 5 5 3 5 3 5 5 3 5 5 5 3 5 5 3 5 5 5 5 5 3 5 5 3 5 5 5 5 5 3 5 3 5 5 3 5 5 3 5 5 5 5 5 5 5 5 3 5 5 5 5 5 5 5 5 5 5 3 5 5 5 5 3 5 5 3 5 5 5 5 5 3 5 5 5 5 5 3 5 3 5 5 5 5 5 5 3 5 5 5 5 5 5 5 5 3 3 3 5 5 5 5 3 5 3 5 5 5 3 3 5 5 5 3 5 5 5 3 5 3 5 3 3 5 3 5 5 5 5 3 5 5 5 3 5 3 5 3 5 5 5 5 5 5 5 3 5 5 5 5 3 5 5 5 5 5 5 5 5 3 5 3 3 5 5 5 3 5 5 5 5 3 3 5 5 3 3 5 5 5 5 5 3 5 5 5 5 5 5 5 5 3 5 3 5 5 5 5 5 5 5 5 5 5 5 5 5 5 5 5 5 3 5 5 5 5 5 5 5 5 5 5 5 5 5 5 5 5 5 5 5 5 5 5 5 5 5 3 5 3 5 5 5 5 5 3 3 5 5 5 5 3 3 5 3 5 5 3 5 5 3 5 5 5 5 3 3 5 5 5 5 5 5 5 5 3 5 5 3 5 5 5 3 5 5 3 5 5 5 5 5 5 3 5 5 5 5 5 5 3 5 5 5 5 5 3 5 5 3 3 5 5 3 5 5 3 5 5 5 5 5 5 5 5 5 5 5 5 3 5 3 5 5 3 5 5 5 5 5 5 3 5 5 5 3 3 3 5 5 5 3 3 5 3 3 5 5 3 5 5 3 5 3 5 3 5 5 5 3 3 5 5 3 3 3 3 5 5 5 3 3 5 5 3 3 3 5 3 3 5 5 3 5 3 3 5 3 5 5 3 5 3 3 5 5 5 5 3 3 5 5 3 5 5 5 3 5 5 5 5 5 5 5 5 5 5 5 5 5 5 5 5 5 5 5 5 5 5 5 5 5 5 5 5 5 5 5 5 5 5 5 5 5 5 5 5 5 5 5 5 5 5 5 5 5 5 5 5 5 5 5 5 5 5 3 5 3 5 5 5 5 5 5 5 5 5 5 5 5 5 5 3 5 5 5 5 5 5 5 5 5 5 3 5 5 5 5 5 5 5 5 5 5 5 5 5 5 5 5 5 5 5 5 5 5 5 5 5 5 5 5 5 5 5 5 5 5 5 5 5 5 5 5 5 5 5 5 5 5 3 5 5 5 3 5 3 5 5 5 5 5 3 5 3 5 5 5 5 5 5 5 5 5 5 5 5 5 5 5 5 5 5 5 5 5 5 5 5 5 3 5 5 5 5 5 5 3 5 3 5 5 5 3 5 5 3 5 5 5 5 5 5 5 5 5 5 5 5 5 5 5 5 5 5 5 5 5 5 5 5 5 5 5 5 5 5 5 5 5 5 5 5 5 3 5 3 5 5 5 5 5 5 5 5 5 5 3 5 5 5 5 5 5 5 5 5 5 5 5 5 5 5 5 5 3 5 5 5 3 3 5 3 5 5 5 5 5 5 5 5 3 5 5 5 5 3 5 5 5 5 5 5 5 3 5 5 3 5 3 5 5 3 5 5 3 3 5 5 5 5 5 5 5 5 5 5 5 5 5 5 5 3 5 3 5 5 5 3 5 3 5 5 5 5 5 5 5 5 5 5 5 5 3 5 3 5 5 5 5 5 5 5 5 3 5 5 3 5 5 5 3 3 5 5 5 5 5 5 5 5 5 5 5 5 5 5 5 5 5 5 5 5 5 3 5 5 5 5 5 3 5 3 5 5 5 5 3 5 5 3 5 5 5 5 5 3 5 5 5 5 3 5 5 5 5 5 5 5 3 5 5 5 3 5 5 5 5 5 5 5 5 5 5 5 3 5 5 5 5 5 5 5 5 3 5 5 5 5 5 5 3 5 5 5 5 5 5 3 5 5 5 5 5 5 5 5 5 5 5 3 5 5 5 3 5 5 5 3 5 3 5 5 5 5 5 5 3 5 5 5 5 5 5 5 5 5 5 5 5 5 5 5 3 5 5 5 5 5 3 5 5 5 5 5 5 5 5 3 5 5 5 5 5 5 5 5 5 5 5 5 5 5 5 5 3 5 5 5 5 3 5 5 5 5 5 5 5 5 5 5 5 5 5 5 5 5 5 5 5 5 5 5 5 5 5 5 3 5 5 5 3 5 3 5 5 5 5 3 5 3 5 5 5 5 5 3 5 5 5 5 5 5 5 5 5 3 5 5 5 5 5 5 5 5 5 5 5 5 5 5 5 5 5 5 5 5 5 5 5 5 3 3 5 5 5 5 5 3 5 5 5 3 5 5 5 3 5 5 3 5 3 5 5 5 5 3 5 5 5 5 3 3 5 5 5 5 5 5 5 5 5 5 5 5 3 5 5 5 5 3 5 5 5 5 5 3 5 5 3 5 5 5 5 5 5 5 5 5 5 5 5 5 5 5 5 3 5 5 3 5 5 5 3 5 5 5 5 5 5 5 5 5 5 5 3 5 5 5 5 5 5 5 5 5 5 5 5 5 5 5 5 3 5 5 3 5 3 5 5 3 5 3 5 3 5 5 5 5 5 5 5 5 5 5 5 5 5 3 5 3 3 5 5 3 3 5 5 3 3 5 5 5 3 5 3 5 5 3 5 5 5 5 3 3 5 3 5 5 3 3 5 5 3 5 5 5 3 5 5 5 3 3 3 5 5 3 5 3 3 5 5 5 5 5 5 5 5 5 5 5 3 3 5 3 5 3 5 3 5 5 5 3 5 5 5 5 5 3 5 5 5 5 5 5 5 5 5 5 5 5 5 5 5 5 5 5 5 5 5 5 5 5 3 5 5 5 5 5 5 5 5 5 5 5 5 5 5 5 5 5 5 3 5 5 5 5 5 5 5 5 5 5 5 3 5 5 5 5 5 3 5 5 5 5 5 5 5 5 5 5 5 5 5 5 3 5 5 5 5 5 5 5 5 5 5 5 5 5 5 3 5 3 5 5 5 5 3 5 5 5 5 5 5 5 5 5 5 5 5 3 5 3 5 5 5 5 3 5 5 5 5 5 5 5 3 5 5 5 5 5 5 5 3 5 5 5 3 5 3 5 5 5 5 5 5 5 5 5 3 5 5 5 5 5 5 5 5 5 5 5 5 5 5 5 5 5 5 5 5 5 5 5 5 5 5 5 5 5 5 5 5 5 5 5 5 5 5 5 5 5 5 5 3 5 5 3 5 5 5 5 5 5 5 5 5 5 3 5 5 5 5 5 3 5 5 3 5 5 5 5 5 5 3 5 5 5 5 3 5 5 3 5 3 5 5 5 5 5 5 5 5 5 5 5 3 5 3 5 5 5 5 3 5 5 5 5 5 5 5 5 5 5 5 5 5 5 5 5 5 5 5 5 5 3 5 5 5 5 3 5 5 5 5 5 5 5 3 5 5 5 5 5 3 5 5 5 3 5 5 5 3 5 5 3 5 5 5 3 5 5 3 5 5 5 5 5 5 5 5 5 5 5 5 5 5 5 5 5 5 5 5 5 5 5 5 5 5 5 5 5 5 5 3 5 5 5 5 5 5 5 5 5 5 5 3 5 5 5 5 5 5 5 5 5 5 5 5 5 5 5 3 3 5 5 5 3 5 5 5 5 3 5 5 3 5 5 5 5 5 5 5 5 5 5 5 5 5 3 3 5 5 5 5 5 5 5 5 5 5 5 3 5 5 3 5 5 5 5 5 5 5 5 5 5 5 5 5 5 5 5 5 5 5 3 5 5 5 3 5 5 5 5 5 3 5 5 5 5 5 5 5 5 5 5 5 5 5 5 5 5 5 5 5 5 3 5 5 3 5 5 5 5 5 5 5 5 5 5 5 5 5 5 5 5 5 5 5 3 5 5 5 5 5 5 5 5 5 5 5 5 5 5 5 5 5 5 5 5 5 5 5 5 5 5 5 5 5 5 5 5 3 5 5 5 5 5 5 3 5 5 5 5 5 3 5 5 5 5 3 5 5 5 5 5 5 5 5 5 5 5 5 5 5 5 5 5 5 5 5 5 5 3 5 5 5 5 5 5 5 3 5 5 3 5 5 3 5 5 5 5 5 5 3 5 5 5 5 5 5 5 5 5 5 3 5 3 5 5 5 5 5 5 5 5 3 5 5 3 5 5 5 3 5 5 5 3 5 5 5 3 3 5 5 3 5 5 3 5 5 3 5 5 5 5 5 5 5 5 5 3 5 5 5 3 5 5 5 3 5 5 5 3 5 3 5 5 3 5 5 5 5 5 5 5 5 3 5 5 3 5 5 5 5 5 5 5 5 5 5 5 5 5 3 5 3 5 5 5 3 3 5 3 5 5 5 5 3 5 3 5 5 5 5 5 5 5 5 5 3 5 5 5 5 5 5 5 5 5 5 5 5 5 5 5 5 5 5 5 5 5 5 5 5 5 5 5 5 3 5 5 5 5 5 5 3 5 5 5 5 5 5 3 5 5 5 5 5 5 3 5 5 5 3 5 5 5 3 5 5 3 5 5 5 5 5 5 3 5 5 5 3 3 5 5 5 5 5 5 5 5 5 5 5 5 5 5 5 5 5 3 5 5 5 5 5 5 5 3 5 5 5 5 5 3 5 5 5 5 5 3 5 5 3 5 5 5 5 3 5 5 5 5 5 5 3 5 3 5 3 3 5 3 5 5 5 3 5 5 5 5 5 3 5 5 5 3 5 5 5 5 3 3 3 5 5 5 5 3 3 5 3 5 5 5 5 5 5 3 5 3 5 5 3 5 5 5 3 5 5 3 5 5 5 5 5 5 5 5 5 5 5 5 3 5 5 5 5 3 5 5 5 5 3 5 5 5 5 5 5 5 5 5 3 3 3 5 5 5 3 3 5 5 3 5 3 5 5 5 5 5 5 5 3 5 5 5 5 5 5 5 5 5 5 5 5 5 5 5 5 3 5 5 5 5 5 5 5 5 5 3 5 5 3 5 3 5 3 5 5 3 5 5 5 3 3 5 5 3 5 5 5 3 5 5 5 5 3 5 5 5 5 5 5 5 5 5 5 5 3 3 5 5 5 5 5 5 5 5 5 5 5 5 5 5 5 5 5 5 5 5 5 5 5 5 5 5 5 5 5 5 5 5 3 5 5 5 5 5 5 5 5 5 5 5 5 5 5 5 5 5 5 5 3 5 5 5 5 5 5 3 3 5 5 3 3 5 5 5 3 5 5 5 5 5 5 5 5 5 5 5 5 5 5 5 5 5 5 5 5 5 5 5 3 5 3 5 3 5 5 5 5 5 5 3 5 3 3 5 5 3 5 5 5 5 5 5 3 3 5 5 3 3 5 5 3 3 5 5 5 5 5 5 5 5 3 5 5 5 5 5 3 5 5 3 5 5 5 3 5 5 5 5 5 5 5 5 5 5 5 5 5 5 5 5 5 5 5 5 5 5 5 5 5 5 5 5 5 5 5 5 5 5 3 5 5 3 5 3 3 5 5 5 5 5 5 5 5 5 3 5 5 5 5 5 3 5 5 5 5 5 5 5 3 5 5 5 5 5 5 5 5 3 5 5 5 5 5 3 5 5 5 5 5 5 5 5 5 5 5 5 5 5 5 5 5 5 5 5 5 5 5 5 5 5 5 5 5 5 3 3 5 5 5 5 5 5 5 3 5 5 5 3 5 3 5 5 5 5 5 5 5 5 5 5 5 5 5 5 5 5 5 5 5 5 5 3 5 5 5 5 5 5 3 5 5 5 5 5 5 5 3 5 5 3 5 5 5 5 5 5 3 5 5 5 3 5 5 3 3 5 5 5 5 5 5 5 5 5 5 5 5 5 5 5 5 5 5 5 5 5 5 5 5 5 5 5 5 3 5 5 5 5 5 5 5 5 5 5 5 5 5 5 5 5 5 5 5 3 5 5 5 3 3 5 5 5 5 5 3 5 5 5 3 5 5 5 5 5 3 5 5 5 5 5 5 5 5 5 5 5 5 5 5 5 5 5 5 5 5 5 3 5 5 5 5 5 5 3 5 5 5 5 5 5 5 5 5 5 5 5 3 5 5 5 5 3 5 3 5 5 5 5 5 5 5 5 5 5 5 5 5 3 5 5 5 5 5 3 5 5 5 5 5 5 3 5 5 5 5 5 5 5 5 5 5 5 5 3 5 5 3 5 5 3 5 5 3 5 5 5 5 5 5 5 5 5 5 3 5 5 5 5 5 5 5 5 3 5 5 5 3 5 5 5 3 5 5 3 5 5 5 3 5 5 5 5 5 3 5 3 5 5 5 5 3 3 5 5 5 3 5 5 5 5 3 5 5 5 5 5 5 5 5 5 5 5 5 5 5 5 3 5 5 3 3 5 5 5 5 3 5 5 5 5 5 5 3 5 5 5 5 5 5 3 5 5 5 5 5 5 5 5 3 5 5 5 5 5 5 5 5 5 5 3 5 5 3 5 5 3 5 5 5 5 5 3 3 5 5 3 3 5 3 5 3 5 3 3 5 5 3 5 3 5 3 5 3 5 3 5 5 3 5 3 5 3 5 5 5 5 5 5 3 5 5 5 3 5 5 5 5 5 5 5 5 5 3 5 5 3 5 3 5 3 5 5 5 3 3 5 5 5 5 5 5 5 5 5 5 5 3 5 5 5 5 5 3 5 5 5 5 5 5 5 5 5 5 5 5 5 5 5 5 5 3 5 5 5 5 5 5 3 5 5 5 3 5 5 3 5 5 5 3 5 3 3 5 5 5 5 5 5 5 5 5 3 5 5 5 5 5 5 5 3 5 3 5 3 5 5 5 5 5 5 5 5 5 5 5 5 5 5 5 5 5 5 5 5 5 5 5 5 5 5 5 5 5 5 5 5 5 5 5 5 5 3 5 5 3 3 5 5 5 5 3 5 5 5 5 5 3 5 5 3 3 5 5 5 5 5 5 3 5 3 5 5 3 3 5 3 5 5 5 3 5 5 5 5 3 5 5 5 3 5 5 3 3 5 5 5 3 5 5 5 5 3 5 5 3 5 5 5 3 5 5 3 5 5 5 3 5 3 5 5 3 5 5 3 3 5 5 3 5 3 3 5 5 5 5 3 5 5 5 5 3 5 5 5 5 5 5 5 5 5 5 5 5 3 5 5 5 5 3 5 3 5 5 5 5 5 3 3 3 5 5 5 5 5 5 5 5 3 5 5 5 5 5 5 3 5 5 5 5 3 5 5 5 5 5 5 5 5 5 5 5 5 5 5 5 5 5 5 3 5 3 5 5 3 3 5 3 5 5 3 5 3 5 3 5 3 5 5 5 5 3 5 5 5 3 5 5 5 5 5 5 5 5 5 5 5 5 5 5 5 5 5 5 5 5 5 5 5 5 5 3 5 5 5 5 5 3 5 5 5 5 5 5 5 5 5 5 5 3 5 5 5 5 5 3 5 5 3 3 5 5 5 3 5 5 3 3 5 3 5 5 5 5 5 5 5 5 5 5 5 5 5 5 5 5 3 5 5 5 5 3 5 5 5 5 5 5 5 5 3 3 5 5 3 5 5 5 5 5 5 5 5 5 3 3 5 5 3 5 5 5 3 5 5 5 5 5 5 5 5 5 5 5 5 5 5 5 5 5 5 5 5 5 5 5 5 5 5 3 5 5 5 5 5 5 5 5 5 5 5 5 5 5 5 5 5 5 5 5 3 5 5 5 3 3 5 5 5 3 5 5 3 5 5 5 5 5 3 5 3 5 5 5 5 5 5 5 5 3 5 5 5 3 5 5 3 5 3 5 5 5 3 5 5 5 3 5 5 5 5 5 5 5 5 5 5 5 5 5 5 5 5 5 3 5 5 5 5 5 5 5 5 5 3 5 5 5 5 5 5 5 5 3 5 5 5 5 5 5 5 5 5 5 5 5 5 3 5 5 5 3 5 5 5 5 5 5 5 5 5 5 5 5 5 5 5 5 5 5 5 3 5 5 5 3 5 3 5 5 5 3 5 5 5 3 3 5 5 5 5 5 5 5 5 5 5 5 5 5 5 5 5 5 5 5 5 5 5 3 5 5 5 5 3 5 5 5 5 3 5 5 5 5 5 5 5 3 5 5 5 5 3 5 5 5 5 5 5 3 5 5 5 5 5 5 3 5 5 5 3 5 5 5 5 5 5 5 5 5 3 5 5 5 5 5 5 3 5 5 5 5 5 5 5 5 5 5 5 3 5 5 3 5 5 5 5 5 3 5 5 3 5 5 5 5 5 5 5 3 3 5 5 5 5 3 5 5 5 5 5 5 3 5 5 5 5 5 5 5 5 5 5 3 5 5 5 5 5 5 5 5 5 5 5 5 3 5 3 5 5 5 3 5 5 3 5 5 5 5 3 5 5 5 5 5 3 5 5 5 5 5 5 5 5 3 5 5 5 5 3 5 5 5 5 5 5 5 3 5 5 5 5 5 5 5 5 5 5 3 5 5 5 3 5 3 5 5 5 5 5 5 3 5 3 5 3 5 5 5 5 3 5 5 5 5 5 5 5 5 5 5 5 5 5 5 3 5 3 5 5 5 5 5 5 5 3 5 5 5 5 5 5 5 5 5 5 5 5 5 3 5 5 5 5 3 5 5 5 5 5 5 5 5 5 5 5 5 5 5 5 5 5 5 5 5 5 5 5 5 3 5 5 5 5 3 5 5 5 3 5 5 3 5 5 3 5 5 5 5 5 5 5 5 5 5 5 5 5 5 5 3 5 5 3 5 5 5 5 5 5 5 3 5 5 5 5 5 3 5 5 5 3 5 5 5 3 5 5 5 5 5 5 5 3 5 5 5 3 5 3 3 5 5 5 5 5 3 5 5 5 5 5 5 5 5 5 5 3 5 5 5 5 5 5 5 5 5 5 5 5 5 5 5 5 5 5 5 5 5 5 5 5 5 5 5 5 5 5 5 5 5 5 5 5 5 3 5 5 5 5 5 5 5 5 5 5 5 5 5 5 5 5 3 5 5 5 5 5 5 5 5 5 3 5 5 5 5 5 5 5 3 5 5 5 5 5 5 5 5 5 5 5 5 5 5 5 5 5 5 5 5 5 3 5 5 5 5 5 5 5 5 5 5 5 5 5 5 5 5 5 3 5 5 5 5 5 5 5 5 5 5 5 5 5 5 5 5 5 5 5 5 5 5 5 5 5 5 5 5 5 5 5 5 5 5 5 5 5 5 5 5 5 5 5 5 5 5 3 5 5 5 5 5 5 5 5 5 5 5 5 5 3 5 3 5 5 5 5 5 3 5 5 5 5 5 3 3 5 5 5 5 5 5 5 5 5 5 5 5 5 5 5 5 5 3 3 5 5 5 5 5 5 3 5 3 5 5 5 5 5 5 5 5 5 3 5 5 5 5 5 5 5 5 5 5 5 5 5 5 5 5 5 5 5 3 5 5 5 5 5 3 5 3 5 5 5 5 5 5 5 3 5 5 5 3 5 5 5 3 5 5 3 5 5 5 3 5 5 3 5 3 5 3 5 5 3 5 5 5 5 5 5 5 5 5 5 5 5 5 5 5 5 5 5 5 5 5 3 5 3 5 5 5 5 5 5 5 3 5 5 5 5 5 5 5 5 5 5 5 5 5 5 5 5 5 5 5 3 5 5 5 3 5 5 5 5 5 5 5 5 5 5 3 5 5 5 5 3 5 5 3 5 5 5 5 5 3 5 5 5 5 3 5 3 5 5 3 5 5 5 5 5 5 5 3 5 5 3 5 3 5 5 5 5 5 5 5 5 5 5 5 5 5 5 5 5 5 5 3 5 5 5 5 5 5 5 3 5 5 5 5 3 5 5 5 5 5 5 5 5 5 3 5 5 5 5 3 5 5 5 5 5 5 5 5 5 5 5 5 3 5 5 5 5 5 5 5 5 5 3 5 5 5 5 5 5 5 5 5 5 5 5 3 5 5 3 5 5 5 5 5 5 5 5 5 3 3 3 5 5 5 3 5 5 5 5 5 5 3 5 5 5 3 3 5 5 5 5 5 5 5 5 5 5 5 5 3 5 5 5 3 3 5 5 5 5 5 3 5 5 5 5 3 5 5 5 5 3 5 5 5 5 5 3 3 3 5 5 5 3 3 5 5 5 5 5 5 5 5 5 3 3 5 5 5 3 3 5 5 5 5 5 5 5 5 5 5 5 5 5 5 5 5 5 3 5 3 5 5 5 5 3 5 5 5 5 5 5 5 3 5 5 5 5 5 5 5 3 5 5 3 5 3 3 5 5 5 3 3 5 5 5 3 3 5 5 5 5 5 5 5 5 5 5 3 5 5 5 5 5 5 5 3 5 5 5 5 3 5 5 5 5 5 5 3 5 5 5 5 3 5 3 5 5 5 5 5 5 5 5 5 5 5 5 5 5 3 5 5 5 5 5 5 5 3 5 5 5 5 3 5 5 5 3 5 5 5 5 5 5 5 5 5 5 5 5 5 5 5 5 5 5 5 5 5 5 3 5 3 5 5 3 5 5 5 3 5 5 3 5 5 5 5 5 5 5 5 5 5 5 5 5 5 5 5 5 5 5 5 3 3 3 5 5 5 5 5 5 5 5 5 5 5 5 5 3 5 5 5 3 5 5 3 5 5 5 5 3 5 5 3 3 5 5 5 5 3 5 5 3 5 3 5 5 5 5 5 5 5 5 5 5 5 5 3 5 5 5 5 5 5 5 3 5 3 5 5 5 5 3 5 5 5 5 5 5 5 5 5 5 5 5 5 5 5 5 5 5 5 5 5 5 5 3 5 5 5 3 5 3 5 5 5 3 5 5 5 5 5 3 5 5 3 5 5 5 5 5 5 5 5 3 5 5 5 5 5 3 5 5 5 5 5 5 5 5 5 5 5 5 5 5 3 5 5 5 5 3 5 5 5 5 5 5 5 5 5 5 5 5 3 5 5 5 5 3 5 5 5 5 5 5 5 5 5 5 5 5 5 3 5 5 3 5 5 5 3 5 5 5 5 5 5 5 5 5 5 5 5 5 3 3 5 3 3 5 5 5 3 3 5 3 5 3 5 3 5 5 5 3 5 3 5 5 5 5 3 5 5 5 5 5 5 3 5 5 5 5 5 3 5 5 3 5 5 3 5 5 3 5 5 5 5 5 3 5 3 5 5 5 5 5 5 5 5 5 5 5 5 5 3 5 5 3 5 5 5 5 5 5 5 5 5 3 5 5 5 5 5 5 5 5 5 3 5 5 3 5 3 5 5 5 5 5 5 5 3 5 5 5 5 5 5 5 3 5 3 5 5 3 5 5 5 3 5 5 5 5 3 5 5 5 5 5 3 5 5 5 5 5 5 5 5 5 5 5 5 5 5 5 5 5 5 5 5 5 3 5 5 3 5 5 5 3 5 5 5 5 3 5 5 5 5 5 5 5 5 5 5 5 5 5 5 5 5 5 5 5 5 5 5 5 3 5 5 5 5 5 5 3 5 5 5 5 5 5 5 5 5 5 5 5 5 3 5 3 5 5 3 5 5 5 5 3 3 5 3 5 3 5 5 5 5 5 3 5 5 3 3 5 5 5 5 5 3 5 5 3 5 5 5 5 5 5 5 5 3 3 5 5 5 3 5 3 5 5 5 5 5 3 5 3 5 5 5 5 5 3 3 5 5 5 5 3 5 5 5 5 3 5 5 5 5 5 5 5 5 5 5 5 5 5 5 5 5 5 3 5 5 3 5 5 5 3 5 5 5 5 5 5 5 5 5 5 5 5 5 5 5 5 5 5 5 3 5 5 5 5 5 5 5 5 5 5 5 5 5 5 3 3 5 5 5 3 5 5 5 5 5 3 5 5 5 5 5 5 5 5 5 5 5 3 5 5 3 5 5 5 5 5 5 5 5 5 5 3 5 5 5 3 5 3 5 3 5 5 5 3 3 5 3 5 5 3 5 5 3 3 5 5 5 3 5 5 3 5 3 5 5 5 3 5 5 3 3 5 3 5 5 3 5 3 5 5 5 5 5 5 5 5 5 3 5 5 5 5 5 3 5 5 5 5 5 5 5 5 5 5 3 5 5 5 5 3 3 5 5 3 5 3 5 5 5 5 5 3 5 5 3 5 3 5 5 5 5 5 5 5 3 5 5 5 5 5 5 5 5 5 3 5 3 5 3 5 3 5 5 5 5 3 5 5 5 5 5 3 3 5 5 5 5 5 5 3 5 5 5 5 5 3 5 5 5 5 3 5 5 3 5 3 5 5 5 3 5 3 5 5 3 3 3 5 5 5 5 5 5 3 3 3 5 5 5 5 3 5 3 5 3 5 5 5 5 5 5 3 5 5 5 5 5 5 5 5 5 5 5 5 5 5 5 5 5 5 5 5 5 5 5 5 5 5 5 5 5 5 5 5 5 5 5 5 5 5 5 5 5 5 5 5 5 5 5 5 5 3 5 5 5 3 3 5 5 5 5 5 5 5 5 5 5 5 5 5 5 5 5 5 5 5 3 5 5 5 5 5 5 5 3 5 5 3 5 5 3 5 5 3 5 3 5 5 3 5 5 5 3 5 3 5 3 3 5 5 5 3 3 5 5 3 5 5 3 5 5 5 5 5 5 5 5 5 5 5 5 3 5 5 5 5 3 5 5 5 5 3 5 5 5 5 5 5 5 5 5 3 5 3 5 5 5 5 3 5 5 5 3 5 5 5 5 5 5 3 5 5 3 5 5 5 3 5 5 5 5 5 5 5 3 5 5 5 5 5 3 5 5 5 5 5 5 5 5 5 5 5 5 5 5 5 3 5 5 5 5 5 3 5 5 3 5 3 5 5 5 5 3 3 5 5 3 5 5 5 5 5 5 5 5 5 5 5 3 5 3 5 5 5 5 5 3 5 5 5 3 5 5 5 3 5 5 5 5 5 5 5 5 5 5 5 5 5 3 5 5 5 5 5 5 5 3 5 3 5 5 5 5 5 5 5 3 3 5 5 5 5 5 5 5 5 5 3 5 5 5 5 5 5 3 3 3 5 3 5 5 5 5 5 5 3 5 3 5 3 5 3 5 5 5 5 5 5 3 5 5 3 5 5 5 5 3 5 5 5 5 5 5 5 5 5 5 5 5 5 5 5 5 5 5 5 5 5 3 5 3 5 5 5 5 5 5 5 5 5 5 5 5 5 5 5 5 5 5 5 5 5 5 5 5 5 5 5 5 5 5 5 5 5 5 5 5 5 5 5 5 5 5 5 5 5 5 5 5 5 5 5 5 5 5 5 5 5 5 3 5 5 5 5 5 5 5 5 5 5 5 5 5 5 5 5 5 5 5 5 5 5 5 3 5 5 5 3 5 3 5 5 5 5 5 5 5 5 5 5 5 5 5 5 5 5 5 5 5 5 5 5 5 5 5 5 5 5 5 5 5 5 5 5 5 5 5 5 5 3 5 3 5 5 5 5 5 5 5 5 5 5 5 5 5 5 5 5 5 5 5 5 5 5 5 5 5 3 5 5 5 5 5 5 5 5 5 5 5 5 5 5 5 5 5 5 5 5 5 5 5 5 5 5 5 5 5 5 5 5 5 5 5 5 5 5 5 5 5 5 5 5 5 5 5 5 5 5 5 5 5 5 5 5 5 5 5 5 5 5 5 5 5 5 5 5 5 3 5 5 5 5 5 5 5 3 5 5 3 5 5 5 5 5 5 5 5 5 5 5 5 5 5 5 5 5 5 5 5 3 5 5 5 5 5 5 5 5 5 5 5 5 5 5 5 5 5 5 5 5 5 5 5 5 5 5 5 5 5 5 5 5 3 5 5 5 5 3 5 3 5 5 5 5 5 5 3 5 5 3 5 5 3 3 5 3 5 5 5 3 5 5 5 5 5 5 5 5 5 5 5 5 5 5 5 3 5 5 5 5 5 5 5 5 3 5 5 5 5 5 5 5 5 5 5 5 5 5 5 5 5 5 5 5 5 5 5 5 5 5 5 5 5 5 5 5 5 5 5 5 5 3 5 5 5 5 5 5 5 3 5 5 3 5 3 5 5 5 5 5 5 5 5 5 5 5 3 3 5 5 3 5 5 3 3 5 5 5 5 3 5 3 5 5 3 5 3 3 5 3 5 3 5 5 5 5 5 5 5 3 5 3 5 5 5 5 5 3 5 5 5 3 5 5 3 5 3 5 3 3 5 5 3 5 5 5 5 5 5 3 5 5 5 5 5 5 5 5 3 3 5 5 5 3 5 5 5 5 3 3 5 3 5 5 5 3 5 5 5 5 5 5 5 5 5 5 5 5 5 5 5 5 3 5 5 5 5 5 5 3 5 3 5 5 5 3 3 5 5 3 5 3 5 5 5 5 5 5 5 5 5 5 5 5 3 3 5 5 5 5 5 3 5 5 5 5 5 5 5 3 5 5 5 3 5 3 5 5 3 5 5 5 5 5 5 5 5 5 3 5 5 3 5 5 5 5 5 5 5 5 5 5 5 3 5 5 5 5 5 5 5 5 5 5 5 5 5 5 5 5 5 5 5 5 5 5 3 5 5 5 5 5 5 5 5 5 5 5 3 5 5 5 5 3 5 5 5 5 5 5 5 5 5 5 5 3 5 5 5 5 5 3 5 3 5 5 5 5 5 5 5 5 5 3 5 5 3 5 5 3 5 5 5 5 3 5 5 5 5 5 5 5 5 5 5 5 5 5 5 5 5 5 5 5 5 5 3 5 5 3 5 3 5 5 5 5 5 5 5 5 5 3 5 5 3 3 3 5 5 5 3 5 5 5 5 5 5 3 3 5 3 5 5 3 5 5 3 5 5 5 5 3 5 5 5 5 3 5 5 5 5 5 5 5 5 5 5 5 3 5 5 3 5 3 3 5 5 3 3 3 5 5 5 5 5 5 5 5 5 5 3 5 5 5 5 5 5 5 5 5 3 5 5 5 5 5 3 5 5 5 5 5 5 5 5 5 5 3 5 5 5 5 5 5 5 5 5 5 5 5 5 5 5 5 5 5 5 5 5 5 5 5 3 3 5 5 5 5 5 5 5 5 3 5 5 5 5 5 5 5 5 5 5 5 5 5 5 5 5 3 5 5 5 5 3 5 5 5 3 3 5 5 5 5 5 5 3 5 3 5 5 5 3 5 5 5 5 5 5 5 5 3 5 3 3 5 5 5 5 5 5 5 5 5 5 5 5 3 5 5 3 5 3 5 5 5 5 5 5 5 5 5 5 5 5 5 5 5 5 5 5 5 5 5 5 5 3 5 5 5 5 5 3 5 5 5 5 5 5 5 5 5 5 3 5 5 5 3 5 5 5 5 5 5 5 5 5 5 5 3 3 5 5 5 5 5 3 5 5 5 3 5 5 5 5 5 5 5 5 5 5 3 5 5 5 5 5 5 5 3 3 5 3 5 5 5 5 3 5 5 5 5 5 3 5 5 5 5 5 5 5 5 5 5 3 5 5 5 5 5 5 5 5 5 5 3 5 5 5 5 5 5 5 3 5 5 5 5 5 5 5 5 5 5 5 5 5 5 5 5 5 5 5 5 3 5 5 5 3 5 5 5 5 5 5 5 5 5 5 5 5 5 3 5 3 3 5 3 3 5 5 5 5 5 3 5 5 5 5 5 5 5 3 5 5 3 5 5 3 5 5 3 5 5 3 3 3 3 5 5 3 3 5 5 3 5 5 3 5 5 5 5 3 3 3 3 5 5 5 3 5 3 5 3 5 3 3 5 5 5 5 5 5 5 3 5 5 3 5 3 5 5 3 3 5 5 5 5 5 5 5 5 5 5 5 5 5 5 5 5 5 3 5 5 5 5 5 5 5 5 5 5 5 5 5 5 5 5 5 3 5 5 5 5 5 5 5 5 5 5 5 5 5 5 3 3 5 5 5 5 3 5 3 5 5 5 3 3 5 3 5 5 5 5 5 5 5 5 5 5 5 5 5 5 5 5 5 5 5 3 5 3 5 5 5 5 3 5 5 5 5 5 5 5 5 5 5 5 5 5 5 5 5 5 5 5 5 3 5 5 5 5 5 5 5 5 5 5 5 5 5 5 3 5 5 5 5 5 5 5 5 5 5 5 5 5 5 5 5 5 5 5 5 5 5 5 5 5 5 5 5 5 5 5 5 5 5 5 5 5 5 5 5 5 5 5 5 5 5 5 5 5 5 5 5 5 5 5 5 5 5 5 5 5 5 3 5 5 5 3 5 5 3 5 5 5 5 5 5 5 5 5 5 5 3 5 5 5 5 3 5 5 5 5 5 5 5 5 5 5 5 5 5 5 5 5 5 5 5 5 5 5 5 5 5 5 5 5 5 3 5 5 5 5 3 5 5 5 5 5 5 5 5 5 5 3 5 5 3 5 5 5 5 5 5 5 5 5 5 5 5 3 5 5 5 5 5 5 5 5 3 5 5 5 5 5 5 5 5 5 5 3 5 3 5 5 5 3 5 5 5 3 5 3 5 3 3 5 5 5 5 5 3 5 5 5 5 5 5 5 5 5 5 5 5 5 5 5 5 5 5 5 5 5 5 5 3 5 5 3 5 5 5 3 5 3 5 5 5 5 5 5 5 5 5 5 5 5 3 5 5 5 5 5 5 5 5 5 5 5 5 5 5 5 5 5 5 5 3 5 5 5 5 5 5 5 5 5 5 5 5 5 5 5 5 5 5 5 5 5 5 5 5 5 5 5 3 5 5 5 5 5 5 5 5 5 5 5 5 5 5 5 5 5 5 3 5 5 5 3 5 5 5 3 3 5 5 5 5 5 3 5 5 5 5 5 5 5 3 3 5 5 5 3 5 3 5 5 5 5 5 5 3 3 5 5 3 3 5 5 5 5 5 5 5 5 5 5 3 5 5 5 5 5 5 3 5 5 5 5 5 5 5 5 5 5 5 5 5 5 5 5 5 3 5 5 5 5 3 5 5 3 5 5 5 5 5 5 5 5 5 5 5 3 5 3 5 3 5 5 5 5 5 5 5 5 5 5 5 5 5 5 5 5 5 5 5 3 5 5 3 5 5 5 3 5 5 3 5 5 5 5 3 5 5 5 5 5 5 5 3 5 5 5 5 5 5 5 5 5 5 5 5 5 5 5 5 5 5 5 5 5 5 5 5 5 5 5 5 5 3 5 5 5 5 5 5 5 5 5 5 5 5 5 5 5 5 5 5 5 5 5 5 5 5 5 5 5 5 5 5 5 5 5 5 5 5 5 3 3 3 5 5 3 5 5 5 3 5 3 5 5 5 5 5 3 5 5 5 5 5 5 5 3 5 5 5 5 5 5 5 5 5 5 5 5 5 5 3 5 5 5 3 5 3 5 5 5 5 5 5 5 5 3 5 5 5 5 5 5 5 3 5 3 5 3 5 5 5 5 5 5 5 5 3 5 5 3 3 3 5 3 5 3 5 5 5 5 5 5 5 5 5 5 5 5 5 5 5 5 5 5 5 5 5 3 5 5 3 3 5 5 5 3 5 5 5 5 5 5 5 3 5 3 5 5 5 5 3 5 5 3 5 5 5 5 5 5 5 3 5 5 3 5 5 5 3 5 5 5 5 5 5 5 5 5 3 5 5 5 5 5 5 3 5 5 3 5 5 5 5 3 5 5 5 5 5 5 3 3 3 5 5 5 3 5 3 5 3 5 5 5 5 5 5 3 5 5 5 3 5 5 5 3 5 5 5 5 5 5 5 5 5 5 5 5 3 5 5 5 3 5 5 5 5 5 3 3 5 5 3 5 3 3 3 5 5 5 3 5 5 5 5 5 3 5 5 5 5 5 5 5 5 5 5 5 5 3 5 5 5 5 5 5 3 5 5 3 5 5 3 5 5 5 5 5 3 5 5 3 5 3 5 3 5 5 5 5 5 5 3 5 5 5 5 3 5 5 5 5 5 5 5 5 5 5 3 5 5 5 5 5 3 5 5 5 5 5 5 5 5 5 5 5 5 5 5 5 3 5 5 5 5 5 3 5 3 5 5 5 5 5 3 5 5 5 5 5 3 5 5 5 5 5 3 5 5 5 5 5 5 5 5 5 5 3 5 3 5 3 5 5 3 5 5 5 5 5 5 5 5 3 5 3 5 5 5 5 5 5 5 5 5 5 3 5 5 5 5 5 5 5 5 5 5 3 5 5 5 3 5 3 3 5 5 5 3 5 5 5 3 3 5 5 5 5 5 5 5 5 5 5 3 3 5 5 5 5 5 3 5 5 5 5 5 5 5 5 5 5 3 5 3 3 3 5 5 5 5 5 5 5 5 3 5 5 5 5 5 5 5 5 5 5 5 5 5 5 5 5 5 5 5 5 5 5 5 5 5 5 5 5 5 3 5 5 5 5 3 5 5 5 5 5 5 5 5 3 5 5 5 5 5 5 5 5 3 5 5 5 5 5 5 5 5 5 5 5 5 5 5 5 5 5 5 5 5 5 5 5 5 5 5 3 5 5 5 5 5 5 3 5 3 5 5 3 5 5 5 3 5 3 5 5 5 3 5 5 5 3 5 5 5 5 5 5 3 5 5 5 5 5 5 5 5 5 5 5 5 5 5 5 5 5 5 5 5 5 5 5 5 5 5 5 3 5 3 5 5 5 5 3 5 5 5 5 5 5 5 5 5 5 5 5 5 3 5 5 3 5 5 3 5 5 5 5 5 3 5 5 5 5 5 5 5 5 3 5 3 5 5 5 5 5 3 3 5 5 3 5 5 5 3 5 5 5 5 5 5 5 3 5 5 5 5 5 5 5 5 5 5 5 5 5 5 5 5 3 5 5 5 5 5 3 5 3 5 5 5 5 5 5 5 5 5 5 5 5 3 5 3 5 5 5 5 5 5 3 3 5 5 5 5 5 5 5 5 5 5 5 5 5 5 5 5 5 5 5 5 5 3 5 5 3 5 5 5 5 5 3 5 5 5 5 5 5 3 5 5 5 5 5 5 5 5 5 5 5 5 5 5 5 5 3 5 5 3 5 5 5 5 3 5 5 5 5 5 5 5 5 5 5 5 3 5 5 5 5 5 5 5 5 5 5 5 5 5 5 5 5 5 5 5 3 5 5 5 5 5 5 5 5 5 5 5 5 3 5 5 5 5 5 5 5 5 5 5 5 5 5 3 3 5 5 5 5 5 5 3 5 5 5 5 5 5 5 5 5 5 5 5 5 5 5 5 5 5 5 5 5 5 5 5 5 5 5 5 5 5 5 5 5 5 5 3 5 5 5 5 5 5 5 5 3 5 5 5 5 5 5 5 5 5 5 5 5 3 5 5 5 5 3 5 3 5 5 5 5 5 5 5 5 3 5 5 5 5 5 5 5 5 5 5 3 5 5 5 3 5 5 3 5 5 5 5 3 5 5 3 5 5 5 5 5 5 5 5 3 5 5 5 3 5 5 5 5 5 5 5 3 5 3 5 3 5 3 3 5 5 5 3 3 3 5 5 3 5 5 5 3 5 5 5 5 3 5 5 5 5 5 5 5 5 5 5 5 5 5 5 5 5 5 5 5 5 5 5 5 5 5 5 5 5 5 5 5 5 5 5 5 5 5 5 3 5 5 5 5 5 5 5 5 3 5 5 5 5 3 5 5 3 5 5 3 5 5 5 5 3 5 5 5 5 5 3 5 5 5 5 5 5 5 5 5 5 5 5 5 3 3 5 5 5 3 5 5 5 5 5 5 5 5 5 5 5 5 5 5 3 5 5 5 5 5 5 3 5 5 3 5 5 5 5 5 5 5 5 5 5 3 5 5 5 5 5 3 5 5 5 5 5 5 5 5 5 5 3 5 5 5 5 5 5 5 5 5 5 5 5 5 5 5 3 5 5 5 5 5 5 5 5 5 5 5 5 5 5 5 5 5 5 5 5 5 5 5 3 5 3 5 5 5 3 5 5 5 5 5 5 5 5 5 3 5 5 5 3 5 5 5 5 5 5 5 5 5 5 5 5 5 5 5 5 3 5 5 5 5 5 3 5 5 5 3 5 3 5 5 5 5 5 5 3 5 5 5 5 5 5 5 5 5 5 5 5 5 5 5 5 5 5 5 5 5 5 5 5 5 5 5 3 5 5 3 5 5 5 5 5 5 5 3 5 5 5 5 3 5 5 3 5 5 5 5 5 5 3 5 5 5 3 5 5 5 3 5 5 5 5 5 3 5 5 5 5 5 3 5 5 5 5 5 5 5 5 3 5 5 3 5 5 5 5 3 5 5 5 5 3 5 5 5 5 3 5 5 5 3 5 3 5 5 5 5 5 5 5 5 5 5 3 5 5 5 5 5 5 5 3 3 5 5 5 5 5 3 5 5 5 5 5 3 5 5 5 3 5 5 3 5 5 3 5 5 5 3 5 5 5 5 5 5 3 5 5 5 5 5 3 5 5 5 5 5 3 5 5 5 5 5 5 3 5 5 5 5 3 5 5 5 5 5 3 5 5 5 5 5 5 5 5 5 5 3 5 5 5 5 5 5 5 3 5 5 5 5 3 3 5 5 3 5 5 5 5 5 5 5 3 5 5 5 5 5 5 5 3 5 3 5 5 3 5 5 5 5 3 5 3 5 5 5 5 5 5 5 5 5 5 3 5 5 5 5 5 3 5 5 5 3 5 5 5 5 3 5 5 3 5 5 5 5 5 3 5 3 5 3 3 5 5 5 5 3 3 5 5 5 5 5 5 5 5 5 5 5 5 5 3 5 5 5 5 5 5 3 3 5 5 5 5 5 5 5 5 5 5 5 5 5 3 5 5 5 5 5 5 5 5 5 5 5 5 5 5 5 5 5 5 5 5 5 5 5 5 5 5 5 5 5 5 5 5 5 3 5 5 3 5 5 5 5 5 5 5 3 5 5 5 3 5 5 3 5 5 5 3 3 5 5 5 5 3 3 5 5 5 5 5 5 5 5 5 5 5 5 5 5 3 5 5 3 5 5 5 3 5 5 5 5 3 5 5 3 5 5 5 5 5 5 5 5 5 5 5 3 5 5 5 5 5 5 5 3 5 5 5 5 5 5 5 5 5 5 5 5 5 5 5 5 5 5 3 5 5 5 5 5 5 3 5 3 5 5 5 5 5 3 5 5 3 5 5 5 3 5 5 5 3 5 5 5 5 5 5 5 5 5 5 5 5 5 5 3 5 5 5 5 3 3 5 5 5 5 5 5 5 5 5 5 5 5 5 5 5 5 5 5 5 3 5 5 5 5 5 5 5 5 3 5 3 5 5 5 5 5 5 5 3 5 3 5 5 5 5 5 3 5 5 5 5 5 5 3 5 5 5 5 5 3 3 5 5 5 3 3 3 5 5 5 5 5 3 5 5 5 5 5 3 5 5 5 5 3 5 3 3 5 3 3 5 5 5 3 5 5 5 3 5 5 5 3 5 5 5 3 5 5 5 5 5 5 5 5 3 5 5 5 3 5 5 5 5 5 5 3 5 5 5 5 5 5 3 5 5 5 5 5 5 5 5 5 5 5 5 5 5 3 5 3 5 5 5 3 5 5 3 5 3 5 3 5 5 3 5 5 5 5 5 5 3 5 5 5 5 3 5 5 5 5 5 5 3 5 5 5 5 5 5 5 5 5 5 3 5 5 5 5 5 5 5 5 5 5 5 5 5 5 5 5 5 5 5 3 3 5 5 5 3 5 5 3 5 5 3 5 5 3 5 5 3 3 5 5 5 5 3 5 5 5 5 5 5 5 5 5 5 5 3 3 5 5 5 3 5 3 5 3 5 5 5 5 5 3 5 5 3 5 3 5 5 3 3 3 5 5 5 5 3 5 5 3 5 3 5 5 3 5 5 5 5 5 5 5 5 3 5 3 3 5 5 5 5 5 3 3 5 5 5 3 3 5 5 5 5 5 5 5 5 3 5 3 5 5 5 5 5 5 5 5 5 5 5 5 5 5 5 5 5 5 5 5 5 5 5 5 5 5 5 5 5 3 5 5 5 5 5 5 5 5 5 5 5 5 5 5 5 3 5 5 3 5 5 5 5 5 3 5 5 5 5 5 5 5 5 5 5 5 5 5 3 5 5 5 5 5 5 5 5 5 3 5 5 3 5 5 5 5 3 3 3 5 5 5 5 5 3 5 5 5 
</DataArray>
</Cells>
<PointData Scalars="" Vectors="displacement," Tensors="">
<DataArray type="Float64" Name="displacement" NumberOfComponents="3" format="ascii">
-3.4771049815285418e-07 0.024341026590380264 0 2.3188099226816397e-07 0.024998604727821713 0 -1.129717970397004e-07 0.024980128415407882 0 2.3188099226816397e-07 0.024998604727821713 0 -1.129717970397004e-07 0.024980128415407882 0 -1.1503676831088078e-07 0.025000614405167189 0 -7.9386934276810573e-08 0.024339365962330585 0 2.6182529619634859e-06 0.024652342861941279 0 9.9248883773892053e-08 0.024337322996556901 0 0.00013438940729262121 0.023962215172051878 0 0.00012715049561220465 0.024204717945070089 0 9.9248883773892053e-08 0.024337322996556901 0 0.00013438940729262121 0.023962215172051878 0 7.3353241281524517e-07 0.023300013184631978 0 0.00013438940729262121 0.023962215172051878 0 8.1506312336747017e-05 0.024458522834838112 0 0.00011323990826940708 0.024284504138290315 0 0.00013438940729262121 0.023962215172051878 0 0.00012715049561220465 0.024204717945070089 0 8.1506312336747017e-05 0.024458522834838112 0 2.6182529619634859e-06 0.024652342861941279 0 1.1822046178095109e-07 0.024999411165912675 0 0.00012715049561220465 0.024204717945070089 0 8.5618512465401721e-07 0.024998310507546209 0 8.1506312336747017e-05 0.024458522834838112 0 8.5618512465401721e-07 0.024998310507546209 0 8.1506312336747017e-05 0.024458522834838112 0 8.1206274560668913e-05 0.024681451568445818 0 8.1506312336747017e-05 0.024458522834838112 0 8.1206274560668913e-05 0.024681451568445818 0 0.00011323990826940708 0.024284504138290315 0 0.00012651414181503182 0.024489667261717904 0 8.1206274560668913e-05 0.024681451568445818 0 0.00011323990826940708 0.024284504138290315 0 0.00012651414181503182 0.024489667261717904 0 8.1206274560668913e-05 0.024681451568445818 0 6.3211567277195529e-05 0.024694775931833682 0 8.1206274560668913e-05 0.024681451568445818 0 -2.1817875142606184e-07 0.024999645631948897 0 6.3211567277195529e-05 0.024694775931833682 0 8.5618512465401721e-07 0.024998310507546209 0 8.1206274560668913e-05 0.024681451568445818 0 -2.1817875142606184e-07 0.024999645631948897 0 0.00015833857859330391 0.024256397179223007 0 0.00050687076572736615 0.02384482644130979 0 0.00034258176218249833 0.024166857068350277 0 0.00012651414181503182 0.024489667261717904 0 0.00015833857859330391 0.024256397179223007 0 0.00011323990826940708 0.024284504138290315 0 0.00012651414181503182 0.024489667261717904 0 0.00015833857859330391 0.024256397179223007 0 0.00019944968065386951 0.024401474992378627 0 0.00015833857859330391 0.024256397179223007 0 0.00011323990826940708 0.024284504138290315 0 -0.00018617377558868424 0.024116593519155557 0 0.00015833857859330391 0.024256397179223007 0 -0.00018617377558868424 0.024116593519155557 0 0.00050687076572736615 0.02384482644130979 0 0.00010775031662967778 0.022855863237693366 0 0.00015630149696089422 0.02324391148103723 0 0.00011323990826940708 0.024284504138290315 0 -0.00018617377558868424 0.024116593519155557 0 0.00012443627862992766 0.023599854319123807 0 0.00013438940729262121 0.023962215172051878 0 0.00011323990826940708 0.024284504138290315 0 0.00012443627862992766 0.023599854319123807 0 0.00013438940729262121 0.023962215172051878 0 0.00012443627862992766 0.023599854319123807 0 7.3353241281524517e-07 0.023300013184631978 0 0.00012443627862992766 0.023599854319123807 0 7.3353241281524517e-07 0.023300013184631978 0 -1.384321194533364e-06 0.022263067807304578 0 0.00010775031662967778 0.022855863237693366 0 2.6856869213436991e-07 0.022261301604889254 0 0.00059019592012419673 0.021571450030895487 0 1.6628824195723925e-07 0.022258265253025857 0 0.00024130551427774713 0.021460067795408405 0 -0.00018617377558868424 0.024116593519155557 0 0.00012443627862992766 0.023599854319123807 0 -1.384321194533364e-06 0.022263067807304578 0 1.6628824195723925e-07 0.022258265253025857 0 0.00024130551427774713 0.021460067795408405 0 6.2395978652800244e-07 0.020796845920417664 0 0.00024130551427774713 0.021460067795408405 0 6.2395978652800244e-07 0.020796845920417664 0 2.3494037841240303e-05 0.021296594531767573 0 6.2395978652800244e-07 0.020796845920417664 0 2.3494037841240303e-05 0.021296594531767573 0 -5.8394597623931554e-05 0.020522369922025017 0 0.00059019592012419673 0.021571450030895487 0 0.00024130551427774713 0.021460067795408405 0 2.3494037841240303e-05 0.021296594531767573 0 -1.0947170326681011e-06 0.019331180709181748 0 -0.00046828621233889207 0.020828053196855906 0 -0.00016893053443738394 0.01855812513577371 0 2.6786885734860603e-05 0.019666304544319595 0 1.3393800878114552e-05 0.019492493643560902 0 -1.0947170326681011e-06 0.019331180709181748 0 -5.8394597623931554e-05 0.020522369922025017 0 -0.00046828621233889207 0.020828053196855906 0 6.2395978652800244e-07 0.020796845920417664 0 -1.0947170326681011e-06 0.019331180709181748 0 -5.8394597623931554e-05 0.020522369922025017 0 2.3494037841240303e-05 0.021296594531767573 0 -5.8394597623931554e-05 0.020522369922025017 0 -0.00046828621233889207 0.020828053196855906 0 2.3494037841240303e-05 0.021296594531767573 0 -0.00046828621233889207 0.020828053196855906 0 -0.00045476778570556996 0.022267738181463437 0 -0.00016861379408604238 0.017020980215708616 0 -8.7892885991246113e-05 0.017397935955869293 0 -0.00012013832062487883 0.017081824279349241 0 -0.00016861379408604238 0.017020980215708616 0 -0.00016893053443738394 0.01855812513577371 0 -8.7892885991246113e-05 0.017397935955869293 0 0.00014708234663479925 0.017290516684747806 0 -0.00012013832062487883 0.017081824279349241 0 -0.00016889817104439488 0.017273856908502437 0 -0.00016861379408604238 0.017020980215708616 0 0.00014708234663479925 0.017290516684747806 0 -0.00012013832062487883 0.017081824279349241 0 2.6786885734860603e-05 0.019666304544319595 0 0.00020307005386627425 0.020253079102870948 0 -0.00016861379408604238 0.017020980215708616 0 0.00014708234663479925 0.017290516684747806 0 0.00080814802606407924 0.017204535504096279 0 0.00073571335635785537 0.017632563175748545 0 0.0013081102487119227 0.017512037188321426 0 0.00080608039848472604 0.018207772386125008 0 0.00014708234663479925 0.017290516684747806 0 0.00073571335635785537 0.017632563175748545 0 0.00038263719094172452 0.017922765766433896 0 0.00014708234663479925 0.017290516684747806 0 0.00073571335635785537 0.017632563175748545 0 0.00080814802606407924 0.017204535504096279 0 0.00014708234663479925 0.017290516684747806 0 -0.00012441703544094953 0.017853465020204334 0 0.00038263719094172452 0.017922765766433896 0 0.00014708234663479925 0.017290516684747806 0 -0.00012441703544094953 0.017853465020204334 0 -0.00016889817104439488 0.017273856908502437 0 0.00059019592012419673 0.021571450030895487 0 0.00010229016106323711 0.022525909023365879 0 0.00050687076572736615 0.02384482644130979 0 0.00059019592012419673 0.021571450030895487 0 2.3494037841240303e-05 0.021296594531767573 0 0.00010229016106323711 0.022525909023365879 0 0.00010229016106323711 0.022525909023365879 0 -0.00045476778570556996 0.022267738181463437 0 -0.00028118832797190298 0.023125903674760209 0 2.3494037841240303e-05 0.021296594531767573 0 0.00010229016106323711 0.022525909023365879 0 -0.00045476778570556996 0.022267738181463437 0 0.00073571335635785537 0.017632563175748545 0 0.00080814802606407924 0.017204535504096279 0 0.0013081102487119227 0.017512037188321426 0 0.00020307005386627425 0.020253079102870948 0 0.00030889660087593404 0.020678917338511987 0 0.00030889660087593404 0.020678917338511987 0 0.00052512748602675629 0.021104410593072026 0 0.00010229016106323711 0.022525909023365879 0 0.00023405222606564025 0.023947464117987913 0 0.00050687076572736615 0.02384482644130979 0 0.00010229016106323711 0.022525909023365879 0 -0.00028118832797190298 0.023125903674760209 0 0.00023405222606564025 0.023947464117987913 0 0.00023405222606564025 0.023947464117987913 0 0.00050687076572736615 0.02384482644130979 0 0.00041083978612766267 0.024075661946247131 0 0.00041083978612766267 0.024075661946247131 0 0.00039166713298987525 0.024064297258913799 0 0.0004157281947351916 0.024155263669006406 0 0.00023405222606564025 0.023947464117987913 0 0.00041083978612766267 0.024075661946247131 0 0.00039166713298987525 0.024064297258913799 0 0.0013081102487119227 0.017512037188321426 0 0.0015362058632256018 0.01878796975463087 0 0.00080608039848472604 0.018207772386125008 0 0.00016845432139227909 0.023906490133505289 0 0.00023405222606564025 0.023947464117987913 0 0.00039166713298987525 0.024064297258913799 0 0.00016845432139227909 0.023906490133505289 0 0.00039166713298987525 0.024064297258913799 0 0.00052029269974752902 0.024110316155924114 0 0.00030889660087593404 0.020678917338511987 0 0.00075391371461270304 0.021420940160850829 0 0.00039166713298987525 0.024064297258913799 0 0.00052029269974752902 0.024110316155924114 0 0.00048207024692667461 0.024085576869089576 0 0.00052029269974752902 0.024110316155924114 0 0.00048207024692667461 0.024085576869089576 0 0.00056286367219980247 0.023981557869851077 0 0.00048207024692667461 0.024085576869089576 0 0.00056286367219980247 0.023981557869851077 0 0.0004157281947351916 0.024155263669006406 0 0.00039166713298987525 0.024064297258913799 0 0.00048207024692667461 0.024085576869089576 0 0.0004157281947351916 0.024155263669006406 0 -0.00012441703544094953 0.017853465020204334 0 0.00024406860989247478 0.018348724725674326 0 -0.00018170574887823373 0.018699375426138296 0 -0.00012441703544094953 0.017853465020204334 0 0.00024406860989247478 0.018348724725674326 0 0.00038263719094172452 0.017922765766433896 0 0.00024406860989247478 0.018348724725674326 0 0.00038263719094172452 0.017922765766433896 0 0.00080608039848472604 0.018207772386125008 0 0.00073571335635785537 0.017632563175748545 0 0.00038263719094172452 0.017922765766433896 0 0.00080608039848472604 0.018207772386125008 0 0.0015362058632256018 0.01878796975463087 0 0.00041627434949968061 0.019171007387580045 0 0.00074691267482862079 0.020136712799859766 0 0.00024406860989247478 0.018348724725674326 0 0.00080608039848472604 0.018207772386125008 0 0.00041627434949968061 0.019171007387580045 0 0.0015362058632256018 0.01878796975463087 0 0.00080608039848472604 0.018207772386125008 0 0.00041627434949968061 0.019171007387580045 0 0.00024406860989247478 0.018348724725674326 0 0.00041627434949968061 0.019171007387580045 0 -0.00018170574887823373 0.018699375426138296 0 0.00041627434949968061 0.019171007387580045 0 -0.00018170574887823373 0.018699375426138296 0 -0.00026240977170813079 0.019457141599815958 0 -9.3994822683971668e-05 0.020157582990297285 0 -0.00026240977170813079 0.019457141599815958 0 -0.0007310831049478372 0.019989917677275759 0 0.00041627434949968061 0.019171007387580045 0 -9.3994822683971668e-05 0.020157582990297285 0 -0.00026240977170813079 0.019457141599815958 0 0.00041627434949968061 0.019171007387580045 0 -9.3994822683971668e-05 0.020157582990297285 0 0.00074691267482862079 0.020136712799859766 0 0.00074691267482862079 0.020136712799859766 0 0.0016433036104712272 0.020652929315805625 0 0.00072081663563450227 0.021571306502493434 0 0.00074691267482862079 0.020136712799859766 0 -0.00016094350180384875 0.021489085667185971 0 0.00072081663563450227 0.021571306502493434 0 -9.3994822683971668e-05 0.020157582990297285 0 0.00074691267482862079 0.020136712799859766 0 -0.00016094350180384875 0.021489085667185971 0 -9.3994822683971668e-05 0.020157582990297285 0 -0.00016094350180384875 0.021489085667185971 0 -0.00071799692595387514 0.020766519970866322 0 0.00052029269974752902 0.024110316155924114 0 0.00056286367219980247 0.023981557869851077 0 0.00094478036240322222 0.023803859846818681 0 0.0015362058632256018 0.01878796975463087 0 0.00074691267482862079 0.020136712799859766 0 0.0016433036104712272 0.020652929315805625 0 0.00075391371461270304 0.021420940160850829 0 0.00098174176526093226 0.022082347927570262 0 0.00094478036240322222 0.023803859846818681 0 0.00068399935686987124 0.02367433106484567 0 0.00088177121616482318 0.023218251238009111 0 0.00068399935686987124 0.02367433106484567 0 0.00045245402709265616 0.023761082796330837 0 0.00066550295314616475 0.02340035675895458 0 0.00056286367219980247 0.023981557869851077 0 0.00068399935686987124 0.02367433106484567 0 0.00045245402709265616 0.023761082796330837 0 0.00056286367219980247 0.023981557869851077 0 0.00094478036240322222 0.023803859846818681 0 0.00068399935686987124 0.02367433106484567 0 0.00045245402709265616 0.023761082796330837 0 0.00035425564896630982 0.024119047127793988 0 0.00021538460596947655 0.02393689492057003 0 0.00056286367219980247 0.023981557869851077 0 0.00045245402709265616 0.023761082796330837 0 0.00035425564896630982 0.024119047127793988 0 0.00035425564896630982 0.024119047127793988 0 0.00021538460596947655 0.02393689492057003 0 0.00014217290434929988 0.024234141599757852 0 0.00045245402709265616 0.023761082796330837 0 0.00021538460596947655 0.02393689492057003 0 0.00024854231651184455 0.023619498272661493 0 0.00021538460596947655 0.02393689492057003 0 -1.225618558297481e-05 0.023772274741354647 0 0.00024854231651184455 0.023619498272661493 0 -1.225618558297481e-05 0.023772274741354647 0 -0.00032491693983949536 0.024035128684437072 0 3.0859733491272417e-05 0.024074720811336527 0 0.00021538460596947655 0.02393689492057003 0 -1.225618558297481e-05 0.023772274741354647 0 3.0859733491272417e-05 0.024074720811336527 0 -7.3404026537020754e-06 0.024600440882079539 0 7.7921588738402432e-05 0.024801350070969917 0 -1.4440943872174439e-05 0.025023930370713179 0 1.077840279274632e-09 0.024999562600101007 0 -2.6476205449971388e-08 0.025000289741482034 0 -1.4440943872174439e-05 0.025023930370713179 0 5.5576935937723874e-06 0.024997800380758727 0 -2.6476205449971388e-08 0.025000289741482034 0 -1.225618558297481e-05 0.023772274741354647 0 -0.00032491693983949536 0.024035128684437072 0 -0.00035643607059087306 0.023581132857617371 0 -7.3404026537020754e-06 0.024600440882079539 0 -2.4156805711933309e-05 0.024618535003296003 0 -0.00032491693983949536 0.024035128684437072 0 3.0859733491272417e-05 0.024074720811336527 0 2.5812451656044084e-07 0.02437812633454562 0 -1.4440943872174439e-05 0.025023930370713179 0 1.077840279274632e-09 0.024999562600101007 0 -7.9534718156185576e-05 0.024809028163696425 0 -0.00032491693983949536 0.024035128684437072 0 2.5812451656044084e-07 0.02437812633454562 0 -7.9534718156185576e-05 0.024809028163696425 0 0.00021538460596947655 0.02393689492057003 0 3.0859733491272417e-05 0.024074720811336527 0 0.00014217290434929988 0.024234141599757852 0 3.0859733491272417e-05 0.024074720811336527 0 2.5812451656044084e-07 0.02437812633454562 0 0.00014217290434929988 0.024234141599757852 0 0.00014217290434929988 0.024234141599757852 0 9.600880108148391e-05 0.02454427576573916 0 0.00023485550339990804 0.024324028148200338 0 2.5812451656044084e-07 0.02437812633454562 0 9.600880108148391e-05 0.02454427576573916 0 -7.9534718156185576e-05 0.024809028163696425 0 2.5812451656044084e-07 0.02437812633454562 0 0.00014217290434929988 0.024234141599757852 0 9.600880108148391e-05 0.02454427576573916 0 9.600880108148391e-05 0.02454427576573916 0 -7.9534718156185576e-05 0.024809028163696425 0 1.0227807936646695e-05 0.024769457682895537 0 1.077840279274632e-09 0.024999562600101007 0 -7.9534718156185576e-05 0.024809028163696425 0 -2.1817875142606184e-07 0.024999645631948897 0 -7.9534718156185576e-05 0.024809028163696425 0 1.0227807936646695e-05 0.024769457682895537 0 -2.1817875142606184e-07 0.024999645631948897 0 1.0227807936646695e-05 0.024769457682895537 0 -2.1817875142606184e-07 0.024999645631948897 0 6.3211567277195529e-05 0.024694775931833682 0 0.00012651414181503182 0.024489667261717904 0 6.3211567277195529e-05 0.024694775931833682 0 0.00019944968065386951 0.024401474992378627 0 9.600880108148391e-05 0.02454427576573916 0 6.3211567277195529e-05 0.024694775931833682 0 0.00019944968065386951 0.024401474992378627 0 9.600880108148391e-05 0.02454427576573916 0 1.0227807936646695e-05 0.024769457682895537 0 6.3211567277195529e-05 0.024694775931833682 0 0.00015833857859330391 0.024256397179223007 0 0.00019944968065386951 0.024401474992378627 0 0.00034258176218249833 0.024166857068350277 0 0.00019944968065386951 0.024401474992378627 0 0.00032449307035601049 0.024245260490379193 0 0.00023485550339990804 0.024324028148200338 0 0.00019944968065386951 0.024401474992378627 0 0.00034258176218249833 0.024166857068350277 0 0.00032449307035601049 0.024245260490379193 0 0.00050687076572736615 0.02384482644130979 0 0.00041083978612766267 0.024075661946247131 0 0.00034258176218249833 0.024166857068350277 0 0.00041083978612766267 0.024075661946247131 0 0.00034258176218249833 0.024166857068350277 0 0.0004157281947351916 0.024155263669006406 0 0.00034258176218249833 0.024166857068350277 0 0.00032449307035601049 0.024245260490379193 0 0.0004157281947351916 0.024155263669006406 0 0.00056286367219980247 0.023981557869851077 0 0.00035425564896630982 0.024119047127793988 0 0.0004157281947351916 0.024155263669006406 0 0.00035425564896630982 0.024119047127793988 0 0.00032449307035601049 0.024245260490379193 0 0.0004157281947351916 0.024155263669006406 0 0.00035425564896630982 0.024119047127793988 0 0.00032449307035601049 0.024245260490379193 0 0.00023485550339990804 0.024324028148200338 0 0.00035425564896630982 0.024119047127793988 0 0.00014217290434929988 0.024234141599757852 0 0.00023485550339990804 0.024324028148200338 0 9.600880108148391e-05 0.02454427576573916 0 0.00019944968065386951 0.024401474992378627 0 0.00023485550339990804 0.024324028148200338 0 8.1840192968249631e-05 0.014315454900513499 0 0.00011615358019411726 0.014723467739543248 0 -0.00011707746550852965 0.014624653645481515 0 8.1840192968249631e-05 0.014315454900513499 0 0.0002461403039023956 0.014679063859016546 0 0.00011615358019411726 0.014723467739543248 0 8.1840192968249631e-05 0.014315454900513499 0 -0.00011707746550852965 0.014624653645481515 0 -0.00013272920754350356 0.014194208543832364 0 8.1840192968249631e-05 0.014315454900513499 0 0.0002461403039023956 0.014679063859016546 0 0.00024906824985202467 0.014318386375562684 0 0.0002461403039023956 0.014679063859016546 0 0.00024906824985202467 0.014318386375562684 0 0.00030635261028275637 0.01484064792487238 0 0.00024906824985202467 0.014318386375562684 0 7.7934220021843805e-05 0.013304334313918156 0 -3.6178018554203968e-05 0.013769254376452865 0 8.1840192968249631e-05 0.014315454900513499 0 0.00024906824985202467 0.014318386375562684 0 -3.6178018554203968e-05 0.013769254376452865 0 8.1840192968249631e-05 0.014315454900513499 0 -3.6178018554203968e-05 0.013769254376452865 0 -0.00013272920754350356 0.014194208543832364 0 7.7934220021843805e-05 0.013304334313918156 0 2.6393610155424368e-07 0.01347282347974854 0 1.9504670644757902e-07 0.012007553829308461 0 7.7934220021843805e-05 0.013304334313918156 0 2.6393610155424368e-07 0.01347282347974854 0 0.00016767703684222773 0.014261905473966172 0 0.00024906824985202467 0.014318386375562684 0 7.7934220021843805e-05 0.013304334313918156 0 0.00016767703684222773 0.014261905473966172 0 0.00024906824985202467 0.014318386375562684 0 0.00016767703684222773 0.014261905473966172 0 0.00023409878437957114 0.015011037327365289 0 0.00016767703684222773 0.014261905473966172 0 3.9961045332417583e-07 0.014937294265517298 0 0.00023409878437957114 0.015011037327365289 0 2.6393610155424368e-07 0.01347282347974854 0 0.00016767703684222773 0.014261905473966172 0 3.9961045332417583e-07 0.014937294265517298 0 3.9961045332417583e-07 0.014937294265517298 0 0.00023409878437957114 0.015011037327365289 0 5.2779064515282199e-05 0.015939391207346061 0 0.00023409878437957114 0.015011037327365289 0 0.00030635261028275637 0.01484064792487238 0 9.8891065551114286e-05 0.015445137195678076 0 0.00024906824985202467 0.014318386375562684 0 0.00023409878437957114 0.015011037327365289 0 0.00030635261028275637 0.01484064792487238 0 0.0002461403039023956 0.014679063859016546 0 0.00030635261028275637 0.01484064792487238 0 0.00028547191246742712 0.014777625215853659 0 0.00030635261028275637 0.01484064792487238 0 9.8891065551114286e-05 0.015445137195678076 0 0.00024465611549882529 0.014810954910810543 0 -0.00066333804002201172 0.014356359814906803 0 -0.00090551460746884471 0.014110810007545122 0 9.8891065551114286e-05 0.015445137195678076 0 -0.00043892815430860273 0.016381190265711457 0 -0.00044399962321265134 0.014995657258533466 0 -0.00092695373923617 0.016477284221424141 0 -0.0010512641236135477 0.016580251902120795 0 9.8891065551114286e-05 0.015445137195678076 0 -0.00043892815430860273 0.016381190265711457 0 5.2779064515282199e-05 0.015939391207346061 0 0.00023409878437957114 0.015011037327365289 0 9.8891065551114286e-05 0.015445137195678076 0 5.2779064515282199e-05 0.015939391207346061 0 3.9961045332417583e-07 0.014937294265517298 0 5.2779064515282199e-05 0.015939391207346061 0 3.2647287919529978e-08 0.01640163393412214 0 5.2779064515282199e-05 0.015939391207346061 0 3.2647287919529978e-08 0.01640163393412214 0 -5.0562052267691329e-05 0.016843916706464578 0 3.2647287919529978e-08 0.01640163393412214 0 -8.0142979372272802e-08 0.017866010159201223 0 -5.0562052267691329e-05 0.016843916706464578 0 -0.00043892815430860273 0.016381190265711457 0 5.2779064515282199e-05 0.015939391207346061 0 -5.0562052267691329e-05 0.016843916706464578 0 -0.00043892815430860273 0.016381190265711457 0 -0.00011228841055114395 0.017032481103166169 0 -5.0562052267691329e-05 0.016843916706464578 0 -0.00011228841055114395 0.017032481103166169 0 -5.0562052267691329e-05 0.016843916706464578 0 -2.1561430574490158e-05 0.017555002223179048 0 -8.0142979372272802e-08 0.017866010159201223 0 -5.0562052267691329e-05 0.016843916706464578 0 -2.1561430574490158e-05 0.017555002223179048 0 -8.0142979372272802e-08 0.017866010159201223 0 -0.00016893053443738394 0.01855812513577371 0 -2.1561430574490158e-05 0.017555002223179048 0 -1.0947170326681011e-06 0.019331180709181748 0 -8.0142979372272802e-08 0.017866010159201223 0 -0.00016893053443738394 0.01855812513577371 0 -0.00016893053443738394 0.01855812513577371 0 -2.1561430574490158e-05 0.017555002223179048 0 -8.7892885991246113e-05 0.017397935955869293 0 -0.00011228841055114395 0.017032481103166169 0 -8.7892885991246113e-05 0.017397935955869293 0 -0.00012013832062487883 0.017081824279349241 0 -0.00011228841055114395 0.017032481103166169 0 -2.1561430574490158e-05 0.017555002223179048 0 -8.7892885991246113e-05 0.017397935955869293 0 -0.00012013832062487883 0.017081824279349241 0 -0.00024957257452778704 0.01692081347873188 0 -0.00016889817104439488 0.017273856908502437 0 -0.00011228841055114395 0.017032481103166169 0 -0.00012013832062487883 0.017081824279349241 0 -0.00024957257452778704 0.01692081347873188 0 -0.00043892815430860273 0.016381190265711457 0 -0.00011228841055114395 0.017032481103166169 0 -0.00024957257452778704 0.01692081347873188 0 -0.00043892815430860273 0.016381190265711457 0 -0.00024957257452778704 0.01692081347873188 0 -0.00049433205893906738 0.017526076610099632 0 -0.00043892815430860273 0.016381190265711457 0 -0.00049433205893906738 0.017526076610099632 0 -0.001146695155024422 0.017736830174869468 0 -0.00012441703544094953 0.017853465020204334 0 -0.00049433205893906738 0.017526076610099632 0 -0.00016889817104439488 0.017273856908502437 0 -0.00024957257452778704 0.01692081347873188 0 -0.00049433205893906738 0.017526076610099632 0 -0.00016889817104439488 0.017273856908502437 0 -0.00012441703544094953 0.017853465020204334 0 -0.00018170574887823373 0.018699375426138296 0 -0.00060619897519919024 0.018286948464244251 0 -0.00012441703544094953 0.017853465020204334 0 -0.00049433205893906738 0.017526076610099632 0 -0.00060619897519919024 0.018286948464244251 0 -0.00049433205893906738 0.017526076610099632 0 -0.00060619897519919024 0.018286948464244251 0 -0.00087040937714429002 0.018249480116728611 0 -0.00049433205893906738 0.017526076610099632 0 -0.00087040937714429002 0.018249480116728611 0 -0.001146695155024422 0.017736830174869468 0 -0.00060619897519919024 0.018286948464244251 0 -0.00087040937714429002 0.018249480116728611 0 -0.00066294586527056946 0.018579837339175523 0 -0.0011461859081329246 0.018858854182006092 0 -0.0014455766509798161 0.017384215806893751 0 -0.00087040937714429002 0.018249480116728611 0 -0.00066294586527056946 0.018579837339175523 0 -0.0012618426698598781 0.018577417945683 0 -0.00060619897519919024 0.018286948464244251 0 -0.0012448059169137458 0.019262161477352425 0 -0.00082008278098044045 0.01930766481312058 0 -0.0011461859081329246 0.018858854182006092 0 -0.0011280787375744044 0.018870385871668009 0 -0.00018170574887823373 0.018699375426138296 0 -0.00060619897519919024 0.018286948464244251 0 -0.00082008278098044045 0.01930766481312058 0 -0.0010831481117848257 0.018759836298616172 0 -0.0011461859081329246 0.018858854182006092 0 -0.00018170574887823373 0.018699375426138296 0 -0.00026240977170813079 0.019457141599815958 0 -0.00082008278098044045 0.01930766481312058 0 -0.00026240977170813079 0.019457141599815958 0 -0.00082008278098044045 0.01930766481312058 0 -0.0007310831049478372 0.019989917677275759 0 -0.0014726608644848168 0.019278409548192946 0 -0.00107979599381844 0.019754901075899875 0 -0.0013113790130731961 0.020402053683608572 0 -0.00082008278098044045 0.01930766481312058 0 -0.00107979599381844 0.019754901075899875 0 -0.0007310831049478372 0.019989917677275759 0 -0.0014726608644848168 0.019278409548192946 0 -0.00082008278098044045 0.01930766481312058 0 -0.00107979599381844 0.019754901075899875 0 -0.0013113790130731961 0.020402053683608572 0 -0.0007310831049478372 0.019989917677275759 0 -0.00071799692595387514 0.020766519970866322 0 -0.00107979599381844 0.019754901075899875 0 -0.0013113790130731961 0.020402053683608572 0 -0.0007310831049478372 0.019989917677275759 0 -9.3994822683971668e-05 0.020157582990297285 0 -0.0007310831049478372 0.019989917677275759 0 -0.00071799692595387514 0.020766519970866322 0 -0.0013113790130731961 0.020402053683608572 0 -0.00071799692595387514 0.020766519970866322 0 -0.0010665899007974862 0.021453572536854953 0 -0.00016094350180384875 0.021489085667185971 0 -0.00071799692595387514 0.020766519970866322 0 -0.0010665899007974862 0.021453572536854953 0 -0.0013113790130731961 0.020402053683608572 0 -0.0010665899007974862 0.021453572536854953 0 -0.0021057289323197486 0.021178526679880613 0 -0.0014726608644848168 0.019278409548192946 0 -0.0013113790130731961 0.020402053683608572 0 -0.0021057289323197486 0.021178526679880613 0 -0.0011748493124501534 0.019882894161805966 0 -0.0016922863418355528 0.021391559406238575 0 -0.0020093293703996487 0.020538605093570982 0 -0.0011748493124501534 0.019882894161805966 0 -0.0020093293703996487 0.020538605093570982 0 -0.0025008351796420398 0.019772723038758346 0 -0.0011461859081329246 0.018858854182006092 0 -0.0018384561959792262 0.021071382238006163 0 -0.0020093293703996487 0.020538605093570982 0 -0.0026674378933198069 0.021104298587816369 0 -0.0025008351796420398 0.019772723038758346 0 -0.0020087709331871465 0.019457763779685354 0 -0.0014455766509798161 0.017384215806893751 0 -0.0016922863418355528 0.021391559406238575 0 -0.0020093293703996487 0.020538605093570982 0 -0.0026674378933198069 0.021104298587816369 0 -0.0016922863418355528 0.021391559406238575 0 -0.0026674378933198069 0.021104298587816369 0 -0.0023469346209629596 0.02194322008243629 0 -0.0020056378344661431 0.018028625190211998 0 -0.0030922746532033862 0.018882110433390442 0 -0.0035204443465073798 0.017330977628766068 0 -0.0030922746532033862 0.018882110433390442 0 -0.0035204443465073798 0.017330977628766068 0 -0.0042517272207050535 0.018832604732954811 0 -0.0020056378344661431 0.018028625190211998 0 -0.0035204443465073798 0.017330977628766068 0 -0.001731006007520414 0.015880829015226805 0 -0.0035204443465073798 0.017330977628766068 0 -0.001731006007520414 0.015880829015226805 0 -0.0038597945528844784 0.015700324343583032 0 -0.00032707904709237268 0.014212927360641423 0 4.4411455564569797e-05 0.014706186934530052 0 0.00036365709300939091 0.014277303475623218 0 -0.0014455766509798161 0.017384215806893751 0 -0.0018516287957224939 0.015566932162632474 0 -0.00087040937714429002 0.018249480116728611 0 -0.0012618426698598781 0.018577417945683 0 -0.001146695155024422 0.017736830174869468 0 -0.0014455766509798161 0.017384215806893751 0 -0.0010512641236135477 0.016580251902120795 0 -0.00032707904709237268 0.014212927360641423 0 -0.00044399962321265134 0.014995657258533466 0 4.4411455564569797e-05 0.014706186934530052 0 4.4411455564569797e-05 0.014706186934530052 0 0.00055510430885545787 0.014878873078445294 0 0.00036365709300939091 0.014277303475623218 0 9.8891065551114286e-05 0.015445137195678076 0 -0.00044399962321265134 0.014995657258533466 0 4.4411455564569797e-05 0.014706186934530052 0 9.8891065551114286e-05 0.015445137195678076 0 4.4411455564569797e-05 0.014706186934530052 0 0.00055510430885545787 0.014878873078445294 0 0.00030635261028275637 0.01484064792487238 0 0.00024465611549882529 0.014810954910810543 0 0.00028547191246742712 0.014777625215853659 0 0.00024465611549882529 0.014810954910810543 0 0.00028547191246742712 0.014777625215853659 0 0.00029977098139684724 0.01484028776861112 0 -0.00090551460746884471 0.014110810007545122 0 -0.0024059312665880121 0.014015530076508083 0 0.0002461403039023956 0.014679063859016546 0 0.00028547191246742712 0.014777625215853659 0 0.00029977098139684724 0.01484028776861112 0 0.00055510430885545787 0.014878873078445294 0 0.001029399337481744 0.014336398567547228 0 0.00036365709300939091 0.014277303475623218 0 -0.0024059312665880121 0.014015530076508083 0 -0.0018516287957224939 0.015566932162632474 0 -0.0059864197965583425 0.015517508850946856 0 -0.0038597945528844784 0.015700324343583032 0 -0.0054089994050512021 0.017379632664289504 0 -0.0035204443465073798 0.017330977628766068 0 -0.0038597945528844784 0.015700324343583032 0 -0.0054089994050512021 0.017379632664289504 0 -0.0035204443465073798 0.017330977628766068 0 -0.0042517272207050535 0.018832604732954811 0 -0.0054089994050512021 0.017379632664289504 0 -0.0054089994050512021 0.017379632664289504 0 -0.007631850170709914 0.017328486374224728 0 -0.006569622455768395 0.019379325517464265 0 -0.0042517272207050535 0.018832604732954811 0 -0.0054089994050512021 0.017379632664289504 0 -0.006569622455768395 0.019379325517464265 0 -0.0059864197965583425 0.015517508850946856 0 -0.0054089994050512021 0.017379632664289504 0 -0.007631850170709914 0.017328486374224728 0 -0.0024059312665880121 0.014015530076508083 0 -0.0032990383905145129 0.011967815695650037 0 -0.0032990383905145129 0.011967815695650037 0 -0.004503884922726656 0.012147800033198382 0 -0.004341612931017042 0.0065568182843734083 0 -0.0036534480331483188 0.0057751977144932971 0 -0.0048535586895875936 0.005557623691533709 0 -0.0043930018471471377 0.0065429298771046279 0 -0.0036534480331483188 0.0057751977144932971 0 -0.0035111295134480701 0.0068174675651193842 0 -0.0032990383905145129 0.011967815695650037 0 -0.0024409060276175897 0.0097474656689715868 0 -0.0043930018471471377 0.0065429298771046279 0 -0.0035111295134480701 0.0068174675651193842 0 -0.0037514223902226935 0.0079172056258547795 0 -0.0032990383905145129 0.011967815695650037 0 -0.0023133781057664581 0.012191163746024044 0 -0.0035111295134480701 0.0068174675651193842 0 -0.0037514223902226935 0.0079172056258547795 0 -0.0029044793619239636 0.0080250286002542994 0 -0.0023133781057664581 0.012191163746024044 0 -0.0025124443096556158 0.011962267108152572 0 -0.0024059312665880121 0.014015530076508083 0 -0.0023133781057664581 0.012191163746024044 0 0.00029977098139684724 0.01484028776861112 0 7.7135819567076272e-05 0.014863380275148965 0 0.00011615358019411726 0.014723467739543248 0 -0.0026004659586368328 0.012872955334608339 0 -0.0026781008595307592 0.012955610096753842 0 -0.0027277979510790008 0.012860172121834584 0 0.0002461403039023956 0.014679063859016546 0 0.00029977098139684724 0.01484028776861112 0 0.00011615358019411726 0.014723467739543248 0 -0.0023133781057664581 0.012191163746024044 0 -0.0018389821489980824 0.012101748633120388 0 7.7135819567076272e-05 0.014863380275148965 0 0.00011615358019411726 0.014723467739543248 0 -0.00011707746550852965 0.014624653645481515 0 -0.0035644820159401289 0.0079750355215422869 0 -0.0028345974774560971 0.0091677166027039746 0 -0.0029044793619239636 0.0080250286002542994 0 -0.0039009170083527298 0.003383901676424844 0 -0.0037086864103132214 0.004084882607879964 0 -0.0033585654886306255 0.0034810732543595875 0 -0.0039009170083527298 0.003383901676424844 0 -0.0044980086436582677 0.0031302688138565185 0 -0.0039940160385306669 0.0028049717639369435 0 -0.0039009170083527298 0.003383901676424844 0 -0.0044980086436582677 0.0031302688138565185 0 -0.0044427887421019958 0.0039299079666426122 0 -0.0044980086436582677 0.0031302688138565185 0 -0.0044427887421019958 0.0039299079666426122 0 -0.0050495734099347623 0.0034968498832231034 0 -0.0044427887421019958 0.0039299079666426122 0 -0.0037086864103132214 0.004084882607879964 0 -0.0041471338340797193 0.0048126017093807786 0 -0.0039009170083527298 0.003383901676424844 0 -0.0044427887421019958 0.0039299079666426122 0 -0.0037086864103132214 0.004084882607879964 0 -0.0037086864103132214 0.004084882607879964 0 -0.0041471338340797193 0.0048126017093807786 0 -0.0033212127573130786 0.0048149635705578651 0 -0.0036534480331483188 0.0057751977144932971 0 -0.0041471338340797193 0.0048126017093807786 0 -0.0033212127573130786 0.0048149635705578651 0 -0.0036534480331483188 0.0057751977144932971 0 -0.0041471338340797193 0.0048126017093807786 0 -0.0048535586895875936 0.005557623691533709 0 -0.0041471338340797193 0.0048126017093807786 0 -0.0053195657770013019 0.0045844135228033673 0 -0.0048535586895875936 0.005557623691533709 0 -0.0044427887421019958 0.0039299079666426122 0 -0.0041471338340797193 0.0048126017093807786 0 -0.0053195657770013019 0.0045844135228033673 0 -0.0047265899120661359 0.01273485905379065 0 -0.004503884922726656 0.012147800033198382 0 -0.0042517272207050535 0.018832604732954811 0 -0.006569622455768395 0.019379325517464265 0 -0.0047800386331191781 0.020119674648633946 0 -0.0054966063914882856 0.021445781481707379 0 -0.006569622455768395 0.019379325517464265 0 -0.0047800386331191781 0.020119674648633946 0 -0.0042517272207050535 0.018832604732954811 0 -0.0047800386331191781 0.020119674648633946 0 -0.0035604038477643038 0.019880927447530485 0 -0.0047800386331191781 0.020119674648633946 0 -0.0037159659800624668 0.021078743308604514 0 -0.0035604038477643038 0.019880927447530485 0 -0.0054966063914882856 0.021445781481707379 0 -0.0037514679977284334 0.022296867954299224 0 -0.0037159659800624668 0.021078743308604514 0 -0.0054966063914882856 0.021445781481707379 0 -0.0047800386331191781 0.020119674648633946 0 -0.0037159659800624668 0.021078743308604514 0 -0.0054966063914882856 0.021445781481707379 0 -0.004365302360776366 0.023497394010254698 0 -0.0037514679977284334 0.022296867954299224 0 -0.0047265899120661359 0.01273485905379065 0 -0.0045110904125946439 0.013281962868263393 0 -0.004365302360776366 0.023497394010254698 0 -0.0034280542174417528 0.02314803870758354 0 -0.0037514679977284334 0.022296867954299224 0 -0.0044427887421019958 0.0039299079666426122 0 -0.0053195657770013019 0.0045844135228033673 0 -0.0050495734099347623 0.0034968498832231034 0 -0.0053195657770013019 0.0045844135228033673 0 -0.0050495734099347623 0.0034968498832231034 0 -0.0057370532650195798 0.0036544208657064152 0 -0.0050495734099347623 0.0034968498832231034 0 -0.0054829180139226103 0.003121702071916593 0 -0.005045848963177774 0.0028156612892216563 0 -0.0044980086436582677 0.0031302688138565185 0 -0.0050495734099347623 0.0034968498832231034 0 -0.005045848963177774 0.0028156612892216563 0 -0.0057370532650195798 0.0036544208657064152 0 -0.0061248822676767097 0.0027838863296204665 0 -0.0054829180139226103 0.003121702071916593 0 -0.0050495734099347623 0.0034968498832231034 0 -0.0057370532650195798 0.0036544208657064152 0 -0.0054829180139226103 0.003121702071916593 0 -0.0045110904125946439 0.013281962868263393 0 -0.0039344607582756912 0.013794268295399677 0 -0.003000775944854657 0.024388367120729906 0 -0.0027063186874644232 0.024025201492194895 0 -0.0029169753040526694 0.023563795777027878 0 -0.004365302360776366 0.023497394010254698 0 -0.003000775944854657 0.024388367120729906 0 -0.0033112643511967249 0.025030736194184961 0 -0.003000775944854657 0.024388367120729906 0 -0.0025932530096940956 0.022366972628161196 0 -0.0034280542174417528 0.02314803870758354 0 -0.004365302360776366 0.023497394010254698 0 -0.003000775944854657 0.024388367120729906 0 -0.0034280542174417528 0.02314803870758354 0 -0.0027440191458675501 0.023328514695405166 0 -0.0026290067170156904 0.022619630701815458 0 -0.003000775944854657 0.024388367120729906 0 -0.0025302675376536942 0.024517431016501227 0 -0.0027063186874644232 0.024025201492194895 0 -0.0027063186874644232 0.024025201492194895 0 -0.0019522524762385107 0.02407468241428206 0 -0.0021549835632175681 0.024435981962503458 0 -0.0025302675376536942 0.024517431016501227 0 -0.0027063186874644232 0.024025201492194895 0 -0.0021549835632175681 0.024435981962503458 0 -0.0025302675376536942 0.024517431016501227 0 -0.0021549835632175681 0.024435981962503458 0 -0.0021547288793347984 0.024752379661863892 0 -0.0027063186874644232 0.024025201492194895 0 -0.0029169753040526694 0.023563795777027878 0 -0.0022277004359443986 0.022842367987115197 0 -0.0027063186874644232 0.024025201492194895 0 -0.0025135201284102733 0.022900059771702033 0 -0.0021972768458550251 0.023641439469052349 0 -0.0025183247924275187 0.023256829380777177 0 -0.0023012251594967293 0.022561225532637726 0 -0.0027063186874644232 0.024025201492194895 0 -0.0021972768458550251 0.023641439469052349 0 -0.0019522524762385107 0.02407468241428206 0 -0.0025932530096940956 0.022366972628161196 0 -0.0034280542174417528 0.02314803870758354 0 -0.0037514679977284334 0.022296867954299224 0 -0.0025932530096940956 0.022366972628161196 0 -0.0037514679977284334 0.022296867954299224 0 -0.0037159659800624668 0.021078743308604514 0 -0.0026290067170156904 0.022619630701815458 0 -0.0023753840872733256 0.021181673188205113 0 -0.0025932530096940956 0.022366972628161196 0 -0.0037159659800624668 0.021078743308604514 0 -0.002282973216275509 0.02019096008707056 0 -0.0020056378344661431 0.018028625190211998 0 -0.0030922746532033862 0.018882110433390442 0 -0.002282973216275509 0.02019096008707056 0 -0.0037159659800624668 0.021078743308604514 0 -0.0035604038477643038 0.019880927447530485 0 -0.002282973216275509 0.02019096008707056 0 -0.0030922746532033862 0.018882110433390442 0 -0.0035604038477643038 0.019880927447530485 0 -0.002282973216275509 0.02019096008707056 0 -0.0030922746532033862 0.018882110433390442 0 -0.0042517272207050535 0.018832604732954811 0 -0.0035604038477643038 0.019880927447530485 0 -0.0026674378933198069 0.021104298587816369 0 -0.0023469346209629596 0.02194322008243629 0 -0.0028099908208844239 0.022411719687003721 0 -0.0023469346209629596 0.02194322008243629 0 -0.0028099908208844239 0.022411719687003721 0 -0.0022277004359443986 0.022842367987115197 0 -0.0020087709331871465 0.019457763779685354 0 -0.0023753840872733256 0.021181673188205113 0 -0.0016922863418355528 0.021391559406238575 0 -0.0023469346209629596 0.02194322008243629 0 -0.0022277004359443986 0.022842367987115197 0 -0.0029169753040526694 0.023563795777027878 0 -0.0028099908208844239 0.022411719687003721 0 -0.0022277004359443986 0.022842367987115197 0 -0.0025135201284102733 0.022900059771702033 0 -0.0015645195584774361 0.022317960595740139 0 -0.0015859021229630117 0.023516683483556785 0 -0.0025135201284102733 0.022900059771702033 0 -0.0015859021229630117 0.023516683483556785 0 -0.0021972768458550251 0.023641439469052349 0 -0.0010665899007974862 0.021453572536854953 0 -0.0021057289323197486 0.021178526679880613 0 -0.0015645195584774361 0.022317960595740139 0 -0.0021057289323197486 0.021178526679880613 0 -0.0025135201284102733 0.022900059771702033 0 -0.0015645195584774361 0.022317960595740139 0 -0.0018384561959792262 0.021071382238006163 0 -0.0023012251594967293 0.022561225532637726 0 -0.00016094350180384875 0.021489085667185971 0 -0.0010665899007974862 0.021453572536854953 0 -0.00059181267678919266 0.022472261431908835 0 -0.0010665899007974862 0.021453572536854953 0 -0.0015645195584774361 0.022317960595740139 0 -0.00059181267678919266 0.022472261431908835 0 -0.0015645195584774361 0.022317960595740139 0 -0.00059181267678919266 0.022472261431908835 0 -0.0015859021229630117 0.023516683483556785 0 -0.00059181267678919266 0.022472261431908835 0 -0.0015859021229630117 0.023516683483556785 0 -3.5479015205585065e-05 0.023470213704302561 0 -0.0015859021229630117 0.023516683483556785 0 -0.0019522524762385107 0.02407468241428206 0 -0.0011683518963035862 0.024326450637221116 0 -0.0015859021229630117 0.023516683483556785 0 -0.0011683518963035862 0.024326450637221116 0 -0.0008906681519173724 0.023824174809863419 0 -0.00099333097550172644 0.023754413446768617 0 -0.00057742253670753135 0.02380501858479718 0 -0.0015859021229630117 0.023516683483556785 0 -0.0021972768458550251 0.023641439469052349 0 -0.0019522524762385107 0.02407468241428206 0 -0.0019522524762385107 0.02407468241428206 0 -0.0017405760351833406 0.024484155059702854 0 -0.0011683518963035862 0.024326450637221116 0 -0.0019522524762385107 0.02407468241428206 0 -0.0021549835632175681 0.024435981962503458 0 -0.0017405760351833406 0.024484155059702854 0 -0.0021549835632175681 0.024435981962503458 0 -0.0017405760351833406 0.024484155059702854 0 -0.0018744956050263872 0.024747172647202522 0 -0.0017405760351833406 0.024484155059702854 0 -0.0011683518963035862 0.024326450637221116 0 -0.0015962583470109219 0.024797253952771447 0 -0.0011683518963035862 0.024326450637221116 0 -0.0014069558301795268 0.025164061587442811 0 -0.0015962583470109219 0.024797253952771447 0 -0.0011683518963035862 0.024326450637221116 0 -0.0012828126564025438 0.02499526255431753 0 -0.00098744525432573776 0.024667537029087104 0 -0.0012699684183306273 0.024587717977250526 0 -0.0012968034813933085 0.024651340562161689 0 -0.0014069558301795268 0.025164061587442811 0 -0.0016276882462108355 0.02508913304914864 0 -0.0015962583470109219 0.024797253952771447 0 -0.0012828126564025438 0.02499526255431753 0 -0.0010829592300419326 0.025015607102834542 0 -0.00098744525432573776 0.024667537029087104 0 -0.0017405760351833406 0.024484155059702854 0 -0.0015962583470109219 0.024797253952771447 0 -0.0018744956050263872 0.024747172647202522 0 -0.0015962583470109219 0.024797253952771447 0 -0.0018744956050263872 0.024747172647202522 0 -0.0017784171829170708 0.024972443407851406 0 -0.0021549835632175681 0.024435981962503458 0 -0.0018744956050263872 0.024747172647202522 0 -0.0021547288793347984 0.024752379661863892 0 -0.0018744956050263872 0.024747172647202522 0 -0.0021547288793347984 0.024752379661863892 0 -0.0020536807596785848 0.025042004257579121 0 -0.0021547288793347984 0.024752379661863892 0 -0.0020536807596785848 0.025042004257579121 0 -0.0023587883701087138 0.024919360761930926 0 -0.0018744956050263872 0.024747172647202522 0 -0.0020536807596785848 0.025042004257579121 0 -0.0017784171829170708 0.024972443407851406 0 -0.0016276882462108355 0.02508913304914864 0 -0.0015962583470109219 0.024797253952771447 0 -0.0017784171829170708 0.024972443407851406 0 -0.0020536807596785848 0.025042004257579121 0 -0.0017784171829170708 0.024972443407851406 0 -0.0018605481227075111 0.025169147228482146 0 -0.0016276882462108355 0.02508913304914864 0 -0.0017784171829170708 0.024972443407851406 0 -0.0018605481227075111 0.025169147228482146 0 -0.0016276882462108355 0.02508913304914864 0 -0.0018605481227075111 0.025169147228482146 0 -0.0017425256566878751 0.025414307678781445 0 -0.0017425256566878751 0.025414307678781445 0 -0.001960107086935899 0.025672888313647491 0 -0.0016264959110325566 0.026058312744891128 0 -0.0018605481227075111 0.025169147228482146 0 -0.0017425256566878751 0.025414307678781445 0 -0.0020009805039542202 0.025334448491905071 0 -0.0020009805039542202 0.025334448491905071 0 -0.0022389935517560348 0.025566376693823861 0 -0.0023284987967613362 0.025213888757138422 0 -0.0020536807596785848 0.025042004257579121 0 -0.0018605481227075111 0.025169147228482146 0 -0.0020009805039542202 0.025334448491905071 0 -0.0020536807596785848 0.025042004257579121 0 -0.0020009805039542202 0.025334448491905071 0 -0.0023284987967613362 0.025213888757138422 0 -0.0020009805039542202 0.025334448491905071 0 -0.001960107086935899 0.025672888313647491 0 -0.0022389935517560348 0.025566376693823861 0 -0.001960107086935899 0.025672888313647491 0 -0.0021269195834970186 0.02588119509506279 0 -0.0022389935517560348 0.025566376693823861 0 -0.0017425256566878751 0.025414307678781445 0 -0.0020009805039542202 0.025334448491905071 0 -0.001960107086935899 0.025672888313647491 0 -0.0012651160568439368 0.025095912917975527 0 -0.001387365138235005 0.025481259964424584 0 -0.00095814583772210217 0.025263635504844496 0 -0.0012968034813933085 0.024651340562161689 0 -0.0010387209323170737 0.02334466227023348 0 -0.00072867082469830547 0.024520745778697978 0 -0.00064182521217921403 0.024444702350285626 0 -0.0012651160568439368 0.025095912917975527 0 -0.0010829592300419326 0.025015607102834542 0 -0.00088384571872106841 0.025305971470812549 0 -0.0014069558301795268 0.025164061587442811 0 -0.0017425256566878751 0.025414307678781445 0 -0.0016264959110325566 0.026058312744891128 0 -0.0012828126564025438 0.02499526255431753 0 -0.0012651160568439368 0.025095912917975527 0 -0.001387365138235005 0.025481259964424584 0 -0.0014069558301795268 0.025164061587442811 0 -0.0016276882462108355 0.02508913304914864 0 -0.0017425256566878751 0.025414307678781445 0 -0.0012828126564025438 0.02499526255431753 0 -0.0012651160568439368 0.025095912917975527 0 -0.0010829592300419326 0.025015607102834542 0 -0.0010387209323170737 0.02334466227023348 0 -0.00064182521217921403 0.024444702350285626 0 3.6533930015336265e-05 0.024695396018388653 0 4.6749303225831728e-05 0.024687874833476516 0 4.5946367302000545e-05 0.02470189064900441 0 3.6533930015336265e-05 0.024695396018388653 0 4.1418968279189876e-05 0.024702467483533757 0 4.5946367302000545e-05 0.02470189064900441 0 3.6533930015336265e-05 0.024695396018388653 0 4.1418968279189876e-05 0.024702467483533757 0 4.3038713322119089e-05 0.024704700290658913 0 4.1418968279189876e-05 0.024702467483533757 0 4.2631793376754964e-05 0.024706335669685817 0 4.3038713322119089e-05 0.024704700290658913 0 4.1418968279189876e-05 0.024702467483533757 0 4.5946367302000545e-05 0.02470189064900441 0 4.2631793376754964e-05 0.024706335669685817 0 0.0011421628607419553 0.019216487147159816 0 0.00023410271656574554 0.020108602349048401 0 0.00087717606642058053 0.020430061088596466 0 0.0011421628607419553 0.019216487147159816 0 4.8359847604274673e-05 0.019757633161338731 0 0.00023410271656574554 0.020108602349048401 0 -0.0010387209323170737 0.02334466227023348 0 -0.00026801414574083142 0.022810771369809909 0 -0.0016264959110325566 0.026058312744891128 0 -0.0021269195834970186 0.02588119509506279 0 -0.0023513891508197518 0.02640251887423101 0 -0.0010387209323170737 0.02334466227023348 0 -0.00043321273643870346 0.020230955115874975 0 -0.001960107086935899 0.025672888313647491 0 -0.0016264959110325566 0.026058312744891128 0 -0.0021269195834970186 0.02588119509506279 0 -0.0021269195834970186 0.02588119509506279 0 -0.0023999833359871136 0.025818502848436262 0 -0.0022389935517560348 0.025566376693823861 0 -0.0021269195834970186 0.02588119509506279 0 -0.0023999833359871136 0.025818502848436262 0 -0.0023513891508197518 0.02640251887423101 0 -0.0024401105416744346 0.015145785688862375 0 -0.00043321273643870346 0.020230955115874975 0 -0.0004352587052158292 0.018283602945146141 0 0.00021333675201366207 0.019515946166507987 0 -0.0005496897407132593 0.019134492193905953 0 -0.0023999833359871136 0.025818502848436262 0 -0.0027115270024465178 0.025735569963653469 0 -0.0023513891508197518 0.02640251887423101 0 0.00021333675201366207 0.019515946166507987 0 -0.0007981765329905916 0.019555659212256556 0 -0.0005496897407132593 0.019134492193905953 0 -0.00043321273643870346 0.020230955115874975 0 -0.00077259125614550258 0.020301029961797178 0 3.832413945005483e-05 0.019734471066109344 0 -0.00025710742448033463 0.02022982359959041 0 -0.00089219643462221674 0.02018409407652098 0 -0.00043321273643870346 0.020230955115874975 0 -0.00041746563358488855 0.020229032534323975 0 -0.00025710742448033463 0.02022982359959041 0 0.00023410271656574554 0.020108602349048401 0 -5.5632111234366633e-05 0.020561211762778274 0 3.832413945005483e-05 0.019734471066109344 0 -0.00025710742448033463 0.02022982359959041 0 0.00023410271656574554 0.020108602349048401 0 -0.00082952253224409869 0.020044886713759865 0 -0.0012836190066165918 0.01956139518455817 0 -0.0018453487248742781 0.020602296240559814 0 0.00021333675201366207 0.019515946166507987 0 -0.00082952253224409869 0.020044886713759865 0 -0.0007981765329905916 0.019555659212256556 0 -0.0007981765329905916 0.019555659212256556 0 -0.0012836190066165918 0.01956139518455817 0 -0.0005496897407132593 0.019134492193905953 0 -0.00082952253224409869 0.020044886713759865 0 -0.0007981765329905916 0.019555659212256556 0 -0.0012836190066165918 0.01956139518455817 0 -0.0065345199878260396 0.0019590528942418309 0 -0.0060026392013363258 0.0011852413004722331 0 -0.0060669343551908173 0.0017064332885505693 0 -0.0024401105416744346 0.015145785688862375 0 -0.0025307179223618198 0.012033204321149115 0 -0.0060026392013363258 0.0011852413004722331 0 -0.0060669343551908173 0.0017064332885505693 0 -0.0058247255492533427 0.0014578192127983254 0 -0.0004352587052158292 0.018283602945146141 0 -0.0012836190066165918 0.01956139518455817 0 -0.0005496897407132593 0.019134492193905953 0 -0.0065345199878260396 0.0019590528942418309 0 -0.0060669343551908173 0.0017064332885505693 0 -0.0062010101658168228 0.0019629267373813715 0 -0.0060669343551908173 0.0017064332885505693 0 -0.0059351326302329414 0.0020019073161439763 0 -0.0062010101658168228 0.0019629267373813715 0 -0.0059351326302329414 0.0020019073161439763 0 -0.0061111704832515715 0.0022212005055423276 0 -0.0058095332422484431 0.0024006434085823698 0 -0.0065345199878260396 0.0019590528942418309 0 -0.0061111704832515715 0.0022212005055423276 0 -0.0061248822676767097 0.0027838863296204665 0 -0.0027341203453515139 0.02576857599497577 0 -0.0027180466996497275 0.025292274549275094 0 -0.0033112643511967249 0.025030736194184961 0 -0.0024401105416744346 0.015145785688862375 0 -0.0039344607582756912 0.013794268295399677 0 -0.0059351326302329414 0.0020019073161439763 0 -0.0062010101658168228 0.0019629267373813715 0 -0.0061111704832515715 0.0022212005055423276 0 -0.0061111704832515715 0.0022212005055423276 0 -0.0061248822676767097 0.0027838863296204665 0 -0.0058095332422484431 0.0024006434085823698 0 -0.0065345199878260396 0.0019590528942418309 0 -0.0062010101658168228 0.0019629267373813715 0 -0.0061111704832515715 0.0022212005055423276 0 -0.0024401105416744346 0.015145785688862375 0 -0.002834928947157762 0.016016503682760037 0 -0.0023999833359871136 0.025818502848436262 0 -0.0027115270024465178 0.025735569963653469 0 -0.0025699669972448526 0.025516262617283868 0 -0.0027341203453515139 0.02576857599497577 0 -0.0025699669972448526 0.025516262617283868 0 -0.0027180466996497275 0.025292274549275094 0 -0.0023999833359871136 0.025818502848436262 0 -0.0025699669972448526 0.025516262617283868 0 -0.0022389935517560348 0.025566376693823861 0 -0.0025699669972448526 0.025516262617283868 0 -0.0022389935517560348 0.025566376693823861 0 -0.0023284987967613362 0.025213888757138422 0 -0.0025699669972448526 0.025516262617283868 0 -0.0023284987967613362 0.025213888757138422 0 -0.0027180466996497275 0.025292274549275094 0 -0.0023284987967613362 0.025213888757138422 0 -0.0027180466996497275 0.025292274549275094 0 -0.002670311062989796 0.024895875396317789 0 -0.0020536807596785848 0.025042004257579121 0 -0.0023284987967613362 0.025213888757138422 0 -0.0023587883701087138 0.024919360761930926 0 -0.0023284987967613362 0.025213888757138422 0 -0.002670311062989796 0.024895875396317789 0 -0.0023587883701087138 0.024919360761930926 0 -0.0025302675376536942 0.024517431016501227 0 -0.0021547288793347984 0.024752379661863892 0 -0.0023587883701087138 0.024919360761930926 0 -0.003000775944854657 0.024388367120729906 0 -0.0025302675376536942 0.024517431016501227 0 -0.002670311062989796 0.024895875396317789 0 -0.0025302675376536942 0.024517431016501227 0 -0.002670311062989796 0.024895875396317789 0 -0.0023587883701087138 0.024919360761930926 0 -0.003000775944854657 0.024388367120729906 0 -0.002670311062989796 0.024895875396317789 0 -0.0033112643511967249 0.025030736194184961 0 -0.0027180466996497275 0.025292274549275094 0 -0.002670311062989796 0.024895875396317789 0 -0.0033112643511967249 0.025030736194184961 0 -0.0061248822676767097 0.0027838863296204665 0 -0.0055373141608813584 0.0026735258353579919 0 -0.0054829180139226103 0.003121702071916593 0 -0.0061248822676767097 0.0027838863296204665 0 -0.0055373141608813584 0.0026735258353579919 0 -0.0058095332422484431 0.0024006434085823698 0 -0.0055373141608813584 0.0026735258353579919 0 -0.005045848963177774 0.0028156612892216563 0 -0.0052893431017126836 0.0022134853948224797 0 -0.0055373141608813584 0.0026735258353579919 0 -0.0054829180139226103 0.003121702071916593 0 -0.005045848963177774 0.0028156612892216563 0 -0.0052893431017126836 0.0022134853948224797 0 -0.0048334943289701747 0.0018862340468762315 0 -0.0045397880618902441 0.0023886636353904708 0 -0.005045848963177774 0.0028156612892216563 0 -0.0052893431017126836 0.0022134853948224797 0 -0.0045397880618902441 0.0023886636353904708 0 -0.0052893431017126836 0.0022134853948224797 0 -0.0056139915199747694 0.0020062969205014687 0 -0.0052744940912248994 0.0016554539531528313 0 -0.0052893431017126836 0.0022134853948224797 0 -0.0056139915199747694 0.0020062969205014687 0 -0.0058095332422484431 0.0024006434085823698 0 -0.0055373141608813584 0.0026735258353579919 0 -0.0052893431017126836 0.0022134853948224797 0 -0.0058095332422484431 0.0024006434085823698 0 -0.0059351326302329414 0.0020019073161439763 0 -0.0056139915199747694 0.0020062969205014687 0 -0.0058095332422484431 0.0024006434085823698 0 -0.0060669343551908173 0.0017064332885505693 0 -0.0059351326302329414 0.0020019073161439763 0 -0.0057673848934470468 0.0017257112164909565 0 -0.0059351326302329414 0.0020019073161439763 0 -0.0056139915199747694 0.0020062969205014687 0 -0.0057673848934470468 0.0017257112164909565 0 -0.0056139915199747694 0.0020062969205014687 0 -0.0057673848934470468 0.0017257112164909565 0 -0.0052744940912248994 0.0016554539531528313 0 -0.0055842213016011758 0.0014557525177342949 0 -0.0053528305892058719 0.0012457308364055069 0 -0.0052744940912248994 0.0016554539531528313 0 -0.0057673848934470468 0.0017257112164909565 0 -0.0055842213016011758 0.0014557525177342949 0 -0.0052744940912248994 0.0016554539531528313 0 -0.0060669343551908173 0.0017064332885505693 0 -0.0057673848934470468 0.0017257112164909565 0 -0.0058247255492533427 0.0014578192127983254 0 -0.0057673848934470468 0.0017257112164909565 0 -0.0055842213016011758 0.0014557525177342949 0 -0.0058247255492533427 0.0014578192127983254 0 -0.0055842213016011758 0.0014557525177342949 0 -0.0058247255492533427 0.0014578192127983254 0 -0.0056480293763879258 0.0012635783995068478 0 -0.0060026392013363258 0.0011852413004722331 0 -0.0054805391946699143 0.00097416872257893264 0 -0.0054495035213844916 0.00044921045655255934 0 -0.0025307179223618198 0.012033204321149115 0 -0.0030252951520790237 0.011252501540786298 0 -0.0060026392013363258 0.0011852413004722331 0 -0.0056480293763879258 0.0012635783995068478 0 -0.0054805391946699143 0.00097416872257893264 0 -0.0060026392013363258 0.0011852413004722331 0 -0.0058247255492533427 0.0014578192127983254 0 -0.0056480293763879258 0.0012635783995068478 0 -0.0056480293763879258 0.0012635783995068478 0 -0.0053528305892058719 0.0012457308364055069 0 -0.0054805391946699143 0.00097416872257893264 0 -0.0053528305892058719 0.0012457308364055069 0 -0.0054805391946699143 0.00097416872257893264 0 -0.005145571178628832 0.0010315593868767802 0 -0.0055842213016011758 0.0014557525177342949 0 -0.0056480293763879258 0.0012635783995068478 0 -0.0053528305892058719 0.0012457308364055069 0 -0.004801539060056776 0.00099781584575343147 0 -0.005145571178628832 0.0010315593868767802 0 -0.0050641815844627448 0.00069906861393550612 0 -0.0054805391946699143 0.00097416872257893264 0 -0.005145571178628832 0.0010315593868767802 0 -0.0050641815844627448 0.00069906861393550612 0 -0.0053528305892058719 0.0012457308364055069 0 -0.005145571178628832 0.0010315593868767802 0 -0.0050369133483619691 0.0012696567270667858 0 -0.004801539060056776 0.00099781584575343147 0 -0.0050369133483619691 0.0012696567270667858 0 -0.0047237632026522168 0.001454237994447215 0 -0.004801539060056776 0.00099781584575343147 0 -0.005145571178628832 0.0010315593868767802 0 -0.0050369133483619691 0.0012696567270667858 0 -0.0050369133483619691 0.0012696567270667858 0 -0.0052744940912248994 0.0016554539531528313 0 -0.0047237632026522168 0.001454237994447215 0 -0.0053528305892058719 0.0012457308364055069 0 -0.0050369133483619691 0.0012696567270667858 0 -0.0052744940912248994 0.0016554539531528313 0 -0.0052893431017126836 0.0022134853948224797 0 -0.0052744940912248994 0.0016554539531528313 0 -0.0048334943289701747 0.0018862340468762315 0 -0.0052744940912248994 0.0016554539531528313 0 -0.0048334943289701747 0.0018862340468762315 0 -0.0047237632026522168 0.001454237994447215 0 -0.0042623284337654404 0.0017309232069153929 0 -0.0047237632026522168 0.001454237994447215 0 -0.0043652177161609598 0.0011012342512364424 0 -0.0048334943289701747 0.0018862340468762315 0 -0.0042623284337654404 0.0017309232069153929 0 -0.0047237632026522168 0.001454237994447215 0 -0.004801539060056776 0.00099781584575343147 0 -0.0047237632026522168 0.001454237994447215 0 -0.0043652177161609598 0.0011012342512364424 0 -0.004801539060056776 0.00099781584575343147 0 -0.0043652177161609598 0.0011012342512364424 0 -0.0045159307614107769 0.00059382653364123102 0 -0.0038454846030286853 0.001215081527019712 0 -0.0037355559502166265 0.00060027518411210072 0 -0.0032958712836734837 0.0010310760908602305 0 -0.0043652177161609598 0.0011012342512364424 0 -0.0038454846030286853 0.001215081527019712 0 -0.0037355559502166265 0.00060027518411210072 0 -0.0042623284337654404 0.0017309232069153929 0 -0.0038454846030286853 0.001215081527019712 0 -0.0035920765926171407 0.0016362417007348595 0 -0.0042623284337654404 0.0017309232069153929 0 -0.0043652177161609598 0.0011012342512364424 0 -0.0038454846030286853 0.001215081527019712 0 -0.0042623284337654404 0.0017309232069153929 0 -0.0038704619199920261 0.0022152569716251775 0 -0.0035920765926171407 0.0016362417007348595 0 -0.0048334943289701747 0.0018862340468762315 0 -0.0042623284337654404 0.0017309232069153929 0 -0.0045397880618902441 0.0023886636353904708 0 -0.0042623284337654404 0.0017309232069153929 0 -0.0038704619199920261 0.0022152569716251775 0 -0.0045397880618902441 0.0023886636353904708 0 -0.0044980086436582677 0.0031302688138565185 0 -0.0045397880618902441 0.0023886636353904708 0 -0.0039940160385306669 0.0028049717639369435 0 -0.0044980086436582677 0.0031302688138565185 0 -0.005045848963177774 0.0028156612892216563 0 -0.0045397880618902441 0.0023886636353904708 0 -0.0038704619199920261 0.0022152569716251775 0 -0.0045397880618902441 0.0023886636353904708 0 -0.0039940160385306669 0.0028049717639369435 0 -0.0038704619199920261 0.0022152569716251775 0 -0.0039940160385306669 0.0028049717639369435 0 -0.0034464087583078885 0.0028642994829011993 0 -0.0039009170083527298 0.003383901676424844 0 -0.0039940160385306669 0.0028049717639369435 0 -0.0034464087583078885 0.0028642994829011993 0 -3.4008226685758941e-06 0.02477628874386021 0 -2.464388905009571e-05 0.024752312179112956 0 -7.1317143162352707e-06 0.02481594221179232 0 -3.4008226685758941e-06 0.02477628874386021 0 -7.1317143162352707e-06 0.02481594221179232 0 2.3590384327108252e-06 0.0248707293684923 0 -4.1493170848616712e-05 0.02458210149073824 0 0.00012549934527165935 0.02427010951934519 0 -3.4008226685758941e-06 0.02477628874386021 0 -5.4146350059377095e-05 0.024681681351328043 0 -2.464388905009571e-05 0.024752312179112956 0 -3.4008226685758941e-06 0.02477628874386021 0 -5.4146350059377095e-05 0.024681681351328043 0 -9.7484089779843557e-05 0.024554332729400434 0 -5.4146350059377095e-05 0.024681681351328043 0 -2.464388905009571e-05 0.024752312179112956 0 -3.5738826885789463e-05 0.024760843419257234 0 -5.4146350059377095e-05 0.024681681351328043 0 -3.5738826885789463e-05 0.024760843419257234 0 -7.7055092390754335e-05 0.024689641667083321 0 -3.5738826885789463e-05 0.024760843419257234 0 -5.1360338894061864e-05 0.024786166689859113 0 -7.7055092390754335e-05 0.024689641667083321 0 -3.5738826885789463e-05 0.024760843419257234 0 -5.1360338894061864e-05 0.024786166689859113 0 -2.2731931700689215e-05 0.024838458481141162 0 -7.1317143162352707e-06 0.02481594221179232 0 -1.5450781260386354e-06 0.024879127090517407 0 -2.2731931700689215e-05 0.024838458481141162 0 -7.1317143162352707e-06 0.02481594221179232 0 -1.5450781260386354e-06 0.024879127090517407 0 5.0142007447023728e-06 0.024899571111205478 0 -3.5738826885789463e-05 0.024760843419257234 0 -7.1317143162352707e-06 0.02481594221179232 0 -2.2731931700689215e-05 0.024838458481141162 0 -2.464388905009571e-05 0.024752312179112956 0 -3.5738826885789463e-05 0.024760843419257234 0 -7.1317143162352707e-06 0.02481594221179232 0 -1.5450781260386354e-06 0.024879127090517407 0 5.0142007447023728e-06 0.024899571111205478 0 6.6422216971022783e-06 0.024944314857485966 0 5.0142007447023728e-06 0.024899571111205478 0 5.31725420289093e-06 0.024947887855110592 0 6.6422216971022783e-06 0.024944314857485966 0 -7.1317143162352707e-06 0.02481594221179232 0 5.0142007447023728e-06 0.024899571111205478 0 2.3590384327108252e-06 0.0248707293684923 0 5.0142007447023728e-06 0.024899571111205478 0 5.31725420289093e-06 0.024947887855110592 0 4.8385181107525009e-06 0.024926013114763508 0 2.0369057741357938e-08 0.02499985759853952 0 5.31725420289093e-06 0.024947887855110592 0 6.6422216971022783e-06 0.024944314857485966 0 2.0369057741357938e-08 0.02499985759853952 0 5.31725420289093e-06 0.024947887855110592 0 5.8874860625748673e-06 0.024981403771438905 0 2.0369057741357938e-08 0.02499985759853952 0 5.8874860625748673e-06 0.024981403771438905 0 2.1828241396772787e-09 0.024999966871513662 0 5.8874860625748673e-06 0.024981403771438905 0 2.7813880672147955e-06 0.024944374619764786 0 1.9941499378114179e-05 0.024912773163339515 0 5.31725420289093e-06 0.024947887855110592 0 5.8874860625748673e-06 0.024981403771438905 0 4.8385181107525009e-06 0.024926013114763508 0 5.8874860625748673e-06 0.024981403771438905 0 4.8385181107525009e-06 0.024926013114763508 0 2.7813880672147955e-06 0.024944374619764786 0 -4.1493170848616712e-05 0.02458210149073824 0 -3.9649181728712929e-05 0.024677885511945951 0 -3.4008226685758941e-06 0.02477628874386021 0 2.7813880672147955e-06 0.024944374619764786 0 2.3590384327108252e-06 0.0248707293684923 0 4.8385181107525009e-06 0.024926013114763508 0 2.7813880672147955e-06 0.024944374619764786 0 2.3590384327108252e-06 0.0248707293684923 0 5.0142007447023728e-06 0.024899571111205478 0 4.8385181107525009e-06 0.024926013114763508 0 2.3590384327108252e-06 0.0248707293684923 0 2.7813880672147955e-06 0.024944374619764786 0 -3.3176541347261854e-05 0.02491927177785231 0 -9.2002771024230252e-06 0.024913865797400885 0 -5.4339798586823645e-05 0.02493092768035669 0 2.7813880672147955e-06 0.024944374619764786 0 -3.3176541347261854e-05 0.02491927177785231 0 -9.2002771024230252e-06 0.024913865797400885 0 -1.314338938423935e-06 0.024899146172896576 0 -3.0757808602877022e-05 0.024897204525590234 0 -3.3176541347261854e-05 0.02491927177785231 0 -9.2002771024230252e-06 0.024913865797400885 0 -3.0757808602877022e-05 0.024897204525590234 0 5.6608587174526873e-05 0.024919637829069832 0 6.1907959069852346e-05 0.024894192150392583 0 5.8874860625748673e-06 0.024981403771438905 0 2.1828241396772787e-09 0.024999966871513662 0 1.4530514489088178e-06 0.025002154493042449 0 2.1828241396772787e-09 0.024999966871513662 0 1.4530514489088178e-06 0.025002154493042449 0 1.114616767588566e-09 0.025000021458082701 0 2.7813880672147955e-06 0.024944374619764786 0 -9.2002771024230252e-06 0.024913865797400885 0 1.9941499378114179e-05 0.024912773163339515 0 -9.2002771024230252e-06 0.024913865797400885 0 1.9941499378114179e-05 0.024912773163339515 0 -1.314338938423935e-06 0.024899146172896576 0 1.9941499378114179e-05 0.024912773163339515 0 -1.314338938423935e-06 0.024899146172896576 0 1.6233402110139919e-05 0.024873764915206899 0 6.1907959069852346e-05 0.024894192150392583 0 7.7921588738402432e-05 0.024801350070969917 0 -1.314338938423935e-06 0.024899146172896576 0 1.6233402110139919e-05 0.024873764915206899 0 -3.0757808602877022e-05 0.024897204525590234 0 1.4530514489088178e-06 0.025002154493042449 0 -1.1004537820523726e-07 0.025000215734842849 0 1.114616767588566e-09 0.025000021458082701 0 7.7921588738402432e-05 0.024801350070969917 0 6.1721474452522468e-08 0.024998680035472017 0 -1.225618558297481e-05 0.023772274741354647 0 -0.00035643607059087306 0.023581132857617371 0 3.2328661300194651e-05 0.023390575570889645 0 7.7921588738402432e-05 0.024801350070969917 0 0.00012688498313146812 0.024452896126196774 0 -1.225618558297481e-05 0.023772274741354647 0 3.2328661300194651e-05 0.023390575570889645 0 0.00024854231651184455 0.023619498272661493 0 0.00024854231651184455 0.023619498272661493 0 0.00027631738594862575 0.023389727171061338 0 0.00046282929073056635 0.023376263378600378 0 3.2328661300194651e-05 0.023390575570889645 0 0.00024854231651184455 0.023619498272661493 0 0.00027631738594862575 0.023389727171061338 0 3.2328661300194651e-05 0.023390575570889645 0 0.00027631738594862575 0.023389727171061338 0 0.00035979143638072879 0.023156334558417386 0 0.00012688498313146812 0.024452896126196774 0 0.00019313611237467237 0.02427210540754652 0 -3.3176541347261854e-05 0.02491927177785231 0 -3.0757808602877022e-05 0.024897204525590234 0 -6.6891993474808815e-05 0.024915283904801463 0 -5.4339798586823645e-05 0.02493092768035669 0 -3.3176541347261854e-05 0.02491927177785231 0 -6.6891993474808815e-05 0.024915283904801463 0 0.00019313611237467237 0.02427210540754652 0 0.00012549934527165935 0.02427010951934519 0 0.00035979143638072879 0.023156334558417386 0 0.00046282929073056635 0.023376263378600378 0 0.00080340461638406051 0.022917910627938663 0 -5.4339798586823645e-05 0.02493092768035669 0 -6.6891993474808815e-05 0.024915283904801463 0 -9.6220188189382138e-05 0.024925755280976535 0 0.00045245402709265616 0.023761082796330837 0 0.00046282929073056635 0.023376263378600378 0 0.00066550295314616475 0.02340035675895458 0 0.00045245402709265616 0.023761082796330837 0 0.00024854231651184455 0.023619498272661493 0 0.00046282929073056635 0.023376263378600378 0 0.00027631738594862575 0.023389727171061338 0 0.00035979143638072879 0.023156334558417386 0 0.00046282929073056635 0.023376263378600378 0 0.00068399935686987124 0.02367433106484567 0 0.00066550295314616475 0.02340035675895458 0 0.00088177121616482318 0.023218251238009111 0 0.00098174176526093226 0.022082347927570262 0 0.0010304596422371483 0.022442823198582325 0 0.00094478036240322222 0.023803859846818681 0 0.00088177121616482318 0.023218251238009111 0 0.001186360854843257 0.022897182872325218 0 0.0010077628120436642 0.023015014974267528 0 0.0010746795506510018 0.023151893275707346 0 0.00080340461638406051 0.022917910627938663 0 0.00088177121616482318 0.023218251238009111 0 0.001186360854843257 0.022897182872325218 0 0.0010077628120436642 0.023015014974267528 0 0.001186360854843257 0.022897182872325218 0 0.0010077628120436642 0.023015014974267528 0 0.0010746795506510018 0.023151893275707346 0 0.00046282929073056635 0.023376263378600378 0 0.00066550295314616475 0.02340035675895458 0 0.00080340461638406051 0.022917910627938663 0 0.00066550295314616475 0.02340035675895458 0 0.00088177121616482318 0.023218251238009111 0 0.00080340461638406051 0.022917910627938663 0 0.00088177121616482318 0.023218251238009111 0 0.0010077628120436642 0.023015014974267528 0 0.00080340461638406051 0.022917910627938663 0 -0.00016094350180384875 0.021489085667185971 0 0.00072081663563450227 0.021571306502493434 0 0.00031800914191046077 0.022569591653191289 0 -0.00016094350180384875 0.021489085667185971 0 -0.00059181267678919266 0.022472261431908835 0 0.00031800914191046077 0.022569591653191289 0 0.0016433036104712272 0.020652929315805625 0 0.001186360854843257 0.022897182872325218 0 0.00072081663563450227 0.021571306502493434 0 0.001186360854843257 0.022897182872325218 0 0.00072081663563450227 0.021571306502493434 0 0.00031800914191046077 0.022569591653191289 0 0.001186360854843257 0.022897182872325218 0 0.00067294503477246398 0.023010381017884211 0 0.00031800914191046077 0.022569591653191289 0 0.00067294503477246398 0.023010381017884211 0 -3.5479015205585065e-05 0.023470213704302561 0 0.0010746795506510018 0.023151893275707346 0 0.001186360854843257 0.022897182872325218 0 0.00067294503477246398 0.023010381017884211 0 0.0010746795506510018 0.023151893275707346 0 -0.00059181267678919266 0.022472261431908835 0 0.00031800914191046077 0.022569591653191289 0 -3.5479015205585065e-05 0.023470213704302561 0 0.00067294503477246398 0.023010381017884211 0 0.00031800914191046077 0.022569591653191289 0 -3.5479015205585065e-05 0.023470213704302561 0 -0.0011683518963035862 0.024326450637221116 0 -0.0008906681519173724 0.023824174809863419 0 -0.0008431495277251191 0.024343033918572368 0 -0.0008906681519173724 0.023824174809863419 0 -0.00060580027072324339 0.024216584547386923 0 -0.0008431495277251191 0.024343033918572368 0 -0.0008906681519173724 0.023824174809863419 0 -0.00060580027072324339 0.024216584547386923 0 -0.00036480286306205093 0.024059886943651399 0 -0.00057742253670753135 0.02380501858479718 0 -1.070654880519403e-05 0.023949757597550018 0 -0.00060580027072324339 0.024216584547386923 0 -0.0004269792340019983 0.024415322366537436 0 -0.00027497989420456875 0.024354103040999324 0 -0.00060580027072324339 0.024216584547386923 0 -0.00036480286306205093 0.024059886943651399 0 -0.00027497989420456875 0.024354103040999324 0 -0.0004269792340019983 0.024415322366537436 0 -0.00060888742354824413 0.024543956036885056 0 -0.00036705279197745045 0.024580863419967711 0 -0.00060888742354824413 0.024543956036885056 0 -0.00036705279197745045 0.024580863419967711 0 -0.00042724329182772204 0.02475082849366118 0 -0.00060580027072324339 0.024216584547386923 0 -0.0004269792340019983 0.024415322366537436 0 -0.00060888742354824413 0.024543956036885056 0 -0.00060580027072324339 0.024216584547386923 0 -0.00060888742354824413 0.024543956036885056 0 -0.0008431495277251191 0.024343033918572368 0 -0.00060888742354824413 0.024543956036885056 0 -0.0008431495277251191 0.024343033918572368 0 -0.00098744525432573776 0.024667537029087104 0 -0.0011683518963035862 0.024326450637221116 0 -0.0008431495277251191 0.024343033918572368 0 -0.00098744525432573776 0.024667537029087104 0 -9.7484089779843557e-05 0.024554332729400434 0 -0.00013730326431274256 0.024635745887783611 0 -7.7055092390754335e-05 0.024689641667083321 0 -5.4146350059377095e-05 0.024681681351328043 0 -9.7484089779843557e-05 0.024554332729400434 0 -7.7055092390754335e-05 0.024689641667083321 0 -9.7484089779843557e-05 0.024554332729400434 0 -0.00021765690401959659 0.024516481915757105 0 -0.00013730326431274256 0.024635745887783611 0 0.00012549934527165935 0.02427010951934519 0 -4.0299598987601389e-05 0.024335019212241963 0 -1.070654880519403e-05 0.023949757597550018 0 0.00012549934527165935 0.02427010951934519 0 -9.7484089779843557e-05 0.024554332729400434 0 -0.00027497989420456875 0.024354103040999324 0 -0.00021765690401959659 0.024516481915757105 0 -0.00036480286306205093 0.024059886943651399 0 0.00036496657571312403 0.024072627823488197 0 -0.00027497989420456875 0.024354103040999324 0 -0.0004269792340019983 0.024415322366537436 0 -0.00027497989420456875 0.024354103040999324 0 -0.00021765690401959659 0.024516481915757105 0 -0.00021765690401959659 0.024516481915757105 0 -0.00024102940970766867 0.024665356892237329 0 -0.00013730326431274256 0.024635745887783611 0 -0.0004269792340019983 0.024415322366537436 0 -0.00021765690401959659 0.024516481915757105 0 -0.00036705279197745045 0.024580863419967711 0 -0.00021765690401959659 0.024516481915757105 0 -0.00036705279197745045 0.024580863419967711 0 -0.00024102940970766867 0.024665356892237329 0 -0.00036705279197745045 0.024580863419967711 0 -0.00024102940970766867 0.024665356892237329 0 -0.00042724329182772204 0.02475082849366118 0 -0.00024102940970766867 0.024665356892237329 0 -0.00013730326431274256 0.024635745887783611 0 -0.00016251393934496239 0.024744792866380167 0 -0.00013730326431274256 0.024635745887783611 0 -9.051459579896837e-05 0.024772623174093813 0 -0.00016251393934496239 0.024744792866380167 0 -0.00013730326431274256 0.024635745887783611 0 -7.7055092390754335e-05 0.024689641667083321 0 -9.051459579896837e-05 0.024772623174093813 0 -5.1360338894061864e-05 0.024786166689859113 0 -7.7055092390754335e-05 0.024689641667083321 0 -9.051459579896837e-05 0.024772623174093813 0 -9.051459579896837e-05 0.024772623174093813 0 -9.0074956246222226e-05 0.024857814092315005 0 -5.1705650519241095e-05 0.024846691678942285 0 -9.051459579896837e-05 0.024772623174093813 0 -9.0074956246222226e-05 0.024857814092315005 0 -0.00014256703158893982 0.024829175761328037 0 -9.0074956246222226e-05 0.024857814092315005 0 -0.00014256703158893982 0.024829175761328037 0 -0.00012042804349039082 0.02488638672033041 0 -9.051459579896837e-05 0.024772623174093813 0 -0.00014256703158893982 0.024829175761328037 0 -0.00016251393934496239 0.024744792866380167 0 -0.00024102940970766867 0.024665356892237329 0 -0.00016251393934496239 0.024744792866380167 0 -0.00023611656635599674 0.024807503945761932 0 -0.00014256703158893982 0.024829175761328037 0 -0.00016251393934496239 0.024744792866380167 0 -0.00023611656635599674 0.024807503945761932 0 -0.00024102940970766867 0.024665356892237329 0 -0.00023611656635599674 0.024807503945761932 0 -0.00042724329182772204 0.02475082849366118 0 -0.00023611656635599674 0.024807503945761932 0 -0.00042724329182772204 0.02475082849366118 0 -0.00038752171482576482 0.024901326671302546 0 -0.00023611656635599674 0.024807503945761932 0 -0.00022872439153739607 0.024936860621906986 0 -0.00038752171482576482 0.024901326671302546 0 -0.00014256703158893982 0.024829175761328037 0 -0.00016335882784079052 0.024850614705802274 0 -0.00012042804349039082 0.02488638672033041 0 -0.0003389983490623621 0.024684456361338827 0 -0.00035440232297687297 0.024683578121214304 0 -0.00014256703158893982 0.024829175761328037 0 -0.00023611656635599674 0.024807503945761932 0 -0.00023744543453659448 0.024880843465906285 0 -0.00035248658248059289 0.024694841912905087 0 -0.00035440232297687297 0.024683578121214304 0 -0.00035440232297687297 0.024683578121214304 0 -0.00051491113782215208 0.024608867638438739 0 -0.00033626088699191905 0.024591717603692741 0 -0.00033659231547740091 0.024614442713111723 0 -0.00035827682999998203 0.024602358904363263 0 -0.00016335882784079052 0.024850614705802274 0 -0.000146380758188347 0.024911935080015664 0 -0.00012042804349039082 0.02488638672033041 0 -0.00035440232297687297 0.024683578121214304 0 -0.00025476907359137828 0.024740101688089291 0 -0.000146380758188347 0.024911935080015664 0 -0.00012042804349039082 0.02488638672033041 0 -9.2558875908983112e-05 0.024935294458259948 0 -0.00012042804349039082 0.02488638672033041 0 -9.2558875908983112e-05 0.024935294458259948 0 -5.5752793185760153e-05 0.024911259256950667 0 -9.0074956246222226e-05 0.024857814092315005 0 -0.00012042804349039082 0.02488638672033041 0 -5.5752793185760153e-05 0.024911259256950667 0 -0.00060888742354824413 0.024543956036885056 0 -0.00098744525432573776 0.024667537029087104 0 -0.00069705736104988579 0.024826646819693429 0 -0.0010829592300419326 0.025015607102834542 0 -0.00090529190193982926 0.024984103475077034 0 -0.00098744525432573776 0.024667537029087104 0 -0.00090529190193982926 0.024984103475077034 0 -0.00069705736104988579 0.024826646819693429 0 -0.00073664332482899588 0.025051329844458358 0 -0.00090529190193982926 0.024984103475077034 0 -0.00098744525432573776 0.024667537029087104 0 -0.00069705736104988579 0.024826646819693429 0 -0.0005399231550648262 0.024920469782829274 0 -0.00069705736104988579 0.024826646819693429 0 -0.00042724329182772204 0.02475082849366118 0 -0.0005399231550648262 0.024920469782829274 0 -0.00069705736104988579 0.024826646819693429 0 -0.00073664332482899588 0.025051329844458358 0 -0.00060888742354824413 0.024543956036885056 0 -0.00069705736104988579 0.024826646819693429 0 -0.00042724329182772204 0.02475082849366118 0 -0.0005399231550648262 0.024920469782829274 0 -0.00038752171482576482 0.024901326671302546 0 -0.00053038919260419305 0.025113961570910785 0 -0.0005399231550648262 0.024920469782829274 0 -0.00042724329182772204 0.02475082849366118 0 -0.00038752171482576482 0.024901326671302546 0 -0.00022872439153739607 0.024936860621906986 0 -0.00038752171482576482 0.024901326671302546 0 -0.00053038919260419305 0.025113961570910785 0 -0.00051491113782215208 0.024608867638438739 0 -0.00064182521217921403 0.024444702350285626 0 -0.00035827682999998203 0.024602358904363263 0 -0.00038075097373689934 0.024612932946324578 0 -0.00035867334605079918 0.024625301146546111 0 -0.00033659231547740091 0.024614442713111723 0 -0.00035827682999998203 0.024602358904363263 0 -0.00035867334605079918 0.024625301146546111 0 -0.0005399231550648262 0.024920469782829274 0 -0.00053038919260419305 0.025113961570910785 0 -0.00073664332482899588 0.025051329844458358 0 -0.00053038919260419305 0.025113961570910785 0 -0.00073664332482899588 0.025051329844458358 0 -0.00088384571872106841 0.025305971470812549 0 -0.00090529190193982926 0.024984103475077034 0 -0.00073664332482899588 0.025051329844458358 0 -0.00088384571872106841 0.025305971470812549 0 -0.0010829592300419326 0.025015607102834542 0 -0.00090529190193982926 0.024984103475077034 0 -0.00088384571872106841 0.025305971470812549 0 4.6749303225831728e-05 0.024687874833476516 0 5.7237131587317907e-05 0.024692124704741674 0 4.5946367302000545e-05 0.02470189064900441 0 -0.00064182521217921403 0.024444702350285626 0 -0.00031753726474419202 0.024647979216261853 0 -0.00031753726474419202 0.024647979216261853 0 -0.00015773819592970769 0.024780873292888753 0 5.7237131587317907e-05 0.024692124704741674 0 5.9838826903128631e-05 0.024701797044889437 0 7.196366226701666e-05 0.024697146227020548 0 5.9838826903128631e-05 0.024701797044889437 0 4.5946367302000545e-05 0.02470189064900441 0 5.4139755713954581e-05 0.024712398186827335 0 5.7237131587317907e-05 0.024692124704741674 0 5.9838826903128631e-05 0.024701797044889437 0 4.5946367302000545e-05 0.02470189064900441 0 5.9838826903128631e-05 0.024701797044889437 0 7.5770200632778404e-05 0.024715726449810585 0 5.4139755713954581e-05 0.024712398186827335 0 -9.2558875908983112e-05 0.024935294458259948 0 -4.6824035186279831e-05 0.024972071668129266 0 -5.5107761995505695e-05 0.024946605846935636 0 -9.2558875908983112e-05 0.024935294458259948 0 -5.5107761995505695e-05 0.024946605846935636 0 -5.5752793185760153e-05 0.024911259256950667 0 -0.000146380758188347 0.024911935080015664 0 -9.2558875908983112e-05 0.024935294458259948 0 -0.00013452268038106056 0.024958918254576901 0 -0.00033659231547740091 0.024614442713111723 0 -0.00035867334605079918 0.024625301146546111 0 -0.00033676155320990121 0.024637617201040442 0 -0.00025476907359137828 0.024740101688089291 0 -0.00015773819592970769 0.024780873292888753 0 -0.00015773819592970769 0.024780873292888753 0 -8.5101236683594975e-05 0.024782363401540719 0 8.5524939036551957e-05 0.024905452498698525 0 2.6283379794382141e-05 0.024875883134368015 0 8.6941892724529466e-05 0.024855749820358704 0 5.9838826903128631e-05 0.024701797044889437 0 7.196366226701666e-05 0.024697146227020548 0 7.5770200632778404e-05 0.024715726449810585 0 -9.2558875908983112e-05 0.024935294458259948 0 -0.00013452268038106056 0.024958918254576901 0 -4.6824035186279831e-05 0.024972071668129266 0 -0.00015773819592970769 0.024780873292888753 0 -4.4635888834570224e-05 0.024872190358624945 0 -4.6824035186279831e-05 0.024972071668129266 0 -2.1261919857551537e-05 0.024960751871353375 0 -2.9841182897102856e-05 0.024950255767339419 0 -4.6824035186279831e-05 0.024972071668129266 0 -2.9841182897102856e-05 0.024950255767339419 0 -5.5107761995505695e-05 0.024946605846935636 0 -4.6824035186279831e-05 0.024972071668129266 0 -2.1261919857551537e-05 0.024960751871353375 0 -1.7036197866951279e-05 0.024911395263748023 0 -2.9841182897102856e-05 0.024950255767339419 0 -1.8983691057521836e-05 0.024926793003479185 0 -1.1583024410063122e-05 0.024958008289837463 0 -2.1261919857551537e-05 0.024960751871353375 0 -2.9841182897102856e-05 0.024950255767339419 0 -1.1583024410063122e-05 0.024958008289837463 0 -2.9841182897102856e-05 0.024950255767339419 0 -5.5107761995505695e-05 0.024946605846935636 0 -5.5752793185760153e-05 0.024911259256950667 0 -5.5752793185760153e-05 0.024911259256950667 0 -2.8665699761652134e-05 0.024888721223456842 0 -1.8983691057521836e-05 0.024926793003479185 0 -5.5752793185760153e-05 0.024911259256950667 0 -2.8665699761652134e-05 0.024888721223456842 0 -5.1705650519241095e-05 0.024846691678942285 0 -2.9841182897102856e-05 0.024950255767339419 0 -5.5752793185760153e-05 0.024911259256950667 0 -1.8983691057521836e-05 0.024926793003479185 0 -9.0074956246222226e-05 0.024857814092315005 0 -5.5752793185760153e-05 0.024911259256950667 0 -5.1705650519241095e-05 0.024846691678942285 0 -1.8983691057521836e-05 0.024926793003479185 0 -3.5985081962960694e-06 0.024942065593633416 0 -1.1583024410063122e-05 0.024958008289837463 0 -1.8983691057521836e-05 0.024926793003479185 0 -7.1859577579517426e-06 0.024903474007223394 0 -3.5985081962960694e-06 0.024942065593633416 0 -2.8665699761652134e-05 0.024888721223456842 0 -1.8983691057521836e-05 0.024926793003479185 0 -7.1859577579517426e-06 0.024903474007223394 0 -2.8665699761652134e-05 0.024888721223456842 0 -7.1859577579517426e-06 0.024903474007223394 0 -2.2731931700689215e-05 0.024838458481141162 0 -1.5450781260386354e-06 0.024879127090517407 0 -7.1859577579517426e-06 0.024903474007223394 0 -2.2731931700689215e-05 0.024838458481141162 0 -5.1360338894061864e-05 0.024786166689859113 0 -2.2731931700689215e-05 0.024838458481141162 0 -5.1705650519241095e-05 0.024846691678942285 0 -5.1360338894061864e-05 0.024786166689859113 0 -9.051459579896837e-05 0.024772623174093813 0 -5.1705650519241095e-05 0.024846691678942285 0 -2.8665699761652134e-05 0.024888721223456842 0 -2.2731931700689215e-05 0.024838458481141162 0 -5.1705650519241095e-05 0.024846691678942285 0 2.0369057741357938e-08 0.02499985759853952 0 6.6422216971022783e-06 0.024944314857485966 0 6.7368950108651131e-09 0.024999944917221201 0 -7.1859577579517426e-06 0.024903474007223394 0 6.6422216971022783e-06 0.024944314857485966 0 -3.5985081962960694e-06 0.024942065593633416 0 -1.5450781260386354e-06 0.024879127090517407 0 -7.1859577579517426e-06 0.024903474007223394 0 6.6422216971022783e-06 0.024944314857485966 0 6.6422216971022783e-06 0.024944314857485966 0 -3.5985081962960694e-06 0.024942065593633416 0 -7.5047073445617699e-07 0.02497823656328238 0 6.6422216971022783e-06 0.024944314857485966 0 6.7368950108651131e-09 0.024999944917221201 0 -7.5047073445617699e-07 0.02497823656328238 0 -5.1196364039115638e-09 0.024999961154764196 0 -7.5047073445617699e-07 0.02497823656328238 0 -1.0733625748048823e-05 0.024976377490556017 0 6.7368950108651131e-09 0.024999944917221201 0 -5.1196364039115638e-09 0.024999961154764196 0 -7.5047073445617699e-07 0.02497823656328238 0 -7.5047073445617699e-07 0.02497823656328238 0 -1.1583024410063122e-05 0.024958008289837463 0 -1.0733625748048823e-05 0.024976377490556017 0 -3.5985081962960694e-06 0.024942065593633416 0 -7.5047073445617699e-07 0.02497823656328238 0 -1.1583024410063122e-05 0.024958008289837463 0 -2.1261919857551537e-05 0.024960751871353375 0 -1.1583024410063122e-05 0.024958008289837463 0 -1.0733625748048823e-05 0.024976377490556017 0 -2.1261919857551537e-05 0.024960751871353375 0 -1.0733625748048823e-05 0.024976377490556017 0 -2.3021125621618832e-05 0.024973393327500471 0 -5.1196364039115638e-09 0.024999961154764196 0 -1.0733625748048823e-05 0.024976377490556017 0 -4.1121508350943153e-09 0.024999971556659426 0 -1.0733625748048823e-05 0.024976377490556017 0 -4.1121508350943153e-09 0.024999971556659426 0 -2.3021125621618832e-05 0.024973393327500471 0 -4.1121508350943153e-09 0.024999971556659426 0 -2.3021125621618832e-05 0.024973393327500471 0 -1.5261776363840473e-05 0.024990341544271842 0 -2.3021125621618832e-05 0.024973393327500471 0 -1.5261776363840473e-05 0.024990341544271842 0 -1.2346590343030397e-05 0.024990162849570282 0 -4.1121508350943153e-09 0.024999971556659426 0 -1.5261776363840473e-05 0.024990341544271842 0 -2.1228766210714397e-08 0.024999999960763436 0 2.6283379794382141e-05 0.024875883134368015 0 1.6534418468469161e-05 0.024857471298649927 0 -1.7036197866951279e-05 0.024911395263748023 0 -4.4635888834570224e-05 0.024872190358624945 0 -3.6206469618486987e-05 0.024883432767010008 0 -2.1261919857551537e-05 0.024960751871353375 0 -2.3021125621618832e-05 0.024973393327500471 0 -1.7036197866951279e-05 0.024911395263748023 0 -2.3021125621618832e-05 0.024973393327500471 0 -1.7036197866951279e-05 0.024911395263748023 0 -2.3193305123342939e-05 0.024836854097266266 0 -1.1058560533861341e-05 0.024920597269779025 0 -8.965741308593448e-08 0.02489958642571297 0 -1.5261776363840473e-05 0.024990341544271842 0 -1.2346590343030397e-05 0.024990162849570282 0 -1.3464177285847e-05 0.024973641809990971 0 1.6534418468469161e-05 0.024857471298649927 0 -1.7036197866951279e-05 0.024911395263748023 0 -2.3193305123342939e-05 0.024836854097266266 0 1.6534418468469161e-05 0.024857471298649927 0 -2.3193305123342939e-05 0.024836854097266266 0 3.7786535971175022e-05 0.02480883453064528 0 -1.2346590343030397e-05 0.024990162849570282 0 -1.3464177285847e-05 0.024973641809990971 0 2.6778436002315889e-05 0.024952241753932587 0 -8.965741308593448e-08 0.02489958642571297 0 2.2510212324343233e-05 0.024863715106115715 0 -1.3464177285847e-05 0.024973641809990971 0 -6.5953222545976697e-06 0.024945925441738917 0 2.6778436002315889e-05 0.024952241753932587 0 -2.3193305123342939e-05 0.024836854097266266 0 4.2644061331345168e-05 0.024747110562824647 0 3.7786535971175022e-05 0.02480883453064528 0 -1.3464177285847e-05 0.024973641809990971 0 -6.5953222545976697e-06 0.024945925441738917 0 -1.8078473049713339e-05 0.024982647475620214 0 1.461848566217708e-05 0.024948486833558849 0 8.8549921700153146e-08 0.024976302013385115 0 6.4801855067551341e-06 0.024948841952904355 0 1.854952686723716e-05 0.024933437769315395 0 1.8290442023352466e-06 0.024976480294854428 0 6.4801855067551341e-06 0.024948841952904355 0 1.854952686723716e-05 0.024933437769315395 0 1.4087971343598078e-05 0.024918473263404753 0 -6.5953222545976697e-06 0.024945925441738917 0 2.6778436002315889e-05 0.024952241753932587 0 4.1453099226735821e-05 0.024858710829181278 0 1.461848566217708e-05 0.024948486833558849 0 3.1395804492172139e-05 0.024929838342738549 0 1.854952686723716e-05 0.024933437769315395 0 2.5340232293162785e-05 0.024895278865080393 0 4.1453099226735821e-05 0.024858710829181278 0 1.854952686723716e-05 0.024933437769315395 0 1.4087971343598078e-05 0.024918473263404753 0 2.5340232293162785e-05 0.024895278865080393 0 -9.7589991882740759e-09 0.024999957231693622 0 8.8549921700153146e-08 0.024976302013385115 0 -4.2551033682056908e-09 0.024999994481169952 0 1.8290442023352466e-06 0.024976480294854428 0 -6.1045544747478037e-07 0.02497479231943894 0 -1.5261776363840473e-05 0.024990341544271842 0 -2.1228766210714397e-08 0.024999999960763436 0 -1.8078473049713339e-05 0.024982647475620214 0 -1.5261776363840473e-05 0.024990341544271842 0 -1.3464177285847e-05 0.024973641809990971 0 -1.8078473049713339e-05 0.024982647475620214 0 6.4801855067551341e-06 0.024948841952904355 0 1.8290442023352466e-06 0.024976480294854428 0 -6.1045544747478037e-07 0.02497479231943894 0 6.4801855067551341e-06 0.024948841952904355 0 -6.1045544747478037e-07 0.02497479231943894 0 5.3774486328458384e-06 0.02494178764411599 0 -4.2551033682056908e-09 0.024999994481169952 0 -6.1045544747478037e-07 0.02497479231943894 0 -2.5645665491260519e-09 0.024999940222977288 0 -6.1045544747478037e-07 0.02497479231943894 0 -2.5645665491260519e-09 0.024999940222977288 0 6.1878836710689339e-07 0.024968053163809657 0 -2.5645665491260519e-09 0.024999940222977288 0 6.1878836710689339e-07 0.024968053163809657 0 1.1950773723418623e-09 0.024999944741184332 0 2.5329960303970462e-06 0.024952368266973748 0 6.1878836710689339e-07 0.024968053163809657 0 1.1950773723418623e-09 0.024999944741184332 0 2.5329960303970462e-06 0.024952368266973748 0 6.1878836710689339e-07 0.024968053163809657 0 6.4832190366844459e-06 0.024933043479750266 0 6.1878836710689339e-07 0.024968053163809657 0 5.3774486328458384e-06 0.02494178764411599 0 6.4832190366844459e-06 0.024933043479750266 0 -6.1045544747478037e-07 0.02497479231943894 0 6.1878836710689339e-07 0.024968053163809657 0 5.3774486328458384e-06 0.02494178764411599 0 6.4801855067551341e-06 0.024948841952904355 0 5.3774486328458384e-06 0.02494178764411599 0 1.4087971343598078e-05 0.024918473263404753 0 5.3774486328458384e-06 0.02494178764411599 0 1.4087971343598078e-05 0.024918473263404753 0 1.3641782198530575e-05 0.024907734660178864 0 5.3774486328458384e-06 0.02494178764411599 0 1.3641782198530575e-05 0.024907734660178864 0 6.4832190366844459e-06 0.024933043479750266 0 2.5340232293162785e-05 0.024895278865080393 0 2.3488089503902482e-05 0.024885219006013006 0 3.2404927829519917e-05 0.024867858019827133 0 1.4087971343598078e-05 0.024918473263404753 0 2.5340232293162785e-05 0.024895278865080393 0 2.3488089503902482e-05 0.024885219006013006 0 1.3641782198530575e-05 0.024907734660178864 0 2.3488089503902482e-05 0.024885219006013006 0 2.6287304441189297e-05 0.024870189173414589 0 1.4087971343598078e-05 0.024918473263404753 0 1.3641782198530575e-05 0.024907734660178864 0 2.3488089503902482e-05 0.024885219006013006 0 2.3488089503902482e-05 0.024885219006013006 0 2.6287304441189297e-05 0.024870189173414589 0 4.1421995032981752e-05 0.024831705933850211 0 -5.3506570306187148e-05 0.024843815774989727 0 -3.8520901335858391e-05 0.024799654743908956 0 -1.4110209374476275e-05 0.0247936653324521 0 -6.6707671276906787e-06 0.024895760504150127 0 1.3101335900021031e-05 0.024859791482417359 0 2.6287304441189297e-05 0.024870189173414589 0 1.5467560119945122e-05 0.024894970868114777 0 3.8651109778015786e-05 0.024831152678909566 0 1.3641782198530575e-05 0.024907734660178864 0 2.6287304441189297e-05 0.024870189173414589 0 1.5467560119945122e-05 0.024894970868114777 0 2.5329960303970462e-06 0.024952368266973748 0 6.4832190366844459e-06 0.024933043479750266 0 1.5467560119945122e-05 0.024894970868114777 0 -1.0265402997523372e-05 0.024944576719749506 0 -6.6707671276906787e-06 0.024895760504150127 0 1.3641782198530575e-05 0.024907734660178864 0 6.4832190366844459e-06 0.024933043479750266 0 1.5467560119945122e-05 0.024894970868114777 0 -2.0995842665880381e-05 0.024913367927629847 0 -5.3506570306187148e-05 0.024843815774989727 0 -5.0495113549885251e-05 0.024877245065563412 0 -5.3506570306187148e-05 0.024843815774989727 0 -5.0495113549885251e-05 0.024877245065563412 0 -3.8520901335858391e-05 0.024799654743908956 0 -5.0495113549885251e-05 0.024877245065563412 0 -3.8520901335858391e-05 0.024799654743908956 0 -3.9688255212658024e-05 0.024718028056622304 0 -7.5753612111114662e-05 0.024932823316007238 0 -4.2976401329811225e-05 0.024938534809156743 0 -5.2055072493466873e-05 0.024953978865256635 0 -0.00030650161890808069 0.024405502503053862 0 -0.00036278617736525343 0.024254456640357778 0 -5.0495113549885251e-05 0.024877245065563412 0 -4.2976401329811225e-05 0.024938534809156743 0 -1.0960462714398805e-05 0.024954547564938208 0 -5.0495113549885251e-05 0.024877245065563412 0 -7.5753612111114662e-05 0.024932823316007238 0 -4.2976401329811225e-05 0.024938534809156743 0 -1.0960462714398805e-05 0.024954547564938208 0 -2.3546692333556046e-05 0.024965766801015775 0 -8.490322416961378e-06 0.024981799038666149 0 -4.2976401329811225e-05 0.024938534809156743 0 -1.0960462714398805e-05 0.024954547564938208 0 -2.3546692333556046e-05 0.024965766801015775 0 -1.0960462714398805e-05 0.024954547564938208 0 7.7049767978883152e-10 0.024999978505868031 0 -8.490322416961378e-06 0.024981799038666149 0 -2.0995842665880381e-05 0.024913367927629847 0 -1.0960462714398805e-05 0.024954547564938208 0 9.0624516484143721e-09 0.024999877832158682 0 -1.0265402997523372e-05 0.024944576719749506 0 -1.4153425620117005e-08 0.024999878541029738 0 -1.0960462714398805e-05 0.024954547564938208 0 7.7049767978883152e-10 0.024999978505868031 0 9.0624516484143721e-09 0.024999877832158682 0 -2.0995842665880381e-05 0.024913367927629847 0 -5.0495113549885251e-05 0.024877245065563412 0 -1.0960462714398805e-05 0.024954547564938208 0 6.2831314464158118e-05 0.024668620813840355 0 4.0575656949713498e-05 0.024721851856354043 0 7.302613361518962e-05 0.024693334978672432 0 8.6945405753957846e-05 0.024644503086453908 0 6.2831314464158118e-05 0.024668620813840355 0 7.302613361518962e-05 0.024693334978672432 0 8.6945405753957846e-05 0.024644503086453908 0 7.302613361518962e-05 0.024693334978672432 0 9.7724077649231163e-05 0.024630694020333074 0 8.6945405753957846e-05 0.024644503086453908 0 7.3778408505008734e-05 0.024632598054227819 0 6.2831314464158118e-05 0.024668620813840355 0 8.6945405753957846e-05 0.024644503086453908 0 0.00010698575527954387 0.02461810734256779 0 9.2054001089145968e-05 0.02461351122572563 0 8.6945405753957846e-05 0.024644503086453908 0 7.3778408505008734e-05 0.024632598054227819 0 9.2054001089145968e-05 0.02461351122572563 0 7.3778408505008734e-05 0.024632598054227819 0 6.2831314464158118e-05 0.024668620813840355 0 4.9455521813135521e-05 0.02464824493273967 0 6.2831314464158118e-05 0.024668620813840355 0 4.9455521813135521e-05 0.02464824493273967 0 2.6610467504886323e-05 0.024689636787113077 0 6.2831314464158118e-05 0.024668620813840355 0 2.6610467504886323e-05 0.024689636787113077 0 4.0575656949713498e-05 0.024721851856354043 0 4.9455521813135521e-05 0.02464824493273967 0 2.6610467504886323e-05 0.024689636787113077 0 1.3804527521710423e-05 0.0246287479669897 0 -3.9688255212658024e-05 0.024718028056622304 0 2.6610467504886323e-05 0.024689636787113077 0 -5.5829770753424416e-06 0.024747753660073771 0 -3.9688255212658024e-05 0.024718028056622304 0 2.6610467504886323e-05 0.024689636787113077 0 1.3804527521710423e-05 0.0246287479669897 0 -3.8520901335858391e-05 0.024799654743908956 0 -5.5829770753424416e-06 0.024747753660073771 0 -1.4110209374476275e-05 0.0247936653324521 0 -3.8520901335858391e-05 0.024799654743908956 0 -3.9688255212658024e-05 0.024718028056622304 0 -5.5829770753424416e-06 0.024747753660073771 0 -5.5829770753424416e-06 0.024747753660073771 0 4.0575656949713498e-05 0.024721851856354043 0 -1.4110209374476275e-05 0.0247936653324521 0 2.6610467504886323e-05 0.024689636787113077 0 -5.5829770753424416e-06 0.024747753660073771 0 4.0575656949713498e-05 0.024721851856354043 0 2.7578453635668789e-05 0.024844868574809449 0 1.3101335900021031e-05 0.024859791482417359 0 4.0575656949713498e-05 0.024721851856354043 0 4.9576836672197644e-05 0.024754017801979351 0 -1.4110209374476275e-05 0.0247936653324521 0 4.9576836672197644e-05 0.024754017801979351 0 3.8651109778015786e-05 0.024831152678909566 0 4.1421995032981752e-05 0.024831705933850211 0 2.6287304441189297e-05 0.024870189173414589 0 3.8651109778015786e-05 0.024831152678909566 0 4.1421995032981752e-05 0.024831705933850211 0 2.5340232293162785e-05 0.024895278865080393 0 3.2404927829519917e-05 0.024867858019827133 0 4.1453099226735821e-05 0.024858710829181278 0 2.3488089503902482e-05 0.024885219006013006 0 4.1421995032981752e-05 0.024831705933850211 0 3.2404927829519917e-05 0.024867858019827133 0 4.1421995032981752e-05 0.024831705933850211 0 5.7990576940809037e-05 0.024790619047824074 0 4.1453099226735821e-05 0.024858710829181278 0 4.1421995032981752e-05 0.024831705933850211 0 3.2404927829519917e-05 0.024867858019827133 0 4.1453099226735821e-05 0.024858710829181278 0 5.7990576940809037e-05 0.024790619047824074 0 5.5041454269940746e-05 0.024729168450664116 0 5.303041009760959e-05 0.024749601323070518 0 4.9576836672197644e-05 0.024754017801979351 0 4.1421995032981752e-05 0.024831705933850211 0 5.7990576940809037e-05 0.024790619047824074 0 4.9576836672197644e-05 0.024754017801979351 0 5.7990576940809037e-05 0.024790619047824074 0 5.5041454269940746e-05 0.024729168450664116 0 4.9576836672197644e-05 0.024754017801979351 0 5.5041454269940746e-05 0.024729168450664116 0 7.302613361518962e-05 0.024693334978672432 0 4.0575656949713498e-05 0.024721851856354043 0 4.9576836672197644e-05 0.024754017801979351 0 7.302613361518962e-05 0.024693334978672432 0 7.302613361518962e-05 0.024693334978672432 0 6.4205932452249067e-05 0.024681241456788242 0 9.4575114518665853e-05 0.024662525930278713 0 5.5041454269940746e-05 0.024729168450664116 0 7.302613361518962e-05 0.024693334978672432 0 6.4205932452249067e-05 0.024681241456788242 0 5.5041454269940746e-05 0.024729168450664116 0 6.4205932452249067e-05 0.024681241456788242 0 5.1556336910068358e-05 0.02470547853275817 0 5.5041454269940746e-05 0.024729168450664116 0 5.4949015080525104e-05 0.024733545193903736 0 5.303041009760959e-05 0.024749601323070518 0 5.5041454269940746e-05 0.024729168450664116 0 5.1556336910068358e-05 0.02470547853275817 0 5.4949015080525104e-05 0.024733545193903736 0 5.4949015080525104e-05 0.024733545193903736 0 6.2629155389865173e-05 0.024749282700628563 0 5.3147035315997859e-05 0.024730286606690157 0 5.1556336910068358e-05 0.02470547853275817 0 5.4949015080525104e-05 0.024733545193903736 0 5.3147035315997859e-05 0.024730286606690157 0 5.1556336910068358e-05 0.02470547853275817 0 5.3147035315997859e-05 0.024730286606690157 0 4.2678932245615604e-05 0.024698922501195264 0 5.7990576940809037e-05 0.024790619047824074 0 2.6778436002315889e-05 0.024952241753932587 0 4.1453099226735821e-05 0.024858710829181278 0 3.5069503897828058e-05 0.024843181305481927 0 2.2510212324343233e-05 0.024863715106115715 0 4.2644061331345168e-05 0.024747110562824647 0 5.4202328687218631e-05 0.024761534854176891 0 5.3922285356907032e-05 0.024754432542453027 0 5.7990576940809037e-05 0.024790619047824074 0 4.2644061331345168e-05 0.024747110562824647 0 5.4202328687218631e-05 0.024761534854176891 0 5.4202328687218631e-05 0.024761534854176891 0 5.6978892630824964e-05 0.024749535738738521 0 5.3922285356907032e-05 0.024754432542453027 0 5.7990576940809037e-05 0.024790619047824074 0 5.4202328687218631e-05 0.024761534854176891 0 5.303041009760959e-05 0.024749601323070518 0 5.4202328687218631e-05 0.024761534854176891 0 5.303041009760959e-05 0.024749601323070518 0 5.6978892630824964e-05 0.024749535738738521 0 5.4949015080525104e-05 0.024733545193903736 0 5.303041009760959e-05 0.024749601323070518 0 5.6978892630824964e-05 0.024749535738738521 0 5.4949015080525104e-05 0.024733545193903736 0 5.6978892630824964e-05 0.024749535738738521 0 6.2629155389865173e-05 0.024749282700628563 0 6.2629155389865173e-05 0.024749282700628563 0 5.7572997420052405e-05 0.024763752277713196 0 7.4987505621759135e-05 0.024767430094925109 0 5.6978892630824964e-05 0.024749535738738521 0 5.3922285356907032e-05 0.024754432542453027 0 5.7572997420052405e-05 0.024763752277713196 0 5.6978892630824964e-05 0.024749535738738521 0 6.2629155389865173e-05 0.024749282700628563 0 5.7572997420052405e-05 0.024763752277713196 0 4.2644061331345168e-05 0.024747110562824647 0 5.7572997420052405e-05 0.024763752277713196 0 3.7786535971175022e-05 0.02480883453064528 0 4.2644061331345168e-05 0.024747110562824647 0 5.3922285356907032e-05 0.024754432542453027 0 5.7572997420052405e-05 0.024763752277713196 0 1.6534418468469161e-05 0.024857471298649927 0 3.7786535971175022e-05 0.02480883453064528 0 4.9266221535200719e-05 0.024828666637390778 0 3.7786535971175022e-05 0.02480883453064528 0 7.4987505621759135e-05 0.024767430094925109 0 4.9266221535200719e-05 0.024828666637390778 0 5.7572997420052405e-05 0.024763752277713196 0 3.7786535971175022e-05 0.02480883453064528 0 7.4987505621759135e-05 0.024767430094925109 0 -6.3357284645919082e-05 0.024779549274143366 0 -8.5101236683594975e-05 0.024782363401540719 0 7.4987505621759135e-05 0.024767430094925109 0 8.6941892724529466e-05 0.024855749820358704 0 4.9266221535200719e-05 0.024828666637390778 0 7.4987505621759135e-05 0.024767430094925109 0 7.5770200632778404e-05 0.024715726449810585 0 5.582242995183822e-05 0.024731037492792363 0 2.6283379794382141e-05 0.024875883134368015 0 8.6941892724529466e-05 0.024855749820358704 0 4.9266221535200719e-05 0.024828666637390778 0 2.6283379794382141e-05 0.024875883134368015 0 1.6534418468469161e-05 0.024857471298649927 0 4.9266221535200719e-05 0.024828666637390778 0 5.3147035315997859e-05 0.024730286606690157 0 4.5922528389341787e-05 0.024715637568228171 0 4.2678932245615604e-05 0.024698922501195264 0 5.3147035315997859e-05 0.024730286606690157 0 5.582242995183822e-05 0.024731037492792363 0 4.5922528389341787e-05 0.024715637568228171 0 6.2629155389865173e-05 0.024749282700628563 0 7.4987505621759135e-05 0.024767430094925109 0 5.3147035315997859e-05 0.024730286606690157 0 7.4987505621759135e-05 0.024767430094925109 0 5.3147035315997859e-05 0.024730286606690157 0 5.582242995183822e-05 0.024731037492792363 0 5.582242995183822e-05 0.024731037492792363 0 5.4139755713954581e-05 0.024712398186827335 0 4.5922528389341787e-05 0.024715637568228171 0 7.5770200632778404e-05 0.024715726449810585 0 5.582242995183822e-05 0.024731037492792363 0 5.4139755713954581e-05 0.024712398186827335 0 4.5946367302000545e-05 0.02470189064900441 0 5.4139755713954581e-05 0.024712398186827335 0 4.5922528389341787e-05 0.024715637568228171 0 4.5946367302000545e-05 0.02470189064900441 0 4.5922528389341787e-05 0.024715637568228171 0 4.2631793376754964e-05 0.024706335669685817 0 4.5922528389341787e-05 0.024715637568228171 0 4.2631793376754964e-05 0.024706335669685817 0 4.3848724411305421e-05 0.024704455775766531 0 4.2631793376754964e-05 0.024706335669685817 0 4.3848724411305421e-05 0.024704455775766531 0 4.3038713322119089e-05 0.024704700290658913 0 4.3848724411305421e-05 0.024704455775766531 0 4.2678932245615604e-05 0.024698922501195264 0 5.2624728329475394e-05 0.024691356940660103 0 4.5922528389341787e-05 0.024715637568228171 0 4.3848724411305421e-05 0.024704455775766531 0 4.2678932245615604e-05 0.024698922501195264 0 0.00061551557214859398 0.021711454732961013 0 0.00087717606642058053 0.020430061088596466 0 0.00032437630597812898 0.02077435577502474 0 4.3848724411305421e-05 0.024704455775766531 0 5.2624728329475394e-05 0.024691356940660103 0 4.3038713322119089e-05 0.024704700290658913 0 -3.9297067785683127e-05 0.023198215523483032 0 -0.00026801414574083142 0.022810771369809909 0 0.00023410271656574554 0.020108602349048401 0 0.00087717606642058053 0.020430061088596466 0 0.00032437630597812898 0.02077435577502474 0 0.00023410271656574554 0.020108602349048401 0 0.00032437630597812898 0.02077435577502474 0 -5.5632111234366633e-05 0.020561211762778274 0 -0.00025710742448033463 0.02022982359959041 0 -5.5632111234366633e-05 0.020561211762778274 0 -0.0005833442724092711 0.020717595259956156 0 -8.6112759363899985e-05 0.021178931824035765 0 -0.0005833442724092711 0.020717595259956156 0 -0.00062987146278275488 0.021355522522291278 0 -5.5632111234366633e-05 0.020561211762778274 0 -8.6112759363899985e-05 0.021178931824035765 0 -0.0005833442724092711 0.020717595259956156 0 0.00032437630597812898 0.02077435577502474 0 -5.5632111234366633e-05 0.020561211762778274 0 -8.6112759363899985e-05 0.021178931824035765 0 -0.00089219643462221674 0.02018409407652098 0 -0.0013586913185075296 0.020686395983733633 0 -0.0018453487248742781 0.020602296240559814 0 -0.00077259125614550258 0.020301029961797178 0 -0.0010661755518653188 0.020417506570207616 0 -0.00089219643462221674 0.02018409407652098 0 -0.0013586913185075296 0.020686395983733633 0 -0.00098756830340104938 0.020656958843857948 0 -0.00089219643462221674 0.02018409407652098 0 -0.0005833442724092711 0.020717595259956156 0 -0.00098756830340104938 0.020656958843857948 0 -0.00025710742448033463 0.02022982359959041 0 -0.00089219643462221674 0.02018409407652098 0 -0.0005833442724092711 0.020717595259956156 0 -0.0005833442724092711 0.020717595259956156 0 -0.00098756830340104938 0.020656958843857948 0 -0.0011177697727246642 0.021047613205586162 0 -0.0005833442724092711 0.020717595259956156 0 -0.0011177697727246642 0.021047613205586162 0 -0.00062987146278275488 0.021355522522291278 0 -0.0013586913185075296 0.020686395983733633 0 -0.0011177697727246642 0.021047613205586162 0 -0.0016227388932027493 0.020957717698097521 0 -0.0013586913185075296 0.020686395983733633 0 -0.00098756830340104938 0.020656958843857948 0 -0.0011177697727246642 0.021047613205586162 0 -0.00098950823044784792 0.021874183904654322 0 -0.0016499005714419694 0.021553963254059651 0 -0.0015917446023980977 0.022510847445072403 0 -0.0011177697727246642 0.021047613205586162 0 -0.00098950823044784792 0.021874183904654322 0 -0.0016499005714419694 0.021553963254059651 0 -0.0011177697727246642 0.021047613205586162 0 -0.00062987146278275488 0.021355522522291278 0 -0.00098950823044784792 0.021874183904654322 0 -0.00062987146278275488 0.021355522522291278 0 -0.00098950823044784792 0.021874183904654322 0 -0.00027210326846574946 0.021968562965035673 0 0.00061551557214859398 0.021711454732961013 0 -8.6112759363899985e-05 0.021178931824035765 0 -0.00027210326846574946 0.021968562965035673 0 0.00061551557214859398 0.021711454732961013 0 0.00032437630597812898 0.02077435577502474 0 -8.6112759363899985e-05 0.021178931824035765 0 -8.6112759363899985e-05 0.021178931824035765 0 -0.00062987146278275488 0.021355522522291278 0 -0.00027210326846574946 0.021968562965035673 0 -0.00027210326846574946 0.021968562965035673 0 -0.00081270430580807594 0.022677017674204509 0 0.00032625311121557764 0.023039134627351458 0 0.00061551557214859398 0.021711454732961013 0 -0.00027210326846574946 0.021968562965035673 0 0.00032625311121557764 0.023039134627351458 0 -0.00098950823044784792 0.021874183904654322 0 -0.00081270430580807594 0.022677017674204509 0 -0.0015917446023980977 0.022510847445072403 0 -0.00098950823044784792 0.021874183904654322 0 -0.00027210326846574946 0.021968562965035673 0 -0.00081270430580807594 0.022677017674204509 0 -0.00081270430580807594 0.022677017674204509 0 -0.001195014376754108 0.023392410403756673 0 -0.0015917446023980977 0.022510847445072403 0 -0.00081270430580807594 0.022677017674204509 0 -0.001195014376754108 0.023392410403756673 0 -0.00048493501999856252 0.023425327084872039 0 -0.001195014376754108 0.023392410403756673 0 -0.00048493501999856252 0.023425327084872039 0 -0.00077642553865622907 0.0240318857340324 0 -2.4136692892417064e-05 0.023725638341421208 0 -6.2148588337750848e-05 0.024025590227764237 0 -0.00048493501999856252 0.023425327084872039 0 0.00032625311121557764 0.023039134627351458 0 -7.5753277580703653e-05 0.024469555972348497 0 -0.00081270430580807594 0.022677017674204509 0 -0.00048493501999856252 0.023425327084872039 0 0.00032625311121557764 0.023039134627351458 0 4.2089364895463098e-05 0.024633826541721179 0 4.2847723772935599e-05 0.024664378952926513 0 4.5997040510213077e-05 0.024627515257079166 0 4.2089364895463098e-05 0.024633826541721179 0 4.5997040510213077e-05 0.024627515257079166 0 -7.5753277580703653e-05 0.024469555972348497 0 6.4205932452249067e-05 0.024681241456788242 0 5.1556336910068358e-05 0.02470547853275817 0 4.2847723772935599e-05 0.024664378952926513 0 6.4205932452249067e-05 0.024681241456788242 0 4.2847723772935599e-05 0.024664378952926513 0 4.5997040510213077e-05 0.024627515257079166 0 4.2678932245615604e-05 0.024698922501195264 0 5.2624728329475394e-05 0.024691356940660103 0 4.2847723772935599e-05 0.024664378952926513 0 5.1556336910068358e-05 0.02470547853275817 0 4.2678932245615604e-05 0.024698922501195264 0 4.2847723772935599e-05 0.024664378952926513 0 5.2624728329475394e-05 0.024691356940660103 0 4.2089364895463098e-05 0.024633826541721179 0 4.2847723772935599e-05 0.024664378952926513 0 -3.9297067785683127e-05 0.023198215523483032 0 -2.4136692892417064e-05 0.023725638341421208 0 -0.0037355559502166265 0.00060027518411210072 0 -0.0042098478109101837 0.00016754019677145556 0 -0.0036979360999341401 -0.00028873787875254112 0 -0.0042098478109101837 0.00016754019677145556 0 -0.0043698940422907586 -0.00028242106685341667 0 -0.0036979360999341401 -0.00028873787875254112 0 -0.0037355559502166265 0.00060027518411210072 0 -0.0045159307614107769 0.00059382653364123102 0 -0.0042098478109101837 0.00016754019677145556 0 -0.0043652177161609598 0.0011012342512364424 0 -0.0037355559502166265 0.00060027518411210072 0 -0.0045159307614107769 0.00059382653364123102 0 -0.0045159307614107769 0.00059382653364123102 0 -0.0042098478109101837 0.00016754019677145556 0 -0.0047333997960659737 0.00022634661936450577 0 -0.0049228965339030619 -0.00024370396344813964 0 -0.0047333997960659737 0.00022634661936450577 0 -0.0043698940422907586 -0.00028242106685341667 0 -0.0042098478109101837 0.00016754019677145556 0 -0.0047333997960659737 0.00022634661936450577 0 -0.0043698940422907586 -0.00028242106685341667 0 -0.0049228965339030619 -0.00024370396344813964 0 -0.0047333997960659737 0.00022634661936450577 0 -0.0054495035213844916 0.00044921045655255934 0 -0.0032322960774997639 0.010948516701730315 0 -0.0030252951520790237 0.011252501540786298 0 -0.0028427318027011142 0.022006162393709363 0 -0.0020980251058950353 0.020866667291199275 0 -0.0021141080583010276 0.021995594464245739 0 -0.0045159307614107769 0.00059382653364123102 0 -0.0047333997960659737 0.00022634661936450577 0 -0.0050641815844627448 0.00069906861393550612 0 -0.0047333997960659737 0.00022634661936450577 0 -0.0050641815844627448 0.00069906861393550612 0 -0.0054495035213844916 0.00044921045655255934 0 -0.004801539060056776 0.00099781584575343147 0 -0.0045159307614107769 0.00059382653364123102 0 -0.0050641815844627448 0.00069906861393550612 0 -0.0012836190066165918 0.01956139518455817 0 -0.0020980251058950353 0.020866667291199275 0 -0.0018453487248742781 0.020602296240559814 0 -0.0054805391946699143 0.00097416872257893264 0 -0.0050641815844627448 0.00069906861393550612 0 -0.0054495035213844916 0.00044921045655255934 0 -0.0020980251058950353 0.020866667291199275 0 -0.0016227388932027493 0.020957717698097521 0 -0.0016499005714419694 0.021553963254059651 0 -0.0013586913185075296 0.020686395983733633 0 -0.0018453487248742781 0.020602296240559814 0 -0.0016227388932027493 0.020957717698097521 0 -0.0020980251058950353 0.020866667291199275 0 -0.0018453487248742781 0.020602296240559814 0 -0.0016227388932027493 0.020957717698097521 0 -0.0011177697727246642 0.021047613205586162 0 -0.0016227388932027493 0.020957717698097521 0 -0.0016499005714419694 0.021553963254059651 0 -0.0016499005714419694 0.021553963254059651 0 -0.0021141080583010276 0.021995594464245739 0 -0.0015917446023980977 0.022510847445072403 0 -0.0020980251058950353 0.020866667291199275 0 -0.0016499005714419694 0.021553963254059651 0 -0.0021141080583010276 0.021995594464245739 0 -0.0021141080583010276 0.021995594464245739 0 -0.0015917446023980977 0.022510847445072403 0 -0.0023879495024313408 0.023029525596155474 0 -0.0015917446023980977 0.022510847445072403 0 -0.0017469915461462984 0.023129998028848915 0 -0.0023879495024313408 0.023029525596155474 0 -0.001195014376754108 0.023392410403756673 0 -0.0015917446023980977 0.022510847445072403 0 -0.0017469915461462984 0.023129998028848915 0 -0.0018454816436152246 0.023705157625685824 0 -0.0023879495024313408 0.023029525596155474 0 -0.002401317576416128 0.024234030014363819 0 -0.001195014376754108 0.023392410403756673 0 -0.0017469915461462984 0.023129998028848915 0 -0.0018454816436152246 0.023705157625685824 0 -0.001195014376754108 0.023392410403756673 0 -0.0018454816436152246 0.023705157625685824 0 -0.00126851176923561 0.024226861967110297 0 -0.0017469915461462984 0.023129998028848915 0 -0.0018454816436152246 0.023705157625685824 0 -0.0023879495024313408 0.023029525596155474 0 -0.0026717128600884581 0.010061193245623958 0 -0.001465035144543034 0.012242158507189909 0 -0.0023879495024313408 0.023029525596155474 0 -0.0036073611813764116 0.023128870980833018 0 -0.002401317576416128 0.024234030014363819 0 -0.0028427318027011142 0.022006162393709363 0 -0.0023879495024313408 0.023029525596155474 0 -0.0036073611813764116 0.023128870980833018 0 -0.0028427318027011142 0.022006162393709363 0 -0.0021141080583010276 0.021995594464245739 0 -0.0023879495024313408 0.023029525596155474 0 -0.0043698940422907586 -0.00028242106685341667 0 -0.0044298403086504333 -0.00092926220073303873 0 -0.0036979360999341401 -0.00028873787875254112 0 -0.0049228965339030619 -0.00024370396344813964 0 -0.0043698940422907586 -0.00028242106685341667 0 -0.0044298403086504333 -0.00092926220073303873 0 -0.0032322960774997639 0.010948516701730315 0 -0.0026717128600884581 0.010061193245623958 0 -0.0026344724294093602 0.000405052074594296 0 -0.0028954597451990032 0.00038090934227907582 0 -0.0021054712646068749 0.0014293149219607934 0 -0.0026344724294093602 0.000405052074594296 0 -0.0025493508672710663 0.00027223468282938082 0 -0.0021054712646068749 0.0014293149219607934 0 -0.0026344724294093602 0.000405052074594296 0 -0.0026478876820641198 0.00032854094146677232 0 -0.0028954597451990032 0.00038090934227907582 0 -0.0026188734474123726 0.0099451066651804823 0 -0.0026717128600884581 0.010061193245623958 0 -0.0026478876820641198 0.00032854094146677232 0 -0.0028954597451990032 0.00038090934227907582 0 -0.0029016790622975767 0.00033362554824562207 0 -0.0028954597451990032 0.00038090934227907582 0 -0.0028859481842271055 0.00030646731336784404 0 -0.0028957905886827936 0.00027375349257442716 0 -0.0028954597451990032 0.00038090934227907582 0 -0.0028859481842271055 0.00030646731336784404 0 -0.0029016790622975767 0.00033362554824562207 0 -0.0028859481842271055 0.00030646731336784404 0 -0.0029016790622975767 0.00033362554824562207 0 -0.0028767217312167786 0.00029010718237152642 0 -0.0026478876820641198 0.00032854094146677232 0 -0.0029016790622975767 0.00033362554824562207 0 -0.0029470732231966566 0.00029965022832167753 0 -0.0029016790622975767 0.00033362554824562207 0 -0.0029470732231966566 0.00029965022832167753 0 -0.0028767217312167786 0.00029010718237152642 0 -0.0026717128600884581 0.010061193245623958 0 -0.0047642179855945984 0.0034390858904411615 0 -0.0029386150935289258 0.00018631737644487383 0 -0.0028943917551571699 0.00020633492179597648 0 -0.0028424670104583716 0.00010902335281022564 0 -0.0029386150935289258 0.00018631737644487383 0 -0.0029815053062636938 0.0001661806338145695 0 -0.0028424670104583716 0.00010902335281022564 0 -0.0029386150935289258 0.00018631737644487383 0 -0.0028943917551571699 0.00020633492179597648 0 -0.0029347815171637008 0.00023570138418100317 0 -0.0028943917551571699 0.00020633492179597648 0 -0.0028957905886827936 0.00027375349257442716 0 -0.0028559417908429596 0.00022206956993932355 0 -0.0028859481842271055 0.00030646731336784404 0 -0.0028957905886827936 0.00027375349257442716 0 -0.0028559417908429596 0.00022206956993932355 0 -0.0028954597451990032 0.00038090934227907582 0 -0.0028957905886827936 0.00027375349257442716 0 -0.0029423537689075414 0.00029368022604103625 0 -0.0028943917551571699 0.00020633492179597648 0 -0.0028957905886827936 0.00027375349257442716 0 -0.0029347815171637008 0.00023570138418100317 0 -0.0028957905886827936 0.00027375349257442716 0 -0.0029347815171637008 0.00023570138418100317 0 -0.0029423537689075414 0.00029368022604103625 0 -0.0028954597451990032 0.00038090934227907582 0 -0.0029423537689075414 0.00029368022604103625 0 -0.0030304848593926013 0.00026547496092307622 0 -0.0029347815171637008 0.00023570138418100317 0 -0.0029738444957570801 0.00025289944071034978 0 -0.0029896839110197548 0.00022103907925408991 0 -0.0041110125072205848 0.0028562749505580995 0 -0.0039326332241073946 0.0041769663925730347 0 -0.0029347815171637008 0.00023570138418100317 0 -0.0029738444957570801 0.00025289944071034978 0 -0.0029423537689075414 0.00029368022604103625 0 -0.0029738444957570801 0.00025289944071034978 0 -0.0029423537689075414 0.00029368022604103625 0 -0.0030304848593926013 0.00026547496092307622 0 -0.0029738444957570801 0.00025289944071034978 0 -0.0029896839110197548 0.00022103907925408991 0 -0.0030304848593926013 0.00026547496092307622 0 -0.0029896839110197548 0.00022103907925408991 0 -0.0030232171374072591 0.0002285860881337095 0 -0.0030304848593926013 0.00026547496092307622 0 -0.0029896839110197548 0.00022103907925408991 0 -0.0030219567836197096 0.0002037959321057458 0 -0.0030232171374072591 0.0002285860881337095 0 -0.0029386150935289258 0.00018631737644487383 0 -0.0029347815171637008 0.00023570138418100317 0 -0.0029896839110197548 0.00022103907925408991 0 -0.0029386150935289258 0.00018631737644487383 0 -0.0029896839110197548 0.00022103907925408991 0 -0.0029878992191160751 0.0001935120161423448 0 -0.0029386150935289258 0.00018631737644487383 0 -0.0029878992191160751 0.0001935120161423448 0 -0.0029815053062636938 0.0001661806338145695 0 -0.0029878992191160751 0.0001935120161423448 0 -0.0030219567836197096 0.0002037959321057458 0 -0.0029815053062636938 0.0001661806338145695 0 -0.0029896839110197548 0.00022103907925408991 0 -0.0029878992191160751 0.0001935120161423448 0 -0.0030219567836197096 0.0002037959321057458 0 -0.0030219567836197096 0.0002037959321057458 0 -0.0030491135248393382 0.00022347703511554697 0 -0.0031048090990211585 0.00021646031098503926 0 -0.0030219567836197096 0.0002037959321057458 0 -0.0031048090990211585 0.00021646031098503926 0 -0.0029815053062636938 0.0001661806338145695 0 -0.0019075594043603552 0.010187743728152322 0 -0.0028349023800477522 0.0044683955280910657 0 -0.0030491135248393382 0.00022347703511554697 0 -0.0030304848593926013 0.00026547496092307622 0 -0.0031048090990211585 0.00021646031098503926 0 -0.0039326332241073946 0.0041769663925730347 0 -0.0019075594043603552 0.010187743728152322 0 -0.0030491135248393382 0.00022347703511554697 0 -0.0030232171374072591 0.0002285860881337095 0 -0.0030304848593926013 0.00026547496092307622 0 -0.0030219567836197096 0.0002037959321057458 0 -0.0030491135248393382 0.00022347703511554697 0 -0.0030232171374072591 0.0002285860881337095 0 -0.0021054712646068749 0.0014293149219607934 0 -0.0014518821798316101 0.0013065203517565642 0 -0.00093200777047850998 0.0025948778491502308 0 -0.0025493508672710663 0.00027223468282938082 0 -0.0021054712646068749 0.0014293149219607934 0 -0.0014518821798316101 0.0013065203517565642 0 -0.002401317576416128 0.024234030014363819 0 -0.0016714144346731015 0.024353538624631972 0 -0.0011722011765624653 0.025205389385829471 0 -0.0018454816436152246 0.023705157625685824 0 -0.002401317576416128 0.024234030014363819 0 -0.0016714144346731015 0.024353538624631972 0 -0.0018454816436152246 0.023705157625685824 0 -0.0016714144346731015 0.024353538624631972 0 -0.00126851176923561 0.024226861967110297 0 -0.001465035144543034 0.012242158507189909 0 3.5667803080026425e-05 0.013992280618901507 0 -0.0014518821798316101 0.0013065203517565642 0 -0.00093200777047850998 0.0025948778491502308 0 -0.00015303728646841766 0.0025254494696257826 0 -0.0019075594043603552 0.010187743728152322 0 3.5667803080026425e-05 0.013992280618901507 0 -0.00088693198229235703 0.0012222122217574233 0 -0.00064371183716373909 0.0019724118706762627 0 0.0010342398318532206 0.0018855766580734804 0 -0.0011157158689572995 -0.00010533090483902871 0 -0.00088693198229235703 0.0012222122217574233 0 0.0010342398318532206 0.0018855766580734804 0 -0.0011157158689572995 -0.00010533090483902871 0 -0.00088693198229235703 0.0012222122217574233 0 -0.0019600976770526106 0.00078996063241376874 0 -0.0017550781041572718 0.0015698253219523757 0 -0.00088693198229235703 0.0012222122217574233 0 -0.0019600976770526106 0.00078996063241376874 0 -0.0017550781041572718 0.0015698253219523757 0 -0.00088693198229235703 0.0012222122217574233 0 -0.00064371183716373909 0.0019724118706762627 0 -0.00064371183716373909 0.0019724118706762627 0 -0.0014705048587736679 0.0026093227851822281 0 -6.0076699094611369e-05 0.0030682307775869388 0 -0.0014705048587736679 0.0026093227851822281 0 -6.0076699094611369e-05 0.0030682307775869388 0 -0.0015291796683491261 0.0038457361791786383 0 -0.0017550781041572718 0.0015698253219523757 0 -0.00064371183716373909 0.0019724118706762627 0 -0.0014705048587736679 0.0026093227851822281 0 -0.0017550781041572718 0.0015698253219523757 0 -0.0014705048587736679 0.0026093227851822281 0 -0.0026104384002528349 0.0019680493993377447 0 -0.0014705048587736679 0.0026093227851822281 0 -0.0026104384002528349 0.0019680493993377447 0 -0.0025445597199143127 0.0030788063547951628 0 -0.0014705048587736679 0.0026093227851822281 0 -0.0025445597199143127 0.0030788063547951628 0 -0.0015291796683491261 0.0038457361791786383 0 -0.0025445597199143127 0.0030788063547951628 0 -0.0036182494053526304 0.0022940381509651228 0 -0.0035687233905769868 0.0035268316004772094 0 -0.0025445597199143127 0.0030788063547951628 0 -0.0035687233905769868 0.0035268316004772094 0 -0.0028092395566647918 0.0042254837538977762 0 -0.0026104384002528349 0.0019680493993377447 0 -0.0025445597199143127 0.0030788063547951628 0 -0.0036182494053526304 0.0022940381509651228 0 -0.0011157158689572995 -0.00010533090483902871 0 -0.0029471119503071803 0.00074208215042473606 0 -0.0044378085953921407 0.00037418398993945034 0 -0.0026104384002528349 0.0019680493993377447 0 -0.0033954796310989733 0.0013199919371475305 0 -0.0036182494053526304 0.0022940381509651228 0 -0.0011157158689572995 -0.00010533090483902871 0 -0.0019600976770526106 0.00078996063241376874 0 -0.0029471119503071803 0.00074208215042473606 0 -0.0033954796310989733 0.0013199919371475305 0 -0.0026669537052327681 0.0012392303335638461 0 -0.0029471119503071803 0.00074208215042473606 0 -0.0026104384002528349 0.0019680493993377447 0 -0.0033954796310989733 0.0013199919371475305 0 -0.0026669537052327681 0.0012392303335638461 0 -0.0017550781041572718 0.0015698253219523757 0 -0.0026669537052327681 0.0012392303335638461 0 -0.0019600976770526106 0.00078996063241376874 0 -0.0017550781041572718 0.0015698253219523757 0 -0.0026104384002528349 0.0019680493993377447 0 -0.0026669537052327681 0.0012392303335638461 0 -0.0026669537052327681 0.0012392303335638461 0 -0.0019600976770526106 0.00078996063241376874 0 -0.0029471119503071803 0.00074208215042473606 0 -0.0033954796310989733 0.0013199919371475305 0 -0.0029471119503071803 0.00074208215042473606 0 -0.0040172889915172216 0.00075362587058323935 0 -0.0029471119503071803 0.00074208215042473606 0 -0.0040172889915172216 0.00075362587058323935 0 -0.0044378085953921407 0.00037418398993945034 0 -0.0040172889915172216 0.00075362587058323935 0 -0.0042864580180578113 0.00057063246639190671 0 -0.0042767137303502704 0.00090129543930474751 0 -0.0040172889915172216 0.00075362587058323935 0 -0.0042864580180578113 0.00057063246639190671 0 -0.0044378085953921407 0.00037418398993945034 0 -0.0042767137303502704 0.00090129543930474751 0 -0.0044238371843967374 0.00037267626186856791 0 -0.0046940692874337933 0.0014805259138637537 0 -0.0042864580180578113 0.00057063246639190671 0 -0.0044378085953921407 0.00037418398993945034 0 -0.0044238371843967374 0.00037267626186856791 0 -0.0042864580180578113 0.00057063246639190671 0 -0.0042767137303502704 0.00090129543930474751 0 -0.0044238371843967374 0.00037267626186856791 0 -0.0042767137303502704 0.00090129543930474751 0 -0.0046940692874337933 0.0014805259138637537 0 -0.0040706245248863003 0.0014520584668459649 0 -0.0046940692874337933 0.0014805259138637537 0 -0.0040706245248863003 0.0014520584668459649 0 -0.0044142978827930255 0.0021149732975536814 0 -0.0033954796310989733 0.0013199919371475305 0 -0.0040706245248863003 0.0014520584668459649 0 -0.0036182494053526304 0.0022940381509651228 0 -0.0040172889915172216 0.00075362587058323935 0 -0.0042767137303502704 0.00090129543930474751 0 -0.0040706245248863003 0.0014520584668459649 0 -0.0033954796310989733 0.0013199919371475305 0 -0.0040172889915172216 0.00075362587058323935 0 -0.0040706245248863003 0.0014520584668459649 0 -0.0036182494053526304 0.0022940381509651228 0 -0.0045032984581710395 0.0030936037889314812 0 -0.0044142978827930255 0.0021149732975536814 0 -0.0040706245248863003 0.0014520584668459649 0 -0.0036182494053526304 0.0022940381509651228 0 -0.0044142978827930255 0.0021149732975536814 0 -0.0036182494053526304 0.0022940381509651228 0 -0.0035687233905769868 0.0035268316004772094 0 -0.0045032984581710395 0.0030936037889314812 0 -0.0045032984581710395 0.0030936037889314812 0 -0.0052130607467100083 0.0024214482013418422 0 -0.005685587665615722 0.0032358207692290667 0 -0.0046940692874337933 0.0014805259138637537 0 -0.0044142978827930255 0.0021149732975536814 0 -0.0052130607467100083 0.0024214482013418422 0 -0.0045032984581710395 0.0030936037889314812 0 -0.0044142978827930255 0.0021149732975536814 0 -0.0052130607467100083 0.0024214482013418422 0 -0.0052130607467100083 0.0024214482013418422 0 -0.005685587665615722 0.0032358207692290667 0 -0.006311631455346565 0.0021877627664806418 0 -0.0046940692874337933 0.0014805259138637537 0 -0.0052130607467100083 0.0024214482013418422 0 -0.006311631455346565 0.0021877627664806418 0 -0.005685587665615722 0.0032358207692290667 0 -0.006311631455346565 0.0021877627664806418 0 -0.0080567166926166674 0.0039491284844700679 0 -0.0044238371843967374 0.00037267626186856791 0 -0.0040932937238692523 -0.00019815909522455491 0 -0.0037551202327649725 0.00023802201437942024 0 -0.0044378085953921407 0.00037418398993945034 0 -0.0044238371843967374 0.00037267626186856791 0 -0.0037551202327649725 0.00023802201437942024 0 -0.0028349023800477522 0.0044683955280910657 0 -0.0030260781456208376 0.002194355109022922 0 -0.0042241575803040566 0.0016037340167728334 0 -0.0043842002052680365 0.0020633880800588031 0 -0.0044238371843967374 0.00037267626186856791 0 -0.0046940692874337933 0.0014805259138637537 0 -0.006311631455346565 0.0021877627664806418 0 9.4575114518665853e-05 0.024662525930278713 0 6.9681982549870119e-05 0.024549954279551374 0 8.9315334602401187e-05 0.024600170136711914 0 -0.00042081205612828074 0.020384490702280381 0 -0.0004835155067422635 0.019025238205655944 0 9.4575114518665853e-05 0.024662525930278713 0 3.6439493020828306e-05 0.024650859079619673 0 -2.965831541360109e-05 0.024867976638403056 0 9.4575114518665853e-05 0.024662525930278713 0 8.9315334602401187e-05 0.024600170136711914 0 9.7724077649231163e-05 0.024630694020333074 0 7.302613361518962e-05 0.024693334978672432 0 9.4575114518665853e-05 0.024662525930278713 0 9.7724077649231163e-05 0.024630694020333074 0 6.4205932452249067e-05 0.024681241456788242 0 9.4575114518665853e-05 0.024662525930278713 0 4.5997040510213077e-05 0.024627515257079166 0 9.4575114518665853e-05 0.024662525930278713 0 4.5997040510213077e-05 0.024627515257079166 0 3.6439493020828306e-05 0.024650859079619673 0 4.5997040510213077e-05 0.024627515257079166 0 3.6439493020828306e-05 0.024650859079619673 0 -7.5753277580703653e-05 0.024469555972348497 0 3.6439493020828306e-05 0.024650859079619673 0 -7.5753277580703653e-05 0.024469555972348497 0 -2.965831541360109e-05 0.024867976638403056 0 -0.00048493501999856252 0.023425327084872039 0 -7.5753277580703653e-05 0.024469555972348497 0 -0.00077642553865622907 0.0240318857340324 0 -7.5753277580703653e-05 0.024469555972348497 0 -0.00077642553865622907 0.0240318857340324 0 -0.00062808379354540418 0.024596309607193265 0 -7.5753277580703653e-05 0.024469555972348497 0 -0.00062808379354540418 0.024596309607193265 0 -2.965831541360109e-05 0.024867976638403056 0 -0.0016714144346731015 0.024353538624631972 0 -0.00126851176923561 0.024226861967110297 0 -0.0011722011765624653 0.025205389385829471 0 -0.001195014376754108 0.023392410403756673 0 -0.00126851176923561 0.024226861967110297 0 -0.00077642553865622907 0.0240318857340324 0 -0.00126851176923561 0.024226861967110297 0 -0.00077642553865622907 0.0240318857340324 0 -0.00062808379354540418 0.024596309607193265 0 -0.00126851176923561 0.024226861967110297 0 -0.00062808379354540418 0.024596309607193265 0 -0.0011722011765624653 0.025205389385829471 0 -0.00062808379354540418 0.024596309607193265 0 -0.0011722011765624653 0.025205389385829471 0 -2.965831541360109e-05 0.024867976638403056 0 3.4088469976648367e-05 0.024492449795948053 0 6.9681982549870119e-05 0.024549954279551374 0 3.9053279160125294e-05 0.024517279073268894 0 3.5667803080026425e-05 0.013992280618901507 0 -0.0004835155067422635 0.019025238205655944 0 6.9681982549870119e-05 0.024549954279551374 0 7.2352518172042141e-05 0.024565309794576547 0 3.9053279160125294e-05 0.024517279073268894 0 3.9053279160125294e-05 0.024517279073268894 0 -6.358930343488108e-05 0.024596001429081277 0 3.1837360500124083e-05 0.024583623015181411 0 3.9053279160125294e-05 0.024517279073268894 0 6.6566288709712874e-05 0.024583909404211592 0 3.1837360500124083e-05 0.024583623015181411 0 7.2352518172042141e-05 0.024565309794576547 0 3.9053279160125294e-05 0.024517279073268894 0 6.6566288709712874e-05 0.024583909404211592 0 -0.0019075594043603552 0.010187743728152322 0 -0.00012970525197419846 0.013211681216950648 0 -0.0002163765843056476 0.024198606470678116 0 3.9053279160125294e-05 0.024517279073268894 0 -6.358930343488108e-05 0.024596001429081277 0 -0.00048337093712800156 0.024209683568741307 0 -0.0002163765843056476 0.024198606470678116 0 -6.358930343488108e-05 0.024596001429081277 0 3.5667803080026425e-05 0.013992280618901507 0 0.0015002316676231381 0.016706721146819835 0 0.0010342398318532206 0.0018855766580734804 0 0.0012385761597638806 0.0033726699798412737 0 -6.0076699094611369e-05 0.0030682307775869388 0 -0.00064371183716373909 0.0019724118706762627 0 0.0010342398318532206 0.0018855766580734804 0 -6.0076699094611369e-05 0.0030682307775869388 0 0.0010342398318532206 0.0018855766580734804 0 0.0012385761597638806 0.0033726699798412737 0 0.0025000640636291442 0.0032381587637349105 0 0.0012385761597638806 0.0033726699798412737 0 0.0025000640636291442 0.0032381587637349105 0 0.0032172697479045825 0.003898214462268141 0 6.6566288709712874e-05 0.024583909404211592 0 6.5025489292182612e-05 0.024621092271236447 0 8.502198395175857e-05 0.024609320514425954 0 6.6566288709712874e-05 0.024583909404211592 0 3.1837360500124083e-05 0.024583623015181411 0 6.5025489292182612e-05 0.024621092271236447 0 -0.00012970525197419846 0.013211681216950648 0 0.00031667622524186715 0.014727449782322146 0 -6.358930343488108e-05 0.024596001429081277 0 3.1837360500124083e-05 0.024583623015181411 0 6.5025489292182612e-05 0.024621092271236447 0 0.00031667622524186715 0.014727449782322146 0 0.00040067117044614045 0.015491722165249723 0 6.5025489292182612e-05 0.024621092271236447 0 8.502198395175857e-05 0.024609320514425954 0 7.8183250917487139e-05 0.024619519532253893 0 8.502198395175857e-05 0.024609320514425954 0 0.00010698575527954387 0.02461810734256779 0 7.8183250917487139e-05 0.024619519532253893 0 -0.00074295915962909462 0.017725805253549831 0 0.00040067117044614045 0.015491722165249723 0 8.502198395175857e-05 0.024609320514425954 0 9.1161204658042266e-05 0.024600720978310436 0 0.00010698575527954387 0.02461810734256779 0 6.6566288709712874e-05 0.024583909404211592 0 8.502198395175857e-05 0.024609320514425954 0 9.1161204658042266e-05 0.024600720978310436 0 7.2352518172042141e-05 0.024565309794576547 0 6.6566288709712874e-05 0.024583909404211592 0 9.1161204658042266e-05 0.024600720978310436 0 9.1161204658042266e-05 0.024600720978310436 0 8.9315334602401187e-05 0.024600170136711914 0 9.7724077649231163e-05 0.024630694020333074 0 6.9681982549870119e-05 0.024549954279551374 0 7.2352518172042141e-05 0.024565309794576547 0 8.9315334602401187e-05 0.024600170136711914 0 7.2352518172042141e-05 0.024565309794576547 0 9.1161204658042266e-05 0.024600720978310436 0 8.9315334602401187e-05 0.024600170136711914 0 9.1161204658042266e-05 0.024600720978310436 0 9.7724077649231163e-05 0.024630694020333074 0 0.00010698575527954387 0.02461810734256779 0 8.6945405753957846e-05 0.024644503086453908 0 9.7724077649231163e-05 0.024630694020333074 0 0.00010698575527954387 0.02461810734256779 0 0.00010698575527954387 0.02461810734256779 0 0.00011132707224536427 0.024590264073005109 0 0.00014774392219339176 0.02457796686403671 0 0.00010698575527954387 0.02461810734256779 0 0.00011132707224536427 0.024590264073005109 0 9.2054001089145968e-05 0.02461351122572563 0 0.00074255423744576941 0.019139206923628339 0 5.6828900651296217e-05 0.020995000046092751 0 0.00011132707224536427 0.024590264073005109 0 0.00012061016254797011 0.024562324784428984 0 9.3474546053489311e-05 0.024586083155946757 0 0.00022599048587642592 0.019881952676894767 0 0.00073545319397238683 0.019900926576975512 0 0.00057563596335990304 0.020038811163491526 0 0.00022599048587642592 0.019881952676894767 0 0.00047625020445391018 0.020156162104461889 0 0.00057563596335990304 0.020038811163491526 0 0.00083023645783432832 0.016839229034387414 0 0.00090239301553252896 0.017140688218114826 0 0.0012297529287110525 0.017279422168140133 0 0.00083023645783432832 0.016839229034387414 0 0.00090239301553252896 0.017140688218114826 0 0.0006204215259963834 0.017077080033147139 0 0.00074255423744576941 0.019139206923628339 0 0.00041301249075638451 0.019638831458274143 0 0.00074255423744576941 0.019139206923628339 0 0.00037815668561470004 0.018556901277318714 0 0.00085685962172685345 0.016825624927274241 0 0.00025890748901155782 0.016801306630112839 0 0.00030334081544225016 0.016218648895325604 0 0.00083023645783432832 0.016839229034387414 0 0.0006204215259963834 0.017077080033147139 0 0.00024865474868356893 0.016811962560543247 0 0.0006204215259963834 0.017077080033147139 0 0.00024865474868356893 0.016811962560543247 0 9.6450712091355174e-05 0.01715612603221001 0 0.00011132707224536427 0.024590264073005109 0 0.00012061016254797011 0.024562324784428984 0 0.00014774392219339176 0.02457796686403671 0 0.00074255423744576941 0.019139206923628339 0 0.000666536134988867 0.016611122260584345 0 0.00010698575527954387 0.02461810734256779 0 0.00014774392219339176 0.02457796686403671 0 0.00015545661579836247 0.02458146470079554 0 0.00025890748901155782 0.016801306630112839 0 0.00030334081544225016 0.016218648895325604 0 0.00016697946707312254 0.016069447652081865 0 0.000666536134988867 0.016611122260584345 0 0.00040067117044614045 0.015491722165249723 0 0.00025890748901155782 0.016801306630112839 0 -0.00011838538416523463 0.016403074781285013 0 0.00016697946707312254 0.016069447652081865 0 0.00040067117044614045 0.015491722165249723 0 -0.0001587912268683746 0.012806753189307941 0 -0.00011838538416523463 0.016403074781285013 0 0.00016697946707312254 0.016069447652081865 0 -0.00082435392648835815 0.01631754474788661 0 0.0012385761597638806 0.0033726699798412737 0 0.0032172697479045825 0.003898214462268141 0 0.00024562979713559243 0.0046317204595283656 0 -0.00011838538416523463 0.016403074781285013 0 -0.00082435392648835815 0.01631754474788661 0 -0.00033961738282376028 0.016777021377928067 0 0.0012385761597638806 0.0033726699798412737 0 -6.0076699094611369e-05 0.0030682307775869388 0 0.00024562979713559243 0.0046317204595283656 0 -0.00082435392648835815 0.01631754474788661 0 -0.00084701768617574864 0.016865075468510574 0 -0.00033961738282376028 0.016777021377928067 0 -0.0011466365858676768 0.01498753689763938 0 -0.00039453829033582965 0.016826086247753651 0 -0.0018515915078371845 0.01534443275132401 0 -0.00071181593769262816 0.015698883318583552 0 -0.0012390640775011019 0.015941623703892762 0 -0.00084701768617574864 0.016865075468510574 0 -0.00033961738282376028 0.016777021377928067 0 9.6450712091355174e-05 0.01715612603221001 0 0.00037815668561470004 0.018556901277318714 0 0.00018831818643255609 0.018373399455583063 0 0.00024865474868356893 0.016811962560543247 0 -0.00033961738282376028 0.016777021377928067 0 9.6450712091355174e-05 0.01715612603221001 0 0.00025890748901155782 0.016801306630112839 0 -0.00011838538416523463 0.016403074781285013 0 -0.00033961738282376028 0.016777021377928067 0 -0.00071181593769262816 0.015698883318583552 0 -0.0012390640775011019 0.015941623703892762 0 -0.00081214230953294167 0.016232956909905089 0 -0.0012390640775011019 0.015941623703892762 0 -0.00081214230953294167 0.016232956909905089 0 -0.001201992351154088 0.016373602908796886 0 -0.00071181593769262816 0.015698883318583552 0 -0.00081214230953294167 0.016232956909905089 0 -0.00033880601002666551 0.016266543167741426 0 -0.0018515915078371845 0.01534443275132401 0 -0.001651050654110243 0.016020511769701842 0 -0.0019989923319354889 0.015723924459524561 0 -0.0018515915078371845 0.01534443275132401 0 -0.0012390640775011019 0.015941623703892762 0 -0.001651050654110243 0.016020511769701842 0 -0.001651050654110243 0.016020511769701842 0 -0.0015971037916698635 0.016395745455172767 0 -0.001201992351154088 0.016373602908796886 0 -0.0012390640775011019 0.015941623703892762 0 -0.001651050654110243 0.016020511769701842 0 -0.001201992351154088 0.016373602908796886 0 -0.001651050654110243 0.016020511769701842 0 -0.0015971037916698635 0.016395745455172767 0 -0.0020686413837531291 0.016312358760954992 0 -0.001651050654110243 0.016020511769701842 0 -0.0019989923319354889 0.015723924459524561 0 -0.0020686413837531291 0.016312358760954992 0 -0.0014170065733359143 0.016833216537479854 0 -0.0020686413837531291 0.016312358760954992 0 -0.0016334735387398271 0.017382329387914997 0 -0.0013022449451875492 0.01536160101134562 0 -0.00097804754399891352 0.013891204763372576 0 -0.0015971037916698635 0.016395745455172767 0 -0.0014170065733359143 0.016833216537479854 0 -0.0020686413837531291 0.016312358760954992 0 -0.0015971037916698635 0.016395745455172767 0 -0.0014170065733359143 0.016833216537479854 0 -0.001201992351154088 0.016373602908796886 0 -0.0014170065733359143 0.016833216537479854 0 -0.00072582171993557901 0.016700670322107921 0 -0.00074836975561176525 0.01737751102334378 0 -0.0014170065733359143 0.016833216537479854 0 -0.001201992351154088 0.016373602908796886 0 -0.00072582171993557901 0.016700670322107921 0 -0.00081214230953294167 0.016232956909905089 0 -0.001201992351154088 0.016373602908796886 0 -0.00072582171993557901 0.016700670322107921 0 -0.00081214230953294167 0.016232956909905089 0 -0.00072582171993557901 0.016700670322107921 0 -0.00033880601002666551 0.016266543167741426 0 -0.00072582171993557901 0.016700670322107921 0 -5.8779172147964308e-05 0.016864617181794942 0 -0.00074836975561176525 0.01737751102334378 0 -0.00072582171993557901 0.016700670322107921 0 -5.8779172147964308e-05 0.016864617181794942 0 -0.00033880601002666551 0.016266543167741426 0 -5.8779172147964308e-05 0.016864617181794942 0 9.7167195485838183e-05 0.016435777819270903 0 -0.00033880601002666551 0.016266543167741426 0 -5.8779172147964308e-05 0.016864617181794942 0 0.00038538944259063518 0.016557542860606789 0 0.00049163035383434134 0.017215164571518126 0 0.00038538944259063518 0.016557542860606789 0 0.00049163035383434134 0.017215164571518126 0 0.00097317506825967076 0.016226441070190153 0 -5.8779172147964308e-05 0.016864617181794942 0 0.00038538944259063518 0.016557542860606789 0 9.7167195485838183e-05 0.016435777819270903 0 0.00038538944259063518 0.016557542860606789 0 9.7167195485838183e-05 0.016435777819270903 0 0.00039905605551560222 0.016059096157578459 0 0.00025268474682925798 0.01919796604499335 0 0.00040305118204512613 0.01915341240744162 0 0.0005140444148612266 0.019274469526494968 0 0.00038538944259063518 0.016557542860606789 0 0.00039905605551560222 0.016059096157578459 0 0.00097317506825967076 0.016226441070190153 0 0.00040001559293762449 0.018958435028044243 0 0.00029130727449251458 0.019707526861326707 0 0.00090239301553252896 0.017140688218114826 0 0.0010240296763887257 0.017436801027127958 0 0.0012278105162258979 0.017278625391038652 0 0.00039914268384421743 0.019528275465090547 0 0.00041301249075638451 0.019638831458274143 0 0.0010240296763887257 0.017436801027127958 0 0.0012278105162258979 0.017278625391038652 0 0.0012984158091080777 0.017356251503994776 0 0.00040001559293762449 0.018958435028044243 0 0.00038410241474176376 0.019642290751856067 0 0.00041301249075638451 0.019638831458274143 0 0.00038410241474176376 0.019642290751856067 0 0.00090239301553252896 0.017140688218114826 0 0.0006204215259963834 0.017077080033147139 0 0.0010240296763887257 0.017436801027127958 0 -0.00039453829033582965 0.016826086247753651 0 0.00040001559293762449 0.018958435028044243 0 9.7167195485838183e-05 0.016435777819270903 0 0.00039905605551560222 0.016059096157578459 0 -0.00033880601002666551 0.016266543167741426 0 -0.00071181593769262816 0.015698883318583552 0 0.00042390919941773432 0.016047869198422885 0 -0.00033880601002666551 0.016266543167741426 0 0.00040001559293762449 0.018958435028044243 0 0.00042367903117671246 0.018593252952328655 0 0.0006204215259963834 0.017077080033147139 0 9.6450712091355174e-05 0.01715612603221001 0 0.0010240296763887257 0.017436801027127958 0 -0.0028362719136317484 0.005914555473713598 0 -0.0026199183219234494 0.0066815862096211995 0 -0.003766615119427952 0.0061291463707367428 0 -0.0028362719136317484 0.005914555473713598 0 -0.0030399424629077684 0.0052404798409678398 0 -0.003766615119427952 0.0061291463707367428 0 -0.005685587665615722 0.0032358207692290667 0 -0.006158389817137332 0.0045038070170411552 0 -0.004237378867212053 0.0050696690181463193 0 -0.005685587665615722 0.0032358207692290667 0 -0.006158389817137332 0.0045038070170411552 0 -0.0080567166926166674 0.0039491284844700679 0 -0.0028362719136317484 0.005914555473713598 0 -0.0030399424629077684 0.0052404798409678398 0 -0.0021693507117726695 0.0054958762884153942 0 -0.0044404163305220715 0.0058576720201091673 0 -0.003986333493319949 0.0088302752739257608 0 -0.0035687233905769868 0.0035268316004772094 0 -0.0045032984581710395 0.0030936037889314812 0 -0.0043107346528574843 0.004953150771828411 0 -0.0050531680499182599 0.0069763947764279683 0 -0.003986333493319949 0.0088302752739257608 0 -0.0045032984581710395 0.0030936037889314812 0 -0.005685587665615722 0.0032358207692290667 0 -0.0043107346528574843 0.004953150771828411 0 -0.0035687233905769868 0.0035268316004772094 0 -0.0043107346528574843 0.004953150771828411 0 -0.0028092395566647918 0.0042254837538977762 0 -0.003986333493319949 0.0088302752739257608 0 -0.0021563969244389127 0.012296931255322581 0 -0.0021693507117726695 0.0054958762884153942 0 -0.0013537888811634593 0.0065266906876040942 0 -0.0026199183219234494 0.0066815862096211995 0 -0.0028362719136317484 0.005914555473713598 0 -0.0021693507117726695 0.0054958762884153942 0 -0.0026199183219234494 0.0066815862096211995 0 -0.0033718353189097642 0.014824513143996208 0 -0.0030245718512355792 0.015042511447077859 0 -0.0027784739594429852 0.015513449345646772 0 -0.003986333493319949 0.0088302752739257608 0 -0.0024879898711827196 0.010869300774264519 0 -0.0028307682337632392 0.014994796145252736 0 -0.0024122670711307676 0.015230880959587302 0 -0.0027784739594429852 0.015513449345646772 0 -0.0033718353189097642 0.014824513143996208 0 -0.0028019045685139347 0.014977003838954034 0 -0.0030245718512355792 0.015042511447077859 0 -0.0021563969244389127 0.012296931255322581 0 -0.0022329971786553245 0.012356720099445648 0 -0.0028307682337632392 0.014994796145252736 0 -0.0030245718512355792 0.015042511447077859 0 -0.0027784739594429852 0.015513449345646772 0 -0.0043107346528574843 0.004953150771828411 0 -0.0026638282964186089 0.0054303415100887403 0 -0.0028092395566647918 0.0042254837538977762 0 -0.0025445597199143127 0.0030788063547951628 0 -0.0028092395566647918 0.0042254837538977762 0 -0.0015291796683491261 0.0038457361791786383 0 -0.0026638282964186089 0.0054303415100887403 0 -0.0028092395566647918 0.0042254837538977762 0 -0.0015291796683491261 0.0038457361791786383 0 0.00024562979713559243 0.0046317204595283656 0 -0.0026638282964186089 0.0054303415100887403 0 -0.0015291796683491261 0.0038457361791786383 0 -0.0001587912268683746 0.012806753189307941 0 -0.0021563969244389127 0.012296931255322581 0 -6.0076699094611369e-05 0.0030682307775869388 0 0.00024562979713559243 0.0046317204595283656 0 -0.0015291796683491261 0.0038457361791786383 0 -0.00082435392648835815 0.01631754474788661 0 -0.00084701768617574864 0.016865075468510574 0 -0.0017936982621998439 0.016575587866327422 0 -0.0011466365858676768 0.01498753689763938 0 -0.0021563969244389127 0.012296931255322581 0 -0.0018515915078371845 0.01534443275132401 0 -0.0028307682337632392 0.014994796145252736 0 -0.0024122670711307676 0.015230880959587302 0 -0.0018515915078371845 0.01534443275132401 0 -0.0024122670711307676 0.015230880959587302 0 -0.0019989923319354889 0.015723924459524561 0 -0.002157419940839506 0.015911171657190779 0 -0.0023080415642526843 0.016034130010236475 0 -0.0027784739594429852 0.015513449345646772 0 -0.0024122670711307676 0.015230880959587302 0 -0.002157419940839506 0.015911171657190779 0 -0.0027784739594429852 0.015513449345646772 0 -0.0024122670711307676 0.015230880959587302 0 -0.0019989923319354889 0.015723924459524561 0 -0.0020686413837531291 0.016312358760954992 0 -0.0015661726405521072 0.015325011732794979 0 -0.0013022449451875492 0.01536160101134562 0 -0.002157419940839506 0.015911171657190779 0 -0.0023080415642526843 0.016034130010236475 0 -0.0019076027390905 0.016499926175504318 0 -0.0017347319992482811 0.012171188969596092 0 -0.00097804754399891352 0.013891204763372576 0 -0.00053182758303431756 0.0075640191123404086 0 -0.0015544418214136963 0.0076931276451773526 0 -0.00066702529725412227 0.0085226402929841974 0 -0.00053182758303431756 0.0075640191123404086 0 -0.0015544418214136963 0.0076931276451773526 0 -0.0013537888811634593 0.0065266906876040942 0 -0.0017347319992482811 0.012171188969596092 0 -0.0024879898711827196 0.010869300774264519 0 -0.0015544418214136963 0.0076931276451773526 0 -0.0013537888811634593 0.0065266906876040942 0 -0.0026199183219234494 0.0066815862096211995 0 -0.0015544418214136963 0.0076931276451773526 0 -0.0026644211003629729 0.0080898951239555452 0 -0.0026199183219234494 0.0066815862096211995 0 -0.0020055645979839757 0.0049673495522337477 0 -0.0029723916022502185 0.0035113366990010839 0 -0.0026644211003629729 0.0080898951239555452 0 -0.0026199183219234494 0.0066815862096211995 0 -0.0038417258959114182 0.0074008580318477056 0 -0.00056946293912841107 0.0036615100064496127 0 0.00051743672249601887 0.0025951447850917353 0 0.00025383310508091399 0.005113304706645924 0 -0.002256471304319922 0.0035040174879047065 0 -0.0015172769855656485 0.0035421181520093768 0 -0.0020478908404853746 0.0041565946158165423 0 -0.0015172769855656485 0.0035421181520093768 0 -0.0011467904744546491 0.0042484233420351852 0 -0.0020478908404853746 0.0041565946158165423 0 -0.0015172769855656485 0.0035421181520093768 0 -0.0019933731671004347 0.0028740570796460096 0 -0.00081946644214639342 0.0027569742101739348 0 -0.002256471304319922 0.0035040174879047065 0 -0.0015172769855656485 0.0035421181520093768 0 -0.0019933731671004347 0.0028740570796460096 0 -0.0012598300711174355 0.001530776154211205 0 -0.0019933731671004347 0.0028740570796460096 0 -0.0028973486546975979 0.0020382658625389136 0 -0.0012598300711174355 0.001530776154211205 0 -0.0019933731671004347 0.0028740570796460096 0 -0.00081946644214639342 0.0027569742101739348 0 -0.0020055645979839757 0.0049673495522337477 0 -0.00097668325444323395 0.006561438847855163 0 -0.0015544418214136963 0.0076931276451773526 0 -0.0026644211003629729 0.0080898951239555452 0 -0.0014781383728061869 0.0087851575719459906 0 -0.0012598300711174355 0.001530776154211205 0 -0.00081946644214639342 0.0027569742101739348 0 0.00051743672249601887 0.0025951447850917353 0 -0.00081946644214639342 0.0027569742101739348 0 -0.00056946293912841107 0.0036615100064496127 0 0.00051743672249601887 0.0025951447850917353 0 -0.0015172769855656485 0.0035421181520093768 0 -0.00081946644214639342 0.0027569742101739348 0 -0.00056946293912841107 0.0036615100064496127 0 -0.0015172769855656485 0.0035421181520093768 0 -0.00056946293912841107 0.0036615100064496127 0 -0.0011467904744546491 0.0042484233420351852 0 0.00051743672249601887 0.0025951447850917353 0 0.0022465857130679768 0.0036277594200634679 0 0.00025383310508091399 0.005113304706645924 0 -0.0015544418214136963 0.0076931276451773526 0 -0.0014781383728061869 0.0087851575719459906 0 -0.00066702529725412227 0.0085226402929841974 0 -0.00053182758303431756 0.0075640191123404086 0 -0.00066702529725412227 0.0085226402929841974 0 0.00029585631702303277 0.0086096716800804652 0 -0.00066702529725412227 0.0085226402929841974 0 -0.0002806827424002309 0.0094833907978042267 0 0.00029585631702303277 0.0086096716800804652 0 -0.0014781383728061869 0.0087851575719459906 0 -0.00066702529725412227 0.0085226402929841974 0 -0.0002806827424002309 0.0094833907978042267 0 -0.00097668325444323395 0.006561438847855163 0 -0.00020726549726261353 0.0086842817559815728 0 0.0022465857130679768 0.0036277594200634679 0 0.0023450863186803301 0.0054610506672533666 0 0.00025383310508091399 0.005113304706645924 0 0.0013860765296473895 0.010636302600307403 0 0.0016791397888754782 0.011052047334545085 0 0.0011364240309582403 0.011044919617240497 0 0.0013860765296473895 0.010636302600307403 0 0.00070667126474183053 0.010513090601289556 0 0.0011364240309582403 0.011044919617240497 0 0.00070667126474183053 0.010513090601289556 0 0.00063998864311247243 0.010931592363607572 0 0.0011364240309582403 0.011044919617240497 0 0.0012445832970326897 0.0098695903882048408 0 0.00022594572446219072 0.008579317715361072 0 -0.00056946293912841107 0.0036615100064496127 0 0.00025383310508091399 0.005113304706645924 0 -0.0011467904744546491 0.0042484233420351852 0 0.00025383310508091399 0.005113304706645924 0 -0.0018331428368282077 0.0047691533445171144 0 -0.0011467904744546491 0.0042484233420351852 0 0.00022594572446219072 0.008579317715361072 0 -0.0014139626523482459 0.0077295332079894705 0 0.00070667126474183053 0.010513090601289556 0 0.00039114243477185722 0.010742970032403397 0 5.6404656624494516e-06 0.01039366586086788 0 0.00070667126474183053 0.010513090601289556 0 0.00063998864311247243 0.010931592363607572 0 0.00039114243477185722 0.010742970032403397 0 0.00063998864311247243 0.010931592363607572 0 0.00039114243477185722 0.010742970032403397 0 0.00027536162285760686 0.011126682827439234 0 -0.0018837007934559824 0.0057116532293733542 0 -0.0016934917760311969 0.004906438261980426 0 -0.00075142130698836577 0.0075648444107114703 0 0.00039114243477185722 0.010742970032403397 0 5.6404656624494516e-06 0.01039366586086788 0 0.00027536162285760686 0.011126682827439234 0 -0.0014139626523482459 0.0077295332079894705 0 -0.0004925054089052229 0.0093829868342653645 0 -0.0018837007934559824 0.0057116532293733542 0 -0.0024308701200255922 0.0062702141199483608 0 -0.00075142130698836577 0.0075648444107114703 0 -0.0018837007934559824 0.0057116532293733542 0 -0.00243722985879207 0.0052519022972809266 0 -0.0024308701200255922 0.0062702141199483608 0 -0.0018837007934559824 0.0057116532293733542 0 -0.0016934917760311969 0.004906438261980426 0 -0.0018410146689123378 0.004882235550090399 0 -0.0018837007934559824 0.0057116532293733542 0 -0.0018410146689123378 0.004882235550090399 0 -0.00243722985879207 0.0052519022972809266 0 -0.0018410146689123378 0.004882235550090399 0 -0.0024272597036566982 0.0045744968909562644 0 -0.00243722985879207 0.0052519022972809266 0 -0.0014139626523482459 0.0077295332079894705 0 -0.0014164504815525063 0.0077266785069681982 0 -0.0018331428368282077 0.0047691533445171144 0 -0.0011467904744546491 0.0042484233420351852 0 -0.0020478908404853746 0.0041565946158165423 0 -0.0014139626523482459 0.0077295332079894705 0 -0.0015189835291300438 0.0073912292982714475 0 -0.0016970369869722666 0.0049031501801875656 0 -0.0018410146689123378 0.004882235550090399 0 -0.0020478908404853746 0.0041565946158165423 0 -0.0018410146689123378 0.004882235550090399 0 -0.0020478908404853746 0.0041565946158165423 0 -0.0024272597036566982 0.0045744968909562644 0 -0.00043219956699332005 0.017961522651634546 0 -4.5412517075041114e-05 0.018211004323910554 0 -0.00017163201989779393 0.017517849963126487 0 -0.00043219956699332005 0.017961522651634546 0 -0.00090833536904440725 0.018246727179099316 0 -0.00030414764357420695 0.018404680273152382 0 -0.00043219956699332005 0.017961522651634546 0 -4.5412517075041114e-05 0.018211004323910554 0 -0.00030414764357420695 0.018404680273152382 0 -4.5412517075041114e-05 0.018211004323910554 0 0.00033770474587988133 0.018083564845811837 0 7.9075817012122369e-05 0.018679185381097446 0 0.00047909461722596322 0.018094052859849094 0 0.00061215480120673557 0.018094541284755062 0 -4.5412517075041114e-05 0.018211004323910554 0 0.00033770474587988133 0.018083564845811837 0 0.00028100230751264331 0.017634057170373436 0 0.00033770474587988133 0.018083564845811837 0 0.00028100230751264331 0.017634057170373436 0 0.00052770771066177095 0.017634297098225483 0 -4.5412517075041114e-05 0.018211004323910554 0 0.00049163035383434134 0.017215164571518126 0 -0.00017163201989779393 0.017517849963126487 0 -5.8779172147964308e-05 0.016864617181794942 0 0.00049163035383434134 0.017215164571518126 0 -0.00017163201989779393 0.017517849963126487 0 -5.8779172147964308e-05 0.016864617181794942 0 -0.00017163201989779393 0.017517849963126487 0 -0.00074836975561176525 0.01737751102334378 0 -0.00043219956699332005 0.017961522651634546 0 -0.00017163201989779393 0.017517849963126487 0 -0.00074836975561176525 0.01737751102334378 0 -0.0014170065733359143 0.016833216537479854 0 -0.00074836975561176525 0.01737751102334378 0 -0.0016334735387398271 0.017382329387914997 0 -0.00074836975561176525 0.01737751102334378 0 -0.0016334735387398271 0.017382329387914997 0 -0.00090833536904440725 0.018246727179099316 0 -0.00097804754399891352 0.013891204763372576 0 -0.00057208265836019353 0.012663531321971002 0 -0.00097804754399891352 0.013891204763372576 0 -0.00028613293876316196 0.015434187993109133 0 -0.00020726549726261353 0.0086842817559815728 0 -6.7023665705929616e-05 0.012093769692512739 0 -0.0010764658950193349 0.013616456135786234 0 -0.00089431678917359359 0.014055888487204325 0 -0.00057890461155162248 0.014232940724800358 0 -0.0002806827424002309 0.0094833907978042267 0 0.00029585631702303277 0.0086096716800804652 0 0.00061165883101738116 0.0093931182653598771 0 -0.0002806827424002309 0.0094833907978042267 0 0.00061165883101738116 0.0093931182653598771 0 0.00092606588802227649 0.010181079626649816 0 -0.00043219956699332005 0.017961522651634546 0 -0.00074836975561176525 0.01737751102334378 0 -0.00090833536904440725 0.018246727179099316 0 -0.00057208265836019353 0.012663531321971002 0 -6.7023665705929616e-05 0.012093769692512739 0 -0.00089431678917359359 0.014055888487204325 0 -0.00057890461155162248 0.014232940724800358 0 -0.00071372210642671864 0.014497719087819098 0 -6.7023665705929616e-05 0.012093769692512739 0 0.00014008887538036549 0.015821253190478429 0 -0.00057890461155162248 0.014232940724800358 0 -0.00071372210642671864 0.014497719087819098 0 -7.9799637056059367e-05 0.014857348720031126 0 -0.00094573773433216581 0.013863486029304874 0 -0.0006811418923726697 0.014526022550606393 0 0.00044441642224869369 0.014663850623111757 0 0.0039710901518720688 0.0046530357220032842 0 0.0036488802705806926 0.0048326164754419918 0 0.0042756019321565876 0.0054351209734621363 0 -6.7023665705929616e-05 0.012093769692512739 0 0.00049254541148460696 0.011989926553099266 0 0.00044663103114610551 0.011480061158893879 0 0.00049254541148460696 0.011989926553099266 0 0.0022465857130679768 0.0036277594200634679 0 0.0023450863186803301 0.0054610506672533666 0 0.0036488802705806926 0.0048326164754419918 0 0.0022465857130679768 0.0036277594200634679 0 0.0039710901518720688 0.0046530357220032842 0 0.0036488802705806926 0.0048326164754419918 0 0.0023450863186803301 0.0054610506672533666 0 0.0036488802705806926 0.0048326164754419918 0 0.0042662009120177577 0.0054115119191665475 0 0.0012445832970326897 0.0098695903882048408 0 0.00073003916716036393 0.012201777920574032 0 0.0023450863186803301 0.0054610506672533666 0 0.0044204828108726935 0.0058043264264089657 0 0.0042662009120177577 0.0054115119191665475 0 0.0013860765296473895 0.010636302600307403 0 0.0020591139003614096 0.01075022091163021 0 0.0016791397888754782 0.011052047334545085 0 5.8623650913554804e-05 0.014121324206559678 0 0.00031622431467298812 0.014161533033909832 0 0.00050067131524374306 0.015227869400760312 0 0.00073003916716036393 0.012201777920574032 0 0.00067135422714849444 0.013873272157824244 0 -0.00026226674888124964 0.014912208597461238 0 -0.0006811418923726697 0.014526022550606393 0 0.00044441642224869369 0.014663850623111757 0 0.00073003916716036393 0.012201777920574032 0 0.00055413405348965321 0.012683268909896125 0 0.00039348322268663462 0.012664092785264038 0 0.00041906367949540597 0.012668440845950221 0 0.0003810000790937296 0.012632452547742069 0 0.00055413405348965321 0.012683268909896125 0 0.00049254541148460696 0.011989926553099266 0 0.00073003916716036393 0.012201777920574032 0 0.00049254541148460696 0.011989926553099266 0 0.0020591139003614096 0.01075022091163021 0 0.0019655924129931067 0.011095888403762058 0 0.0016791397888754782 0.011052047334545085 0 0.00055413405348965321 0.012683268909896125 0 0.00062825641869556379 0.012958647465044625 0 -0.00026226674888124964 0.014912208597461238 0 0.00090030996081652797 0.015096675288694957 0 0.00044441642224869369 0.014663850623111757 0 -0.00026247427481351142 0.014912927963638417 0 0.00090030996081652797 0.015096675288694957 0 0.0011791467262878379 0.016248846185818396 0 -0.00090833536904440725 0.018246727179099316 0 -0.00023629921979320093 0.018896018281948489 0 -0.00030414764357420695 0.018404680273152382 0 -0.00023629921979320093 0.018896018281948489 0 -0.00030414764357420695 0.018404680273152382 0 7.9075817012122369e-05 0.018679185381097446 0 -0.00028613293876316196 0.015434187993109133 0 0.00014008887538036549 0.015821253190478429 0 -4.5412517075041114e-05 0.018211004323910554 0 -0.00030414764357420695 0.018404680273152382 0 7.9075817012122369e-05 0.018679185381097446 0 0.00021884868370035946 0.01843998013972915 0 7.9075817012122369e-05 0.018679185381097446 0 0.00029519198882932093 0.018637138239504338 0 7.9075817012122369e-05 0.018679185381097446 0 0.00023248632195629556 0.019042210623677999 0 0.00029519198882932093 0.018637138239504338 0 0.00043889408507629654 0.018620447970119712 0 0.00038588385214519409 0.01862771327281381 0 -0.00023629921979320093 0.018896018281948489 0 7.9075817012122369e-05 0.018679185381097446 0 0.00023248632195629556 0.019042210623677999 0 0.00014008887538036549 0.015821253190478429 0 0.00010717782038878316 0.019202089796741952 0 0.00090030996081652797 0.015096675288694957 0 0.00044441642224869369 0.014663850623111757 0 0.0017705041871201033 0.015429900339329302 0 0.00010717782038878316 0.019202089796741952 0 -0.00013424714784980135 0.021275595769744558 0 -8.2462643836317143e-05 0.024914227419744497 0 -7.8165554295630372e-05 0.024923048784797786 0 -8.1749992314518647e-05 0.024917179543473271 0 -7.8165554295630372e-05 0.024923048784797786 0 -7.3702637060890904e-05 0.024928845170105105 0 -7.4905163075494964e-05 0.024926827592093321 0 -7.8165554295630372e-05 0.024923048784797786 0 -7.4905163075494964e-05 0.024926827592093321 0 -8.1749992314518647e-05 0.024917179543473271 0 -7.4905163075494964e-05 0.024926827592093321 0 -8.1749992314518647e-05 0.024917179543473271 0 -6.9220285112468294e-05 0.024911415308992345 0 0.00023248632195629556 0.019042210623677999 0 0.00041479873446240579 0.01863437750264765 0 0.00029519198882932093 0.018637138239504338 0 0.00041479873446240579 0.01863437750264765 0 0.00029519198882932093 0.018637138239504338 0 0.00036880147888255783 0.018613884784576571 0 0.00029519198882932093 0.018637138239504338 0 0.00037259525870117895 0.018599564054907255 0 0.00036880147888255783 0.018613884784576571 0 0.00040430235878319076 0.018717385234027627 0 0.00041159023495678616 0.018760282613213473 0 0.00021884868370035946 0.01843998013972915 0 0.00029519198882932093 0.018637138239504338 0 0.00031410940819419955 0.018408407946060926 0 0.00037259525870117895 0.018599564054907255 0 0.00038640595629321197 0.018612242883990535 0 0.00037991940582320451 0.018609230866036955 0 0.00037259525870117895 0.018599564054907255 0 0.00038640595629321197 0.018612242883990535 0 0.00036880147888255783 0.018613884784576571 0 0.00041479873446240579 0.01863437750264765 0 0.00038640595629321197 0.018612242883990535 0 0.00036880147888255783 0.018613884784576571 0 -0.00013424714784980135 0.021275595769744558 0 0.00014905298894348618 0.021880384385333976 0 0.00038640595629321197 0.018612242883990535 0 0.00037739755603537521 0.018610999390865843 0 0.00037048224727157327 0.018605949140446477 0 0.00041479873446240579 0.01863437750264765 0 0.00038640595629321197 0.018612242883990535 0 0.00037048224727157327 0.018605949140446477 0 -8.1749992314518647e-05 0.024917179543473271 0 -6.9220285112468294e-05 0.024911415308992345 0 -6.84206375467576e-05 0.02488540523936995 0 0.00038640595629321197 0.018612242883990535 0 0.00037739755603537521 0.018610999390865843 0 0.00037991940582320451 0.018609230866036955 0 0.00037739755603537521 0.018610999390865843 0 0.00037593172733385723 0.018619129466706217 0 0.00037991940582320451 0.018609230866036955 0 0.00037593172733385723 0.018619129466706217 0 0.00036245357053628867 0.018619044298153548 0 0.00038039893063469154 0.018640984870627306 0 0.00037739755603537521 0.018610999390865843 0 0.00037593172733385723 0.018619129466706217 0 0.00036406000315878571 0.018616840751716088 0 0.00037593172733385723 0.018619129466706217 0 0.00036245357053628867 0.018619044298153548 0 0.00036406000315878571 0.018616840751716088 0 0.00025875547787905067 0.021729083835552592 0 0.00014905298894348618 0.021880384385333976 0 0.00021884868370035946 0.01843998013972915 0 0.00031410940819419955 0.018408407946060926 0 0.00033736535782322586 0.018193354732405222 0 0.00041159023495678616 0.018760282613213473 0 0.00041817756836873716 0.01902532141073543 0 0.00043889408507629654 0.018620447970119712 0 0.00041817756836873716 0.01902532141073543 0 0.00037259525870117895 0.018599564054907255 0 0.00038692992175248569 0.018620295996726217 0 0.00037991940582320451 0.018609230866036955 0 0.00037593172733385723 0.018619129466706217 0 0.00038692992175248569 0.018620295996726217 0 0.00037991940582320451 0.018609230866036955 0 7.0390912950315276e-05 0.022872744416888031 0 9.1601820979959368e-06 0.02288923734804792 0 8.4157235216986379e-05 0.022918097637434222 0 4.9432746107115276e-05 0.023040754796409584 0 0.00012309536058624596 0.023652930621187826 0 -2.9104098388778801e-05 0.024936927098418847 0 -2.7253259453234909e-05 0.024945502804590292 0 -2.3269794039433306e-05 0.024944348623750182 0 7.0390912950315276e-05 0.022872744416888031 0 0.0001033682519088592 0.022885707929581396 0 8.4157235216986379e-05 0.022918097637434222 0 7.0390912950315276e-05 0.022872744416888031 0 0.0001033682519088592 0.022885707929581396 0 0.00013633866247469192 0.022860639829255378 0 -2.9104098388778801e-05 0.024936927098418847 0 -3.6063889622185966e-05 0.024932019042411734 0 -3.0935594008848566e-05 0.024942900565320551 0 4.9432746107115276e-05 0.023040754796409584 0 0.00010969565582326946 0.022050928314682829 0 0.00010969565582326946 0.022050928314682829 0 6.8263720387376346e-05 0.022441653140925673 0 0.0001033682519088592 0.022885707929581396 0 0.00013633866247469192 0.022860639829255378 0 9.382508337710511e-05 0.022920779218006282 0 -6.6172454522348039e-05 0.024881579542042717 0 -6.84206375467576e-05 0.02488540523936995 0 -6.2219212593873924e-05 0.024900157003908314 0 0.00010969565582326946 0.022050928314682829 0 0.00014905298894348618 0.021880384385333976 0 0.00010969565582326946 0.022050928314682829 0 0.00054138085362563149 0.023395295157814498 0 -6.9220285112468294e-05 0.024911415308992345 0 -6.84206375467576e-05 0.02488540523936995 0 -6.2219212593873924e-05 0.024900157003908314 0 -6.6172454522348039e-05 0.024881579542042717 0 -6.2219212593873924e-05 0.024900157003908314 0 -4.5512857113204142e-05 0.024906631715970368 0 -6.9220285112468294e-05 0.024911415308992345 0 -6.2219212593873924e-05 0.024900157003908314 0 -5.4628071928672558e-05 0.024926422535733118 0 -6.2219212593873924e-05 0.024900157003908314 0 -4.5512857113204142e-05 0.024906631715970368 0 -5.4628071928672558e-05 0.024926422535733118 0 -2.9104098388778801e-05 0.024936927098418847 0 -3.0935594008848566e-05 0.024942900565320551 0 -2.7253259453234909e-05 0.024945502804590292 0 0.00054138085362563149 0.023395295157814498 0 0.0006032987456489375 0.023695442610185802 0 -3.0935594008848566e-05 0.024942900565320551 0 -2.7253259453234909e-05 0.024945502804590292 0 -2.9041616403427305e-05 0.024946578568335664 0 -2.7253259453234909e-05 0.024945502804590292 0 -2.9041616403427305e-05 0.024946578568335664 0 -2.245411547480047e-05 0.024952647015778821 0 -2.9041616403427305e-05 0.024946578568335664 0 -5.4628071928672558e-05 0.024926422535733118 0 -3.9322603088107788e-05 0.024964545807077812 0 -2.9041616403427305e-05 0.024946578568335664 0 -3.9322603088107788e-05 0.024964545807077812 0 -1.9653449355986702e-05 0.024963956448071867 0 -4.5512857113204142e-05 0.024906631715970368 0 -2.9041616403427305e-05 0.024946578568335664 0 -5.4628071928672558e-05 0.024926422535733118 0 -7.4905163075494964e-05 0.024926827592093321 0 -5.4628071928672558e-05 0.024926422535733118 0 -3.9322603088107788e-05 0.024964545807077812 0 -7.4905163075494964e-05 0.024926827592093321 0 -6.9220285112468294e-05 0.024911415308992345 0 -5.4628071928672558e-05 0.024926422535733118 0 -7.3702637060890904e-05 0.024928845170105105 0 -7.4905163075494964e-05 0.024926827592093321 0 -6.508223268407265e-05 0.024927061880331457 0 -5.7035767816685766e-05 0.02494598703951887 0 -4.6675439400586692e-05 0.024952190159127214 0 -7.3702637060890904e-05 0.024928845170105105 0 -6.508223268407265e-05 0.024927061880331457 0 -6.9979171393160449e-05 0.024936464112415339 0 -4.6675439400586692e-05 0.024952190159127214 0 -2.8837825097657185e-05 0.02496378689189489 0 -6.508223268407265e-05 0.024927061880331457 0 -3.6430130105060652e-05 0.024941739879352973 0 -6.218251738266668e-05 0.02494518317835431 0 -3.9322603088107788e-05 0.024964545807077812 0 -1.6333850420047629e-05 0.024984712408498928 0 -1.9653449355986702e-05 0.024963956448071867 0 -1.6333850420047629e-05 0.024984712408498928 0 -8.4658369625461164e-06 0.024979196369444557 0 -1.9653449355986702e-05 0.024963956448071867 0 -1.6333850420047629e-05 0.024984712408498928 0 -8.4658369625461164e-06 0.024979196369444557 0 -2.2365779686117374e-06 0.02499583013040451 0 -8.4658369625461164e-06 0.024979196369444557 0 -5.2020553637008568e-06 0.024974895962559262 0 -1.418766937162631e-05 0.02496397920861625 0 -8.4658369625461164e-06 0.024979196369444557 0 -1.418766937162631e-05 0.02496397920861625 0 -1.9653449355986702e-05 0.024963956448071867 0 -1.418766937162631e-05 0.02496397920861625 0 -1.9653449355986702e-05 0.024963956448071867 0 -2.245411547480047e-05 0.024952647015778821 0 -2.9041616403427305e-05 0.024946578568335664 0 -1.9653449355986702e-05 0.024963956448071867 0 -2.245411547480047e-05 0.024952647015778821 0 4.2388944837670075e-09 0.024999986724635093 0 -8.191886215113478e-07 0.024987907387036171 0 1.8316232887960532e-07 0.02499696979098448 0 -8.191886215113478e-07 0.024987907387036171 0 -2.2365779686117374e-06 0.02499583013040451 0 1.8316232887960532e-07 0.02499696979098448 0 -8.4658369625461164e-06 0.024979196369444557 0 -8.191886215113478e-07 0.024987907387036171 0 -2.2365779686117374e-06 0.02499583013040451 0 -8.4658369625461164e-06 0.024979196369444557 0 -5.2020553637008568e-06 0.024974895962559262 0 -8.191886215113478e-07 0.024987907387036171 0 -5.2020553637008568e-06 0.024974895962559262 0 -8.191886215113478e-07 0.024987907387036171 0 3.2899047650844414e-07 0.024983012809454239 0 4.2388944837670075e-09 0.024999986724635093 0 3.2899047650844414e-07 0.024983012809454239 0 3.131668438099399e-06 0.024985318663761823 0 4.2388944837670075e-09 0.024999986724635093 0 -8.191886215113478e-07 0.024987907387036171 0 3.2899047650844414e-07 0.024983012809454239 0 4.2388944837670075e-09 0.024999986724635093 0 -2.0379316048788332e-09 0.024999976844929887 0 3.131668438099399e-06 0.024985318663761823 0 -2.0379316048788332e-09 0.024999976844929887 0 3.131668438099399e-06 0.024985318663761823 0 3.563969701723451e-06 0.024993796486077063 0 0.00020621984110696145 0.024516504173464813 0 0.00018836990819072821 0.024433636081437636 0 3.131668438099399e-06 0.024985318663761823 0 8.5874204028445548e-06 0.024992145959048664 0 3.563969701723451e-06 0.024993796486077063 0 3.2899047650844414e-07 0.024983012809454239 0 3.131668438099399e-06 0.024985318663761823 0 -2.7014865320123283e-06 0.024969888674051036 0 -5.2020553637008568e-06 0.024974895962559262 0 3.2899047650844414e-07 0.024983012809454239 0 -2.7014865320123283e-06 0.024969888674051036 0 -2.7014865320123283e-06 0.024969888674051036 0 5.0430722901157275e-07 0.024954069569919302 0 -7.300765139996975e-06 0.024956659296491837 0 3.131668438099399e-06 0.024985318663761823 0 -2.7014865320123283e-06 0.024969888674051036 0 5.0430722901157275e-07 0.024954069569919302 0 8.5874204028445548e-06 0.024992145959048664 0 7.9735699113590429e-06 0.024994105007493272 0 3.563969701723451e-06 0.024993796486077063 0 8.5874204028445548e-06 0.024992145959048664 0 7.9735699113590429e-06 0.024994105007493272 0 9.9379742669181058e-06 0.024993829937037443 0 7.9735699113590429e-06 0.024994105007493272 0 5.2517635526786616e-06 0.024996306915354542 0 9.7840263946149888e-06 0.024996174926102607 0 5.2517635526786616e-06 0.024996306915354542 0 3.563969701723451e-06 0.024993796486077063 0 1.6795679927303763e-06 0.02499786940744967 0 7.9735699113590429e-06 0.024994105007493272 0 5.2517635526786616e-06 0.024996306915354542 0 3.563969701723451e-06 0.024993796486077063 0 5.2517635526786616e-06 0.024996306915354542 0 1.6795679927303763e-06 0.02499786940744967 0 3.3376760811531497e-06 0.024999485493399493 0 -2.0379316048788332e-09 0.024999976844929887 0 1.6795679927303763e-06 0.02499786940744967 0 2.4916282600189736e-09 0.025000008916232417 0 -2.0379316048788332e-09 0.024999976844929887 0 3.563969701723451e-06 0.024993796486077063 0 1.6795679927303763e-06 0.02499786940744967 0 -1.7985407082648415e-05 0.024950236431791676 0 -2.245411547480047e-05 0.024952647015778821 0 -2.3269794039433306e-05 0.024944348623750182 0 -2.7253259453234909e-05 0.024945502804590292 0 -2.245411547480047e-05 0.024952647015778821 0 -2.3269794039433306e-05 0.024944348623750182 0 -1.418766937162631e-05 0.02496397920861625 0 -1.7985407082648415e-05 0.024950236431791676 0 -2.245411547480047e-05 0.024952647015778821 0 -1.418766937162631e-05 0.02496397920861625 0 -1.7985407082648415e-05 0.024950236431791676 0 -1.0537639981364225e-05 0.024960764862252183 0 -5.2020553637008568e-06 0.024974895962559262 0 -1.418766937162631e-05 0.02496397920861625 0 -1.0537639981364225e-05 0.024960764862252183 0 -5.2020553637008568e-06 0.024974895962559262 0 -2.7014865320123283e-06 0.024969888674051036 0 -1.0537639981364225e-05 0.024960764862252183 0 -2.7014865320123283e-06 0.024969888674051036 0 -1.0537639981364225e-05 0.024960764862252183 0 -7.300765139996975e-06 0.024956659296491837 0 -1.0537639981364225e-05 0.024960764862252183 0 -7.300765139996975e-06 0.024956659296491837 0 -1.3238254164408298e-05 0.024950854838922142 0 -1.7985407082648415e-05 0.024950236431791676 0 -1.0537639981364225e-05 0.024960764862252183 0 -1.3238254164408298e-05 0.024950854838922142 0 -1.7985407082648415e-05 0.024950236431791676 0 -1.7285971907173602e-05 0.024945934181719469 0 -1.3238254164408298e-05 0.024950854838922142 0 -1.7285971907173602e-05 0.024945934181719469 0 -1.3238254164408298e-05 0.024950854838922142 0 -8.0725684516464009e-06 0.024945316881599375 0 -8.0725684516464009e-06 0.024945316881599375 0 -2.103309360805483e-05 0.024926326078593429 0 -4.5814945823559893e-05 0.024920179511395343 0 0.00021045763512441676 0.023905567246578031 0 0.00012309536058624596 0.023652930621187826 0 -1.7285971907173602e-05 0.024945934181719469 0 -8.0725684516464009e-06 0.024945316881599375 0 -2.1497554020822756e-05 0.024937807543374952 0 0.00018836990819072821 0.024433636081437636 0 9.5212425891313965e-05 0.024137651870037004 0 5.0430722901157275e-07 0.024954069569919302 0 -8.0725684516464009e-06 0.024945316881599375 0 -2.103309360805483e-05 0.024926326078593429 0 5.0430722901157275e-07 0.024954069569919302 0 -7.300765139996975e-06 0.024956659296491837 0 -8.0725684516464009e-06 0.024945316881599375 0 -7.300765139996975e-06 0.024956659296491837 0 -1.3238254164408298e-05 0.024950854838922142 0 -8.0725684516464009e-06 0.024945316881599375 0 7.9735699113590429e-06 0.024994105007493272 0 9.9379742669181058e-06 0.024993829937037443 0 9.7840263946149888e-06 0.024996174926102607 0 8.5874204028445548e-06 0.024992145959048664 0 9.9379742669181058e-06 0.024993829937037443 0 1.15239471737068e-05 0.024993574910366308 0 0.00010092225433411289 0.024153839237963118 0 9.5212425891313965e-05 0.024137651870037004 0 -2.6535634296422385e-05 0.02455767818906365 0 -1.6263193279679754e-05 0.024536330450679454 0 9.9379742669181058e-06 0.024993829937037443 0 1.0028411713288331e-05 0.02499308858091976 0 9.7840263946149888e-06 0.024996174926102607 0 9.9379742669181058e-06 0.024993829937037443 0 1.0028411713288331e-05 0.02499308858091976 0 9.5354759193842845e-06 0.024992831618585207 0 1.0028411713288331e-05 0.02499308858091976 0 7.1762155312133148e-06 0.024990751286265381 0 1.2809514475212849e-05 0.024988917230639032 0 1.0028411713288331e-05 0.02499308858091976 0 9.5354759193842845e-06 0.024992831618585207 0 7.1762155312133148e-06 0.024990751286265381 0 9.5212425891313965e-05 0.024137651870037004 0 5.5956498065209333e-05 0.024158069229866543 0 9.5212425891313965e-05 0.024137651870037004 0 8.0957098079687795e-05 0.02391339923683317 0 0.00018046375660078279 0.023910203277841904 0 0.00010239796444590522 0.023841157390486863 0 1.446257050291459e-05 0.023861935627062698 0 5.5956498065209333e-05 0.024158069229866543 0 8.0957098079687795e-05 0.02391339923683317 0 -2.9104098388778801e-05 0.024936927098418847 0 -2.1497554020822756e-05 0.024937807543374952 0 -2.3269794039433306e-05 0.024944348623750182 0 -2.103309360805483e-05 0.024926326078593429 0 -3.5289247789954171e-05 0.024919373538388846 0 -4.5814945823559893e-05 0.024920179511395343 0 8.0957098079687795e-05 0.02391339923683317 0 0.00012309536058624596 0.023652930621187826 0 -1.7285971907173602e-05 0.024945934181719469 0 -2.1497554020822756e-05 0.024937807543374952 0 -2.3269794039433306e-05 0.024944348623750182 0 -1.7985407082648415e-05 0.024950236431791676 0 -1.7285971907173602e-05 0.024945934181719469 0 -2.3269794039433306e-05 0.024944348623750182 0 8.0957098079687795e-05 0.02391339923683317 0 7.3862958950890895e-05 0.022716208208699303 0 -0.00037251890576727402 0.024560999428496526 0 -0.00032595984083516388 0.024550152978156249 0 -0.00016769691466883026 0.024745833093110223 0 -1.7780446533854942e-05 0.024939142440741704 0 -4.9921757950730793e-06 0.024937763596077477 0 -2.0471986151486328e-05 0.024947624259651042 0 -0.00032595984083516388 0.024550152978156249 0 -0.00016769691466883026 0.024745833093110223 0 1.5498077027011949e-05 0.024651278909686249 0 0.00025459673206107089 0.023368183155766747 0 0.00019273657825859286 0.023381904307002068 0 -7.2235219026538174e-05 0.023266871046999388 0 5.5956498065209333e-05 0.024158069229866543 0 0.00010962272286371997 0.024510376910747939 0 5.5956498065209333e-05 0.024158069229866543 0 -1.6263193279679754e-05 0.024536330450679454 0 -1.7780446533854942e-05 0.024939142440741704 0 -2.3823930650620592e-05 0.024941464893264407 0 -2.0471986151486328e-05 0.024947624259651042 0 -2.0801499615639394e-05 0.024954824233450041 0 -2.5847596530696091e-05 0.02497039669814741 0 -2.815032223569733e-05 0.024971856805311651 0 -2.0471986151486328e-05 0.024947624259651042 0 -2.0801499615639394e-05 0.024954824233450041 0 -2.5847596530696091e-05 0.02497039669814741 0 -2.0801499615639394e-05 0.024954824233450041 0 -1.2471885404049141e-05 0.024951783576340376 0 -2.815032223569733e-05 0.024971856805311651 0 -4.9921757950730793e-06 0.024937763596077477 0 -2.0801499615639394e-05 0.024954824233450041 0 -1.2471885404049141e-05 0.024951783576340376 0 -4.9921757950730793e-06 0.024937763596077477 0 -2.0471986151486328e-05 0.024947624259651042 0 -2.0801499615639394e-05 0.024954824233450041 0 -1.2471885404049141e-05 0.024951783576340376 0 -7.8067603077047421e-06 0.024961250537554797 0 1.6188137781239231e-06 0.024941959331491195 0 -4.9921757950730793e-06 0.024937763596077477 0 -1.2471885404049141e-05 0.024951783576340376 0 1.6188137781239231e-06 0.024941959331491195 0 -8.9831835299688559e-08 0.024999472927074967 0 -1.8043557366673743e-05 0.024797942875057849 0 1.6795679927303763e-06 0.02499786940744967 0 2.4916282600189736e-09 0.025000008916232417 0 3.3376760811531497e-06 0.024999485493399493 0 -8.5014512464421814e-10 0.0249999976831808 0 4.1919847898639976e-07 0.02499839701263817 0 2.4397646084118891e-07 0.024999665684591037 0 -1.6263193279679754e-05 0.024536330450679454 0 -1.8043557366673743e-05 0.024797942875057849 0 5.2517635526786616e-06 0.024996306915354542 0 9.7840263946149888e-06 0.024996174926102607 0 3.3376760811531497e-06 0.024999485493399493 0 -2.3823930650620592e-05 0.024941464893264407 0 -2.0471986151486328e-05 0.024947624259651042 0 -2.5847596530696091e-05 0.02497039669814741 0 1.6623735523992697e-06 0.024997095613162133 0 4.1919847898639976e-07 0.02499839701263817 0 2.4397646084118891e-07 0.024999665684591037 0 -1.6263193279679754e-05 0.024536330450679454 0 -5.1221568595513537e-05 0.024876709930001576 0 -8.5014512464421814e-10 0.0249999976831808 0 2.4397646084118891e-07 0.024999665684591037 0 4.8542370868807113e-10 0.025000000043530382 0 2.4397646084118891e-07 0.024999665684591037 0 4.8542370868807113e-10 0.025000000043530382 0 -3.6614405472924958e-10 0.025000000123413364 0 -5.1221568595513537e-05 0.024876709930001576 0 -1.2139632919080358e-07 0.024999845178062117 0 -2.5847596530696091e-05 0.02497039669814741 0 -3.2004568804701657e-08 0.024999946672875126 0 -1.7854677550521997e-05 0.024980507401082153 0 -2.5847596530696091e-05 0.02497039669814741 0 -1.7854677550521997e-05 0.024980507401082153 0 -2.815032223569733e-05 0.024971856805311651 0 -1.7854677550521997e-05 0.024980507401082153 0 -2.3546692333556046e-05 0.024965766801015775 0 -2.815032223569733e-05 0.024971856805311651 0 -1.7854677550521997e-05 0.024980507401082153 0 -2.3546692333556046e-05 0.024965766801015775 0 -8.490322416961378e-06 0.024981799038666149 0 7.7049767978883152e-10 0.024999978505868031 0 -3.2004568804701657e-08 0.024999946672875126 0 -8.490322416961378e-06 0.024981799038666149 0 -3.2004568804701657e-08 0.024999946672875126 0 -1.7854677550521997e-05 0.024980507401082153 0 -8.490322416961378e-06 0.024981799038666149 0 -6.2499032397087264e-05 0.023440178294357947 0 -3.0881082556286187e-05 0.023699355178066598 0 -6.729692623697121e-05 0.024965666665209219 0 -2.815032223569733e-05 0.024971856805311651 0 -5.2055072493466873e-05 0.024953978865256635 0 -1.2471885404049141e-05 0.024951783576340376 0 -7.8067603077047421e-06 0.024961250537554797 0 -2.815032223569733e-05 0.024971856805311651 0 -2.3546692333556046e-05 0.024965766801015775 0 -2.815032223569733e-05 0.024971856805311651 0 -5.2055072493466873e-05 0.024953978865256635 0 -4.2976401329811225e-05 0.024938534809156743 0 -2.3546692333556046e-05 0.024965766801015775 0 -5.2055072493466873e-05 0.024953978865256635 0 -7.5753612111114662e-05 0.024932823316007238 0 -5.2055072493466873e-05 0.024953978865256635 0 -7.6750211650487347e-05 0.024949945178215447 0 -6.729692623697121e-05 0.024965666665209219 0 -5.2055072493466873e-05 0.024953978865256635 0 -7.6750211650487347e-05 0.024949945178215447 0 -0.00036278617736525343 0.024254456640357778 0 -0.00047385365826359163 0.023663520855609504 0 -7.5753612111114662e-05 0.024932823316007238 0 -7.6750211650487347e-05 0.024949945178215447 0 -8.6511499672785962e-05 0.024944933494872538 0 -7.6750211650487347e-05 0.024949945178215447 0 -8.5997385948325365e-05 0.024947429779437463 0 -8.6511499672785962e-05 0.024944933494872538 0 -7.8067603077047421e-06 0.024961250537554797 0 6.4988832372065745e-05 0.024970054503887514 0 3.8360865367270157e-05 0.024922402058340381 0 -7.8067603077047421e-06 0.024961250537554797 0 1.6188137781239231e-06 0.024941959331491195 0 3.8360865367270157e-05 0.024922402058340381 0 -6.729692623697121e-05 0.024965666665209219 0 -7.6750211650487347e-05 0.024949945178215447 0 -8.2559123829230852e-05 0.024952858025940876 0 -6.2499032397087264e-05 0.023440178294357947 0 -0.00024241640399860068 0.022556842950105026 0 -6.729692623697121e-05 0.024965666665209219 0 -8.2559123829230852e-05 0.024952858025940876 0 -9.0570139456678351e-05 0.024949748764498916 0 -7.6750211650487347e-05 0.024949945178215447 0 -8.2559123829230852e-05 0.024952858025940876 0 -8.5997385948325365e-05 0.024947429779437463 0 -0.00024241640399860068 0.022556842950105026 0 -0.00016387184120507763 0.021900376778947329 0 -0.00047385365826359163 0.023663520855609504 0 -0.00016387184120507763 0.021900376778947329 0 6.4988832372065745e-05 0.024970054503887514 0 0.00026078855367103661 0.02491828363462829 0 0.00014104762686722522 0.024869492006211129 0 -8.6264672760183824e-05 0.024947886450159933 0 -8.5997385948325365e-05 0.024947429779437463 0 -9.0532650777290326e-05 0.024939751726067542 0 -0.00024241640399860068 0.022556842950105026 0 -0.00023319917760348811 0.021455112994341212 0 -8.5997385948325365e-05 0.024947429779437463 0 -8.6511499672785962e-05 0.024944933494872538 0 -9.0532650777290326e-05 0.024939751726067542 0 -8.2559123829230852e-05 0.024952858025940876 0 -8.6264672760183824e-05 0.024947886450159933 0 -8.5997385948325365e-05 0.024947429779437463 0 -0.00027345954425384814 0.022625199184873667 0 -0.00024241640399860068 0.022556842950105026 0 4.9455521813135521e-05 0.02464824493273967 0 1.3804527521710423e-05 0.0246287479669897 0 5.940956607874364e-05 0.024613072319272393 0 1.3804527521710423e-05 0.0246287479669897 0 5.940956607874364e-05 0.024613072319272393 0 6.1410547093254295e-05 0.024570940907237403 0 7.3778408505008734e-05 0.024632598054227819 0 4.9455521813135521e-05 0.02464824493273967 0 5.940956607874364e-05 0.024613072319272393 0 7.3778408505008734e-05 0.024632598054227819 0 5.940956607874364e-05 0.024613072319272393 0 7.919328614947163e-05 0.024603950153551445 0 5.940956607874364e-05 0.024613072319272393 0 7.919328614947163e-05 0.024603950153551445 0 7.0045900814462897e-05 0.024588932051272966 0 7.3778408505008734e-05 0.024632598054227819 0 9.2054001089145968e-05 0.02461351122572563 0 7.919328614947163e-05 0.024603950153551445 0 7.919328614947163e-05 0.024603950153551445 0 9.3474546053489311e-05 0.024586083155946757 0 8.0467207144331934e-05 0.024585834836926373 0 7.919328614947163e-05 0.024603950153551445 0 8.0467207144331934e-05 0.024585834836926373 0 7.0045900814462897e-05 0.024588932051272966 0 9.2054001089145968e-05 0.02461351122572563 0 7.919328614947163e-05 0.024603950153551445 0 9.3474546053489311e-05 0.024586083155946757 0 0.00011132707224536427 0.024590264073005109 0 9.2054001089145968e-05 0.02461351122572563 0 9.3474546053489311e-05 0.024586083155946757 0 0.00012061016254797011 0.024562324784428984 0 9.3474546053489311e-05 0.024586083155946757 0 8.4544709784547796e-05 0.024573365276262103 0 9.3474546053489311e-05 0.024586083155946757 0 8.4544709784547796e-05 0.024573365276262103 0 8.0467207144331934e-05 0.024585834836926373 0 5.6828900651296217e-05 0.020995000046092751 0 -9.180160461756089e-05 0.021432573865269481 0 8.4544709784547796e-05 0.024573365276262103 0 8.0467207144331934e-05 0.024585834836926373 0 7.4464712234998176e-05 0.024573263618942777 0 5.6828900651296217e-05 0.020995000046092751 0 0.00012283046589280815 0.020618970255656576 0 0.00010522103068811904 0.020862445980815943 0 0.0004538361901552636 0.020874080444218495 0 0.00022428496448991116 0.021346066346325361 0 0.00010522103068811904 0.020862445980815943 0 4.3924774944030443e-05 0.02147671980887602 0 0.00022428496448991116 0.021346066346325361 0 -9.180160461756089e-05 0.021432573865269481 0 4.2416742608045974e-05 0.020913862958848395 0 0.00073545319397238683 0.019900926576975512 0 0.00057563596335990304 0.020038811163491526 0 0.00071331491735895545 0.02012483649287106 0 -0.00034249054931280535 0.021691064069097089 0 -0.00017727170085061751 0.021693475026951344 0 -0.00019532928507511098 0.021679187927693112 0 -0.00034249054931280535 0.021691064069097089 0 -0.00017661505648280016 0.021638315630757778 0 -0.00019532928507511098 0.021679187927693112 0 5.940956607874364e-05 0.024613072319272393 0 7.0045900814462897e-05 0.024588932051272966 0 6.1410547093254295e-05 0.024570940907237403 0 8.0467207144331934e-05 0.024585834836926373 0 7.0045900814462897e-05 0.024588932051272966 0 7.4464712234998176e-05 0.024573263618942777 0 7.0045900814462897e-05 0.024588932051272966 0 6.1410547093254295e-05 0.024570940907237403 0 7.9480183649909616e-05 0.024569521518306523 0 -0.00015518056126266635 0.021630365015383637 0 -9.180160461756089e-05 0.021432573865269481 0 -0.00017727170085061751 0.021693475026951344 0 -0.00017631485601515989 0.021635669646372837 0 -0.00019532928507511098 0.021679187927693112 0 -0.00017727170085061751 0.021693475026951344 0 -0.00017631485601515989 0.021635669646372837 0 -8.8653710105830128e-05 0.021627621741004251 0 2.6552600683443713e-05 0.02152252023301229 0 -5.2783128144405127e-05 0.021519313528036921 0 -9.7787969722208461e-05 0.02161152303615722 0 -0.00016387184120507763 0.021900376778947329 0 4.2416742608045974e-05 0.020913862958848395 0 -0.00016387184120507763 0.021900376778947329 0 -9.180160461756089e-05 0.021432573865269481 0 -0.00023319917760348811 0.021455112994341212 0 -0.00023515755029438707 0.021463026600553707 0 0.00026078855367103661 0.02491828363462829 0 0.00022413325077915027 0.024835646917150362 0 0.00014104762686722522 0.024869492006211129 0 0.00026078855367103661 0.02491828363462829 0 0.00031389295644351257 0.024804169136692186 0 0.00022413325077915027 0.024835646917150362 0 0.0001757844065107276 0.020525037716830955 0 3.1199495695432222e-05 0.020839490747015174 0 -0.00013002084002527851 0.020615488143290901 0 -0.00023319917760348811 0.021455112994341212 0 0.00013924126402129657 0.020981241923991038 0 -0.00023319917760348811 0.021455112994341212 0 0.00010500367170285149 0.020703018285700595 0 -0.00023703687882089042 0.021407136018558235 0 -0.00027531963591952797 0.021490165685800595 0 9.2090510176691672e-05 0.021599034369619758 0 0.00013924126402129657 0.020981241923991038 0 0.00020443798685730634 0.02058200336556993 0 0.00013924126402129657 0.020981241923991038 0 0.00021894477853696842 0.021898144153257894 0 0.00031389295644351257 0.024804169136692186 0 0.00022413325077915027 0.024835646917150362 0 0.00017935182405796221 0.024749659781537727 0 0.00022413325077915027 0.024835646917150362 0 0.00017935182405796221 0.024749659781537727 0 0.00014104762686722522 0.024869492006211129 0 0.00041301249075638451 0.019638831458274143 0 0.00034016334202132905 0.01986071407377725 0 0.00027361407420991186 0.019515304597366483 0 -1.0662924501078156e-05 0.01960027160889442 0 0.00084607651603214277 0.020531002018152843 0 0.00011519878473172202 0.019873057759218077 0 0.00059656468428974678 0.020071588167786935 0 0.00036208590443378454 0.020141663123949754 0 0.00034016334202132905 0.01986071407377725 0 0.00038410241474176376 0.019642290751856067 0 0.00047625020445391018 0.020156162104461889 0 0.00057563596335990304 0.020038811163491526 0 0.00056336292935173368 0.020192478524271935 0 0.00034016334202132905 0.01986071407377725 0 0.00012283046589280815 0.020618970255656576 0 0.00057563596335990304 0.020038811163491526 0 0.00056336292935173368 0.020192478524271935 0 0.00071331491735895545 0.02012483649287106 0 0.00034016334202132905 0.01986071407377725 0 0.0001756104041057831 0.020280053304982209 0 -0.00027467321177186536 0.019969692259648317 0 0.00062551725083221244 0.02024267438915249 0 0.00069691499285234361 0.019529128798611205 0 3.1199495695432222e-05 0.020839490747015174 0 -0.00018646763194582775 0.020731455623053632 0 -0.00013002084002527851 0.020615488143290901 0 -0.00017631485601515989 0.021635669646372837 0 -7.7421048664578216e-05 0.021604323290021651 0 -8.8653710105830128e-05 0.021627621741004251 0 0.0001756104041057831 0.020280053304982209 0 0.00012283046589280815 0.020618970255656576 0 0.0001756104041057831 0.020280053304982209 0 0.00010500367170285149 0.020703018285700595 0 0.00015466290655944773 0.02090516340446931 0 0.00019784575404948235 0.020472595175406318 0 0.00034166013002285059 0.020520916424779396 0 -0.00015496654266677838 0.020723779819756292 0 0.0001616896415750189 0.020830285899965148 0 0.00041424055043386946 0.020311058305734528 0 0.00010500367170285149 0.020703018285700595 0 4.2416742608045974e-05 0.020913862958848395 0 0.00012283046589280815 0.020618970255656576 0 4.2416742608045974e-05 0.020913862958848395 0 0.00012283046589280815 0.020618970255656576 0 0.00010500367170285149 0.020703018285700595 0 0.00013924126402129657 0.020981241923991038 0 0.0001756104041057831 0.020280053304982209 0 0.00065638198187943652 0.020583000917217067 0 -0.00026898049539832955 0.020125018079123553 0 -0.00033034622605969632 0.020738145407857164 0 0.00065638198187943652 0.020583000917217067 0 0.00047733420385183824 0.02097185798756936 0 -0.00033034622605969632 0.020738145407857164 0 0.00066154289948543589 0.020248039034328008 0 0.00044802108351956572 0.020185989052477309 0 0.00059587086628811207 0.020390889516180934 0 0.00020443798685730634 0.02058200336556993 0 0.00021298961441369688 0.01990835197522603 0 0.0001756104041057831 0.020280053304982209 0 0.00021298961441369688 0.01990835197522603 0 0.00027361407420991186 0.019515304597366483 0 0.0012040573368441935 0.019797286683534299 0 0.00084607651603214277 0.020531002018152843 0 4.793301641150821e-05 0.019488048502499879 0 -1.0055328472603735e-05 0.020069224905301063 0 -0.00020794175151445416 0.020012398358532683 0 0.0001756104041057831 0.020280053304982209 0 0.00029130727449251458 0.019707526861326707 0 0.00021298961441369688 0.01990835197522603 0 0.00029130727449251458 0.019707526861326707 0 0.00038410241474176376 0.019642290751856067 0 0.00029130727449251458 0.019707526861326707 0 0.00037593172733385723 0.018619129466706217 0 0.00038692992175248569 0.018620295996726217 0 0.00038039893063469154 0.018640984870627306 0 0.00041817756836873716 0.01902532141073543 0 0.00024427140487055549 0.020298298769154521 0 0.00061215480120673557 0.018094541284755062 0 0.00029130727449251458 0.019707526861326707 0 0.00028100230751264331 0.017634057170373436 0 0.00057390998621304162 0.017153548591387135 0 0.00053386154918688483 0.017142247818741064 0 0.00039097097595844186 0.019447136977190183 0 0.00031808612851408558 0.020152036709014731 0 0.00016420766439725182 0.019937374854479394 0 0.00041817756836873716 0.01902532141073543 0 0.00021298961441369688 0.01990835197522603 0 0.00028100230751264331 0.017634057170373436 0 0.00052770771066177095 0.017634297098225483 0 0.00057390998621304162 0.017153548591387135 0 0.00021298961441369688 0.01990835197522603 0 0.00024427140487055549 0.020298298769154521 0 0.00020443798685730634 0.02058200336556993 0 0.00024427140487055549 0.020298298769154521 0 5.6179065636937649e-05 0.021318365504833587 0 3.0317193600560884e-05 0.021374710987510905 0 0.00023511903360399258 0.021371959755452353 0 0.00010969565582326946 0.022050928314682829 0 0.00024427140487055549 0.020298298769154521 0 0.0002646106183953585 0.021631767878779969 0 3.0317193600560884e-05 0.021374710987510905 0 0.00023511903360399258 0.021371959755452353 0 -0.00023703687882089042 0.021407136018558235 0 9.2090510176691672e-05 0.021599034369619758 0 0.00011349561897714861 0.02155444934512522 0 0.00020443798685730634 0.02058200336556993 0 0.00014310430956503793 0.021510543999556018 0 0.0002646106183953585 0.021631767878779969 0 0.00023511903360399258 0.021371959755452353 0 0.00041358561913667569 0.021425293159634168 0 0.00021894477853696842 0.021898144153257894 0 6.8263720387376346e-05 0.022441653140925673 0 0.00014310430956503793 0.021510543999556018 0 6.8263720387376346e-05 0.022441653140925673 0 9.2090510176691672e-05 0.021599034369619758 0 0.00011349561897714861 0.02155444934512522 0 0.00045457410165741471 0.021708676317797618 0 4.137835494046881e-05 0.024682726576935963 0 -1.1340715745766131e-05 0.02474949090757159 0 6.2136607392733646e-05 0.024764262260658216 0 0.00017935182405796221 0.024749659781537727 0 4.137835494046881e-05 0.024682726576935963 0 6.2136607392733646e-05 0.024764262260658216 0 0.0001033682519088592 0.022885707929581396 0 9.382508337710511e-05 0.022920779218006282 0 8.4157235216986379e-05 0.022918097637434222 0 0.00012309536058624596 0.023652930621187826 0 7.3862958950890895e-05 0.022716208208699303 0 6.8263720387376346e-05 0.022441653140925673 0 7.3862958950890895e-05 0.022716208208699303 0 -0.00016769691466883026 0.024745833093110223 0 1.5498077027011949e-05 0.024651278909686249 0 -1.1340715745766131e-05 0.02474949090757159 0 5.1860143314788369e-05 0.024661132277518732 0 1.5498077027011949e-05 0.024651278909686249 0 -1.1340715745766131e-05 0.02474949090757159 0 6.8263720387376346e-05 0.022441653140925673 0 -2.3275258838138331e-05 0.02263269886017074 0 -1.1340715745766131e-05 0.02474949090757159 0 9.3144800462564665e-06 0.024815742592860415 0 6.2136607392733646e-05 0.024764262260658216 0 -0.00016769691466883026 0.024745833093110223 0 9.3144800462564665e-06 0.024815742592860415 0 3.8360865367270157e-05 0.024922402058340381 0 -4.9921757950730793e-06 0.024937763596077477 0 1.6188137781239231e-06 0.024941959331491195 0 3.8360865367270157e-05 0.024922402058340381 0 0.00010962272286371997 0.024510376910747939 0 0.00013785662218560325 0.024622080605862989 0 -0.00016769691466883026 0.024745833093110223 0 -1.1340715745766131e-05 0.02474949090757159 0 9.3144800462564665e-06 0.024815742592860415 0 6.4988832372065745e-05 0.024970054503887514 0 3.8360865367270157e-05 0.024922402058340381 0 0.00014104762686722522 0.024869492006211129 0 9.3144800462564665e-06 0.024815742592860415 0 3.8360865367270157e-05 0.024922402058340381 0 8.7001755156440556e-05 0.024823702983395913 0 3.8360865367270157e-05 0.024922402058340381 0 0.00014104762686722522 0.024869492006211129 0 8.7001755156440556e-05 0.024823702983395913 0 0.00017935182405796221 0.024749659781537727 0 0.00014104762686722522 0.024869492006211129 0 8.7001755156440556e-05 0.024823702983395913 0 0.00017935182405796221 0.024749659781537727 0 6.2136607392733646e-05 0.024764262260658216 0 8.7001755156440556e-05 0.024823702983395913 0 9.3144800462564665e-06 0.024815742592860415 0 6.2136607392733646e-05 0.024764262260658216 0 8.7001755156440556e-05 0.024823702983395913 0 -0.0016563195932070521 -0.0038407455226883245 0 -0.0015026550853733294 -0.0037453902842052742 0 -0.0015265782848009897 -0.0038506168297920656 0 -0.0016563195932070521 -0.0038407455226883245 0 -0.0015265782848009897 -0.0038506168297920656 0 -0.0016008180304530717 -0.0039254097803019077 0 -0.0016563195932070521 -0.0038407455226883245 0 -0.0016008180304530717 -0.0039254097803019077 0 -0.0017018491565231797 -0.0039520033471477593 0 -0.0016563195932070521 -0.0038407455226883245 0 -0.0017689570491234629 -0.003911245312721242 0 -0.0017763329877450629 -0.0038317404916567255 0 -0.0016563195932070521 -0.0038407455226883245 0 -0.0017689570491234629 -0.003911245312721242 0 -0.0017018491565231797 -0.0039520033471477593 0 -0.0017689570491234629 -0.003911245312721242 0 -0.0017018491565231797 -0.0039520033471477593 0 -0.0017800945761393464 -0.0039746621876903619 0 -0.0017689570491234629 -0.003911245312721242 0 -0.0017763329877450629 -0.0038317404916567255 0 -0.001823151393445132 -0.0038793249224127564 0 -0.0016563195932070521 -0.0038407455226883245 0 -0.0017763329877450629 -0.0038317404916567255 0 -0.0017513379000204524 -0.0037543660625187878 0 -0.0017513379000204524 -0.0037543660625187878 0 -0.0018478551309422358 -0.0037828186790028165 0 -0.001794117003069114 -0.003679594552629117 0 -0.0017763329877450629 -0.0038317404916567255 0 -0.0017513379000204524 -0.0037543660625187878 0 -0.0018478551309422358 -0.0037828186790028165 0 -0.0017513379000204524 -0.0037543660625187878 0 -0.0016625804637396362 -0.00371215847610643 0 -0.001794117003069114 -0.003679594552629117 0 -0.0016563195932070521 -0.0038407455226883245 0 -0.0016625804637396362 -0.00371215847610643 0 -0.0015026550853733294 -0.0037453902842052742 0 -0.0016563195932070521 -0.0038407455226883245 0 -0.0017513379000204524 -0.0037543660625187878 0 -0.0016625804637396362 -0.00371215847610643 0 -0.0016625804637396362 -0.00371215847610643 0 -0.0015026550853733294 -0.0037453902842052742 0 -0.0014988001145665778 -0.0035978591500494166 0 -0.0015026550853733294 -0.0037453902842052742 0 -0.0013286324931977109 -0.0036349875104914058 0 -0.0014988001145665778 -0.0035978591500494166 0 -0.0015026550853733294 -0.0037453902842052742 0 -0.0013286324931977109 -0.0036349875104914058 0 -0.0013317282685623212 -0.0037541797397145924 0 -0.0013286324931977109 -0.0036349875104914058 0 -0.001098138173293147 -0.0035497458831328884 0 -0.001181388852448034 -0.0036899997921325403 0 -0.0013317282685623212 -0.0037541797397145924 0 -0.0012028243198065022 -0.0037960180961177344 0 -0.001181388852448034 -0.0036899997921325403 0 -0.0013286324931977109 -0.0036349875104914058 0 -0.0013317282685623212 -0.0037541797397145924 0 -0.001181388852448034 -0.0036899997921325403 0 -0.0013317282685623212 -0.0037541797397145924 0 -0.0012028243198065022 -0.0037960180961177344 0 -0.0013916912012882972 -0.0038404673816914404 0 -0.0012028243198065022 -0.0037960180961177344 0 -0.0013916912012882972 -0.0038404673816914404 0 -0.0012729473577877924 -0.0038868034698769953 0 -0.0012028243198065022 -0.0037960180961177344 0 -0.0012729473577877924 -0.0038868034698769953 0 -0.0011159776380237742 -0.0038591132744570868 0 -0.0015265782848009897 -0.0038506168297920656 0 -0.0013916912012882972 -0.0038404673816914404 0 -0.0014559036715324745 -0.0039671478322226466 0 -0.0015026550853733294 -0.0037453902842052742 0 -0.0015265782848009897 -0.0038506168297920656 0 -0.0013916912012882972 -0.0038404673816914404 0 -0.0015026550853733294 -0.0037453902842052742 0 -0.0013317282685623212 -0.0037541797397145924 0 -0.0013916912012882972 -0.0038404673816914404 0 -0.0015265782848009897 -0.0038506168297920656 0 -0.0014559036715324745 -0.0039671478322226466 0 -0.0016008180304530717 -0.0039254097803019077 0 -0.0013916912012882972 -0.0038404673816914404 0 -0.0014559036715324745 -0.0039671478322226466 0 -0.0012729473577877924 -0.0038868034698769953 0 -0.0014559036715324745 -0.0039671478322226466 0 -0.0012729473577877924 -0.0038868034698769953 0 -0.0012663956412842178 -0.0039883414391449611 0 -0.0012729473577877924 -0.0038868034698769953 0 -0.0012663956412842178 -0.0039883414391449611 0 -0.0011159776380237742 -0.0038591132744570868 0 -0.0012663956412842178 -0.0039883414391449611 0 -0.0014247739359374329 -0.0041069373522825536 0 -0.0012547565462521801 -0.0041847992250771474 0 -0.0014559036715324745 -0.0039671478322226466 0 -0.0014247739359374329 -0.0041069373522825536 0 -0.0015920249326457027 -0.004112112370084295 0 -0.0014559036715324745 -0.0039671478322226466 0 -0.0012663956412842178 -0.0039883414391449611 0 -0.0014247739359374329 -0.0041069373522825536 0 -0.0015920249326457027 -0.004112112370084295 0 -0.001646251934564476 -0.0040132279450836366 0 -0.0017249056395083557 -0.0040733861051804052 0 -0.0014559036715324745 -0.0039671478322226466 0 -0.0015920249326457027 -0.004112112370084295 0 -0.001646251934564476 -0.0040132279450836366 0 -0.0014559036715324745 -0.0039671478322226466 0 -0.001646251934564476 -0.0040132279450836366 0 -0.0016008180304530717 -0.0039254097803019077 0 -0.001646251934564476 -0.0040132279450836366 0 -0.0016008180304530717 -0.0039254097803019077 0 -0.0017018491565231797 -0.0039520033471477593 0 -0.0017018491565231797 -0.0039520033471477593 0 -0.001732598396525201 -0.0040093513548234202 0 -0.0017800945761393464 -0.0039746621876903619 0 -0.001646251934564476 -0.0040132279450836366 0 -0.001732598396525201 -0.0040093513548234202 0 -0.0017249056395083557 -0.0040733861051804052 0 -0.001646251934564476 -0.0040132279450836366 0 -0.0017018491565231797 -0.0039520033471477593 0 -0.001732598396525201 -0.0040093513548234202 0 -0.001732598396525201 -0.0040093513548234202 0 -0.0017800945761393464 -0.0039746621876903619 0 -0.0017927914971160124 -0.0040338510743312258 0 -0.001732598396525201 -0.0040093513548234202 0 -0.0017249056395083557 -0.0040733861051804052 0 -0.0017927914971160124 -0.0040338510743312258 0 -0.0015920249326457027 -0.004112112370084295 0 -0.0017249056395083557 -0.0040733861051804052 0 -0.0017268533274071647 -0.0041838024560069392 0 -0.0017249056395083557 -0.0040733861051804052 0 -0.0017986763385725152 -0.0040809773949465455 0 -0.0017268533274071647 -0.0041838024560069392 0 -0.0017986763385725152 -0.0040809773949465455 0 -0.0018498015632303635 -0.0040882823467552247 0 -0.0017268533274071647 -0.0041838024560069392 0 0.00052157152581098695 -0.0062648462008910175 0 0.00050221935658835307 -0.0061271071038214043 0 0.00029984608635316175 -0.0064354412663760879 0 -0.0017986763385725152 -0.0040809773949465455 0 -0.0018327562045192512 -0.0040511851670131816 0 -0.0017927914971160124 -0.0040338510743312258 0 -0.0017249056395083557 -0.0040733861051804052 0 -0.0017986763385725152 -0.0040809773949465455 0 -0.0017927914971160124 -0.0040338510743312258 0 -0.0017986763385725152 -0.0040809773949465455 0 -0.0018327562045192512 -0.0040511851670131816 0 -0.0018370105498058224 -0.0040704913837321232 0 -0.0017986763385725152 -0.0040809773949465455 0 -0.0018370105498058224 -0.0040704913837321232 0 -0.0018498015632303635 -0.0040882823467552247 0 0.00052157152581098695 -0.0062648462008910175 0 0.00050221935658835307 -0.0061271071038214043 0 -0.00026597836005228773 -0.0057628577810679132 0 -0.0018515142008577211 -0.0040658518882378397 0 -0.0018553500201750443 -0.0040561379842277423 0 -0.0018522109653005491 -0.0040573287360126187 0 -0.00091147893626525084 -0.0048219818018041235 0 -0.0012737976182487511 -0.0046273100549045851 0 -0.0018498015632303635 -0.0040882823467552247 0 -0.0018515142008577211 -0.0040658518882378397 0 -0.0018522109653005491 -0.0040573287360126187 0 0.00056289187650739427 -0.0065079478380394512 0 0.00040664346250301271 -0.0065751377448051681 0 -0.0018370105498058224 -0.0040704913837321232 0 -0.0018498015632303635 -0.0040882823467552247 0 -0.0018515142008577211 -0.0040658518882378397 0 -0.0018327562045192512 -0.0040511851670131816 0 -0.0018370105498058224 -0.0040704913837321232 0 -0.0018515142008577211 -0.0040658518882378397 0 -0.0018327562045192512 -0.0040511851670131816 0 -0.0018515142008577211 -0.0040658518882378397 0 -0.0018518739841371305 -0.0040410501466171915 0 -0.0018327562045192512 -0.0040511851670131816 0 -0.0018518739841371305 -0.0040410501466171915 0 -0.0018313573448227802 -0.0040090394154140866 0 -0.0018518739841371305 -0.0040410501466171915 0 -0.0018553500201750443 -0.0040561379842277423 0 -0.0018588858984601307 -0.0040553295523671753 0 -0.0018515142008577211 -0.0040658518882378397 0 -0.0018518739841371305 -0.0040410501466171915 0 -0.0018553500201750443 -0.0040561379842277423 0 -0.0018532304445120554 -0.0040152501667751013 0 -0.0018588858984601307 -0.0040553295523671753 0 -0.0018598617968922956 -0.0040117226118798381 0 -0.0018518739841371305 -0.0040410501466171915 0 -0.0018532304445120554 -0.0040152501667751013 0 -0.0018588858984601307 -0.0040553295523671753 0 -0.0018518739841371305 -0.0040410501466171915 0 -0.0018532304445120554 -0.0040152501667751013 0 -0.0018313573448227802 -0.0040090394154140866 0 -0.0018532304445120554 -0.0040152501667751013 0 -0.0018313573448227802 -0.0040090394154140866 0 -0.0018523844515641737 -0.0039555853857801138 0 -0.0018313573448227802 -0.0040090394154140866 0 -0.0017800945761393464 -0.0039746621876903619 0 -0.0017927914971160124 -0.0040338510743312258 0 -0.0018313573448227802 -0.0040090394154140866 0 -0.0017800945761393464 -0.0039746621876903619 0 -0.0018171152882981553 -0.003946169965226733 0 -0.0018327562045192512 -0.0040511851670131816 0 -0.0018313573448227802 -0.0040090394154140866 0 -0.0017927914971160124 -0.0040338510743312258 0 -0.0015857917756237499 -0.0054431408704358076 0 -0.00041110650796159353 -0.0050557965444753177 0 -0.0017618861716865318 -0.0042987889061901251 0 0.00026230840371613978 -0.0068405620148137706 0 0.00040664346250301271 -0.0065751377448051681 0 -0.0015857917756237499 -0.0054431408704358076 0 -0.00041110650796159353 -0.0050557965444753177 0 -0.00026597836005228773 -0.0057628577810679132 0 0.00050221935658835307 -0.0061271071038214043 0 -0.00041110650796159353 -0.0050557965444753177 0 -0.00026597836005228773 -0.0057628577810679132 0 -0.0018553500201750443 -0.0040561379842277423 0 -0.0018522109653005491 -0.0040573287360126187 0 -0.0018588858984601307 -0.0040553295523671753 0 -0.0018588858984601307 -0.0040553295523671753 0 -0.0018506344283530359 -0.0040445365688702795 0 -0.0018598617968922956 -0.0040117226118798381 0 -0.0018588858984601307 -0.0040553295523671753 0 -0.0018308966943691549 -0.0041146103722069678 0 -0.0018506344283530359 -0.0040445365688702795 0 -0.0018308966943691549 -0.0041146103722069678 0 -0.0018286934008231056 -0.0041069307543078271 0 -0.0018506344283530359 -0.0040445365688702795 0 -0.0018522109653005491 -0.0040573287360126187 0 -0.0018588858984601307 -0.0040553295523671753 0 -0.0018308966943691549 -0.0041146103722069678 0 -0.0018308966943691549 -0.0041146103722069678 0 -0.0018286934008231056 -0.0041069307543078271 0 -0.0017618861716865318 -0.0042987889061901251 0 -0.0018522109653005491 -0.0040573287360126187 0 -0.0018308966943691549 -0.0041146103722069678 0 -0.0017618861716865318 -0.0042987889061901251 0 -0.0018286934008231056 -0.0041069307543078271 0 -0.0017618861716865318 -0.0042987889061901251 0 -0.001877751201719229 -0.0040724981577752624 0 -0.0012737976182487511 -0.0046273100549045851 0 -0.0015269057856547186 -0.0045061400932882734 0 -0.0018286934008231056 -0.0041069307543078271 0 -0.0018671184113128554 -0.0039929704246560466 0 -0.001877751201719229 -0.0040724981577752624 0 -0.0018286934008231056 -0.0041069307543078271 0 -0.0018506344283530359 -0.0040445365688702795 0 -0.0018671184113128554 -0.0039929704246560466 0 -0.0018506344283530359 -0.0040445365688702795 0 -0.0018782592491734978 -0.0039356848110349823 0 -0.0018671184113128554 -0.0039929704246560466 0 -0.0018506344283530359 -0.0040445365688702795 0 -0.0018782592491734978 -0.0039356848110349823 0 -0.0018674328073282045 -0.0039565616967332153 0 -0.0018506344283530359 -0.0040445365688702795 0 -0.0018598617968922956 -0.0040117226118798381 0 -0.0018674328073282045 -0.0039565616967332153 0 -0.0018782592491734978 -0.0039356848110349823 0 -0.0018671184113128554 -0.0039929704246560466 0 -0.0018963129354098731 -0.0038968409639488942 0 -0.0018782592491734978 -0.0039356848110349823 0 -0.0018963129354098731 -0.0038968409639488942 0 -0.0019020234064769193 -0.0038515884308653742 0 -0.0018671184113128554 -0.0039929704246560466 0 -0.001877751201719229 -0.0040724981577752624 0 -0.0019077056937401888 -0.0039463712552696151 0 -0.0018671184113128554 -0.0039929704246560466 0 -0.0018963129354098731 -0.0038968409639488942 0 -0.0019077056937401888 -0.0039463712552696151 0 -0.001823151393445132 -0.0038793249224127564 0 -0.0018523844515641737 -0.0039555853857801138 0 -0.0018623272846566951 -0.0038764397735158718 0 -0.001823151393445132 -0.0038793249224127564 0 -0.0018171152882981553 -0.003946169965226733 0 -0.0018523844515641737 -0.0039555853857801138 0 -0.0017689570491234629 -0.003911245312721242 0 -0.001823151393445132 -0.0038793249224127564 0 -0.0018171152882981553 -0.003946169965226733 0 -0.0017689570491234629 -0.003911245312721242 0 -0.0017800945761393464 -0.0039746621876903619 0 -0.0018171152882981553 -0.003946169965226733 0 -0.0018313573448227802 -0.0040090394154140866 0 -0.0018171152882981553 -0.003946169965226733 0 -0.0018523844515641737 -0.0039555853857801138 0 -0.0018532304445120554 -0.0040152501667751013 0 -0.0018523844515641737 -0.0039555853857801138 0 -0.0018598617968922956 -0.0040117226118798381 0 -0.0018523844515641737 -0.0039555853857801138 0 -0.0018598617968922956 -0.0040117226118798381 0 -0.0018674328073282045 -0.0039565616967332153 0 -0.0018523844515641737 -0.0039555853857801138 0 -0.0018674328073282045 -0.0039565616967332153 0 -0.0018623272846566951 -0.0038764397735158718 0 -0.0018674328073282045 -0.0039565616967332153 0 -0.0018831890312705484 -0.003885586968740752 0 -0.0018623272846566951 -0.0038764397735158718 0 -0.0018782592491734978 -0.0039356848110349823 0 -0.0018674328073282045 -0.0039565616967332153 0 -0.0018831890312705484 -0.003885586968740752 0 -0.0018782592491734978 -0.0039356848110349823 0 -0.0018831890312705484 -0.003885586968740752 0 -0.0019020234064769193 -0.0038515884308653742 0 -0.0018831890312705484 -0.003885586968740752 0 -0.0018988774656711783 -0.0038125063240279835 0 -0.0019020234064769193 -0.0038515884308653742 0 -0.0018831890312705484 -0.003885586968740752 0 -0.0018623272846566951 -0.0038764397735158718 0 -0.0018988774656711783 -0.0038125063240279835 0 -0.0018623272846566951 -0.0038764397735158718 0 -0.0018478551309422358 -0.0037828186790028165 0 -0.0018988774656711783 -0.0038125063240279835 0 -0.001823151393445132 -0.0038793249224127564 0 -0.0018623272846566951 -0.0038764397735158718 0 -0.0018478551309422358 -0.0037828186790028165 0 -0.0017763329877450629 -0.0038317404916567255 0 -0.001823151393445132 -0.0038793249224127564 0 -0.0018478551309422358 -0.0037828186790028165 0 -0.0018478551309422358 -0.0037828186790028165 0 -0.0019208652989649395 -0.0037325460655670277 0 -0.0018690456763119049 -0.0037031299030517197 0 -0.0018478551309422358 -0.0037828186790028165 0 -0.0019208652989649395 -0.0037325460655670277 0 -0.0018988774656711783 -0.0038125063240279835 0 -0.0019208652989649395 -0.0037325460655670277 0 -0.0019094893740575806 -0.0036306654851071172 0 -0.0018690456763119049 -0.0037031299030517197 0 -0.0018988774656711783 -0.0038125063240279835 0 -0.0019281149568597126 -0.0037722359812142219 0 -0.0019020234064769193 -0.0038515884308653742 0 -0.0019208652989649395 -0.0037325460655670277 0 -0.0018988774656711783 -0.0038125063240279835 0 -0.0019281149568597126 -0.0037722359812142219 0 -0.0019281149568597126 -0.0037722359812142219 0 -0.001975384989628742 -0.0036751557597284276 0 -0.0019416976832927167 -0.0037934316337930813 0 -0.001975384989628742 -0.0036751557597284276 0 -0.0020197172122147665 -0.0037676554862630649 0 -0.0019416976832927167 -0.0037934316337930813 0 -0.0019281149568597126 -0.0037722359812142219 0 -0.001914418971171608 -0.0038433472418721031 0 -0.0019416976832927167 -0.0037934316337930813 0 -0.001975384989628742 -0.0036751557597284276 0 -0.0020384492411147591 -0.0035897179810952082 0 -0.0020197172122147665 -0.0037676554862630649 0 -0.001975384989628742 -0.0036751557597284276 0 -0.0020384492411147591 -0.0035897179810952082 0 -0.0019094893740575806 -0.0036306654851071172 0 -0.0019208652989649395 -0.0037325460655670277 0 -0.001975384989628742 -0.0036751557597284276 0 -0.0019094893740575806 -0.0036306654851071172 0 -0.0019208652989649395 -0.0037325460655670277 0 -0.0019281149568597126 -0.0037722359812142219 0 -0.001975384989628742 -0.0036751557597284276 0 -0.0018963129354098731 -0.0038968409639488942 0 -0.001914418971171608 -0.0038433472418721031 0 -0.0019076233142496519 -0.0038886009833126733 0 -0.0018963129354098731 -0.0038968409639488942 0 -0.0019076233142496519 -0.0038886009833126733 0 -0.0019077056937401888 -0.0039463712552696151 0 -0.0019281149568597126 -0.0037722359812142219 0 -0.0019020234064769193 -0.0038515884308653742 0 -0.001914418971171608 -0.0038433472418721031 0 -0.0018963129354098731 -0.0038968409639488942 0 -0.0019020234064769193 -0.0038515884308653742 0 -0.001914418971171608 -0.0038433472418721031 0 -0.001914418971171608 -0.0038433472418721031 0 -0.0019132329520097325 -0.003892733166162835 0 -0.0019416976832927167 -0.0037934316337930813 0 -0.001914418971171608 -0.0038433472418721031 0 -0.0019076233142496519 -0.0038886009833126733 0 -0.0019132329520097325 -0.003892733166162835 0 -0.0019132329520097325 -0.003892733166162835 0 -0.0019478378280856994 -0.0039341758152942261 0 -0.0019077127824275333 -0.0039681200414506878 0 -0.0019132329520097325 -0.003892733166162835 0 -0.0019077127824275333 -0.0039681200414506878 0 -0.0018821674573020384 -0.0039627294231170847 0 -0.0019132329520097325 -0.003892733166162835 0 -0.0019478378280856994 -0.0039341758152942261 0 -0.0019416976832927167 -0.0037934316337930813 0 -0.0018700076865839298 -0.0040428899564493078 0 -0.0019191165001258793 -0.0039568755176299496 0 -0.001832591347133644 -0.0039985081218997425 0 -0.0016352944696135033 -0.0042983510882674191 0 -0.0019500235341765558 -0.0042046570672315958 0 -0.001832591347133644 -0.0039985081218997425 0 -0.0020134352271025504 -0.0039904703554321103 0 -0.0019500235341765558 -0.0042046570672315958 0 -0.0019478378280856994 -0.0039341758152942261 0 -0.0019077127824275333 -0.0039681200414506878 0 -0.0019180409806488369 -0.0040368265735490549 0 -0.0018700076865839298 -0.0040428899564493078 0 -0.0017435381633032403 -0.0042551293289007173 0 -0.0020197172122147665 -0.0037676554862630649 0 -0.0020134352271025504 -0.0039904703554321103 0 -0.002189081654546207 -0.0039045406281378605 0 -0.002324627458056343 -0.0035147013217755787 0 -0.0023486098294529948 -0.0034663297863269734 0 -0.0020384492411147591 -0.0035897179810952082 0 -0.0020197172122147665 -0.0037676554862630649 0 -0.002189081654546207 -0.0039045406281378605 0 -0.0020197172122147665 -0.0037676554862630649 0 -0.0019416976832927167 -0.0037934316337930813 0 -0.0020134352271025504 -0.0039904703554321103 0 -0.001832591347133644 -0.0039985081218997425 0 -0.0019416976832927167 -0.0037934316337930813 0 -0.0020134352271025504 -0.0039904703554321103 0 -0.0020134352271025504 -0.0039904703554321103 0 -0.0020885697159959676 -0.0042610920466846555 0 -0.0022372183119174355 -0.0041090065913124939 0 -0.0020134352271025504 -0.0039904703554321103 0 -0.002189081654546207 -0.0039045406281378605 0 -0.0022372183119174355 -0.0041090065913124939 0 -0.0023486098294529948 -0.0034663297863269734 0 -0.0024169308952345266 -0.0033046147341189453 0 -0.0024032929890855535 -0.0025339351342496381 0 -0.0024448684393044203 -0.0019455568823537525 0 -0.0031150004540238881 -0.0021492938199745345 0 -0.002169128004104604 -0.0031339342230276407 0 -0.0024169308952345266 -0.0033046147341189453 0 -0.0020374024134820951 -0.0032276655029574016 0 -0.001736974792098763 -0.0031552674599794974 0 -0.0020313595192191203 -0.003024968487443859 0 -0.0024032929890855535 -0.0025339351342496381 0 -0.0019310672407817134 -0.0020716637911732125 0 -0.0024448684393044203 -0.0019455568823537525 0 -0.001736974792098763 -0.0031552674599794974 0 -0.0017000107957094344 -0.0032652998466899943 0 -0.0015871985667701293 -0.0029877598631135923 0 -0.001736974792098763 -0.0031552674599794974 0 -0.0017000107957094344 -0.0032652998466899943 0 -0.0018233192391733141 -0.0033550662520120925 0 -0.0020374024134820951 -0.0032276655029574016 0 -0.001736974792098763 -0.0031552674599794974 0 -0.0018233192391733141 -0.0033550662520120925 0 -0.0020384492411147591 -0.0035897179810952082 0 -0.0020374024134820951 -0.0032276655029574016 0 -0.0018233192391733141 -0.0033550662520120925 0 -0.0020384492411147591 -0.0035897179810952082 0 -0.0018233192391733141 -0.0033550662520120925 0 -0.0017908212480041775 -0.003504270462013525 0 -0.0020384492411147591 -0.0035897179810952082 0 -0.0019094893740575806 -0.0036306654851071172 0 -0.0017908212480041775 -0.003504270462013525 0 -0.0017000107957094344 -0.0032652998466899943 0 -0.0018233192391733141 -0.0033550662520120925 0 -0.0017908212480041775 -0.003504270462013525 0 -0.0017000107957094344 -0.0032652998466899943 0 -0.0017908212480041775 -0.003504270462013525 0 -0.0015943177301306242 -0.0034630938468588439 0 -0.0017908212480041775 -0.003504270462013525 0 -0.0016916166666966848 -0.0035881594980298778 0 -0.001794117003069114 -0.003679594552629117 0 -0.0017908212480041775 -0.003504270462013525 0 -0.0016916166666966848 -0.0035881594980298778 0 -0.0015943177301306242 -0.0034630938468588439 0 -0.0016625804637396362 -0.00371215847610643 0 -0.0016916166666966848 -0.0035881594980298778 0 -0.0014988001145665778 -0.0035978591500494166 0 -0.0016625804637396362 -0.00371215847610643 0 -0.0016916166666966848 -0.0035881594980298778 0 -0.001794117003069114 -0.003679594552629117 0 -0.0019094893740575806 -0.0036306654851071172 0 -0.0017908212480041775 -0.003504270462013525 0 -0.001794117003069114 -0.003679594552629117 0 -0.0018478551309422358 -0.0037828186790028165 0 -0.001794117003069114 -0.003679594552629117 0 -0.0018690456763119049 -0.0037031299030517197 0 -0.0019094893740575806 -0.0036306654851071172 0 -0.001794117003069114 -0.003679594552629117 0 -0.0018690456763119049 -0.0037031299030517197 0 -0.0013286324931977109 -0.0036349875104914058 0 -0.0013220509520991716 -0.0034120118335547131 0 -0.0014988001145665778 -0.0035978591500494166 0 -0.0013286324931977109 -0.0036349875104914058 0 -0.0013220509520991716 -0.0034120118335547131 0 -0.001098138173293147 -0.0035497458831328884 0 -0.0013220509520991716 -0.0034120118335547131 0 -0.0014988001145665778 -0.0035978591500494166 0 -0.0015943177301306242 -0.0034630938468588439 0 -0.0016916166666966848 -0.0035881594980298778 0 -0.0014988001145665778 -0.0035978591500494166 0 -0.0015943177301306242 -0.0034630938468588439 0 -0.0013220509520991716 -0.0034120118335547131 0 -0.0015943177301306242 -0.0034630938468588439 0 -0.0015871985667701293 -0.0029877598631135923 0 -0.0017000107957094344 -0.0032652998466899943 0 -0.0015943177301306242 -0.0034630938468588439 0 -0.0015871985667701293 -0.0029877598631135923 0 -0.0013220509520991716 -0.0034120118335547131 0 -0.0015871985667701293 -0.0029877598631135923 0 -0.0010119780394383744 -0.0030117600288235634 0 -0.0015871985667701293 -0.0029877598631135923 0 -0.0010967463633927343 -0.0025060259390103992 0 -0.0010119780394383744 -0.0030117600288235634 0 -0.002169128004104604 -0.0031339342230276407 0 -0.001941744623700274 -0.0031591754947895576 0 -0.0015871985667701293 -0.0029877598631135923 0 -0.0013804811917433196 -0.0020299057430746871 0 -0.0019310672407817134 -0.0020716637911732125 0 -0.0024032929890855535 -0.0025339351342496381 0 -0.0015871985667701293 -0.0029877598631135923 0 -0.0019310672407817134 -0.0020716637911732125 0 -0.0015871985667701293 -0.0029877598631135923 0 -0.0010967463633927343 -0.0025060259390103992 0 -0.0013804811917433196 -0.0020299057430746871 0 -0.0010967463633927343 -0.0025060259390103992 0 -0.00054717307780696191 -0.0025296092502130568 0 -0.00078936693309661365 -0.0015256651228518158 0 -0.0010967463633927343 -0.0025060259390103992 0 -0.00078936693309661365 -0.0015256651228518158 0 -0.0013804811917433196 -0.0020299057430746871 0 -0.0010967463633927343 -0.0025060259390103992 0 -0.0010119780394383744 -0.0030117600288235634 0 -0.00054717307780696191 -0.0025296092502130568 0 -0.0011395095071284412 -0.0010505365930495549 0 -0.0014590270181523591 -0.00075793884344593462 0 -0.0010119780394383744 -0.0030117600288235634 0 -0.00054717307780696191 -0.0025296092502130568 0 -0.000556397480472358 -0.0031162515824604193 0 -0.0011395095071284412 -0.0010505365930495549 0 -0.0010393737670452493 -0.0011897011154150987 0 -0.00089284734595453097 0.0001906284488764685 0 -0.001384288448687043 -0.00090971912238873719 0 -0.00078936693309661365 -0.0015256651228518158 0 -0.00089284734595453097 0.0001906284488764685 0 -0.002779827550875569 -0.00056283093639924726 0 -0.001384288448687043 -0.00090971912238873719 0 -0.00089284734595453097 0.0001906284488764685 0 -0.002779827550875569 -0.00056283093639924726 0 -0.0028544559260325229 0.0015374924227752138 0 -0.0055428047981165192 0.0034992494570835319 0 -0.0053344106086726005 0.0031018679689244553 0 -0.002779827550875569 -0.00056283093639924726 0 -0.0028544559260325229 0.0015374924227752138 0 -0.0042125908228319185 0.0010888173335908942 0 -0.00089284734595453097 0.0001906284488764685 0 -0.0028544559260325229 0.0015374924227752138 0 -0.0014485812936592939 0.0018606234572322395 0 -0.0014590270181523591 -0.00075793884344593462 0 -0.0019800275658748436 -0.00058230364524507303 0 -0.0028544559260325229 0.0015374924227752138 0 -0.0014485812936592939 0.0018606234572322395 0 -0.0020574141424937594 0.0033338669337592136 0 -0.0028544559260325229 0.0015374924227752138 0 -0.0034736755006828995 0.0027857481949921346 0 -0.0037366935041599752 0.0019197338989411401 0 -0.0028544559260325229 0.0015374924227752138 0 -0.0034736755006828995 0.0027857481949921346 0 -0.0020574141424937594 0.0033338669337592136 0 -0.0034736755006828995 0.0027857481949921346 0 -0.0020574141424937594 0.0033338669337592136 0 -0.0030532914255545921 0.0036996545563720627 0 -0.000556397480472358 -0.0031162515824604193 0 -0.00056374206021164882 -0.0034658277462651134 0 -0.00083316759438145551 -0.0035301971522399421 0 -0.000556397480472358 -0.0031162515824604193 0 -0.00083316759438145551 -0.0035301971522399421 0 -0.00096582910241151023 -0.0033330658324781026 0 -0.0013220509520991716 -0.0034120118335547131 0 -0.00096582910241151023 -0.0033330658324781026 0 -0.001098138173293147 -0.0035497458831328884 0 -0.00083316759438145551 -0.0035301971522399421 0 -0.00096582910241151023 -0.0033330658324781026 0 -0.001098138173293147 -0.0035497458831328884 0 -0.0013220509520991716 -0.0034120118335547131 0 -0.0010119780394383744 -0.0030117600288235634 0 -0.00096582910241151023 -0.0033330658324781026 0 -0.0010119780394383744 -0.0030117600288235634 0 -0.000556397480472358 -0.0031162515824604193 0 -0.00096582910241151023 -0.0033330658324781026 0 -0.0020478908404853746 0.0041565946158165423 0 -0.0024272597036566982 0.0045744968909562644 0 -0.0028062830950810551 0.0039146311178085849 0 -0.0024272597036566982 0.0045744968909562644 0 -0.0029752578740529765 0.004710793839671823 0 -0.0028062830950810551 0.0039146311178085849 0 -0.0035144684604178559 0.0042229989583851962 0 -0.0029752578740529765 0.004710793839671823 0 -0.0038508431406052623 0.0050797225444721514 0 -0.0035144684604178559 0.0042229989583851962 0 -0.0029752578740529765 0.004710793839671823 0 -0.0028062830950810551 0.0039146311178085849 0 -0.0029752578740529765 0.004710793839671823 0 -0.0031275581410245643 0.0054617313287998745 0 -0.0038508431406052623 0.0050797225444721514 0 -0.0029752578740529765 0.004710793839671823 0 -0.0031275581410245643 0.0054617313287998745 0 -0.00243722985879207 0.0052519022972809266 0 -0.0024272597036566982 0.0045744968909562644 0 -0.0029752578740529765 0.004710793839671823 0 -0.00243722985879207 0.0052519022972809266 0 -0.0031275581410245643 0.0054617313287998745 0 -0.00243722985879207 0.0052519022972809266 0 -0.0024308701200255922 0.0062702141199483608 0 -0.0024308701200255922 0.0062702141199483608 0 -0.0034470806577640276 0.0062302226657291009 0 -0.002865373603895383 0.0075450746619142566 0 -0.0031275581410245643 0.0054617313287998745 0 -0.0034470806577640276 0.0062302226657291009 0 -0.0038508431406052623 0.0050797225444721514 0 -0.0031275581410245643 0.0054617313287998745 0 -0.0024308701200255922 0.0062702141199483608 0 -0.0034470806577640276 0.0062302226657291009 0 -0.0034470806577640276 0.0062302226657291009 0 -0.0050377460445762481 0.0063372021340985666 0 -0.0040460192560043398 0.0073313748306407887 0 -0.0034470806577640276 0.0062302226657291009 0 -0.0050377460445762481 0.0063372021340985666 0 -0.0038508431406052623 0.0050797225444721514 0 -0.0050377460445762481 0.0063372021340985666 0 -0.0038508431406052623 0.0050797225444721514 0 -0.0050269258020502021 0.0046840024135993419 0 -0.0035144684604178559 0.0042229989583851962 0 -0.0038508431406052623 0.0050797225444721514 0 -0.00432100818909463 0.0039830862935744185 0 -0.0038508431406052623 0.0050797225444721514 0 -0.0050269258020502021 0.0046840024135993419 0 -0.00432100818909463 0.0039830862935744185 0 -0.0050377460445762481 0.0063372021340985666 0 -0.0050269258020502021 0.0046840024135993419 0 -0.0069911356426561148 0.00503249025582407 0 -0.0050269258020502021 0.0046840024135993419 0 -0.0069911356426561148 0.00503249025582407 0 -0.0049927546634711316 0.0028704699661488745 0 -0.0050377460445762481 0.0063372021340985666 0 -0.0069911356426561148 0.00503249025582407 0 -0.0067970230025298142 0.0073848437271092906 0 -0.0087832898244101718 0.0069656922091296952 0 -0.0069911356426561148 0.00503249025582407 0 -0.0067970230025298142 0.0073848437271092906 0 -0.0028544559260325229 0.0015374924227752138 0 -0.0042125908228319185 0.0010888173335908942 0 -0.0037366935041599752 0.0019197338989411401 0 -0.0042125908228319185 0.0010888173335908942 0 -0.0037366935041599752 0.0019197338989411401 0 -0.0043442988567236858 0.0024743268609344663 0 -0.0034736755006828995 0.0027857481949921346 0 -0.0037366935041599752 0.0019197338989411401 0 -0.0043442988567236858 0.0024743268609344663 0 -0.0034736755006828995 0.0027857481949921346 0 -0.0042884552057541794 0.0033622054769964537 0 -0.0030532914255545921 0.0036996545563720627 0 -0.0034736755006828995 0.0027857481949921346 0 -0.0043442988567236858 0.0024743268609344663 0 -0.0042884552057541794 0.0033622054769964537 0 -0.0042884552057541794 0.0033622054769964537 0 -0.0049347655547091552 0.0027649705529348778 0 -0.0051181258644159427 0.0037962148824771456 0 -0.0043442988567236858 0.0024743268609344663 0 -0.0042884552057541794 0.0033622054769964537 0 -0.0049347655547091552 0.0027649705529348778 0 -0.0035269455206165794 0.0018028075138581724 0 -0.0032488680668053371 0.0011549165270269683 0 -0.0049347655547091552 0.0027649705529348778 0 -0.0046362292096418199 0.002549893119080127 0 -0.0050070500660787613 0.0014772525425073525 0 -0.0053344106086726005 0.0031018679689244553 0 -0.0051275404490524765 0.0028924506534050019 0 -0.0042125908228319185 0.0010888173335908942 0 -0.0043442988567236858 0.0024743268609344663 0 -0.0049927546634711316 0.0028704699661488745 0 -0.0043442988567236858 0.0024743268609344663 0 -0.0049347655547091552 0.0027649705529348778 0 -0.0049927546634711316 0.0028704699661488745 0 -0.0049347655547091552 0.0027649705529348778 0 -0.0049927546634711316 0.0028704699661488745 0 -0.0046362292096418199 0.002549893119080127 0 -0.0050269258020502021 0.0046840024135993419 0 -0.00432100818909463 0.0039830862935744185 0 -0.0049927546634711316 0.0028704699661488745 0 -0.00432100818909463 0.0039830862935744185 0 -0.0049927546634711316 0.0028704699661488745 0 -0.0043176868774668364 0.0031081630307811864 0 -0.00432100818909463 0.0039830862935744185 0 -0.0043176868774668364 0.0031081630307811864 0 -0.0036361703015690811 0.0034549742970902187 0 -0.0035144684604178559 0.0042229989583851962 0 -0.00432100818909463 0.0039830862935744185 0 -0.0036361703015690811 0.0034549742970902187 0 -0.0043176868774668364 0.0031081630307811864 0 -0.0039927479959760686 0.0023927308048890608 0 -0.0036361703015690811 0.0034549742970902187 0 -0.0049927546634711316 0.0028704699661488745 0 -0.0043176868774668364 0.0031081630307811864 0 -0.0046362292096418199 0.002549893119080127 0 -0.0043176868774668364 0.0031081630307811864 0 -0.0046362292096418199 0.002549893119080127 0 -0.0039927479959760686 0.0023927308048890608 0 -0.003381681934935224 0.00133255924770218 0 -0.0032488680668053371 0.0011549165270269683 0 -0.0046362292096418199 0.002549893119080127 0 -0.0039927479959760686 0.0023927308048890608 0 -0.0050070500660787613 0.0014772525425073525 0 -0.0039927479959760686 0.0023927308048890608 0 -0.0028973486546975979 0.0020382658625389136 0 -0.0050070500660787613 0.0014772525425073525 0 -0.0039927479959760686 0.0023927308048890608 0 -0.0028973486546975979 0.0020382658625389136 0 -0.0029700510633657419 0.0029414835613953538 0 -0.0019933731671004347 0.0028740570796460096 0 -0.0028973486546975979 0.0020382658625389136 0 -0.0029700510633657419 0.0029414835613953538 0 -0.002256471304319922 0.0035040174879047065 0 -0.0019933731671004347 0.0028740570796460096 0 -0.0029700510633657419 0.0029414835613953538 0 -0.0039927479959760686 0.0023927308048890608 0 -0.0029700510633657419 0.0029414835613953538 0 -0.0036361703015690811 0.0034549742970902187 0 -0.0035144684604178559 0.0042229989583851962 0 -0.0036361703015690811 0.0034549742970902187 0 -0.0028062830950810551 0.0039146311178085849 0 -0.0029700510633657419 0.0029414835613953538 0 -0.0036361703015690811 0.0034549742970902187 0 -0.0028062830950810551 0.0039146311178085849 0 -0.002256471304319922 0.0035040174879047065 0 -0.0020478908404853746 0.0041565946158165423 0 -0.0028062830950810551 0.0039146311178085849 0 -0.002256471304319922 0.0035040174879047065 0 -0.0029700510633657419 0.0029414835613953538 0 -0.0028062830950810551 0.0039146311178085849 0 -0.0038417258959114182 0.0074008580318477056 0 -0.0043826224433404434 0.0064383474859022443 0 -0.003766615119427952 0.0061291463707367428 0 -0.0026199183219234494 0.0066815862096211995 0 -0.0038417258959114182 0.0074008580318477056 0 -0.003766615119427952 0.0061291463707367428 0 -0.0012598300711174355 0.001530776154211205 0 -0.0028973486546975979 0.0020382658625389136 0 -0.0030602545403033868 0.00053054558004532112 0 -0.0028973486546975979 0.0020382658625389136 0 -0.0030602545403033868 0.00053054558004532112 0 -0.0042011609053469083 0.00054227698949026724 0 -0.0028973486546975979 0.0020382658625389136 0 -0.0042011609053469083 0.00054227698949026724 0 -0.0050280421645520082 0.0013239493414578451 0 -0.0042011609053469083 0.00054227698949026724 0 -0.0047746763304635873 -0.00043365436992349332 0 -0.0050280421645520082 0.0013239493414578451 0 -0.0030602545403033868 0.00053054558004532112 0 -0.0042011609053469083 0.00054227698949026724 0 -0.0047746763304635873 -0.00043365436992349332 0 -0.0029723916022502185 0.0035113366990010839 0 -0.0032541854176118801 0.0020204298348576854 0 -0.0038417258959114182 0.0074008580318477056 0 -0.0050107113498945076 0.0067184070243086922 0 -0.0043826224433404434 0.0064383474859022443 0 -0.0029388065378616367 -0.0013005648644627695 0 -0.003026260296107715 -0.0013016112175085655 0 -0.0029543650796339652 -0.0011315078188536556 0 -0.0029388065378616367 -0.0013005648644627695 0 -0.002972006976208454 -0.001316133902125403 0 -0.003026260296107715 -0.0013016112175085655 0 -0.0032541854176118801 0.0020204298348576854 0 -0.0032895038897416806 0.0019620047716463105 0 -0.0032541854176118801 0.0020204298348576854 0 -0.0032488680668053371 0.0011549165270269683 0 -0.0042884552057541794 0.0033622054769964537 0 -0.0051181258644159427 0.0037962148824771456 0 -0.0039024147818990744 0.0042349094939267296 0 -0.0032488680668053371 0.0011549165270269683 0 -0.0030593670170058125 0.00027415098614706377 0 -0.003026260296107715 -0.0013016112175085655 0 -0.0029543650796339652 -0.0011315078188536556 0 -0.003111872864111213 -0.0011849355577337459 0 -0.0042884552057541794 0.0033622054769964537 0 -0.0039024147818990744 0.0042349094939267296 0 -0.0030532914255545921 0.0036996545563720627 0 -0.003026260296107715 -0.0013016112175085655 0 -0.003111872864111213 -0.0011849355577337459 0 -0.0031511383579760372 -0.0013005356472600902 0 -0.003026260296107715 -0.0013016112175085655 0 -0.0031511383579760372 -0.0013005356472600902 0 -0.0030951936289954083 -0.0013747261140693912 0 -0.0031511383579760372 -0.0013005356472600902 0 -0.0030951936289954083 -0.0013747261140693912 0 -0.0032060310119467858 -0.0014097264892155242 0 -0.003026260296107715 -0.0013016112175085655 0 -0.0030951936289954083 -0.0013747261140693912 0 -0.0030275349057303407 -0.0014044874293315311 0 -0.0030951936289954083 -0.0013747261140693912 0 -0.0030777135447653706 -0.0014575940032621872 0 -0.0030275349057303407 -0.0014044874293315311 0 -0.0030951936289954083 -0.0013747261140693912 0 -0.0030777135447653706 -0.0014575940032621872 0 -0.0032060310119467858 -0.0014097264892155242 0 -0.0026649216873372641 -0.001922984940756381 0 -0.0027609470626981884 -0.0018771166679871698 0 -0.0030777135447653706 -0.0014575940032621872 0 -0.003064891412008761 -0.0014901292594065826 0 -0.003056101835315901 -0.0016835396933477325 0 -0.0030777135447653706 -0.0014575940032621872 0 -0.0032060310119467858 -0.0014097264892155242 0 -0.003056101835315901 -0.0016835396933477325 0 -0.0030777135447653706 -0.0014575940032621872 0 -0.0030082652468652079 -0.0013953246428236457 0 -0.003064891412008761 -0.0014901292594065826 0 -0.003064891412008761 -0.0014901292594065826 0 -0.0029766990917428422 -0.0013017558630524116 0 -0.0031555017319300585 -0.0015752311183025998 0 -0.0029576974027442902 -0.0010323906235674694 0 -0.0028961352477749609 -0.00085326043112064591 0 -0.0029766990917428422 -0.0013017558630524116 0 -0.0031468657204726438 -0.00078958552262606676 0 -0.0026038725120294645 -0.00043612717785419488 0 -0.0030082652468652079 -0.0013953246428236457 0 -0.003064891412008761 -0.0014901292594065826 0 -0.0029766990917428422 -0.0013017558630524116 0 -0.0030082652468652079 -0.0013953246428236457 0 -0.0030115588397412749 -0.0014903746340631193 0 -0.0029766990917428422 -0.0013017558630524116 0 -0.0030082652468652079 -0.0013953246428236457 0 -0.0030275349057303407 -0.0014044874293315311 0 -0.0030115588397412749 -0.0014903746340631193 0 -0.0030777135447653706 -0.0014575940032621872 0 -0.0030082652468652079 -0.0013953246428236457 0 -0.0030275349057303407 -0.0014044874293315311 0 -0.002972006976208454 -0.001316133902125403 0 -0.003026260296107715 -0.0013016112175085655 0 -0.0029331747700734713 -0.0013713934931460826 0 -0.0029487561139130264 -0.0013009890967729571 0 -0.002972006976208454 -0.001316133902125403 0 -0.0029331747700734713 -0.0013713934931460826 0 -0.0028694202453452846 0.00038296564957037793 0 -0.0034349679663571932 0.0013158595376340611 0 -0.003026260296107715 -0.0013016112175085655 0 -0.0030275349057303407 -0.0014044874293315311 0 -0.0030115588397412749 -0.0014903746340631193 0 -0.0043826224433404434 0.0064383474859022443 0 -0.0049055582642336167 0.0059834760781724431 0 -0.003766615119427952 0.0061291463707367428 0 -0.0032541854176118801 0.0020204298348576854 0 -0.0034349679663571932 0.0013158595376340611 0 -0.0050107113498945076 0.0067184070243086922 0 -0.0043826224433404434 0.0064383474859022443 0 -0.0049055582642336167 0.0059834760781724431 0 -0.0034349679663571932 0.0013158595376340611 0 -0.004497580588843645 0.0032325412806312693 0 -0.0030608666857867696 -0.0013693189303718091 0 -0.0031468657204726438 -0.00078958552262606676 0 -0.0034742325335009321 -0.00076588339872977909 0 -0.0030608666857867696 -0.0013693189303718091 0 -0.0036211517221426096 -0.00080633031087517409 0 -0.0034742325335009321 -0.00076588339872977909 0 -0.0034349679663571932 0.0013158595376340611 0 -0.0032762017827953674 0.00019934528826476804 0 -0.0030115588397412749 -0.0014903746340631193 0 -0.0029766990917428422 -0.0013017558630524116 0 -0.0031468657204726438 -0.00078958552262606676 0 -0.0030399424629077684 0.0052404798409678398 0 -0.0039066244852773531 0.0049853342586690117 0 -0.003766615119427952 0.0061291463707367428 0 -0.0044404163305220715 0.0058576720201091673 0 -0.004497580588843645 0.0032325412806312693 0 -0.004497580588843645 0.0032325412806312693 0 -0.0044918831754817753 0.0031873964750802962 0 -0.0049055582642336167 0.0059834760781724431 0 -0.0039066244852773531 0.0049853342586690117 0 -0.003766615119427952 0.0061291463707367428 0 -0.00093397265720415019 -0.0039046367065498338 0 -0.0010401450649182738 -0.0038175960186820437 0 -0.00091310732393187072 -0.0037496279398792302 0 -0.00093397265720415019 -0.0039046367065498338 0 -0.00091310732393187072 -0.0037496279398792302 0 -0.0007468821883101428 -0.0036900499203087315 0 -0.00093397265720415019 -0.0039046367065498338 0 -0.0014731353935458213 -0.0037565949529639845 0 -0.00096765778211127236 -0.0036568656809821184 0 -0.00093397265720415019 -0.0039046367065498338 0 -0.0010401450649182738 -0.0038175960186820437 0 -0.00099367838464764708 -0.0038089419819175314 0 -0.0010401450649182738 -0.0038175960186820437 0 -0.0011159776380237742 -0.0038591132744570868 0 -0.00099367838464764708 -0.0038089419819175314 0 -0.0012028243198065022 -0.0037960180961177344 0 -0.0010401450649182738 -0.0038175960186820437 0 -0.0011159776380237742 -0.0038591132744570868 0 -0.0012028243198065022 -0.0037960180961177344 0 -0.0010401450649182738 -0.0038175960186820437 0 -0.0010298085138097316 -0.0037070225088761464 0 -0.0010401450649182738 -0.0038175960186820437 0 -0.0010298085138097316 -0.0037070225088761464 0 -0.00091310732393187072 -0.0037496279398792302 0 -0.00083316759438145551 -0.0035301971522399421 0 -0.001098138173293147 -0.0035497458831328884 0 -0.0010298085138097316 -0.0037070225088761464 0 -0.0012028243198065022 -0.0037960180961177344 0 -0.0010298085138097316 -0.0037070225088761464 0 -0.001181388852448034 -0.0036899997921325403 0 -0.001098138173293147 -0.0035497458831328884 0 -0.0010298085138097316 -0.0037070225088761464 0 -0.001181388852448034 -0.0036899997921325403 0 -0.00083316759438145551 -0.0035301971522399421 0 -0.0010298085138097316 -0.0037070225088761464 0 -0.00091310732393187072 -0.0037496279398792302 0 -0.00056374206021164882 -0.0034658277462651134 0 -0.00083316759438145551 -0.0035301971522399421 0 -0.0007468821883101428 -0.0036900499203087315 0 -0.00083316759438145551 -0.0035301971522399421 0 -0.00091310732393187072 -0.0037496279398792302 0 -0.0007468821883101428 -0.0036900499203087315 0 -0.0019800275658748436 -0.00058230364524507303 0 -0.0026529983475423948 -0.0011253510494454372 0 -0.00056374206021164882 -0.0034658277462651134 0 -0.0007468821883101428 -0.0036900499203087315 0 -0.00046352446004160235 -0.0037974588542027455 0 -0.0030593670170058125 0.00027415098614706377 0 -0.0026529983475423948 -0.0011253510494454372 0 -0.0020574141424937594 0.0033338669337592136 0 -0.0030532914255545921 0.0036996545563720627 0 -0.0026211820038933779 0.0046760390243497244 0 -0.0039024147818990744 0.0042349094939267296 0 -0.0030532914255545921 0.0036996545563720627 0 -0.0026211820038933779 0.0046760390243497244 0 -0.003111872864111213 -0.0011849355577337459 0 -0.0031511383579760372 -0.0013005356472600902 0 -0.0032643457672965129 -0.0012363299038982006 0 -0.0026529983475423948 -0.0011253510494454372 0 -0.0026649216873372641 -0.001922984940756381 0 -0.0031511383579760372 -0.0013005356472600902 0 -0.0032643457672965129 -0.0012363299038982006 0 -0.0032060310119467858 -0.0014097264892155242 0 -0.002023489777163268 -0.0017628249152919159 0 -0.0026529983475423948 -0.0011253510494454372 0 -0.0022007139797402 -0.0044502720557189571 0 -0.0014731353935458213 -0.0037565949529639845 0 -0.0018822518500747232 -0.0035087515125720153 0 -0.00093397265720415019 -0.0039046367065498338 0 -0.0022007139797402 -0.0044502720557189571 0 -0.0014731353935458213 -0.0037565949529639845 0 -0.00093397265720415019 -0.0039046367065498338 0 -0.0007468821883101428 -0.0036900499203087315 0 -0.00046352446004160235 -0.0037974588542027455 0 -0.0014731353935458213 -0.0037565949529639845 0 -0.0018822518500747232 -0.0035087515125720153 0 -0.0014794070747892671 -0.0033348944120613782 0 -0.0018822518500747232 -0.0035087515125720153 0 -0.0027298732267400068 -0.0031486688262868804 0 -0.001673214728995349 -0.0027251928284388253 0 -0.0018822518500747232 -0.0035087515125720153 0 -0.0014794070747892671 -0.0033348944120613782 0 -0.001673214728995349 -0.0027251928284388253 0 -0.0022007139797402 -0.0044502720557189571 0 -0.0018822518500747232 -0.0035087515125720153 0 -0.0027298732267400068 -0.0031486688262868804 0 -0.0027298732267400068 -0.0031486688262868804 0 -0.0023235137746884372 -0.0023277962241346011 0 -0.001673214728995349 -0.0027251928284388253 0 -0.0027298732267400068 -0.0031486688262868804 0 -0.0023235137746884372 -0.0023277962241346011 0 -0.003056101835315901 -0.0016835396933477325 0 -0.0014794070747892671 -0.0033348944120613782 0 -0.001673214728995349 -0.0027251928284388253 0 -0.00088128978570485767 -0.0024545269273925138 0 -0.0023235137746884372 -0.0023277962241346011 0 -0.001673214728995349 -0.0027251928284388253 0 -0.0017252263183131606 -0.0020147535553070037 0 -0.001673214728995349 -0.0027251928284388253 0 -0.0010987560847362313 -0.0024455072256561075 0 -0.0017252263183131606 -0.0020147535553070037 0 -0.0012965759761712028 -0.0033008073715104658 0 -0.0012963784387245206 -0.0033602279454870089 0 -0.0014794070747892671 -0.0033348944120613782 0 -0.00088128978570485767 -0.0024545269273925138 0 -0.00096765778211127236 -0.0036568656809821184 0 -0.0012963784387245206 -0.0033602279454870089 0 -0.0012550734835518197 -0.0034200273507179928 0 -0.00091442693811827423 -0.0040295642816589646 0 -0.00096765778211127236 -0.0036568656809821184 0 -0.0010581288982241602 -0.0039044724353741495 0 -0.00093397265720415019 -0.0039046367065498338 0 -0.00096765778211127236 -0.0036568656809821184 0 -0.00099367838464764708 -0.0038089419819175314 0 -0.00096765778211127236 -0.0036568656809821184 0 -0.00099367838464764708 -0.0038089419819175314 0 -0.0010581288982241602 -0.0039044724353741495 0 -0.0014731353935458213 -0.0037565949529639845 0 -0.0014794070747892671 -0.0033348944120613782 0 -0.00096765778211127236 -0.0036568656809821184 0 -0.0012663956412842178 -0.0039883414391449611 0 -0.0011159776380237742 -0.0038591132744570868 0 -0.0010581288982241602 -0.0039044724353741495 0 -0.0011159776380237742 -0.0038591132744570868 0 -0.00099367838464764708 -0.0038089419819175314 0 -0.0010581288982241602 -0.0039044724353741495 0 -0.0012663956412842178 -0.0039883414391449611 0 -0.0010581288982241602 -0.0039044724353741495 0 -0.0012547565462521801 -0.0041847992250771474 0 -0.00091442693811827423 -0.0040295642816589646 0 -0.0010581288982241602 -0.0039044724353741495 0 -0.0012547565462521801 -0.0041847992250771474 0 -0.0012963784387245206 -0.0033602279454870089 0 -0.001254480820861704 -0.0039372073627012404 0 -0.0013314893786347079 -0.0037248852513253332 0 -0.0012979550465302223 -0.0037510208258401583 0 -0.0012966444013841486 -0.0037008145618677695 0 -0.0013669170656500685 -0.003774833949947912 0 -0.0013314893786347079 -0.0037248852513253332 0 -0.0012979550465302223 -0.0037510208258401583 0 -0.0017205638321534566 -0.0030085018606628038 0 -0.0012913188330282213 -0.0040964307662177419 0 -0.0013314893786347079 -0.0037248852513253332 0 -0.0013660973671055028 -0.0036744649563105361 0 -0.0012966444013841486 -0.0037008145618677695 0 -0.0011515725306661614 -0.0015381426506935292 0 -0.0015667094905542625 -0.00089330797698388505 0 -0.0011759928400596196 -0.00071228381716091562 0 -0.0013314893786347079 -0.0037248852513253332 0 -0.0013663154545760154 -0.0037252236669609944 0 -0.0013660973671055028 -0.0036744649563105361 0 -0.001468085414734981 -0.0029457237871390166 0 -0.0017205638321534566 -0.0030085018606628038 0 -0.0012963784387245206 -0.0033602279454870089 0 -0.001468085414734981 -0.0029457237871390166 0 -0.0010987560847362313 -0.0024455072256561075 0 -0.0011515725306661614 -0.0015381426506935292 0 -0.0017252263183131606 -0.0020147535553070037 0 -0.0013669170656500685 -0.003774833949947912 0 -0.0013314893786347079 -0.0037248852513253332 0 -0.0013663154545760154 -0.0037252236669609944 0 -0.0023235137746884372 -0.0023277962241346011 0 -0.0017252263183131606 -0.0020147535553070037 0 -0.0023133637673202825 -0.0017136220542352926 0 -0.0017252263183131606 -0.0020147535553070037 0 -0.0023133637673202825 -0.0017136220542352926 0 -0.0018150277818985538 -0.001356650741154173 0 -0.0023133637673202825 -0.0017136220542352926 0 -0.0022227564750850891 -0.0011848663064411439 0 -0.0018150277818985538 -0.001356650741154173 0 -0.0011515725306661614 -0.0015381426506935292 0 -0.0017252263183131606 -0.0020147535553070037 0 -0.0018150277818985538 -0.001356650741154173 0 -0.0023235137746884372 -0.0023277962241346011 0 -0.0023133637673202825 -0.0017136220542352926 0 -0.003056101835315901 -0.0016835396933477325 0 -0.0023133637673202825 -0.0017136220542352926 0 -0.0026580326608836792 -0.0013653839845265035 0 -0.003056101835315901 -0.0016835396933477325 0 -0.0023133637673202825 -0.0017136220542352926 0 -0.0026580326608836792 -0.0013653839845265035 0 -0.0022227564750850891 -0.0011848663064411439 0 -0.0026580326608836792 -0.0013653839845265035 0 -0.002518245360287752 -0.0010753288639538889 0 -0.0027712001015669199 -0.0010311821943972178 0 -0.0026580326608836792 -0.0013653839845265035 0 -0.002518245360287752 -0.0010753288639538889 0 -0.0022227564750850891 -0.0011848663064411439 0 -0.002518245360287752 -0.0010753288639538889 0 -0.0022227564750850891 -0.0011848663064411439 0 -0.0023386646325750655 -0.0007543346687947436 0 -0.002518245360287752 -0.0010753288639538889 0 -0.0025718464891436809 -0.0007950956458465955 0 -0.0023386646325750655 -0.0007543346687947436 0 -0.0022227564750850891 -0.0011848663064411439 0 -0.0020078727117797592 -0.00090243788248320106 0 -0.0023386646325750655 -0.0007543346687947436 0 -0.002518245360287752 -0.0010753288639538889 0 -0.0025718464891436809 -0.0007950956458465955 0 -0.0027712001015669199 -0.0010311821943972178 0 -0.0025718464891436809 -0.0007950956458465955 0 -0.0027430766073983396 -0.00065243302755468185 0 -0.0027712001015669199 -0.0010311821943972178 0 -0.0011515725306661614 -0.0015381426506935292 0 -0.0018150277818985538 -0.001356650741154173 0 -0.0015667094905542625 -0.00089330797698388505 0 -0.0022227564750850891 -0.0011848663064411439 0 -0.0018150277818985538 -0.001356650741154173 0 -0.0020078727117797592 -0.00090243788248320106 0 -0.0020078727117797592 -0.00090243788248320106 0 -0.0015667094905542625 -0.00089330797698388505 0 -0.0019725942947875752 -0.00055423311423749946 0 -0.0018150277818985538 -0.001356650741154173 0 -0.0020078727117797592 -0.00090243788248320106 0 -0.0015667094905542625 -0.00089330797698388505 0 -0.0015667094905542625 -0.00089330797698388505 0 -0.0019725942947875752 -0.00055423311423749946 0 -0.0019419022863430425 -0.00047557266106269661 0 -0.0019807818237558023 -0.0021129734325859915 0 -0.0017205638321534566 -0.0030085018606628038 0 -0.0015667094905542625 -0.00089330797698388505 0 -0.0019419022863430425 -0.00047557266106269661 0 -0.0011759928400596196 -0.00071228381716091562 0 -0.0021802224533149085 -0.00064875250989856125 0 -0.0019725942947875752 -0.00055423311423749946 0 -0.0024073835875802448 -0.0003868459296466874 0 -0.0020078727117797592 -0.00090243788248320106 0 -0.0021802224533149085 -0.00064875250989856125 0 -0.0019725942947875752 -0.00055423311423749946 0 -0.0019725942947875752 -0.00055423311423749946 0 -0.0019447562614256923 -0.00047747075440284469 0 -0.0024073835875802448 -0.0003868459296466874 0 -0.0020078727117797592 -0.00090243788248320106 0 -0.0021802224533149085 -0.00064875250989856125 0 -0.0023386646325750655 -0.0007543346687947436 0 -0.0019784200192231169 -0.0021041919079188868 0 -0.0019807818237558023 -0.0021129734325859915 0 -0.0022578712570989392 -0.00041822304123529768 0 -0.0024073835875802448 -0.0003868459296466874 0 -0.0024009414085591745 -0.00014147884472999399 0 -0.0019807818237558023 -0.0021129734325859915 0 -0.0020856450858960478 -0.0020074444020607442 0 -0.0025718464891436809 -0.0007950956458465955 0 -0.0027430766073983396 -0.00065243302755468185 0 -0.0024073835875802448 -0.0003868459296466874 0 -0.0025718464891436809 -0.0007950956458465955 0 -0.0023386646325750655 -0.0007543346687947436 0 -0.0024073835875802448 -0.0003868459296466874 0 -0.0021802224533149085 -0.00064875250989856125 0 -0.0023386646325750655 -0.0007543346687947436 0 -0.0024073835875802448 -0.0003868459296466874 0 -0.0027430766073983396 -0.00065243302755468185 0 -0.0024073835875802448 -0.0003868459296466874 0 -0.002738508398729439 -0.00018020752640271687 0 -0.0026421866958419031 -0.00014764750557464461 0 -0.002578311284242281 -5.8933798422957692e-06 0 -0.0024009414085591745 -0.00014147884472999399 0 -0.002738508398729439 -0.00018020752640271687 0 -0.0024810559705858277 0.00017545905578336544 0 -0.0024073835875802448 -0.0003868459296466874 0 -0.0024009414085591745 -0.00014147884472999399 0 -0.002738508398729439 -0.00018020752640271687 0 -0.0019807818237558023 -0.0021129734325859915 0 -0.0019991849265573983 -0.00131783196997504 0 -0.0022201077024515724 -0.0023695054421764426 0 -0.0019861591807535687 -0.0020754765946854941 0 -0.002099949614463839 -0.0020347492140826073 0 -0.0022578712570989392 -0.00041822304123529768 0 -0.0024009414085591745 -0.00014147884472999399 0 -0.0022090365048599118 5.6276793095339274e-05 0 -0.0029000245968834001 -0.004494728722298915 0 -0.0019834341660751854 -0.0053709422859047297 0 -0.0016038867182641002 -0.0045684287214444478 0 -0.0019834341660751854 -0.0053709422859047297 0 -0.0028219284745637204 -0.005782960601911487 0 -0.0015754247201094408 -0.0061357841923387621 0 -0.0029000245968834001 -0.004494728722298915 0 -0.0019834341660751854 -0.0053709422859047297 0 -0.0028219284745637204 -0.005782960601911487 0 -0.0020922635948648592 -0.0029176010062305752 0 -0.0017205638321534566 -0.0030085018606628038 0 -0.0022201077024515724 -0.0023695054421764426 0 -0.0019861591807535687 -0.0020754765946854941 0 -0.0019933158294776132 -0.0024504275280020403 0 -0.0040932937238692523 -0.00019815909522455491 0 -0.0037551202327649725 0.00023802201437942024 0 -0.0035966793255181851 -0.00036823162511736283 0 -0.0037551202327649725 0.00023802201437942024 0 -0.0035966793255181851 -0.00036823162511736283 0 -0.0032869218864682334 -0.00020365639111808093 0 -0.0040932937238692523 -0.00019815909522455491 0 -0.0036461490190063442 -0.00079935133970935647 0 -0.0035966793255181851 -0.00036823162511736283 0 -0.0043842002052680365 0.0020633880800588031 0 -0.004497580588843645 0.0032325412806312693 0 -0.0034742325335009321 -0.00076588339872977909 0 -0.0035966793255181851 -0.00036823162511736283 0 -0.0032949659465436104 -0.00051233141252998813 0 -0.0036461490190063442 -0.00079935133970935647 0 -0.0034742325335009321 -0.00076588339872977909 0 -0.0035966793255181851 -0.00036823162511736283 0 -0.0035966793255181851 -0.00036823162511736283 0 -0.0032869218864682334 -0.00020365639111808093 0 -0.0032949659465436104 -0.00051233141252998813 0 -0.0031468657204726438 -0.00078958552262606676 0 -0.0034742325335009321 -0.00076588339872977909 0 -0.0032949659465436104 -0.00051233141252998813 0 -0.0031468657204726438 -0.00078958552262606676 0 -0.0032949659465436104 -0.00051233141252998813 0 -0.0029741948664973256 -0.00040449223789564226 0 -0.0032869218864682334 -0.00020365639111808093 0 -0.0032949659465436104 -0.00051233141252998813 0 -0.0029741948664973256 -0.00040449223789564226 0 -0.0032869218864682334 -0.00020365639111808093 0 -0.0029741948664973256 -0.00040449223789564226 0 -0.0027368851813308784 2.441523519415207e-05 0 -0.0030260781456208376 0.002194355109022922 0 -0.0028555654184096034 0.0015635749883652933 0 -0.0028424670104583716 0.00010902335281022564 0 -0.0027368851813308784 2.441523519415207e-05 0 -0.002767253070318981 0.00014846957169454783 0 -0.0037551202327649725 0.00023802201437942024 0 -0.0032869218864682334 -0.00020365639111808093 0 -0.0027368851813308784 2.441523519415207e-05 0 -0.0027368851813308784 2.441523519415207e-05 0 -0.0026038725120294645 -0.00043612717785419488 0 -0.0025378436651711514 7.3683276456997261e-05 0 -0.0028961352477749609 -0.00085326043112064591 0 -0.0027716850944915299 -0.00048066777698614415 0 -0.0029741948664973256 -0.00040449223789564226 0 -0.0027368851813308784 2.441523519415207e-05 0 -0.0026038725120294645 -0.00043612717785419488 0 -0.0031468657204726438 -0.00078958552262606676 0 -0.0029741948664973256 -0.00040449223789564226 0 -0.0026038725120294645 -0.00043612717785419488 0 -0.003064891412008761 -0.0014901292594065826 0 -0.0031555017319300585 -0.0015752311183025998 0 -0.003056101835315901 -0.0016835396933477325 0 -0.0031555017319300585 -0.0015752311183025998 0 -0.003056101835315901 -0.0016835396933477325 0 -0.0029893618359354236 -0.0013513976568326105 0 -0.0026580326608836792 -0.0013653839845265035 0 -0.003056101835315901 -0.0016835396933477325 0 -0.0029893618359354236 -0.0013513976568326105 0 -0.0031555017319300585 -0.0015752311183025998 0 -0.0029893618359354236 -0.0013513976568326105 0 -0.0031235274428911687 -0.00092524685155165212 0 -0.0029893618359354236 -0.0013513976568326105 0 -0.0031235274428911687 -0.00092524685155165212 0 -0.0027712001015669199 -0.0010311821943972178 0 -0.0026580326608836792 -0.0013653839845265035 0 -0.0029893618359354236 -0.0013513976568326105 0 -0.0027712001015669199 -0.0010311821943972178 0 -0.0027430766073983396 -0.00065243302755468185 0 -0.0031235274428911687 -0.00092524685155165212 0 -0.0027712001015669199 -0.0010311821943972178 0 -0.0027430766073983396 -0.00065243302755468185 0 -0.0031235274428911687 -0.00092524685155165212 0 -0.002738508398729439 -0.00018020752640271687 0 -0.0025378436651711514 7.3683276456997261e-05 0 -0.0025390139501234089 0.00016799077415057508 0 -0.0026434566049256549 0.00015269345804085914 0 -0.0027716850944915299 -0.00048066777698614415 0 -0.0026421866958419031 -0.00014764750557464461 0 -0.0025390139501234089 0.00016799077415057508 0 -0.0026040091847952997 0.00019478998586608555 0 -0.0026434566049256549 0.00015269345804085914 0 -0.0025390139501234089 0.00016799077415057508 0 -0.0026040091847952997 0.00019478998586608555 0 -0.0025470222020268123 0.00019413882572713871 0 -0.0026040091847952997 0.00019478998586608555 0 -0.0026434566049256549 0.00015269345804085914 0 -0.0027341203612990393 0.00023928495529231144 0 -0.0027368851813308784 2.441523519415207e-05 0 -0.0025378436651711514 7.3683276456997261e-05 0 -0.0026434566049256549 0.00015269345804085914 0 -0.0027368851813308784 2.441523519415207e-05 0 -0.0026434566049256549 0.00015269345804085914 0 -0.002767253070318981 0.00014846957169454783 0 -0.0026434566049256549 0.00015269345804085914 0 -0.002767253070318981 0.00014846957169454783 0 -0.0027341203612990393 0.00023928495529231144 0 -0.002767253070318981 0.00014846957169454783 0 -0.0027341203612990393 0.00023928495529231144 0 -0.0028559417908429596 0.00022206956993932355 0 -0.0028066335018893602 0.00021283358498812421 0 -0.0028559417908429596 0.00022206956993932355 0 -0.0028767217312167786 0.00029010718237152642 0 -0.0027265051917901308 0.00020776449116183295 0 -0.0027729524948893153 0.00019533973263112956 0 -0.0028424670104583716 0.00010902335281022564 0 -0.002767253070318981 0.00014846957169454783 0 -0.0028559417908429596 0.00022206956993932355 0 -0.0028943917551571699 0.00020633492179597648 0 -0.0028424670104583716 0.00010902335281022564 0 -0.0028559417908429596 0.00022206956993932355 0 -0.0029470732231966566 0.00029965022832167753 0 -0.0028767217312167786 0.00029010718237152642 0 -0.0028098853082723727 0.00029928334245429963 0 -0.0028859481842271055 0.00030646731336784404 0 -0.0028559417908429596 0.00022206956993932355 0 -0.0028767217312167786 0.00029010718237152642 0 -0.0028066335018893602 0.00021283358498812421 0 -0.0028767217312167786 0.00029010718237152642 0 -0.0028098853082723727 0.00029928334245429963 0 -0.0028098853082723727 0.00029928334245429963 0 -0.0026646815827056623 0.00019922482399712042 0 -0.0026063707852532181 0.00030201531376518738 0 -0.0027265051917901308 0.00020776449116183295 0 -0.0026262908644021873 0.00023298877572207368 0 -0.0026040091847952997 0.00019478998586608555 0 -0.0027341203612990393 0.00023928495529231144 0 -0.0026091092066582136 0.00024572857858864739 0 -0.0028066335018893602 0.00021283358498812421 0 -0.0028098853082723727 0.00029928334245429963 0 -0.0026646815827056623 0.00019922482399712042 0 -0.0026091092066582136 0.00024572857858864739 0 -0.0025470222020268123 0.00019413882572713871 0 -0.0025016868025667968 0.00025079599377686088 0 -0.0026040091847952997 0.00019478998586608555 0 -0.0026091092066582136 0.00024572857858864739 0 -0.0025470222020268123 0.00019413882572713871 0 -0.0026063707852532181 0.00030201531376518738 0 -0.0024678433663351275 0.00024581723687646339 0 -0.0024358786697456871 0.00038065017574399825 0 -0.0026646815827056623 0.00019922482399712042 0 -0.0026063707852532181 0.00030201531376518738 0 -0.0024678433663351275 0.00024581723687646339 0 -0.0026262908644021873 0.00023298877572207368 0 -0.0025159497321772016 0.00026465608137327893 0 -0.0026063707852532181 0.00030201531376518738 0 -0.002593240075885401 0.00044519129854599191 0 -0.0024358786697456871 0.00038065017574399825 0 -0.0024754454327224123 0.00053535897647201966 0 -0.0024975599038378699 0.00075813241399958907 0 -0.0024153870013191047 0.00055538149623414511 0 -0.0024754454327224123 0.00053535897647201966 0 -0.002593240075885401 0.00044519129854599191 0 -0.0024975599038378699 0.00075813241399958907 0 -0.0024754454327224123 0.00053535897647201966 0 -0.002593240075885401 0.00044519129854599191 0 -0.0024358786697456871 0.00038065017574399825 0 -0.002593240075885401 0.00044519129854599191 0 -0.0029333415957332864 0.00043107488991186088 0 -0.0027266984657440489 0.00083943231724603173 0 -0.002593240075885401 0.00044519129854599191 0 -0.0027266984657440489 0.00083943231724603173 0 -0.0024975599038378699 0.00075813241399958907 0 -0.0028098853082723727 0.00029928334245429963 0 -0.0026063707852532181 0.00030201531376518738 0 -0.002593240075885401 0.00044519129854599191 0 -0.0028098853082723727 0.00029928334245429963 0 -0.002593240075885401 0.00044519129854599191 0 -0.0029333415957332864 0.00043107488991186088 0 -0.0037355559502166265 0.00060027518411210072 0 -0.0029333415957332864 0.00043107488991186088 0 -0.0032958712836734837 0.0010310760908602305 0 -0.0037355559502166265 0.00060027518411210072 0 -0.0036979360999341401 -0.00028873787875254112 0 -0.0029333415957332864 0.00043107488991186088 0 -0.0029470732231966566 0.00029965022832167753 0 -0.0028098853082723727 0.00029928334245429963 0 -0.0029333415957332864 0.00043107488991186088 0 -0.0047642179855945984 0.0034390858904411615 0 -0.0045783647553188115 0.002355730205404135 0 -0.0022726854292830453 0.00025359911204280361 0 -0.0022090365048599118 5.6276793095339274e-05 0 -0.0022925513909742932 0.0002283400764967279 0 -0.0022925513909742932 0.0002283400764967279 0 -0.002324053070824205 0.00027586147819685355 0 -0.002286615133801996 0.00025924161603725252 0 -0.0022726854292830453 0.00025359911204280361 0 -0.0022925513909742932 0.0002283400764967279 0 -0.002286615133801996 0.00025924161603725252 0 -0.002147449816284906 -0.0014022709909356865 0 -0.0021476837763275735 -0.0013445200736280629 0 -0.0020594089434499262 -0.0036098858631867128 0 -0.0020128147321460538 -0.0018007759209915054 0 -0.0012402118146300038 -0.0030179746059567115 0 -0.0031914458727880825 -0.0026172446084135664 0 -0.0020594089434499262 -0.0036098858631867128 0 -0.0020128147321460538 -0.0018007759209915054 0 -0.0029000245968834001 -0.004494728722298915 0 -0.0020594089434499262 -0.0036098858631867128 0 -0.0016038867182641002 -0.0045684287214444478 0 -0.002147449816284906 -0.0014022709909356865 0 -0.0019991849265573983 -0.00131783196997504 0 -0.0019861591807535687 -0.0020754765946854941 0 -0.0019817720917219726 -0.0016963187301022216 0 -0.002099949614463839 -0.0020347492140826073 0 -0.0020922635948648592 -0.0029176010062305752 0 -0.002147449816284906 -0.0014022709909356865 0 -0.0029000245968834001 -0.004494728722298915 0 -0.0031914458727880825 -0.0026172446084135664 0 -0.0020594089434499262 -0.0036098858631867128 0 -0.0024009414085591745 -0.00014147884472999399 0 -0.0022090365048599118 5.6276793095339274e-05 0 -0.0024810559705858277 0.00017545905578336544 0 -0.0022090365048599118 5.6276793095339274e-05 0 -0.0024810559705858277 0.00017545905578336544 0 -0.0023725976717444792 0.00021449936334895476 0 -0.0022090365048599118 5.6276793095339274e-05 0 -0.0023725976717444792 0.00021449936334895476 0 -0.0022925513909742932 0.0002283400764967279 0 -0.0025470222020268123 0.00019413882572713871 0 -0.0024810559705858277 0.00017545905578336544 0 -0.0025016868025667968 0.00025079599377686088 0 -0.0025390139501234089 0.00016799077415057508 0 -0.0025470222020268123 0.00019413882572713871 0 -0.0024810559705858277 0.00017545905578336544 0 -0.0025159497321772016 0.00026465608137327893 0 -0.0024536256114930056 0.0002854577925102011 0 -0.0025016868025667968 0.00025079599377686088 0 -0.0023725976717444792 0.00021449936334895476 0 -0.002324053070824205 0.00027586147819685355 0 -0.0024810559705858277 0.00017545905578336544 0 -0.0025016868025667968 0.00025079599377686088 0 -0.0023725976717444792 0.00021449936334895476 0 -0.0023725976717444792 0.00021449936334895476 0 -0.0022925513909742932 0.0002283400764967279 0 -0.002324053070824205 0.00027586147819685355 0 -0.002324053070824205 0.00027586147819685355 0 -0.0023569470161639429 0.00037677160668442582 0 -0.0022895574024152749 0.00021847884826102423 0 -0.002324053070824205 0.00027586147819685355 0 -0.0024358786697456871 0.00038065017574399825 0 -0.0023569470161639429 0.00037677160668442582 0 -0.0024678433663351275 0.00024581723687646339 0 -0.002324053070824205 0.00027586147819685355 0 -0.0024358786697456871 0.00038065017574399825 0 -0.0024358786697456871 0.00038065017574399825 0 -0.0023569470161639429 0.00037677160668442582 0 -0.0024153870013191047 0.00055538149623414511 0 -0.0024754454327224123 0.00053535897647201966 0 -0.0024358786697456871 0.00038065017574399825 0 -0.0024153870013191047 0.00055538149623414511 0 -0.0023569470161639429 0.00037677160668442582 0 -0.0024153870013191047 0.00055538149623414511 0 -0.0023708442158874043 0.00057338276856730159 0 -0.0023569470161639429 0.00037677160668442582 0 -0.0023320446529456014 0.0003689825607560383 0 -0.0023708442158874043 0.00057338276856730159 0 -0.0023569470161639429 0.00037677160668442582 0 -0.0023320446529456014 0.0003689825607560383 0 -0.0022895574024152749 0.00021847884826102423 0 -0.0023320446529456014 0.0003689825607560383 0 -0.0022882425694484105 -0.00010149111568062217 0 -0.002287030239948605 0.00049611124029158744 0 -0.0023320446529456014 0.0003689825607560383 0 -0.0022895574024152749 0.00021847884826102423 0 -0.0022882425694484105 -0.00010149111568062217 0 -0.002311537336201932 0.00034245282171962537 0 -0.002286615133801996 0.00025924161603725252 0 -0.0022882425694484105 -0.00010149111568062217 0 -0.002324053070824205 0.00027586147819685355 0 -0.0022895574024152749 0.00021847884826102423 0 -0.002286615133801996 0.00025924161603725252 0 -0.002147449816284906 -0.0014022709909356865 0 -0.0020960222726508801 -0.00084548137886343035 0 -0.0022895574024152749 0.00021847884826102423 0 -0.002286615133801996 0.00025924161603725252 0 -0.0022882425694484105 -0.00010149111568062217 0 -0.0031914458727880825 -0.0026172446084135664 0 -0.0020128147321460538 -0.0018007759209915054 0 -0.0022882425694484105 -0.00010149111568062217 0 -0.0020128147321460538 -0.0018007759209915054 0 -0.0022882425694484105 -0.00010149111568062217 0 -0.0010052240147137401 -0.0006115704928333918 0 -0.0022882425694484105 -0.00010149111568062217 0 -0.0010052240147137401 -0.0006115704928333918 0 -0.001712419944178233 0.00029037557749257378 0 -0.0011247151110548533 -0.0026078462458988209 0 -0.00083134157156018642 -0.0023252114353993453 0 -0.0011183166023072308 -0.0020873744436601723 0 -0.00094930530461920226 -0.0015281358301897977 0 -0.00083410842064926636 -0.00055679768362405248 0 -0.0010052240147137401 -0.0006115704928333918 0 -0.0012426945700489574 0.00077481155863288131 0 -0.001712419944178233 0.00029037557749257378 0 -0.0011247151110548533 -0.0026078462458988209 0 -0.00083134157156018642 -0.0023252114353993453 0 -0.00082493920039130642 -0.0025918631480058496 0 -0.00053828605580164641 -0.0025241787322845244 0 -0.00082493920039130642 -0.0025918631480058496 0 -0.0007986075693011994 -0.0028593432982042619 0 -0.00083134157156018642 -0.0023252114353993453 0 -0.00053828605580164641 -0.0025241787322845244 0 -0.00052500573568625339 -0.0021678003635128848 0 -0.00083134157156018642 -0.0023252114353993453 0 -0.00053828605580164641 -0.0025241787322845244 0 -0.00082493920039130642 -0.0025918631480058496 0 -0.0007986075693011994 -0.0028593432982042619 0 -0.00033779995516048977 -0.0028493963676263999 0 -0.0004631090190740304 -0.0034672475967489585 0 -0.00053828605580164641 -0.0025241787322845244 0 -0.0007986075693011994 -0.0028593432982042619 0 -0.00033779995516048977 -0.0028493963676263999 0 -0.0020128147321460538 -0.0018007759209915054 0 -0.0010052240147137401 -0.0006115704928333918 0 -0.0012402118146300038 -0.0030179746059567115 0 -0.00094930530461920226 -0.0015281358301897977 0 -0.00098996834412081727 -0.0020756763842020042 0 -0.0011247151110548533 -0.0026078462458988209 0 -0.00082493920039130642 -0.0025918631480058496 0 -0.0007986075693011994 -0.0028593432982042619 0 -0.0011247151110548533 -0.0026078462458988209 0 -0.0007986075693011994 -0.0028593432982042619 0 -0.0012402118146300038 -0.0030179746059567115 0 9.8416561832591736e-05 -0.0024499406681485476 0 6.8012602365405682e-05 -0.0027697395668552878 0 0.00027136044235352957 -0.0025974794569058909 0 9.8416561832591736e-05 -0.0024499406681485476 0 -0.00019360984712624239 -0.0025982189857803378 0 -0.00023518274219901052 -0.0023135274528126191 0 9.8416561832591736e-05 -0.0024499406681485476 0 -0.00019360984712624239 -0.0025982189857803378 0 6.8012602365405682e-05 -0.0027697395668552878 0 -0.00053828605580164641 -0.0025241787322845244 0 -0.00023518274219901052 -0.0023135274528126191 0 -0.00052500573568625339 -0.0021678003635128848 0 -0.00053828605580164641 -0.0025241787322845244 0 -0.00019360984712624239 -0.0025982189857803378 0 -0.00023518274219901052 -0.0023135274528126191 0 -0.00053828605580164641 -0.0025241787322845244 0 -0.00019360984712624239 -0.0025982189857803378 0 -0.00033779995516048977 -0.0028493963676263999 0 -0.00014539958653050271 -0.0030765161990524118 0 -0.00033779995516048977 -0.0028493963676263999 0 6.8012602365405682e-05 -0.0027697395668552878 0 -0.00019360984712624239 -0.0025982189857803378 0 -0.00033779995516048977 -0.0028493963676263999 0 6.8012602365405682e-05 -0.0027697395668552878 0 -0.00014539958653050271 -0.0030765161990524118 0 -0.00033779995516048977 -0.0028493963676263999 0 -0.0004631090190740304 -0.0034672475967489585 0 6.8012602365405682e-05 -0.0027697395668552878 0 0.00012303025699937419 -0.0032526030280737093 0 0.00074951318586651331 -0.0031225820754652977 0 -0.00014539958653050271 -0.0030765161990524118 0 6.8012602365405682e-05 -0.0027697395668552878 0 0.00012303025699937419 -0.0032526030280737093 0 6.8012602365405682e-05 -0.0027697395668552878 0 0.00032077214993368058 -0.002769002661408373 0 0.00027136044235352957 -0.0025974794569058909 0 0.00098788513232195979 -0.0038208876723372547 0 0.00060598794205969121 -0.003301966689871903 0 0.00029097922460983477 -0.0038738901153640769 0 0.00060598794205969121 -0.003301966689871903 0 -0.0004631090190740304 -0.0034672475967489585 0 0.00029097922460983477 -0.0038738901153640769 0 0.00037370035745305015 -0.0034227604951479738 0 5.0507181809253493e-05 -0.003464018378178643 0 -0.00014539958653050271 -0.0030765161990524118 0 0.00012303025699937419 -0.0032526030280737093 0 -0.0004631090190740304 -0.0034672475967489585 0 -0.0004631090190740304 -0.0034672475967489585 0 6.5606209153348241e-05 -0.0046308006191766241 0 0.00029097922460983477 -0.0038738901153640769 0 -0.0004631090190740304 -0.0034672475967489585 0 6.5606209153348241e-05 -0.0046308006191766241 0 -0.00061885386648718424 -0.0046277213405293187 0 0.00098788513232195979 -0.0038208876723372547 0 6.5606209153348241e-05 -0.0046308006191766241 0 0.00029097922460983477 -0.0038738901153640769 0 0.00047403962428082099 -0.0039069447554731414 0 0.0002803272019752104 -0.0041481976961828563 0 0.00034823079387805351 -0.0046071308565120072 0 6.5606209153348241e-05 -0.0046308006191766241 0 0.000407991657255515 -0.0049565115511873989 0 -0.0007986075693011994 -0.0028593432982042619 0 -0.0012402118146300038 -0.0030179746059567115 0 -0.00093895400897458083 -0.0037958222258040529 0 -0.0020594089434499262 -0.0036098858631867128 0 -0.0012402118146300038 -0.0030179746059567115 0 -0.00093895400897458083 -0.0037958222258040529 0 -0.0007986075693011994 -0.0028593432982042619 0 -0.0004631090190740304 -0.0034672475967489585 0 -0.00093895400897458083 -0.0037958222258040529 0 -0.0004631090190740304 -0.0034672475967489585 0 -0.00093895400897458083 -0.0037958222258040529 0 -0.00061885386648718424 -0.0046277213405293187 0 -0.0020594089434499262 -0.0036098858631867128 0 -0.00093895400897458083 -0.0037958222258040529 0 -0.0016038867182641002 -0.0045684287214444478 0 -0.00093895400897458083 -0.0037958222258040529 0 -0.0016038867182641002 -0.0045684287214444478 0 -0.00061885386648718424 -0.0046277213405293187 0 -0.0019834341660751854 -0.0053709422859047297 0 -0.0016038867182641002 -0.0045684287214444478 0 -0.001131495038494986 -0.0053494892448521783 0 -0.0016038867182641002 -0.0045684287214444478 0 -0.001131495038494986 -0.0053494892448521783 0 -0.00061885386648718424 -0.0046277213405293187 0 -0.0019834341660751854 -0.0053709422859047297 0 -0.001131495038494986 -0.0053494892448521783 0 -0.0015754247201094408 -0.0061357841923387621 0 -0.001131495038494986 -0.0053494892448521783 0 -0.00051024811923165616 -0.005410194854644247 0 -0.00061345584403741532 -0.0058948776555010933 0 -0.001131495038494986 -0.0053494892448521783 0 -0.00051024811923165616 -0.005410194854644247 0 -0.00061885386648718424 -0.0046277213405293187 0 -0.00051024811923165616 -0.005410194854644247 0 -0.00061885386648718424 -0.0046277213405293187 0 5.112141188212443e-05 -0.0052340051981696317 0 6.5606209153348241e-05 -0.0046308006191766241 0 -0.00061885386648718424 -0.0046277213405293187 0 5.112141188212443e-05 -0.0052340051981696317 0 6.5606209153348241e-05 -0.0046308006191766241 0 5.112141188212443e-05 -0.0052340051981696317 0 0.000407991657255515 -0.0049565115511873989 0 5.112141188212443e-05 -0.0052340051981696317 0 0.00049660323074761587 -0.0054846752965166312 0 0.000407991657255515 -0.0049565115511873989 0 5.112141188212443e-05 -0.0052340051981696317 0 0.00025615714509548242 -0.0057885308596226925 0 0.00049660323074761587 -0.0054846752965166312 0 5.112141188212443e-05 -0.0052340051981696317 0 -0.00016587020381138539 -0.005794178178148467 0 0.00025615714509548242 -0.0057885308596226925 0 -0.00051024811923165616 -0.005410194854644247 0 5.112141188212443e-05 -0.0052340051981696317 0 -0.00016587020381138539 -0.005794178178148467 0 -0.00051024811923165616 -0.005410194854644247 0 -0.00016587020381138539 -0.005794178178148467 0 -0.00061345584403741532 -0.0058948776555010933 0 -0.00016587020381138539 -0.005794178178148467 0 0.00010263570631045695 -0.0061200925750687744 0 -0.00036277941705942148 -0.0062982672372640493 0 -0.00016587020381138539 -0.005794178178148467 0 -0.00036277941705942148 -0.0062982672372640493 0 -0.00061345584403741532 -0.0058948776555010933 0 -0.00048524798754514593 -0.0063653425989794723 0 -0.00036277941705942148 -0.0062982672372640493 0 -0.00061345584403741532 -0.0058948776555010933 0 -0.00016587020381138539 -0.005794178178148467 0 0.00025615714509548242 -0.0057885308596226925 0 0.00010263570631045695 -0.0061200925750687744 0 0.00025615714509548242 -0.0057885308596226925 0 0.00010263570631045695 -0.0061200925750687744 0 0.00042879343168417843 -0.0062240950044768189 0 0.00010263570631045695 -0.0061200925750687744 0 0.00029984608635316175 -0.0064354412663760879 0 0.00042879343168417843 -0.0062240950044768189 0 -0.0008156719563292182 -0.0048250068605869764 0 -0.0010927346035164544 -0.0044537176699374894 0 0.00029984608635316175 -0.0064354412663760879 0 -0.0004678290098370034 -0.0063501933531559572 0 -0.00036277941705942148 -0.0062982672372640493 0 -0.0015920249326457027 -0.004112112370084295 0 -0.0017268533274071647 -0.0041838024560069392 0 -0.0015282922698494172 -0.0042782769860358208 0 0.00010263570631045695 -0.0061200925750687744 0 0.00029984608635316175 -0.0064354412663760879 0 -0.00036277941705942148 -0.0062982672372640493 0 -0.0010927346035164544 -0.0044537176699374894 0 -0.0010895396323526831 -0.004463489949678834 0 -0.0014247739359374329 -0.0041069373522825536 0 -0.0015282922698494172 -0.0042782769860358208 0 -0.0012547565462521801 -0.0041847992250771474 0 -0.0010927346035164544 -0.0044537176699374894 0 -0.001254480820861704 -0.0039372073627012404 0 -0.0014247739359374329 -0.0041069373522825536 0 -0.0015920249326457027 -0.004112112370084295 0 -0.0015282922698494172 -0.0042782769860358208 0 -0.0012274092694614148 -0.0037274339734258942 0 -0.0012979550465302223 -0.0037510208258401583 0 -0.0012966444013841486 -0.0037008145618677695 0 -0.001131495038494986 -0.0053494892448521783 0 -0.0015754247201094408 -0.0061357841923387621 0 -0.00061345584403741532 -0.0058948776555010933 0 -0.00048524798754514593 -0.0063653425989794723 0 -0.0015754247201094408 -0.0061357841923387621 0 -0.00061345584403741532 -0.0058948776555010933 0 -0.0010927346035164544 -0.0044537176699374894 0 -0.0012913188330282213 -0.0040964307662177419 0 0.00095290716473777747 -0.0062597910238013157 0 0.0016441184451399266 -0.0059468782042816056 0 0.0012537132385517583 -0.0057650662483426747 0 0.0010658632547414114 -0.0064077343223862488 0 0.0012782177513527147 -0.0063903782100021055 0 0.00095290716473777747 -0.0062597910238013157 0 0.00089499219668504331 -0.0065145340436618144 0 0.00075154949809031456 -0.006360244877060028 0 0.00095453135188197365 -0.0068256244791650676 0 0.0009183700164800549 -0.0067515607108091617 0 0.00097907391707341223 -0.0070276021046727826 0 0.00095290716473777747 -0.0062597910238013157 0 0.00095453135188197365 -0.0068256244791650676 0 0.0009183700164800549 -0.0067515607108091617 0 0.00086910170894245601 -0.0067277162714139884 0 0.00091219069054044341 -0.0066347836759455651 0 0.0009183700164800549 -0.0067515607108091617 0 0.00095141067199679304 -0.0072771968345776272 0 0.0009183700164800549 -0.0067515607108091617 0 0.00097907391707341223 -0.0070276021046727826 0 0.00026230840371613978 -0.0068405620148137706 0 0.00047113871353098442 -0.0069398468408163197 0 0.00091219069054044341 -0.0066347836759455651 0 0.0009183700164800549 -0.0067515607108091617 0 0.00089499219668504331 -0.0065145340436618144 0 0.00095290716473777747 -0.0062597910238013157 0 0.0009183700164800549 -0.0067515607108091617 0 0.00089499219668504331 -0.0065145340436618144 0 0.00091219069054044341 -0.0066347836759455651 0 0.00089499219668504331 -0.0065145340436618144 0 0.00075154949809031456 -0.006360244877060028 0 0.00052157152581098695 -0.0062648462008910175 0 0.00091219069054044341 -0.0066347836759455651 0 0.0006808375494499879 -0.0063769418850523731 0 0.00091219069054044341 -0.0066347836759455651 0 0.0006808375494499879 -0.0063769418850523731 0 0.00075154949809031456 -0.006360244877060028 0 0.00052157152581098695 -0.0062648462008910175 0 0.0006808375494499879 -0.0063769418850523731 0 0.00056334121117999501 -0.0062707064192577952 0 0.0006808375494499879 -0.0063769418850523731 0 0.00075154949809031456 -0.006360244877060028 0 0.00056334121117999501 -0.0062707064192577952 0 0.00075154949809031456 -0.006360244877060028 0 0.00056334121117999501 -0.0062707064192577952 0 0.00057372597064896309 -0.0060775466088975726 0 0.00052157152581098695 -0.0062648462008910175 0 0.00029984608635316175 -0.0064354412663760879 0 0.00042879343168417843 -0.0062240950044768189 0 -0.00091147893626525084 -0.0048219818018041235 0 -0.0008156719563292182 -0.0048250068605869764 0 0.00052157152581098695 -0.0062648462008910175 0 0.00056334121117999501 -0.0062707064192577952 0 0.00042879343168417843 -0.0062240950044768189 0 0.00025615714509548242 -0.0057885308596226925 0 0.00042879343168417843 -0.0062240950044768189 0 0.00057372597064896309 -0.0060775466088975726 0 0.00056334121117999501 -0.0062707064192577952 0 0.00042879343168417843 -0.0062240950044768189 0 0.00057372597064896309 -0.0060775466088975726 0 0.00095290716473777747 -0.0062597910238013157 0 0.00057372597064896309 -0.0060775466088975726 0 0.00084905913155670627 -0.0056972061833336814 0 0.00095290716473777747 -0.0062597910238013157 0 0.00075154949809031456 -0.006360244877060028 0 0.00057372597064896309 -0.0060775466088975726 0 0.00057372597064896309 -0.0060775466088975726 0 0.00084905913155670627 -0.0056972061833336814 0 0.00049660323074761587 -0.0054846752965166312 0 0.00084905913155670627 -0.0056972061833336814 0 0.00049660323074761587 -0.0054846752965166312 0 0.00075987406458114816 -0.0052114461627353987 0 0.00025615714509548242 -0.0057885308596226925 0 0.00057372597064896309 -0.0060775466088975726 0 0.00049660323074761587 -0.0054846752965166312 0 0.00049660323074761587 -0.0054846752965166312 0 0.000407991657255515 -0.0049565115511873989 0 0.00075987406458114816 -0.0052114461627353987 0 0.000407991657255515 -0.0049565115511873989 0 0.00075987406458114816 -0.0052114461627353987 0 0.00071972515510561785 -0.004793852719335215 0 0.00084905913155670627 -0.0056972061833336814 0 0.00075987406458114816 -0.0052114461627353987 0 0.0012140444785874774 -0.0053770058841793962 0 0.00075987406458114816 -0.0052114461627353987 0 0.0012140444785874774 -0.0053770058841793962 0 0.0010485142232825422 -0.0049997868347617823 0 0.0012140444785874774 -0.0053770058841793962 0 0.0013792798604221274 -0.0050346478985399505 0 0.0010485142232825422 -0.0049997868347617823 0 0.00095290716473777747 -0.0062597910238013157 0 0.00084905913155670627 -0.0056972061833336814 0 0.0012537132385517583 -0.0057650662483426747 0 0.00084905913155670627 -0.0056972061833336814 0 0.0012140444785874774 -0.0053770058841793962 0 0.0012537132385517583 -0.0057650662483426747 0 0.0012140444785874774 -0.0053770058841793962 0 0.0012537132385517583 -0.0057650662483426747 0 0.0015599970571957445 -0.0055918892924391216 0 0.0016441184451399266 -0.0059468782042816056 0 0.0015599970571957445 -0.0055918892924391216 0 0.0018777828709027737 -0.0055369129589845452 0 0.0016441184451399266 -0.0059468782042816056 0 0.0012537132385517583 -0.0057650662483426747 0 0.0015599970571957445 -0.0055918892924391216 0 0.0015599970571957445 -0.0055918892924391216 0 0.0015811228234190204 -0.0052898542832377311 0 0.0018777828709027737 -0.0055369129589845452 0 0.0012140444785874774 -0.0053770058841793962 0 0.0015599970571957445 -0.0055918892924391216 0 0.0015811228234190204 -0.0052898542832377311 0 0.0012140444785874774 -0.0053770058841793962 0 0.0015811228234190204 -0.0052898542832377311 0 0.0013792798604221274 -0.0050346478985399505 0 0.0015811228234190204 -0.0052898542832377311 0 0.0013792798604221274 -0.0050346478985399505 0 0.0017637063814628557 -0.0049230645958916403 0 0.001117895884835587 -0.0038713951280467517 0 0.0013240477483691475 -0.0038253180262526891 0 0.0013690597841232936 -0.0040063289970555614 0 0.0013792798604221274 -0.0050346478985399505 0 0.0011845568734265048 -0.0046005440311690082 0 0.0017637063814628557 -0.0049230645958916403 0 0.0012003760767602682 -0.0040707446667206555 0 0.0016112240252677185 -0.0044903522535478255 0 0.0014353598917489518 -0.003924633618057981 0 0.0016112240252677185 -0.0044903522535478255 0 0.0013792798604221274 -0.0050346478985399505 0 0.0010485142232825422 -0.0049997868347617823 0 0.0011845568734265048 -0.0046005440311690082 0 0.001117895884835587 -0.0038713951280467517 0 0.0011999415974237294 -0.0037571296571018509 0 0.0010787326773494042 -0.0036867443678190778 0 0.0012243017179045276 -0.0040851894501793074 0 0.00107219884869525 -0.0034537468783296778 0 0.0016708253119588512 -0.0038670062799835577 0 0.0013240477483691475 -0.0038253180262526891 0 0.0011999415974237294 -0.0037571296571018509 0 0.0012792297526840238 -0.0036450925943426657 0 0.001117895884835587 -0.0038713951280467517 0 0.0013240477483691475 -0.0038253180262526891 0 0.0011999415974237294 -0.0037571296571018509 0 0.0014353598917489518 -0.003924633618057981 0 0.00130112299361365 -0.0033550610336751632 0 0.00034823079387805351 -0.0046071308565120072 0 0.000407991657255515 -0.0049565115511873989 0 0.00071972515510561785 -0.004793852719335215 0 0.00075987406458114816 -0.0052114461627353987 0 0.0010485142232825422 -0.0049997868347617823 0 0.00071972515510561785 -0.004793852719335215 0 0.0010485142232825422 -0.0049997868347617823 0 0.0011845568734265048 -0.0046005440311690082 0 0.00071972515510561785 -0.004793852719335215 0 0.0012003760767602682 -0.0040707446667206555 0 0.00068014384272715447 -0.0034538924095798467 0 0.001117895884835587 -0.0038713951280467517 0 0.00085734267287736253 -0.0037319711483938265 0 0.00087804665601758937 -0.0037277604284938824 0 0.0011845568734265048 -0.0046005440311690082 0 0.00071972515510561785 -0.004793852719335215 0 0.00065127682135931119 -0.0043138225120888524 0 0.001117895884835587 -0.0038713951280467517 0 0.00087804665601758937 -0.0037277604284938824 0 0.0010787326773494042 -0.0036867443678190778 0 0.00037370035745305015 -0.0034227604951479738 0 0.00068014384272715447 -0.0034538924095798467 0 0.00098788513232195979 -0.0038208876723372547 0 0.00060598794205969121 -0.003301966689871903 0 0.0017711895373773105 -0.003057599000855791 0 0.00034823079387805351 -0.0046071308565120072 0 0.00071972515510561785 -0.004793852719335215 0 0.00065127682135931119 -0.0043138225120888524 0 0.00047403962428082099 -0.0039069447554731414 0 0.00068014384272715447 -0.0034538924095798467 0 6.8012602365405682e-05 -0.0027697395668552878 0 0.00048991618608057626 -0.0029787137856365489 0 0.00032077214993368058 -0.002769002661408373 0 0.00033030860126403679 -0.0031769485015555694 0 0.00068014384272715447 -0.0034538924095798467 0 0.00048991618608057626 -0.0029787137856365489 0 0.00032077214993368058 -0.002769002661408373 0 0.00049714132480701482 -0.0028764851923913817 0 0.00032077214993368058 -0.002769002661408373 0 0.00044734179861739316 -0.002749204318904382 0 0.00042972811968419213 -0.0026272373538828607 0 0.00032077214993368058 -0.002769002661408373 0 0.00049714132480701482 -0.0028764851923913817 0 0.00044734179861739316 -0.002749204318904382 0 0.00053310645732142529 -0.0029700271374180735 0 0.00074779509375661932 -0.0027784686969500871 0 0.00084068989571612187 -0.0029044325434811435 0 0.00071867971600917812 -0.0034177049703458897 0 0.00099421713068744495 -0.0033759505128190038 0 0.00049714132480701482 -0.0028764851923913817 0 0.00044734179861739316 -0.002749204318904382 0 0.00059503171454895493 -0.0026948880248288602 0 0.00049714132480701482 -0.0028764851923913817 0 0.00074532944020314258 -0.0027745779489689888 0 0.00059503171454895493 -0.0026948880248288602 0 0.00049714132480701482 -0.0028764851923913817 0 0.00052231806097574737 -0.0029717678380638563 0 0.00074532944020314258 -0.0027745779489689888 0 0.00048991618608057626 -0.0029787137856365489 0 0.00049714132480701482 -0.0028764851923913817 0 0.00052231806097574737 -0.0029717678380638563 0 0.00068014384272715447 -0.0034538924095798467 0 0.00071867971600917812 -0.0034177049703458897 0 0.00071867971600917812 -0.0034177049703458897 0 0.0008603628803919664 -0.0031250003882210718 0 0.00074532944020314258 -0.0027745779489689888 0 0.00059503171454895493 -0.0026948880248288602 0 0.00078134172183106417 -0.0025959306501024504 0 0.00068410019448342436 -0.0024870580131745208 0 0.00059503171454895493 -0.0026948880248288602 0 0.00078134172183106417 -0.0025959306501024504 0 0.00068410019448342436 -0.0024870580131745208 0 0.00053820642109859063 -0.0025536629370155042 0 0.00059503171454895493 -0.0026948880248288602 0 0.00068410019448342436 -0.0024870580131745208 0 0.00053820642109859063 -0.0025536629370155042 0 0.00041808840434592149 -0.002396277301912973 0 0.00053820642109859063 -0.0025536629370155042 0 0.00059503171454895493 -0.0026948880248288602 0 0.00042972811968419213 -0.0026272373538828607 0 9.8416561832591736e-05 -0.0024499406681485476 0 0.00027136044235352957 -0.0025974794569058909 0 0.00041808840434592149 -0.002396277301912973 0 0.00044734179861739316 -0.002749204318904382 0 0.00059503171454895493 -0.0026948880248288602 0 0.00042972811968419213 -0.0026272373538828607 0 0.00042972811968419213 -0.0026272373538828607 0 0.00027136044235352957 -0.0025974794569058909 0 0.00041808840434592149 -0.002396277301912973 0 0.00053820642109859063 -0.0025536629370155042 0 0.00042972811968419213 -0.0026272373538828607 0 0.00041808840434592149 -0.002396277301912973 0 0.00032077214993368058 -0.002769002661408373 0 0.00042972811968419213 -0.0026272373538828607 0 0.00027136044235352957 -0.0025974794569058909 0 0.0011999415974237294 -0.0037571296571018509 0 0.0012792297526840238 -0.0036450925943426657 0 0.0010787326773494042 -0.0036867443678190778 0 0.0011491815750967538 -0.0028393827533465632 0 0.00084068989571612187 -0.0029044325434811435 0 0.00091618191081267503 -0.0027509110945401253 0 0.00130112299361365 -0.0033550610336751632 0 0.00099421713068744495 -0.0033759505128190038 0 0.00074779509375661932 -0.0027784686969500871 0 0.00084068989571612187 -0.0029044325434811435 0 0.00091618191081267503 -0.0027509110945401253 0 0.0011491815750967538 -0.0028393827533465632 0 0.00091618191081267503 -0.0027509110945401253 0 0.00096334828891228065 -0.0025858645065684129 0 0.00074532944020314258 -0.0027745779489689888 0 0.00078134172183106417 -0.0025959306501024504 0 0.00096334828891228065 -0.0025858645065684129 0 0.00074779509375661932 -0.0027784686969500871 0 0.00091618191081267503 -0.0027509110945401253 0 0.00096334828891228065 -0.0025858645065684129 0 0.0008603628803919664 -0.0031250003882210718 0 0.00092972508649946726 -0.0030123236610669125 0 0.00068410019448342436 -0.0024870580131745208 0 0.00078134172183106417 -0.0025959306501024504 0 0.00088155020374564399 -0.0024016392016729597 0 0.00078134172183106417 -0.0025959306501024504 0 0.00096334828891228065 -0.0025858645065684129 0 0.00088155020374564399 -0.0024016392016729597 0 0.00096334828891228065 -0.0025858645065684129 0 0.0010602610072080274 -0.0024895798938634 0 0.00088155020374564399 -0.0024016392016729597 0 0.0012298729206124623 -0.00340883536132127 0 0.0010954931949270709 -0.0027913479443198172 0 0.0015544662111003919 -0.0028597764823473757 0 0.0011491815750967538 -0.0028393827533465632 0 0.00096334828891228065 -0.0025858645065684129 0 0.0010602610072080274 -0.0024895798938634 0 0.00130112299361365 -0.0033550610336751632 0 0.0011503135499838192 -0.0027977073254940605 0 0.0010954931949270709 -0.0027913479443198172 0 0.001359185166640696 -0.0024613930944935129 0 0.0015544662111003919 -0.0028597764823473757 0 0.0010954931949270709 -0.0027913479443198172 0 0.001359185166640696 -0.0024613930944935129 0 0.0010019668193777546 -0.0021697465152931941 0 0.0011503135499838192 -0.0027977073254940605 0 0.0010906037016866262 -0.0025610202716423026 0 0.00088155020374564399 -0.0024016392016729597 0 0.0010019668193777546 -0.0021697465152931941 0 0.00064627749930069108 -0.0022632908098980547 0 0.0010602610072080274 -0.0024895798938634 0 0.00088155020374564399 -0.0024016392016729597 0 0.0010019668193777546 -0.0021697465152931941 0 0.0010019668193777546 -0.0021697465152931941 0 0.00071026895084988701 -0.0017391933198626745 0 0.00062901260471140061 -0.0020231496784670362 0 0.001359185166640696 -0.0024613930944935129 0 0.0010019668193777546 -0.0021697465152931941 0 0.0014371424578055454 -0.0020990822818686564 0 0.0010019668193777546 -0.0021697465152931941 0 0.0014371424578055454 -0.0020990822818686564 0 0.0012891368488675916 -0.0018162993792989104 0 0.0012891368488675916 -0.0018162993792989104 0 0.00099011699561779207 -0.001586739407218276 0 0.0013926814784058236 -0.0014569902671966045 0 0.0012891368488675916 -0.0018162993792989104 0 0.0013926814784058236 -0.0014569902671966045 0 0.0016332932461381169 -0.0017819104066315371 0 0.0014371424578055454 -0.0020990822818686564 0 0.0012891368488675916 -0.0018162993792989104 0 0.0016332932461381169 -0.0017819104066315371 0 0.0010019668193777546 -0.0021697465152931941 0 0.0012891368488675916 -0.0018162993792989104 0 0.00099011699561779207 -0.001586739407218276 0 0.0010019668193777546 -0.0021697465152931941 0 0.00099011699561779207 -0.001586739407218276 0 0.00071026895084988701 -0.0017391933198626745 0 0.00099011699561779207 -0.001586739407218276 0 0.00071026895084988701 -0.0017391933198626745 0 0.00063118805178420797 -0.0011107665190688068 0 0.00099011699561779207 -0.001586739407218276 0 0.0011172361178391377 -0.001185064706399651 0 0.00063118805178420797 -0.0011107665190688068 0 0.00099011699561779207 -0.001586739407218276 0 0.0013926814784058236 -0.0014569902671966045 0 0.0011172361178391377 -0.001185064706399651 0 0.00034200992035562656 -0.0012834428816591013 0 0.00035084298450534609 -0.0013309672690968802 0 9.8161114129578913e-05 -0.0011972139369818187 0 0.00034200992035562656 -0.0012834428816591013 0 0.00046163883676353449 -0.0014092193281053324 0 0.00041887975745117382 -0.0011378599414691717 0 0.00034200992035562656 -0.0012834428816591013 0 0.00035084298450534609 -0.0013309672690968802 0 0.00046163883676353449 -0.0014092193281053324 0 0.00049302460425501246 -0.00030201736520116035 0 0.00043955629924717892 1.2463236565306477e-05 0 0.00034200992035562656 -0.0012834428816591013 0 0.00023115932052102448 -0.0011545006893960053 0 0.00028990860071750614 -0.0010930894264606717 0 0.00034200992035562656 -0.0012834428816591013 0 0.00041887975745117382 -0.0011378599414691717 0 0.00026972617807293349 -0.0010936009516212977 0 0.00043868247357463895 -0.0015822828066052682 0 0.0005278373571431464 -0.0013711280030643948 0 0.00046163883676353449 -0.0014092193281053324 0 0.00063118805178420797 -0.0011107665190688068 0 0.00041887975745117382 -0.0011378599414691717 0 0.00071026895084988701 -0.0017391933198626745 0 0.00041977653877807371 -0.0016539588785540362 0 0.00063118805178420797 -0.0011107665190688068 0 0.00071026895084988701 -0.0017391933198626745 0 0.00041977653877807371 -0.0016539588785540362 0 0.00062901260471140061 -0.0020231496784670362 0 0.00043868247357463895 -0.0015822828066052682 0 0.00028725774602181644 -0.0019507618763730113 0 0.00046163883676353449 -0.0014092193281053324 0 0.00021774244804608059 -0.0015474195208077675 0 0.00029317647595220557 -0.0018793084702061803 0 0.00035084298450534609 -0.0013309672690968802 0 0.00021774244804608059 -0.0015474195208077675 0 5.9152762042532055e-05 -0.0013651101387930358 0 0.00035084298450534609 -0.0013309672690968802 0 0.00046163883676353449 -0.0014092193281053324 0 0.00021774244804608059 -0.0015474195208077675 0 0.00041977653877807371 -0.0016539588785540362 0 0.00027112220629625715 -0.0021058230004903935 0 0.00062901260471140061 -0.0020231496784670362 0 0.0010019668193777546 -0.0021697465152931941 0 0.00062901260471140061 -0.0020231496784670362 0 0.00064627749930069108 -0.0022632908098980547 0 0.00027112220629625715 -0.0021058230004903935 0 0.00062901260471140061 -0.0020231496784670362 0 0.00064627749930069108 -0.0022632908098980547 0 0.00068410019448342436 -0.0024870580131745208 0 0.00064627749930069108 -0.0022632908098980547 0 0.00041808840434592149 -0.002396277301912973 0 0.00068410019448342436 -0.0024870580131745208 0 0.00088155020374564399 -0.0024016392016729597 0 0.00064627749930069108 -0.0022632908098980547 0 0.00027112220629625715 -0.0021058230004903935 0 0.00064627749930069108 -0.0022632908098980547 0 0.00041808840434592149 -0.002396277301912973 0 9.8416561832591736e-05 -0.0024499406681485476 0 0.00027112220629625715 -0.0021058230004903935 0 0.00041808840434592149 -0.002396277301912973 0 9.8416561832591736e-05 -0.0024499406681485476 0 0.00029317647595220557 -0.0018793084702061803 0 -2.2193220209127126e-05 -0.0020927524923477405 0 0.00019560087507081443 -0.0021717994955523395 0 0.00028725774602181644 -0.0019507618763730113 0 9.8416561832591736e-05 -0.0024499406681485476 0 -2.2193220209127126e-05 -0.0020927524923477405 0 -0.00023518274219901052 -0.0023135274528126191 0 -0.00023518274219901052 -0.0023135274528126191 0 -0.00025988944178687365 -0.002010895601540579 0 -0.00052500573568625339 -0.0021678003635128848 0 -0.00025988944178687365 -0.002010895601540579 0 -0.00052500573568625339 -0.0021678003635128848 0 -0.00049940162618137759 -0.001894962334678992 0 -2.2193220209127126e-05 -0.0020927524923477405 0 -0.00023518274219901052 -0.0023135274528126191 0 -0.00025988944178687365 -0.002010895601540579 0 -0.00025988944178687365 -0.002010895601540579 0 -0.00029749002540502284 -0.0017517059101661171 0 -2.1469155413369749e-05 -0.0018003883511764423 0 -0.00025988944178687365 -0.002010895601540579 0 -0.00029749002540502284 -0.0017517059101661171 0 -0.00049940162618137759 -0.001894962334678992 0 -0.00029749002540502284 -0.0017517059101661171 0 -0.00049940162618137759 -0.001894962334678992 0 -0.00059595231775930711 -0.0016243067325964415 0 -0.00029749002540502284 -0.0017517059101661171 0 -2.1469155413369749e-05 -0.0018003883511764423 0 -7.831721186101864e-05 -0.0015469559732932303 0 0.00021774244804608059 -0.0015474195208077675 0 0.00029317647595220557 -0.0018793084702061803 0 -2.1469155413369749e-05 -0.0018003883511764423 0 0.00029317647595220557 -0.0018793084702061803 0 -2.2193220209127126e-05 -0.0020927524923477405 0 -2.1469155413369749e-05 -0.0018003883511764423 0 -2.2193220209127126e-05 -0.0020927524923477405 0 -0.00025988944178687365 -0.002010895601540579 0 -2.1469155413369749e-05 -0.0018003883511764423 0 -0.00083134157156018642 -0.0023252114353993453 0 -0.0011183166023072308 -0.0020873744436601723 0 -0.00078613712498743556 -0.0019699796173218414 0 -0.00083134157156018642 -0.0023252114353993453 0 -0.00078613712498743556 -0.0019699796173218414 0 -0.00052500573568625339 -0.0021678003635128848 0 -0.00078613712498743556 -0.0019699796173218414 0 -0.00052500573568625339 -0.0021678003635128848 0 -0.00049940162618137759 -0.001894962334678992 0 -0.00078613712498743556 -0.0019699796173218414 0 -0.00087618960201875937 -0.0016588395367602958 0 -0.00058018493965732024 -0.0015148449285659526 0 -0.00078613712498743556 -0.0019699796173218414 0 -0.00049940162618137759 -0.001894962334678992 0 -0.00059595231775930711 -0.0016243067325964415 0 -0.00065454115432721401 -0.0013332976962840582 0 -0.00054030380068539354 -0.0010193424648023599 0 -0.0012426945700489574 0.00077481155863288131 0 -0.0012640241009242651 0.0018089985699900166 0 -0.0017170838937994987 0.00104699070067518 0 -0.0011183166023072308 -0.0020873744436601723 0 -0.00087618960201875937 -0.0016588395367602958 0 -0.0011385043133140019 -0.001474889772557641 0 -0.00083410842064926636 -0.00055679768362405248 0 -0.0005639483880701139 0.00078947008545459166 0 -0.0011183166023072308 -0.0020873744436601723 0 -0.00078613712498743556 -0.0019699796173218414 0 -0.00087618960201875937 -0.0016588395367602958 0 -0.0005639483880701139 0.00078947008545459166 0 -0.0001303330016405207 0.0020614166918040606 0 -0.00027972589010235758 0.0010002896281751167 0 -0.00016014461365929951 0.0010653976091531633 0 -0.00028228602124544738 0.0012080609587409024 0 -0.00087618960201875937 -0.0016588395367602958 0 -0.0011385043133140019 -0.001474889772557641 0 -0.00076439156345808217 -0.0012635300356379773 0 -0.0005639483880701139 0.00078947008545459166 0 -0.0004446158964717138 0.00029955775982713008 0 -0.00076439156345808217 -0.0012635300356379773 0 -0.00058018493965732024 -0.0015148449285659526 0 -0.00037913228255044936 -0.0010509182683377189 0 -0.00054030380068539354 -0.0010193424648023599 0 -0.00018805141041495146 -3.1885756674436437e-05 0 -0.00087618960201875937 -0.0016588395367602958 0 -0.00076439156345808217 -0.0012635300356379773 0 -0.00058018493965732024 -0.0015148449285659526 0 -0.0004446158964717138 0.00029955775982713008 0 -0.00018805141041495146 -3.1885756674436437e-05 0 -0.00014113832370469336 0.0011971921387604145 0 -4.0980748322037363e-05 0.0011301007339350601 0 1.4206352511120738e-05 0.0012569459173910791 0 -0.00016014461365929951 0.0010653976091531633 0 -0.00014113832370469336 0.0011971921387604145 0 -4.0980748322037363e-05 0.0011301007339350601 0 0.0012581871718798886 0.0024280701158038761 0 0.0012459342136973339 0.0034395238624532242 0 0.00090148942931354381 0.0031634736474440012 0 -0.00016014461365929951 0.0010653976091531633 0 -0.00014113832370469336 0.0011971921387604145 0 -0.00028228602124544738 0.0012080609587409024 0 5.9152762042532055e-05 -0.0013651101387930358 0 -7.831721186101864e-05 -0.0015469559732932303 0 -0.00016631758352296904 -0.0013613896079975373 0 0.00021774244804608059 -0.0015474195208077675 0 5.9152762042532055e-05 -0.0013651101387930358 0 -7.831721186101864e-05 -0.0015469559732932303 0 0.00021774244804608059 -0.0015474195208077675 0 -2.1469155413369749e-05 -0.0018003883511764423 0 -7.831721186101864e-05 -0.0015469559732932303 0 -0.00029749002540502284 -0.0017517059101661171 0 -7.831721186101864e-05 -0.0015469559732932303 0 -0.00033100863913439226 -0.0015291643117322049 0 -0.00059595231775930711 -0.0016243067325964415 0 -0.00033100863913439226 -0.0015291643117322049 0 -0.00042686486193732419 -0.0012766326336799403 0 -0.00029749002540502284 -0.0017517059101661171 0 -0.00059595231775930711 -0.0016243067325964415 0 -0.00033100863913439226 -0.0015291643117322049 0 -0.00033100863913439226 -0.0015291643117322049 0 -0.00016631758352296904 -0.0013613896079975373 0 -0.00042686486193732419 -0.0012766326336799403 0 -7.831721186101864e-05 -0.0015469559732932303 0 -0.00033100863913439226 -0.0015291643117322049 0 -0.00016631758352296904 -0.0013613896079975373 0 -0.00016631758352296904 -0.0013613896079975373 0 -0.00042686486193732419 -0.0012766326336799403 0 -5.3907521229572894e-05 -0.0010852359168425192 0 -0.00018805141041495146 -3.1885756674436437e-05 0 0.00021722338411543375 9.3691578192673178e-05 0 0.00027423157470580426 0.00022878262020948901 0 -3.1241778474118977e-05 6.3569337282380845e-05 0 0.00015989539241830587 -3.5146586168029898e-05 0 -0.00018805141041495146 -3.1885756674436437e-05 0 0.00011910936311310252 0.00061699563400001857 0 0.00021722338411543375 9.3691578192673178e-05 0 0.00011910936311310252 0.00061699563400001857 0 0.00034200992035562656 -0.0012834428816591013 0 9.8161114129578913e-05 -0.0011972139369818187 0 0.00023115932052102448 -0.0011545006893960053 0 0.00035084298450534609 -0.0013309672690968802 0 5.9152762042532055e-05 -0.0013651101387930358 0 -5.3907521229572894e-05 -0.0010852359168425192 0 0.00021722338411543375 9.3691578192673178e-05 0 0.00035706667279603569 0.00013727483058138316 0 0.0004099492775886212 -0.00023280872563756388 0 0.00021722338411543375 9.3691578192673178e-05 0 5.9152762042532055e-05 -0.0013651101387930358 0 -0.00016631758352296904 -0.0013613896079975373 0 -5.3907521229572894e-05 -0.0010852359168425192 0 9.8161114129578913e-05 -0.0011972139369818187 0 0.00023115932052102448 -0.0011545006893960053 0 0.00020372010966944462 -0.0011402034396527615 0 0.00035951716474664602 0.00013300845517372128 0 0.00035706667279603569 0.00013727483058138316 0 0.00035706667279603569 0.00013727483058138316 0 0.00017475614893381358 0.00066476254602476853 0 0.00029269640661656746 0.00039096731473383604 0 0.00035659626535064888 0.00035856694246397296 0 0.00027515298492408757 0.00034795901324249061 0 0.00023115932052102448 -0.0011545006893960053 0 0.00020280478310872669 -0.0011396952974837607 0 0.00028990860071750614 -0.0010930894264606717 0 0.00018896616883553341 0.00049352601821892354 0 7.2860823794108968e-05 0.00043030718013009606 0 0.00030243118908066435 0.00031295625678505001 0 0.00035706667279603569 0.00013727483058138316 0 0.00043955629924717892 1.2463236565306477e-05 0 0.00029269640661656746 0.00039096731473383604 0 0.00026676930042665098 0.00037694686021890578 0 0.00027515298492408757 0.00034795901324249061 0 0.00017475614893381358 0.00066476254602476853 0 7.5309645710322268e-05 0.001459051700041988 0 0.00018896616883553341 0.00049352601821892354 0 0.00034574548965953065 0.0004128103153597676 0 0.00030243118908066435 0.00031295625678505001 0 0.0003640033242860487 0.001319708430703871 0 0.0004233496411992532 0.0014565155297927082 0 1.2886504011690737e-05 0.0015035717478628151 0 0.00011910936311310252 0.00061699563400001857 0 0.00017475614893381358 0.00066476254602476853 0 0.00023310417976160055 -1.0516883297202405e-05 0 4.5333571377184981e-05 0.00041611356948199207 0 -0.00028793874410257747 0.00025383465592245809 0 0.00023310417976160055 -1.0516883297202405e-05 0 4.5333571377184981e-05 0.00041611356948199207 0 0.00051673963591713514 0.00064216832732971144 0 0.00035659626535064888 0.00035856694246397296 0 0.00031409355593239137 0.00026012507742687263 0 0.00027515298492408757 0.00034795901324249061 0 0.00029995449536353574 0.00026246363254011187 0 0.00031409355593239137 0.00026012507742687263 0 0.00027515298492408757 0.00034795901324249061 0 0.00045389856487433627 0.00022634611262520871 0 0.0004440182452649092 -5.1408348421932234e-06 0 0.00017475614893381358 0.00066476254602476853 0 0.00037367468824187983 0.00031737781585429935 0 -0.00028228602124544738 0.0012080609587409024 0 -0.00013477535239017835 0.0013364090343212188 0 -0.00028507879821569555 0.0014167915314952967 0 -0.0001303330016405207 0.0020614166918040606 0 -5.8491202374306215e-06 0.0026249262521095091 0 0.0012459342136973339 0.0034395238624532242 0 0.0010795469416343447 0.0039288789786295171 0 0.0012290250979609123 0.0044303946988046494 0 -0.00014113832370469336 0.0011971921387604145 0 -0.00028228602124544738 0.0012080609587409024 0 -0.00013477535239017835 0.0013364090343212188 0 3.6220416288738787e-05 0.0015936927096712264 0 -5.8491202374306215e-06 0.0026249262521095091 0 0.00018629732767840628 0.0032481893046482952 0 0.00011081921583404513 0.0029233151600632145 0 -0.00014113832370469336 0.0011971921387604145 0 1.4206352511120738e-05 0.0012569459173910791 0 -0.00013477535239017835 0.0013364090343212188 0 0.0004233496411992532 0.0014565155297927082 0 1.2886504011690737e-05 0.0015035717478628151 0 4.1571949647390393e-05 0.0016552241463665444 0 0.00011910936311310252 0.00061699563400001857 0 3.6220416288738787e-05 0.0015936927096712264 0 1.2886504011690737e-05 0.0015035717478628151 0 4.1571949647390393e-05 0.0016552241463665444 0 -0.00033946762183590046 0.001687848537190832 0 4.5333571377184981e-05 0.00041611356948199207 0 -0.00028793874410257747 0.00025383465592245809 0 -0.0002818559144629373 0.00077951316012693104 0 -0.00028793874410257747 0.00025383465592245809 0 -0.00057006996338206583 0.00070965946441859913 0 -0.0002818559144629373 0.00077951316012693104 0 7.5309645710322268e-05 0.001459051700041988 0 -1.6028913901425819e-05 0.0024931278772550589 0 4.1571949647390393e-05 0.0016552241463665444 0 -0.00034155921392448345 0.0018544101060889834 0 -0.00033946762183590046 0.001687848537190832 0 -0.00028793874410257747 0.00025383465592245809 0 -0.00082059728766892433 0.00052196576492805264 0 -0.00057006996338206583 0.00070965946441859913 0 6.2357206058760901e-05 0.0026423360502763902 0 3.2352774305569679e-05 0.002657726319766802 0 6.2485180922443174e-05 0.0027106892303092431 0 -1.6028913901425819e-05 0.0024931278772550589 0 -5.8491202374306215e-06 0.0026249262521095091 0 4.1340739542003171e-05 0.0028507176547494036 0 0.00011081921583404513 0.0029233151600632145 0 4.1340739542003171e-05 0.0028507176547494036 0 -1.6028913901425819e-05 0.0024931278772550589 0 0.0010795469416343447 0.0039288789786295171 0 0.001076266553161035 0.004508495989511579 0 0.0012290250979609123 0.0044303946988046494 0 3.2352774305569679e-05 0.002657726319766802 0 6.2485180922443174e-05 0.0027106892303092431 0 3.1624919165705789e-05 0.0027266387168922547 0 0.00011081921583404513 0.0029233151600632145 0 -5.8491202374306215e-06 0.0026249262521095091 0 -0.00091734083839459084 0.00057889666577837565 0 -0.00083093209526872015 0.00089481349548775125 0 -0.00094122764686601257 0.001296154885193214 0 4.1340739542003171e-05 0.0028507176547494036 0 -0.00010957178072408312 0.0036081308187237882 0 -1.6028913901425819e-05 0.0024931278772550589 0 -6.858817705635592e-05 0.0020747581437087783 0 -0.00082059728766892433 0.00052196576492805264 0 -0.00083093209526872015 0.00089481349548775125 0 -0.00057006996338206583 0.00070965946441859913 0 -0.00091734083839459084 0.00057889666577837565 0 -0.0008175759552675535 0.0005287906823330063 0 -0.00083093209526872015 0.00089481349548775125 0 -0.00083093209526872015 0.00089481349548775125 0 -0.00057006996338206583 0.00070965946441859913 0 -0.00058424304409160214 0.0011107933028208306 0 -0.00057006996338206583 0.00070965946441859913 0 -0.0002818559144629373 0.00077951316012693104 0 -0.00058424304409160214 0.0011107933028208306 0 -0.00023631634116012026 0.0014252380515475565 0 -0.00058424304409160214 0.0011107933028208306 0 -0.00059502292079267156 0.0015855707439578577 0 -0.0002818559144629373 0.00077951316012693104 0 -0.00023631634116012026 0.0014252380515475565 0 9.9831148875192339e-05 0.0012458630117963773 0 -0.0002818559144629373 0.00077951316012693104 0 -0.00023631634116012026 0.0014252380515475565 0 -0.00058424304409160214 0.0011107933028208306 0 -0.00058424304409160214 0.0011107933028208306 0 -0.00094122764686601257 0.001296154885193214 0 -0.00059502292079267156 0.0015855707439578577 0 -0.00083093209526872015 0.00089481349548775125 0 -0.00058424304409160214 0.0011107933028208306 0 -0.00094122764686601257 0.001296154885193214 0 0.00059068152929656862 0.00076641601794063402 0 0.00027567767679146499 0.00094515634634752461 0 0.00043924973488894121 0.0012690445927893475 0 0.00038417798104693491 -0.00018839292188211929 0 0.00070379617084869502 0.00057598452215537274 0 0.00076598375182041856 4.626967885269884e-05 0 0.00043350529785701189 0.00039700763184906792 0 0.00035744898129896403 0.00092732888719029719 0 0.00043350529785701189 0.00039700763184906792 0 0.00062717052283115101 0.00071393814988248696 0 0.00038417798104693491 -0.00018839292188211929 0 0.00045656685202007683 -0.00043028123961150178 0 0.00076598375182041856 4.626967885269884e-05 0 0.00043350529785701189 0.00039700763184906792 0 0.00045389856487433627 0.00022634611262520871 0 0.000340930994310767 -5.6940136222371232e-06 0 0.00016981540430862515 0.00057865149580452516 0 0.00056534924066524602 0.00051165305121735072 0 0.00043350529785701189 0.00039700763184906792 0 0.00037367468824187983 0.00031737781585429935 0 0.00059068152929656862 0.00076641601794063402 0 0.00053691316076104616 0.00063985584989779281 0 0.00027567767679146499 0.00094515634634752461 0 0.00045389856487433627 0.00022634611262520871 0 0.00037367468824187983 0.00031737781585429935 0 -0.0002818559144629373 0.00077951316012693104 0 0.00027567767679146499 0.00094515634634752461 0 9.9831148875192339e-05 0.0012458630117963773 0 -0.0002818559144629373 0.00077951316012693104 0 0.00053691316076104616 0.00063985584989779281 0 0.00027567767679146499 0.00094515634634752461 0 4.5333571377184981e-05 0.00041611356948199207 0 -0.0002818559144629373 0.00077951316012693104 0 0.00051673963591713514 0.00064216832732971144 0 6.322760059601282e-05 0.00047233128985007064 0 0.00037367468824187983 0.00031737781585429935 0 9.9831148875192339e-05 0.0012458630117963773 0 0.00043924973488894121 0.0012690445927893475 0 0.00031223264231616902 0.0017431165199057201 0 0.00027567767679146499 0.00094515634634752461 0 9.9831148875192339e-05 0.0012458630117963773 0 0.00043924973488894121 0.0012690445927893475 0 0.00065817579855780061 0.00043964365956038421 0 0.00048061343954508855 0.0010407908346975647 0 0.0008877430514245522 0.00096932835432752054 0 0.00048061343954508855 0.0010407908346975647 0 0.0008877430514245522 0.00096932835432752054 0 0.00073461629244793978 0.0014177570094659521 0 0.00070379617084869502 0.00057598452215537274 0 0.0013318687793885755 0.00081258895586668793 0 0.001100839961885533 0.0014240050683614299 0 0.00062717052283115101 0.00071393814988248696 0 0.00073057614963259639 0.0009107137122528272 0 0.0013318687793885755 0.00081258895586668793 0 0.0011102308562332165 0.000368598100940649 0 0.0017349511539358621 0.00043517682145651306 0 0.00070379617084869502 0.00057598452215537274 0 0.0011102308562332165 0.000368598100940649 0 0.00076598375182041856 4.626967885269884e-05 0 0.00070379617084869502 0.00057598452215537274 0 0.0013318687793885755 0.00081258895586668793 0 0.0011102308562332165 0.000368598100940649 0 0.0011102308562332165 0.000368598100940649 0 0.00076598375182041856 4.626967885269884e-05 0 0.0011786455795263601 -8.5074291015947132e-05 0 0.00045656685202007683 -0.00043028123961150178 0 0.0011786455795263601 -8.5074291015947132e-05 0 0.0017377656017991856 -0.00064940940605948572 0 0.0011102308562332165 0.000368598100940649 0 0.0011786455795263601 -8.5074291015947132e-05 0 0.0017349511539358621 0.00043517682145651306 0 0.00045656685202007683 -0.00043028123961150178 0 0.00076598375182041856 4.626967885269884e-05 0 0.0011786455795263601 -8.5074291015947132e-05 0 0.0011786455795263601 -8.5074291015947132e-05 0 0.0020299487412110172 -9.0036654599743717e-05 0 0.0017349511539358621 0.00043517682145651306 0 0.0011786455795263601 -8.5074291015947132e-05 0 0.0020299487412110172 -9.0036654599743717e-05 0 0.0017377656017991856 -0.00064940940605948572 0 0.0020299487412110172 -9.0036654599743717e-05 0 0.0025674145386350984 -0.0003726964823680421 0 0.0017377656017991856 -0.00064940940605948572 0 0.0020299487412110172 -9.0036654599743717e-05 0 0.0017349511539358621 0.00043517682145651306 0 0.002221655775432485 0.00032745754076661418 0 0.0017349511539358621 0.00043517682145651306 0 0.0022212864950159911 0.00074333144077279962 0 0.002221655775432485 0.00032745754076661418 0 0.0013318687793885755 0.00081258895586668793 0 0.0017349511539358621 0.00043517682145651306 0 0.0018465636687113171 0.000947801399433111 0 0.0017349511539358621 0.00043517682145651306 0 0.0018465636687113171 0.000947801399433111 0 0.0022212864950159911 0.00074333144077279962 0 0.0018465636687113171 0.000947801399433111 0 0.0022212864950159911 0.00074333144077279962 0 0.002281984863153039 0.0010858508154710635 0 0.0022212864950159911 0.00074333144077279962 0 0.0025020944222670753 0.00092227130366722202 0 0.002281984863153039 0.0010858508154710635 0 0.0022212864950159911 0.00074333144077279962 0 0.0025020944222670753 0.00092227130366722202 0 0.0025227681976490264 0.00058650860474506914 0 0.0025020944222670753 0.00092227130366722202 0 0.0027411229892497502 0.0010463432006525748 0 0.0025227681976490264 0.00058650860474506914 0 0.0027411229892497502 0.0010463432006525748 0 0.0025227681976490264 0.00058650860474506914 0 0.0027456315530176834 0.00022244688109401104 0 0.0025227681976490264 0.00058650860474506914 0 0.0027456315530176834 0.00022244688109401104 0 0.0025310618405100342 7.9523901509438746e-05 0 0.0025227681976490264 0.00058650860474506914 0 0.002221655775432485 0.00032745754076661418 0 0.0025310618405100342 7.9523901509438746e-05 0 0.0022212864950159911 0.00074333144077279962 0 0.0025227681976490264 0.00058650860474506914 0 0.002221655775432485 0.00032745754076661418 0 0.0027411229892497502 0.0010463432006525748 0 0.0027456315530176834 0.00022244688109401104 0 0.0031712368192055216 -0.0004190900127820204 0 0.0032214062231751359 -0.00052093683525862729 0 0.0031887228206607227 -0.00045918742932353306 0 0.0031712368192055216 -0.0004190900127820204 0 0.0029354291739927688 4.1842242258354318e-05 0 0.0030139147275776565 -0.00011932394242058955 0 0.0031739214236067019 -0.00051578681448709687 0 0.0031904964992364041 -0.00050010976266247082 0 0.003176274169839326 -0.00049209860519345357 0 0.0031739214236067019 -0.00051578681448709687 0 0.003191488560971819 -0.00052144632350731074 0 0.0031738662578825057 -0.00053382509258644581 0 0.0031739214236067019 -0.00051578681448709687 0 0.003191488560971819 -0.00052144632350731074 0 0.0031904964992364041 -0.00050010976266247082 0 0.0032214062231751359 -0.00052093683525862729 0 0.0031904964992364041 -0.00050010976266247082 0 0.0031887228206607227 -0.00045918742932353306 0 0.0032214062231751359 -0.00052093683525862729 0 0.003191488560971819 -0.00052144632350731074 0 0.0031904964992364041 -0.00050010976266247082 0 0.0031904964992364041 -0.00050010976266247082 0 0.0031887228206607227 -0.00045918742932353306 0 0.003176274169839326 -0.00049209860519345357 0 0.0031887228206607227 -0.00045918742932353306 0 0.003176274169839326 -0.00049209860519345357 0 0.0031708481610548478 -0.00047504382602771408 0 0.0031887228206607227 -0.00045918742932353306 0 0.003196920769161411 -0.00041067385285658577 0 0.0031712368192055216 -0.0004190900127820204 0 0.0031887228206607227 -0.00045918742932353306 0 0.0031791568071780846 -0.00045013773365284977 0 0.0031708481610548478 -0.00047504382602771408 0 0.0031887228206607227 -0.00045918742932353306 0 0.0031791568071780846 -0.00045013773365284977 0 0.003196920769161411 -0.00041067385285658577 0 0.0027456315530176834 0.00022244688109401104 0 0.0031712368192055216 -0.0004190900127820204 0 0.0027937466461686808 -0.00016846410977742804 0 0.0031712368192055216 -0.0004190900127820204 0 0.0028888258206583822 -0.00043948462205575713 0 0.0027937466461686808 -0.00016846410977742804 0 0.0020299487412110172 -9.0036654599743717e-05 0 0.002221655775432485 0.00032745754076661418 0 0.0025310618405100342 7.9523901509438746e-05 0 0.0020299487412110172 -9.0036654599743717e-05 0 0.0025310618405100342 7.9523901509438746e-05 0 0.0025674145386350984 -0.0003726964823680421 0 0.0025310618405100342 7.9523901509438746e-05 0 0.0027937466461686808 -0.00016846410977742804 0 0.0025674145386350984 -0.0003726964823680421 0 0.0027456315530176834 0.00022244688109401104 0 0.0025310618405100342 7.9523901509438746e-05 0 0.0027937466461686808 -0.00016846410977742804 0 0.0028888258206583822 -0.00043948462205575713 0 0.0027937466461686808 -0.00016846410977742804 0 0.0025674145386350984 -0.0003726964823680421 0 0.001154051153332355 -0.00074255335532959698 0 0.00063118805178420797 -0.0011107665190688068 0 0.0005930126031665953 -0.00066919660343047838 0 0.001982136421891672 -0.00060969272777263534 0 0.0012167125791128696 -0.00031395591811272618 0 0.0025674145386350984 -0.0003726964823680421 0 0.0029675757436478612 -0.00082323129451791429 0 0.0017377656017991856 -0.00064940940605948572 0 0.0028888258206583822 -0.00043948462205575713 0 0.0025674145386350984 -0.0003726964823680421 0 0.0029675757436478612 -0.00082323129451791429 0 0.001154051153332355 -0.00074255335532959698 0 0.0014216865805378499 -0.00106369916224474 0 0.001770077543322289 -0.0008337715626069354 0 0.0031712368192055216 -0.0004190900127820204 0 0.0029675757436478612 -0.00082323129451791429 0 0.0036976682444211733 -0.00087706224699077848 0 0.0031712368192055216 -0.0004190900127820204 0 0.0028888258206583822 -0.00043948462205575713 0 0.0029675757436478612 -0.00082323129451791429 0 0.0013926814784058236 -0.0014569902671966045 0 0.0011172361178391377 -0.001185064706399651 0 0.0014216865805378499 -0.00106369916224474 0 0.001154051153332355 -0.00074255335532959698 0 0.0011172361178391377 -0.001185064706399651 0 0.0014216865805378499 -0.00106369916224474 0 0.001154051153332355 -0.00074255335532959698 0 0.0011172361178391377 -0.001185064706399651 0 0.00063118805178420797 -0.0011107665190688068 0 0.00063118805178420797 -0.0011107665190688068 0 0.00042783888396228699 -0.00091899322689908481 0 0.0005930126031665953 -0.00066919660343047838 0 0.00063118805178420797 -0.0011107665190688068 0 0.00041887975745117382 -0.0011378599414691717 0 0.00042783888396228699 -0.00091899322689908481 0 0.00041887975745117382 -0.0011378599414691717 0 0.00026972617807293349 -0.0010936009516212977 0 0.00022577648073431072 -0.00097280943723541784 0 0.00043955629924717892 1.2463236565306477e-05 0 0.0004440182452649092 -5.1408348421932234e-06 0 0.00022577648073431072 -0.00097280943723541784 0 0.00042783888396228699 -0.00091899322689908481 0 0.00033665324797543854 -0.00079218046575524651 0 0.00041887975745117382 -0.0011378599414691717 0 0.00022577648073431072 -0.00097280943723541784 0 0.00042783888396228699 -0.00091899322689908481 0 0.0001076540643171788 -0.00060109614288184055 0 0.00022577648073431072 -0.00097280943723541784 0 0.00033665324797543854 -0.00079218046575524651 0 0.0001076540643171788 -0.00060109614288184055 0 0.00033665324797543854 -0.00079218046575524651 0 0.0005930126031665953 -0.00066919660343047838 0 0.00042783888396228699 -0.00091899322689908481 0 0.00033665324797543854 -0.00079218046575524651 0 0.0005930126031665953 -0.00066919660343047838 0 0.00045389856487433627 0.00022634611262520871 0 0.0012167125791128696 -0.00031395591811272618 0 -0.0038704619199920261 0.0022152569716251775 0 -0.0034464087583078885 0.0028642994829011993 0 -0.003245930382701837 0.002203487178892198 0 -0.0034464087583078885 0.0028642994829011993 0 -0.0028795007000927677 0.0028734643772958652 0 -0.003245930382701837 0.002203487178892198 0 -0.0028795007000927677 0.0028734643772958652 0 -0.0025634384345288256 0.0021732291994160514 0 -0.0020308123524923941 0.0030842484684005518 0 -0.0028795007000927677 0.0028734643772958652 0 -0.0025634384345288256 0.0021732291994160514 0 -0.003245930382701837 0.002203487178892198 0 -0.0025634384345288256 0.0021732291994160514 0 -0.003245930382701837 0.002203487178892198 0 -0.0030474967949616701 0.001554648405746479 0 -0.0025634384345288256 0.0021732291994160514 0 -0.0030474967949616701 0.001554648405746479 0 -0.0025322871404625941 0.0012634540233256715 0 -0.0038704619199920261 0.0022152569716251775 0 -0.003245930382701837 0.002203487178892198 0 -0.0035920765926171407 0.0016362417007348595 0 -0.003245930382701837 0.002203487178892198 0 -0.0035920765926171407 0.0016362417007348595 0 -0.0030474967949616701 0.001554648405746479 0 -0.0035920765926171407 0.0016362417007348595 0 -0.0032958712836734837 0.0010310760908602305 0 -0.0030474967949616701 0.001554648405746479 0 -0.0038454846030286853 0.001215081527019712 0 -0.0035920765926171407 0.0016362417007348595 0 -0.0032958712836734837 0.0010310760908602305 0 -0.0032958712836734837 0.0010310760908602305 0 -0.0027266984657440489 0.00083943231724603173 0 -0.0030474967949616701 0.001554648405746479 0 -0.0029333415957332864 0.00043107488991186088 0 -0.0032958712836734837 0.0010310760908602305 0 -0.0027266984657440489 0.00083943231724603173 0 -0.0027266984657440489 0.00083943231724603173 0 -0.0030474967949616701 0.001554648405746479 0 -0.0025322871404625941 0.0012634540233256715 0 -0.0025322871404625941 0.0012634540233256715 0 -0.0024975599038378699 0.00075813241399958907 0 -0.0024685981909435615 0.00092150274843018083 0 -0.0021796674594177223 0.0013783752374081227 0 -0.0018873674140396162 0.0014525299298291695 0 -0.0027266984657440489 0.00083943231724603173 0 -0.0025322871404625941 0.0012634540233256715 0 -0.0024975599038378699 0.00075813241399958907 0 -0.0024975599038378699 0.00075813241399958907 0 -0.0024685981909435615 0.00092150274843018083 0 -0.0024202859882213488 0.00073505792669945676 0 -0.0013045093092438414 0.0014572867109802158 0 -0.001720819703038093 0.0022158127952004794 0 -0.00085009211625164567 0.0022093106148231372 0 -0.0025322871404625941 0.0012634540233256715 0 -0.0013045093092438414 0.0014572867109802158 0 -0.001720819703038093 0.0022158127952004794 0 -0.0025634384345288256 0.0021732291994160514 0 -0.0025322871404625941 0.0012634540233256715 0 -0.001720819703038093 0.0022158127952004794 0 -0.0025634384345288256 0.0021732291994160514 0 -0.001720819703038093 0.0022158127952004794 0 -0.0020308123524923941 0.0030842484684005518 0 -0.001720819703038093 0.0022158127952004794 0 -0.0011775903139409599 0.0028225945881919182 0 -0.00085009211625164567 0.0022093106148231372 0 -0.001720819703038093 0.0022158127952004794 0 -0.0011775903139409599 0.0028225945881919182 0 -0.0020308123524923941 0.0030842484684005518 0 -0.00060259181230791253 0.0027412928083669448 0 -7.5855857555073242e-05 0.0023409129652803735 0 -0.00085009211625164567 0.0022093106148231372 0 -0.0011775903139409599 0.0028225945881919182 0 -0.00060259181230791253 0.0027412928083669448 0 -0.00085009211625164567 0.0022093106148231372 0 -0.0011775903139409599 0.0028225945881919182 0 -0.00060259181230791253 0.0027412928083669448 0 -0.00078109385876215629 0.0031642287647405997 0 -0.00060259181230791253 0.0027412928083669448 0 -0.00011052409632292984 0.0030438479711697615 0 -7.5855857555073242e-05 0.0023409129652803735 0 -0.00060259181230791253 0.0027412928083669448 0 -0.00011052409632292984 0.0030438479711697615 0 -0.00078109385876215629 0.0031642287647405997 0 -0.00026853984492126369 0.0033507283458577776 0 0.00031132251164342592 0.0027233828135401722 0 4.5053287996521634e-05 0.0034528741285444306 0 -0.00049654044095696404 0.0031208561143905469 0 -0.00040222743754465915 0.0026376122415728651 0 -0.00011052409632292984 0.0030438479711697615 0 -7.5855857555073242e-05 0.0023409129652803735 0 0.00061962768587952243 0.0022576021648959199 0 -0.0013288334169733176 0.0016813088382254112 0 -0.00060070216152961905 0.0021435062412779819 0 -7.5855857555073242e-05 0.0023409129652803735 0 -0.00025398443977355651 0.0016574748344567822 0 0.00061962768587952243 0.0022576021648959199 0 -0.00025398443977355651 0.0016574748344567822 0 0.00077629203419666139 0.0018310340115892559 0 0.00061962768587952243 0.0022576021648959199 0 -0.0013045093092438414 0.0014572867109802158 0 -0.00025398443977355651 0.0016574748344567822 0 -0.00085009211625164567 0.0022093106148231372 0 -7.5855857555073242e-05 0.0023409129652803735 0 -0.00025398443977355651 0.0016574748344567822 0 -0.00085009211625164567 0.0022093106148231372 0 -0.0018873674140396162 0.0014525299298291695 0 -0.0013288334169733176 0.0016813088382254112 0 -0.0024685981909435615 0.00092150274843018083 0 -0.0023861190697145439 0.0007977372677269815 0 -0.0024202859882213488 0.00073505792669945676 0 -0.0024202859882213488 0.00073505792669945676 0 -0.0024153870013191047 0.00055538149623414511 0 -0.0023708442158874043 0.00057338276856730159 0 -0.0024975599038378699 0.00075813241399958907 0 -0.0024202859882213488 0.00073505792669945676 0 -0.0024153870013191047 0.00055538149623414511 0 -0.0024202859882213488 0.00073505792669945676 0 -0.0023708442158874043 0.00057338276856730159 0 -0.0023477149209225581 0.0006929105689512967 0 -0.0023320446529456014 0.0003689825607560383 0 -0.0023708442158874043 0.00057338276856730159 0 -0.0023238875110668904 0.00058686454262049474 0 -0.0023708442158874043 0.00057338276856730159 0 -0.0023238875110668904 0.00058686454262049474 0 -0.0023477149209225581 0.0006929105689512967 0 -0.0023861190697145439 0.0007977372677269815 0 -0.0022810806754632929 0.00073937270599858226 0 -0.0022519640802500418 0.00080139633254178394 0 -0.0023861190697145439 0.0007977372677269815 0 -0.0024202859882213488 0.00073505792669945676 0 -0.0023477149209225581 0.0006929105689512967 0 -0.0023238875110668904 0.00058686454262049474 0 -0.0023477149209225581 0.0006929105689512967 0 -0.0022701707324383753 0.00066759920466581484 0 -0.0023861190697145439 0.0007977372677269815 0 -0.0023477149209225581 0.0006929105689512967 0 -0.0022810806754632929 0.00073937270599858226 0 -0.0022810806754632929 0.00073937270599858226 0 -0.0022122518281585783 0.00070291930484974959 0 -0.0022519640802500418 0.00080139633254178394 0 0.00030448263274897324 0.0019103210140279678 0 0.00036691639747753825 0.0025514516395513821 0 8.4677856279115988e-05 0.0025058914032190841 0 -0.00066135150810237454 0.0011577855451232614 0 -0.00060070216152961905 0.0021435062412779819 0 -0.0021877694156683105 0.00071669952413824724 0 -0.0022701707324383753 0.00066759920466581484 0 -0.0021264339498377857 0.00060788249887769926 0 -0.00066135150810237454 0.0011577855451232614 0 -0.00080932260463975364 0.0010877763884797008 0 -0.0022810806754632929 0.00073937270599858226 0 -0.0022122518281585783 0.00070291930484974959 0 -0.0022701707324383753 0.00066759920466581484 0 -0.0023477149209225581 0.0006929105689512967 0 -0.0022810806754632929 0.00073937270599858226 0 -0.0022701707324383753 0.00066759920466581484 0 -0.0022882425694484105 -0.00010149111568062217 0 -0.002287030239948605 0.00049611124029158744 0 -0.0021264339498377857 0.00060788249887769926 0 -0.0023238875110668904 0.00058686454262049474 0 -0.0022701707324383753 0.00066759920466581484 0 -0.002287030239948605 0.00049611124029158744 0 -0.00066135150810237454 0.0011577855451232614 0 -0.00076596105814374905 0.001145416486820696 0 -0.0022701707324383753 0.00066759920466581484 0 -0.002287030239948605 0.00049611124029158744 0 -0.0021264339498377857 0.00060788249887769926 0 -0.0023320446529456014 0.0003689825607560383 0 -0.0023238875110668904 0.00058686454262049474 0 -0.002287030239948605 0.00049611124029158744 0 -0.0012426945700489574 0.00077481155863288131 0 -0.001712419944178233 0.00029037557749257378 0 -0.0017170838937994987 0.00104699070067518 0 -0.001712419944178233 0.00029037557749257378 0 -0.0021264339498377857 0.00060788249887769926 0 -0.0017170838937994987 0.00104699070067518 0 -0.0022882425694484105 -0.00010149111568062217 0 -0.001712419944178233 0.00029037557749257378 0 -0.0021264339498377857 0.00060788249887769926 0 -0.0012640241009242651 0.0018089985699900166 0 -0.0023410875110358993 0.0012396281217815447 0 -0.0017170838937994987 0.00104699070067518 0 0.0012581871718798886 0.0024280701158038761 0 0.00030448263274897324 0.0019103210140279678 0 0.00067967218950065473 0.0024896280502101791 0 -0.0005639483880701139 0.00078947008545459166 0 -0.00066135150810237454 0.0011577855451232614 0 -0.0023410875110358993 0.0012396281217815447 0 -0.0021264339498377857 0.00060788249887769926 0 -0.0017170838937994987 0.00104699070067518 0 0.00030448263274897324 0.0019103210140279678 0 0.00067967218950065473 0.0024896280502101791 0 0.00036691639747753825 0.0025514516395513821 0 0.0012581871718798886 0.0024280701158038761 0 0.00068314890411489673 0.0028953749829910007 0 0.00067967218950065473 0.0024896280502101791 0 0.0012581871718798886 0.0024280701158038761 0 0.00068314890411489673 0.0028953749829910007 0 0.00090148942931354381 0.0031634736474440012 0 0.00068314890411489673 0.0028953749829910007 0 0.00049928201345953653 0.00274421307978102 0 0.00067967218950065473 0.0024896280502101791 0 0.00045815046499252544 0.0029638307937781745 0 0.00068314890411489673 0.0028953749829910007 0 0.00049928201345953653 0.00274421307978102 0 0.00049928201345953653 0.00274421307978102 0 0.00067967218950065473 0.0024896280502101791 0 0.00036691639747753825 0.0025514516395513821 0 -0.00053541568840814789 0.0021587442894734393 0 -0.00060070216152961905 0.0021435062412779819 0 0.00036691639747753825 0.0025514516395513821 0 8.8081273158575768e-05 0.0025074970682730474 0 0.00020111762912106514 0.0026654649636281727 0 8.8081273158575768e-05 0.0025074970682730474 0 4.810437751423481e-05 0.0027848048486547984 0 0.00020111762912106514 0.0026654649636281727 0 8.8081273158575768e-05 0.0025074970682730474 0 4.810437751423481e-05 0.0027848048486547984 0 -5.4865694657140299e-05 0.0028961566546714156 0 -0.00060070216152961905 0.0021435062412779819 0 -0.00040222743754465915 0.0026376122415728651 0 4.810437751423481e-05 0.0027848048486547984 0 -5.4626118137764316e-05 0.0028966994111777398 0 0.00012828759368446667 0.0029474488143639795 0 -0.00039835577004048242 0.0026368616278119959 0 -0.00040222743754465915 0.0026376122415728651 0 0.00049928201345953653 0.00274421307978102 0 0.00036691639747753825 0.0025514516395513821 0 0.00030888700133319981 0.0028201505901622368 0 0.00036691639747753825 0.0025514516395513821 0 0.00020111762912106514 0.0026654649636281727 0 0.00030888700133319981 0.0028201505901622368 0 4.810437751423481e-05 0.0027848048486547984 0 0.00020111762912106514 0.0026654649636281727 0 0.00030888700133319981 0.0028201505901622368 0 0.00012828759368446667 0.0029474488143639795 0 0.00030888700133319981 0.0028201505901622368 0 0.00026497257268702848 0.0030875962329117521 0 4.810437751423481e-05 0.0027848048486547984 0 0.00012828759368446667 0.0029474488143639795 0 0.00030888700133319981 0.0028201505901622368 0 0.00045815046499252544 0.0029638307937781745 0 0.00049928201345953653 0.00274421307978102 0 0.00030888700133319981 0.0028201505901622368 0 0.00045815046499252544 0.0029638307937781745 0 0.00030888700133319981 0.0028201505901622368 0 0.00026497257268702848 0.0030875962329117521 0 0.00026497257268702848 0.0030875962329117521 0 0.00017582527462498918 0.0033357193088609746 0 0.00050628175908786258 0.0032944084045843686 0 -5.4626118137764316e-05 0.0028966994111777398 0 -6.8701295657513925e-05 0.0033636449697538639 0 -0.00035709088346148248 0.0037284508799721051 0 -0.00040222743754465915 0.0026376122415728651 0 -0.00044781846287422051 0.0035232137478376315 0 0.00045815046499252544 0.0029638307937781745 0 0.00026497257268702848 0.0030875962329117521 0 0.00050628175908786258 0.0032944084045843686 0 0.00012828759368446667 0.0029474488143639795 0 0.00026497257268702848 0.0030875962329117521 0 8.5598081516392163e-05 0.0031278325874721231 0 0.00026497257268702848 0.0030875962329117521 0 8.5598081516392163e-05 0.0031278325874721231 0 0.00017582527462498918 0.0033357193088609746 0 -5.4626118137764316e-05 0.0028966994111777398 0 8.5598081516392163e-05 0.0031278325874721231 0 -6.8701295657513925e-05 0.0033636449697538639 0 -5.4626118137764316e-05 0.0028966994111777398 0 0.00012828759368446667 0.0029474488143639795 0 8.5598081516392163e-05 0.0031278325874721231 0 8.5598081516392163e-05 0.0031278325874721231 0 -6.8701295657513925e-05 0.0033636449697538639 0 0.00017582527462498918 0.0033357193088609746 0 -6.8701295657513925e-05 0.0033636449697538639 0 -0.00010963577050601299 0.0036091147324679076 0 -0.00035709088346148248 0.0037284508799721051 0 -6.8701295657513925e-05 0.0033636449697538639 0 4.0950858540815412e-05 0.0035503457744559225 0 0.00017582527462498918 0.0033357193088609746 0 -6.8701295657513925e-05 0.0033636449697538639 0 4.0950858540815412e-05 0.0035503457744559225 0 -0.00010963577050601299 0.0036091147324679076 0 0.0002575015701873988 0.0036224651788396658 0 0.00051434526232996757 0.003621280349200175 0 0.00050628175908786258 0.0032944084045843686 0 0.00017582527462498918 0.0033357193088609746 0 0.0002575015701873988 0.0036224651788396658 0 0.00050628175908786258 0.0032944084045843686 0 4.0950858540815412e-05 0.0035503457744559225 0 0.00017582527462498918 0.0033357193088609746 0 0.0002575015701873988 0.0036224651788396658 0 0.00090148942931354381 0.0031634736474440012 0 0.00050628175908786258 0.0032944084045843686 0 0.00079817735410566445 0.0036340334176348859 0 0.00051434526232996757 0.003621280349200175 0 0.00050628175908786258 0.0032944084045843686 0 0.00079817735410566445 0.0036340334176348859 0 0.0012459342136973339 0.0034395238624532242 0 0.00090148942931354381 0.0031634736474440012 0 0.00079817735410566445 0.0036340334176348859 0 0.00045815046499252544 0.0029638307937781745 0 0.00068314890411489673 0.0028953749829910007 0 0.00050628175908786258 0.0032944084045843686 0 0.00068314890411489673 0.0028953749829910007 0 0.00090148942931354381 0.0031634736474440012 0 0.00050628175908786258 0.0032944084045843686 0 0.00071108330885360832 0.0040418083254260429 0 0.00049005126497633539 0.0038730508818924886 0 0.00043766985645958057 0.004142744028224548 0 0.00071108330885360832 0.0040418083254260429 0 0.00043766985645958057 0.004142744028224548 0 0.00058965082934538137 0.004364959176598026 0 0.00071108330885360832 0.0040418083254260429 0 0.00087894091034624417 0.0042628078522550499 0 0.00058965082934538137 0.004364959176598026 0 0.0010795469416343447 0.0039288789786295171 0 0.0010825472603221166 0.004524884687402829 0 0.00087894091034624417 0.0042628078522550499 0 0.0010795469416343447 0.0039288789786295171 0 0.00071108330885360832 0.0040418083254260429 0 0.00087894091034624417 0.0042628078522550499 0 0.0010795469416343447 0.0039288789786295171 0 0.00071108330885360832 0.0040418083254260429 0 0.00079817735410566445 0.0036340334176348859 0 0.0012459342136973339 0.0034395238624532242 0 0.0010795469416343447 0.0039288789786295171 0 0.00079817735410566445 0.0036340334176348859 0 0.00071108330885360832 0.0040418083254260429 0 0.00079817735410566445 0.0036340334176348859 0 0.00049005126497633539 0.0038730508818924886 0 0.00051434526232996757 0.003621280349200175 0 0.00079817735410566445 0.0036340334176348859 0 0.00049005126497633539 0.0038730508818924886 0 0.0002575015701873988 0.0036224651788396658 0 0.00051434526232996757 0.003621280349200175 0 0.00049005126497633539 0.0038730508818924886 0 0.0002575015701873988 0.0036224651788396658 0 0.00049005126497633539 0.0038730508818924886 0 0.00025679217079058598 0.0039745782148161973 0 0.0002575015701873988 0.0036224651788396658 0 -5.0453540306744122e-05 0.0038216397481844223 0 0.00025679217079058598 0.0039745782148161973 0 -0.00010963577050601299 0.0036091147324679076 0 -5.0453540306744122e-05 0.0038216397481844223 0 -0.00035709088346148248 0.0037284508799721051 0 4.0950858540815412e-05 0.0035503457744559225 0 0.0002575015701873988 0.0036224651788396658 0 -5.0453540306744122e-05 0.0038216397481844223 0 4.0950858540815412e-05 0.0035503457744559225 0 -0.00010963577050601299 0.0036091147324679076 0 -5.0453540306744122e-05 0.0038216397481844223 0 0.00025679217079058598 0.0039745782148161973 0 0.00043766985645958057 0.004142744028224548 0 0.00015633288033917777 0.0043661178929859769 0 -5.0453540306744122e-05 0.0038216397481844223 0 0.00025679217079058598 0.0039745782148161973 0 0.00015633288033917777 0.0043661178929859769 0 0.00049005126497633539 0.0038730508818924886 0 0.00025679217079058598 0.0039745782148161973 0 0.00043766985645958057 0.004142744028224548 0 0.00015633288033917777 0.0043661178929859769 0 -0.00019087230416001976 0.0046897997414909126 0 0.00048090700526047953 0.0048394799168817856 0 0.00043766985645958057 0.004142744028224548 0 0.00015633288033917777 0.0043661178929859769 0 0.00058965082934538137 0.004364959176598026 0 -5.0453540306744122e-05 0.0038216397481844223 0 0.00015633288033917777 0.0043661178929859769 0 -0.00019087230416001976 0.0046897997414909126 0 0.00015633288033917777 0.0043661178929859769 0 0.00048090700526047953 0.0048394799168817856 0 0.00058965082934538137 0.004364959176598026 0 -0.00019087230416001976 0.0046897997414909126 0 0.00048090700526047953 0.0048394799168817856 0 -0.00011395546791418898 0.0051538304044941073 0 0.00048090700526047953 0.0048394799168817856 0 0.00075790591232467838 0.0044981900830223659 0 0.00058965082934538137 0.004364959176598026 0 0.00087894091034624417 0.0042628078522550499 0 0.00075790591232467838 0.0044981900830223659 0 0.00058965082934538137 0.004364959176598026 0 0.0010825472603221166 0.004524884687402829 0 0.00087894091034624417 0.0042628078522550499 0 0.00075790591232467838 0.0044981900830223659 0 0.00011081921583404513 0.0029233151600632145 0 -1.873998610364504e-05 0.0035097359883146891 0 0.0010454308000615129 0.0048688335378201308 0 0.001045216651699848 0.0045369700684677649 0 0.0004634539814281626 0.0048442313489517859 0 0.0010825472603221166 0.004524884687402829 0 0.00048090700526047953 0.0048394799168817856 0 0.00075790591232467838 0.0044981900830223659 0 4.1340739542003171e-05 0.0028507176547494036 0 -0.00039949870099944483 0.0041792127040121523 0 0.00050988718770367768 0.0051724757144909839 0 0.00028339110715126998 0.0055478041928509539 0 -0.00010770360892372464 0.005497560118251847 0 0.0010454308000615129 0.0048688335378201308 0 0.0004634539814281626 0.0048442313489517859 0 0.00016268795952136596 0.0053336864144940804 0 0.00050988718770367768 0.0051724757144909839 0 0.00050666115727065586 0.0059132854857477856 0 0.00028339110715126998 0.0055478041928509539 0 0.00028339110715126998 0.0055478041928509539 0 4.7823716911972678e-05 0.0057940779274894098 0 -0.00010770360892372464 0.005497560118251847 0 0.00050666115727065586 0.0059132854857477856 0 0.00028339110715126998 0.0055478041928509539 0 4.7823716911972678e-05 0.0057940779274894098 0 0.00050666115727065586 0.0059132854857477856 0 4.7823716911972678e-05 0.0057940779274894098 0 -0.00016071329190036284 0.0061593346991367249 0 -0.00029443214001969805 0.0058736641493335124 0 -0.00048215237558946281 0.006126588397718599 0 -0.00016071329190036284 0.0061593346991367249 0 -0.00029443214001969805 0.0058736641493335124 0 4.7823716911972678e-05 0.0057940779274894098 0 -0.00016071329190036284 0.0061593346991367249 0 -0.00029443214001969805 0.0058736641493335124 0 4.7823716911972678e-05 0.0057940779274894098 0 -0.00010770360892372464 0.005497560118251847 0 0.00016268795952136596 0.0053336864144940804 0 -0.00011395546791418898 0.0051538304044941073 0 -0.00041847635087513221 0.0053523956851117454 0 -1.873998610364504e-05 0.0035097359883146891 0 -0.0001376136903008106 0.0037325761082246467 0 0.0004634539814281626 0.0048442313489517859 0 0.00016268795952136596 0.0053336864144940804 0 -0.00011395546791418898 0.0051538304044941073 0 -0.00019087230416001976 0.0046897997414909126 0 -0.00011395546791418898 0.0051538304044941073 0 -0.00046434892629908779 0.0050352852334702002 0 -0.00046434892629908779 0.0050352852334702002 0 -0.00093211798172130299 0.0055111544891023713 0 -0.00064323650609804188 0.0045665119787549361 0 -0.00011395546791418898 0.0051538304044941073 0 -0.00046434892629908779 0.0050352852334702002 0 -0.00041847635087513221 0.0053523956851117454 0 0.00016268795952136596 0.0053336864144940804 0 -0.00041847635087513221 0.0053523956851117454 0 -0.00071470472303897129 0.0057829625589626435 0 -0.00077644989689383667 0.0048863230078739208 0 -0.00062625704120285262 0.0044350189676612304 0 -0.00046434892629908779 0.0050352852334702002 0 -0.00041847635087513221 0.0053523956851117454 0 -0.00093211798172130299 0.0055111544891023713 0 -0.00041847635087513221 0.0053523956851117454 0 -0.00071470472303897129 0.0057829625589626435 0 -0.00093211798172130299 0.0055111544891023713 0 -0.00039949870099944483 0.0041792127040121523 0 -0.00066981344010187368 0.0046279849011034444 0 -0.00029443214001969805 0.0058736641493335124 0 -0.00010770360892372464 0.005497560118251847 0 -0.00071470472303897129 0.0057829625589626435 0 -0.00029443214001969805 0.0058736641493335124 0 -0.00071470472303897129 0.0057829625589626435 0 -0.00048215237558946281 0.006126588397718599 0 -0.0010777257605688283 0.0059038132200238411 0 -0.0011378242166684587 0.0053901030927889157 0 -0.0015811288505949176 0.0059634480962371134 0 -0.00071470472303897129 0.0057829625589626435 0 -0.0010777257605688283 0.0059038132200238411 0 -0.00078840446713923705 0.0063331037419993973 0 -0.0010777257605688283 0.0059038132200238411 0 -0.0011378242166684587 0.0053901030927889157 0 -0.00093211798172130299 0.0055111544891023713 0 -0.00071470472303897129 0.0057829625589626435 0 -0.0010777257605688283 0.0059038132200238411 0 -0.00093211798172130299 0.0055111544891023713 0 -0.0010373585326978484 0.0050836434273186931 0 -0.00062625704120285262 0.0044350189676612304 0 -0.0011378242166684587 0.0053901030927889157 0 -0.00093211798172130299 0.0055111544891023713 0 -0.0006825232834491437 0.0048410304755579 0 -0.00079436422596442695 0.004901237633348347 0 -0.0008607743553449475 0.0039847754015266213 0 -0.00022170644366763161 0.0041931844133413897 0 -5.0453540306744122e-05 0.0038216397481844223 0 -0.00019087230416001976 0.0046897997414909126 0 -0.00064323650609804188 0.0045665119787549361 0 -0.00019087230416001976 0.0046897997414909126 0 -0.00046434892629908779 0.0050352852334702002 0 -0.00064323650609804188 0.0045665119787549361 0 -0.00043453900814661788 0.0042204967344378289 0 -0.00062625704120285262 0.0044350189676612304 0 -5.0453540306744122e-05 0.0038216397481844223 0 -0.00066340397360987265 0.0045590862073580001 0 -0.00035709088346148248 0.0037284508799721051 0 -0.00026853984492126369 0.0033507283458577776 0 -0.00022170644366763161 0.0041931844133413897 0 4.5053287996521634e-05 0.0034528741285444306 0 -0.00062625704120285262 0.0044350189676612304 0 -0.00044781846287422051 0.0035232137478376315 0 -0.00011052409632292984 0.0030438479711697615 0 -0.00083498520510627246 0.0038071051026676017 0 -0.00078109385876215629 0.0031642287647405997 0 -0.00049654044095696404 0.0031208561143905469 0 -0.00095283203909380157 0.0038001158087793796 0 -0.00026853984492126369 0.0033507283458577776 0 -0.0008607743553449475 0.0039847754015266213 0 -0.00022170644366763161 0.0041931844133413897 0 -0.00083498520510627246 0.0038071051026676017 0 -0.00078109385876215629 0.0031642287647405997 0 -0.0011776685328674986 0.0033971466047137541 0 -0.0011775903139409599 0.0028225945881919182 0 -0.0011776685328674986 0.0033971466047137541 0 -0.0020308123524923941 0.0030842484684005518 0 -0.00083498520510627246 0.0038071051026676017 0 -0.0011776685328674986 0.0033971466047137541 0 -0.0016482125675049536 0.0036404218564924334 0 -0.0011776685328674986 0.0033971466047137541 0 -0.0020308123524923941 0.0030842484684005518 0 -0.0016482125675049536 0.0036404218564924334 0 -0.0011775903139409599 0.0028225945881919182 0 -0.00078109385876215629 0.0031642287647405997 0 -0.0011776685328674986 0.0033971466047137541 0 -0.0020308123524923941 0.0030842484684005518 0 -0.0016482125675049536 0.0036404218564924334 0 -0.0022895902084585484 0.0039157040993074415 0 -0.0022895902084585484 0.0039157040993074415 0 -0.0015053371638317 0.0045452057566345285 0 -0.0024882547151258028 0.0046454515102151185 0 -0.0016482125675049536 0.0036404218564924334 0 -0.0022895902084585484 0.0039157040993074415 0 -0.0015053371638317 0.0045452057566345285 0 -0.00079436422596442695 0.004901237633348347 0 -0.0008607743553449475 0.0039847754015266213 0 -0.001475786810466151 0.004633145517447191 0 -0.00083498520510627246 0.0038071051026676017 0 -0.0016482125675049536 0.0036404218564924334 0 -0.0015053371638317 0.0045452057566345285 0 -0.00095283203909380157 0.0038001158087793796 0 -0.0014629992050647937 0.0044365222060976052 0 -0.00079436422596442695 0.004901237633348347 0 -0.001442743265693139 0.005123951128321062 0 -0.001475786810466151 0.004633145517447191 0 -0.0010373585326978484 0.0050836434273186931 0 -0.0014704948664799699 0.0056802983399769436 0 -0.00079436422596442695 0.004901237633348347 0 -0.001442743265693139 0.005123951128321062 0 -0.0013873636899829026 0.0056607941939043529 0 -0.0013873636899829026 0.0056607941939043529 0 -0.0021360652392078731 0.0053050792902364641 0 -0.0023633170071660501 0.0059040056845571631 0 -0.001442743265693139 0.005123951128321062 0 -0.0013873636899829026 0.0056607941939043529 0 -0.0021360652392078731 0.0053050792902364641 0 -0.0015053371638317 0.0045452057566345285 0 -0.0021360652392078731 0.0053050792902364641 0 -0.0024882547151258028 0.0046454515102151185 0 -0.0014629992050647937 0.0044365222060976052 0 -0.0017511495635929549 0.0047733310739407472 0 -0.001442743265693139 0.005123951128321062 0 -0.001475786810466151 0.004633145517447191 0 -0.0021360652392078731 0.0053050792902364641 0 -0.0024882547151258028 0.0046454515102151185 0 -0.0028168709839300472 0.0054589823514266146 0 -0.0033212127573130786 0.0048149635705578651 0 -0.0021360652392078731 0.0053050792902364641 0 -0.0028168709839300472 0.0054589823514266146 0 -0.0023633170071660501 0.0059040056845571631 0 -0.0021360652392078731 0.0053050792902364641 0 -0.0024882547151258028 0.0046454515102151185 0 -0.0028168709839300472 0.0054589823514266146 0 -0.0036534480331483188 0.0057751977144932971 0 -0.0028168709839300472 0.0054589823514266146 0 -0.0033212127573130786 0.0048149635705578651 0 -0.0024882547151258028 0.0046454515102151185 0 -0.0033212127573130786 0.0048149635705578651 0 -0.0030013779853904237 0.0040659414680831677 0 -0.0037086864103132214 0.004084882607879964 0 -0.0030013779853904237 0.0040659414680831677 0 -0.0033585654886306255 0.0034810732543595875 0 -0.0037086864103132214 0.004084882607879964 0 -0.0033212127573130786 0.0048149635705578651 0 -0.0030013779853904237 0.0040659414680831677 0 -0.0022895902084585484 0.0039157040993074415 0 -0.0030013779853904237 0.0040659414680831677 0 -0.002741018609913529 0.0034834125784793655 0 -0.0022895902084585484 0.0039157040993074415 0 -0.0024882547151258028 0.0046454515102151185 0 -0.0030013779853904237 0.0040659414680831677 0 -0.0028795007000927677 0.0028734643772958652 0 -0.0020308123524923941 0.0030842484684005518 0 -0.002741018609913529 0.0034834125784793655 0 -0.0020308123524923941 0.0030842484684005518 0 -0.0022895902084585484 0.0039157040993074415 0 -0.002741018609913529 0.0034834125784793655 0 -0.0034464087583078885 0.0028642994829011993 0 -0.0028795007000927677 0.0028734643772958652 0 -0.0033585654886306255 0.0034810732543595875 0 -0.0028795007000927677 0.0028734643772958652 0 -0.002741018609913529 0.0034834125784793655 0 -0.0033585654886306255 0.0034810732543595875 0 -0.0039009170083527298 0.003383901676424844 0 -0.0034464087583078885 0.0028642994829011993 0 -0.0033585654886306255 0.0034810732543595875 0 -0.0030013779853904237 0.0040659414680831677 0 -0.002741018609913529 0.0034834125784793655 0 -0.0033585654886306255 0.0034810732543595875 0 -0.0028345974774560971 0.0091677166027039746 0 -0.0018481636428723006 0.0084460506058549999 0 -0.0029044793619239636 0.0080250286002542994 0 -0.0028345974774560971 0.0091677166027039746 0 -0.0018481636428723006 0.0084460506058549999 0 -0.0016728802988600446 0.0093440981978072952 0 -0.0018481636428723006 0.0084460506058549999 0 -0.00068986264787614169 0.0079976056018282969 0 -0.0011588184730777888 0.0088289060402918142 0 -0.0018481636428723006 0.0084460506058549999 0 -0.0011588184730777888 0.0088289060402918142 0 -0.0016728802988600446 0.0093440981978072952 0 -0.0011588184730777888 0.0088289060402918142 0 -0.0010495583833741268 0.0093715898827912911 0 -0.0016728802988600446 0.0093440981978072952 0 -0.0022356537060736312 0.0072615295787425461 0 -0.0013820123481461492 0.0075684512867784659 0 -0.0018481636428723006 0.0084460506058549999 0 -0.0019135311595701429 0.0074164184498635875 0 -0.00068986264787614169 0.0079976056018282969 0 -0.0035111295134480701 0.0068174675651193842 0 -0.0029044793619239636 0.0080250286002542994 0 -0.0019135311595701429 0.0074164184498635875 0 -0.0018481636428723006 0.0084460506058549999 0 -0.0029044793619239636 0.0080250286002542994 0 -0.0019135311595701429 0.0074164184498635875 0 -0.0035111295134480701 0.0068174675651193842 0 -0.0028976475520354336 0.0062731023018683888 0 -0.0026882076420500526 0.0070235602751202034 0 -0.0027383660522147524 0.007082540293668154 0 -0.0022356537060736312 0.0072615295787425461 0 -0.0036534480331483188 0.0057751977144932971 0 -0.0028168709839300472 0.0054589823514266146 0 -0.0028976475520354336 0.0062731023018683888 0 -0.0036534480331483188 0.0057751977144932971 0 -0.0035111295134480701 0.0068174675651193842 0 -0.0028976475520354336 0.0062731023018683888 0 -0.0028168709839300472 0.0054589823514266146 0 -0.0028976475520354336 0.0062731023018683888 0 -0.0023633170071660501 0.0059040056845571631 0 -0.0028976475520354336 0.0062731023018683888 0 -0.0023633170071660501 0.0059040056845571631 0 -0.0020435217542638627 0.0064730699595997908 0 -0.0028976475520354336 0.0062731023018683888 0 -0.0026882076420500526 0.0070235602751202034 0 -0.0020435217542638627 0.0064730699595997908 0 -0.0020435217542638627 0.0064730699595997908 0 -0.001487919874337165 0.0068973110562321532 0 -0.0019055934115560294 0.0072479982236026419 0 -0.0026882076420500526 0.0070235602751202034 0 -0.0020435217542638627 0.0064730699595997908 0 -0.0019055934115560294 0.0072479982236026419 0 -0.0014704948664799699 0.0056802983399769436 0 -0.0017187179048447038 0.0060004765244053414 0 -0.0013873636899829026 0.0056607941939043529 0 -0.0023633170071660501 0.0059040056845571631 0 -0.0020435217542638627 0.0064730699595997908 0 -0.0010777257605688283 0.0059038132200238411 0 -0.0015811288505949176 0.0059634480962371134 0 -0.0013015217160180198 0.0064051811191990736 0 -0.0015811288505949176 0.0059634480962371134 0 -0.0020435217542638627 0.0064730699595997908 0 -0.0013015217160180198 0.0064051811191990736 0 -0.0013015217160180198 0.0064051811191990736 0 -0.001487919874337165 0.0068973110562321532 0 -0.00099969825132313226 0.0068871043518792616 0 -0.0020435217542638627 0.0064730699595997908 0 -0.0013015217160180198 0.0064051811191990736 0 -0.001487919874337165 0.0068973110562321532 0 -0.0013820123481461492 0.0075684512867784659 0 -0.00062190341594027781 0.00783197369153198 0 -0.001487919874337165 0.0068973110562321532 0 -0.0019055934115560294 0.0072479982236026419 0 -0.0012171991519385138 0.0074721414453311173 0 -0.00068986264787614169 0.0079976056018282969 0 -0.0011588184730777888 0.0088289060402918142 0 -0.00055900254320883031 0.008951660553108828 0 -0.0011588184730777888 0.0088289060402918142 0 -0.00055900254320883031 0.008951660553108828 0 -0.0010495583833741268 0.0093715898827912911 0 -0.00062190341594027781 0.00783197369153198 0 -0.00061018722304677115 0.0086905493259008537 0 -0.00068986264787614169 0.0079976056018282969 0 -0.00055900254320883031 0.008951660553108828 0 0.00040640406541745094 0.0084593052441994873 0 -0.00055900254320883031 0.008951660553108828 0 0.00040640406541745094 0.0084593052441994873 0 -0.00015002808741564183 0.009636370164030697 0 2.4329555659571442e-05 0.0076258447665526379 0 0.00017809839766772594 0.0079965643864625471 0 -0.00037610269201861078 0.0082918632770378337 0 -0.00062190341594027781 0.00783197369153198 0 -0.00039787521599771549 0.0078169668661856734 0 2.4329555659571442e-05 0.0076258447665526379 0 0.00016763208599881942 0.0078531307298837835 0 0.00017809839766772594 0.0079965643864625471 0 0.00016763208599881942 0.0078531307298837835 0 -4.6726385134200328e-05 0.0077171399510260657 0 6.8398005226477974e-05 0.0077738723355041135 0 -0.00039787521599771549 0.0078169668661856734 0 -0.0002866505668317668 0.0078265624113163616 0 -0.00063082982369065416 0.0075708664165491362 0 -0.00057404642893610456 0.0071233567395851162 0 -0.00014732851134009002 0.007352540503924994 0 -0.0011637524993452085 0.0073886930973597357 0 -0.00063082982369065416 0.0075708664165491362 0 -0.00057404642893610456 0.0071233567395851162 0 -0.001487919874337165 0.0068973110562321532 0 -0.0012171991519385138 0.0074721414453311173 0 -0.00099969825132313226 0.0068871043518792616 0 -0.00062190341594027781 0.00783197369153198 0 -0.00062519011903474123 0.0072153186132077321 0 -0.0011637524993452085 0.0073886930973597357 0 -0.00057404642893610456 0.0071233567395851162 0 -0.00096831513500087796 0.0068688609367688292 0 -0.0013015217160180198 0.0064051811191990736 0 -0.00099969825132313226 0.0068871043518792616 0 -0.00078840446713923705 0.0063331037419993973 0 -0.00062519011903474123 0.0072153186132077321 0 -0.00059320242088416902 0.0069448747891775655 0 -0.0010777257605688283 0.0059038132200238411 0 -0.0013015217160180198 0.0064051811191990736 0 -0.00078840446713923705 0.0063331037419993973 0 -0.00071470472303897129 0.0057829625589626435 0 -0.00078840446713923705 0.0063331037419993973 0 -0.00048215237558946281 0.006126588397718599 0 -0.00078840446713923705 0.0063331037419993973 0 -0.00048215237558946281 0.006126588397718599 0 -0.00040729083572653928 0.0065736455238199877 0 -0.00096831513500087796 0.0068688609367688292 0 -0.00078840446713923705 0.0063331037419993973 0 -0.00040729083572653928 0.0065736455238199877 0 -0.00057404642893610456 0.0071233567395851162 0 -0.00040729083572653928 0.0065736455238199877 0 -4.6881588360031004e-05 0.0069701530861613044 0 -0.00057404642893610456 0.0071233567395851162 0 -0.00096831513500087796 0.0068688609367688292 0 -0.00040729083572653928 0.0065736455238199877 0 -0.00040729083572653928 0.0065736455238199877 0 5.4803431273446904e-05 0.0065646253752757082 0 -4.6881588360031004e-05 0.0069701530861613044 0 -0.00040729083572653928 0.0065736455238199877 0 5.4803431273446904e-05 0.0065646253752757082 0 -0.00016071329190036284 0.0061593346991367249 0 -0.00048215237558946281 0.006126588397718599 0 -0.00040729083572653928 0.0065736455238199877 0 -0.00016071329190036284 0.0061593346991367249 0 0.00050666115727065586 0.0059132854857477856 0 5.4803431273446904e-05 0.0065646253752757082 0 -0.00016071329190036284 0.0061593346991367249 0 0.00050666115727065586 0.0059132854857477856 0 5.4803431273446904e-05 0.0065646253752757082 0 0.00047241151922517653 0.0066702901827694113 0 5.4803431273446904e-05 0.0065646253752757082 0 -4.6881588360031004e-05 0.0069701530861613044 0 0.00047241151922517653 0.0066702901827694113 0 -4.6881588360031004e-05 0.0069701530861613044 0 0.00047241151922517653 0.0066702901827694113 0 0.00033980378307074406 0.0073953957064391658 0 -4.6881588360031004e-05 0.0069701530861613044 0 -0.00014732851134009002 0.007352540503924994 0 0.00033980378307074406 0.0073953957064391658 0 -0.00057404642893610456 0.0071233567395851162 0 -4.6881588360031004e-05 0.0069701530861613044 0 -0.00014732851134009002 0.007352540503924994 0 -0.00014732851134009002 0.007352540503924994 0 -4.6726385134200328e-05 0.0077171399510260657 0 0.00033980378307074406 0.0073953957064391658 0 -0.00063082982369065416 0.0075708664165491362 0 -0.00014732851134009002 0.007352540503924994 0 -4.6726385134200328e-05 0.0077171399510260657 0 -4.6726385134200328e-05 0.0077171399510260657 0 0.00033980378307074406 0.0073953957064391658 0 8.1434017758617513e-05 0.0077323375020562409 0 -4.6726385134200328e-05 0.0077171399510260657 0 3.3459470701336428e-05 0.0077135233148322695 0 8.1434017758617513e-05 0.0077323375020562409 0 -4.6726385134200328e-05 0.0077171399510260657 0 3.3459470701336428e-05 0.0077135233148322695 0 6.8398005226477974e-05 0.0077738723355041135 0 3.3459470701336428e-05 0.0077135233148322695 0 8.6646407769799138e-05 0.0076679913733690465 0 6.8398005226477974e-05 0.0077738723355041135 0 3.3459470701336428e-05 0.0077135233148322695 0 0.00015308685063901141 0.0074660559177530889 0 8.6646407769799138e-05 0.0076679913733690465 0 3.3459470701336428e-05 0.0077135233148322695 0 8.1434017758617513e-05 0.0077323375020562409 0 -0.00015674645383797133 0.0075494830914463176 0 7.2485704616061618e-05 0.0070661181679286785 0 0.00015308685063901141 0.0074660559177530889 0 -0.00015674645383797133 0.0075494830914463176 0 3.3459470701336428e-05 0.0077135233148322695 0 0.00015308685063901141 0.0074660559177530889 0 -0.00015674645383797133 0.0075494830914463176 0 7.2485704616061618e-05 0.0070661181679286785 0 4.983987662445501e-07 0.0071629294458363602 0 -8.8005060682177678e-07 0.0062506306482327913 0 7.2485704616061618e-05 0.0070661181679286785 0 -0.00015674645383797133 0.0075494830914463176 0 -8.8005060682177678e-07 0.0062506306482327913 0 4.983987662445501e-07 0.0071629294458363602 0 0.00015308685063901141 0.0074660559177530889 0 9.8202417052313759e-08 0.0080734484811868477 0 7.2485704616061618e-05 0.0070661181679286785 0 4.983987662445501e-07 0.0071629294458363602 0 0.00015308685063901141 0.0074660559177530889 0 0.00015308685063901141 0.0074660559177530889 0 3.8702877310751515e-05 0.007647761191611974 0 8.6646407769799138e-05 0.0076679913733690465 0 3.8702877310751515e-05 0.007647761191611974 0 9.8202417052313759e-08 0.0080734484811868477 0 -1.1270030462981766e-05 0.0077493134022229883 0 -5.4941647013111885e-08 0.0080773074822201637 0 2.4908491075030852e-05 0.0088081654844836023 0 0.00015308685063901141 0.0074660559177530889 0 3.8702877310751515e-05 0.007647761191611974 0 9.8202417052313759e-08 0.0080734484811868477 0 -5.3129986816609315e-07 0.0080765039750043018 0 5.318027487781364e-07 0.0093099292225300254 0 3.0791053853653915e-05 0.0094054745061370754 0 5.318027487781364e-07 0.0093099292225300254 0 3.0791053853653915e-05 0.0094054745061370754 0 3.829666389311148e-05 0.0096515576210050823 0 3.8702877310751515e-05 0.007647761191611974 0 -1.1270030462981766e-05 0.0077493134022229883 0 6.849093122685545e-05 0.0076973802193448498 0 3.8702877310751515e-05 0.007647761191611974 0 6.849093122685545e-05 0.0076973802193448498 0 9.1167961131058154e-05 0.0077311272095735043 0 6.849093122685545e-05 0.0076973802193448498 0 9.1167961131058154e-05 0.0077311272095735043 0 0.00015278851145542673 0.0077461429956706311 0 3.8702877310751515e-05 0.007647761191611974 0 9.1167961131058154e-05 0.0077311272095735043 0 8.6646407769799138e-05 0.0076679913733690465 0 9.1167961131058154e-05 0.0077311272095735043 0 8.6646407769799138e-05 0.0076679913733690465 0 6.8398005226477974e-05 0.0077738723355041135 0 0.00016763208599881942 0.0078531307298837835 0 6.8398005226477974e-05 0.0077738723355041135 0 0.00017809839766772594 0.0079965643864625471 0 9.1167961131058154e-05 0.0077311272095735043 0 6.8398005226477974e-05 0.0077738723355041135 0 0.00017809839766772594 0.0079965643864625471 0 9.1167961131058154e-05 0.0077311272095735043 0 0.00017809839766772594 0.0079965643864625471 0 0.00015278851145542673 0.0077461429956706311 0 0.0001549771326331033 0.0087734414923871362 0 8.7306504383609945e-05 0.0090030169929286048 0 0.00017809839766772594 0.0079965643864625471 0 -0.00037610269201861078 0.0082918632770378337 0 9.5748021591060922e-05 0.0094398948800046706 0 -0.00055900254320883031 0.008951660553108828 0 -0.00015002808741564183 0.009636370164030697 0 -0.00063999317471411909 0.0095487203393156365 0 -0.00055900254320883031 0.008951660553108828 0 -0.00063999317471411909 0.0095487203393156365 0 -0.0010495583833741268 0.0093715898827912911 0 -0.00063999317471411909 0.0095487203393156365 0 -0.0010495583833741268 0.0093715898827912911 0 -0.00090079337332239317 0.0098412317579834978 0 -0.00090079337332239317 0.0098412317579834978 0 -0.0010728246712115718 0.010174029501702214 0 -0.0012822835567211182 0.0098827667309886544 0 -0.0010495583833741268 0.0093715898827912911 0 -0.00090079337332239317 0.0098412317579834978 0 -0.0012822835567211182 0.0098827667309886544 0 -0.00015002808741564183 0.009636370164030697 0 -0.00063999317471411909 0.0095487203393156365 0 -0.00064738863751976218 0.0099059223419416323 0 -0.00063999317471411909 0.0095487203393156365 0 -0.00090079337332239317 0.0098412317579834978 0 -0.00064738863751976218 0.0099059223419416323 0 -0.00064738863751976218 0.0099059223419416323 0 -0.00085697965238727962 0.010112097852986824 0 -0.00073713104021867358 0.010264051286140573 0 -0.00090079337332239317 0.0098412317579834978 0 -0.00064738863751976218 0.0099059223419416323 0 -0.00085697965238727962 0.010112097852986824 0 -0.00090079337332239317 0.0098412317579834978 0 -0.00085697965238727962 0.010112097852986824 0 -0.0010728246712115718 0.010174029501702214 0 -0.00085697965238727962 0.010112097852986824 0 -0.0010728246712115718 0.010174029501702214 0 -0.0010082449104157759 0.01029401151766119 0 -0.00085697965238727962 0.010112097852986824 0 -0.0010082449104157759 0.01029401151766119 0 -0.00073713104021867358 0.010264051286140573 0 -0.00037610269201861078 0.0082918632770378337 0 -0.00073713104021867358 0.010264051286140573 0 9.5748021591060922e-05 0.0094398948800046706 0 -0.00015002808741564183 0.009636370164030697 0 -0.00064738863751976218 0.0099059223419416323 0 -0.00073713104021867358 0.010264051286140573 0 8.7306504383609945e-05 0.0090030169929286048 0 -8.6801020684176659e-05 0.0095842708587466803 0 -0.00061018722304677115 0.0086905493259008537 0 -0.00071141561192451244 0.0091984431638404193 0 -0.00073713104021867358 0.010264051286140573 0 9.5748021591060922e-05 0.0094398948800046706 0 -0.00046768292021270115 0.01072172051015588 0 6.849093122685545e-05 0.0076973802193448498 0 0.00015278851145542673 0.0077461429956706311 0 9.8454693021944549e-05 0.0076944665831605238 0 -1.1270030462981766e-05 0.0077493134022229883 0 6.849093122685545e-05 0.0076973802193448498 0 9.8454693021944549e-05 0.0076944665831605238 0 2.4908491075030852e-05 0.0088081654844836023 0 -8.6801020684176659e-05 0.0095842708587466803 0 -3.7071023108534845e-05 0.0094473697052704139 0 3.829666389311148e-05 0.0096515576210050823 0 -5.3072208651334466e-07 0.010541194505747115 0 3.0791053853653915e-05 0.0094054745061370754 0 -3.7071023108534845e-05 0.0094473697052704139 0 3.829666389311148e-05 0.0096515576210050823 0 5.318027487781364e-07 0.0093099292225300254 0 3.829666389311148e-05 0.0096515576210050823 0 -5.3072208651334466e-07 0.010541194505747115 0 -1.9028543055997222e-06 0.010546064718089648 0 -0.00031398347384080171 0.011769338385408669 0 -0.00050271220687213183 0.012326173057605874 0 -8.6801020684176659e-05 0.0095842708587466803 0 -6.2165541248763714e-07 0.010542157352044175 0 -0.00082677209734269394 0.011935251007803974 0 -1.9028543055997222e-06 0.010546064718089648 0 -0.00031398347384080171 0.011769338385408669 0 -0.00014679625742882702 0.011753172663226298 0 -0.00082677209734269394 0.011935251007803974 0 -0.00031398347384080171 0.011769338385408669 0 -0.00038212237026100505 0.0098813921091226511 0 -8.6801020684176659e-05 0.0095842708587466803 0 -0.0010082449104157759 0.01029401151766119 0 -0.00073713104021867358 0.010264051286140573 0 -0.00046768292021270115 0.01072172051015588 0 -0.00014679625742882702 0.011753172663226298 0 -0.00031398347384080171 0.011769338385408669 0 -0.00050271220687213183 0.012326173057605874 0 -0.00014679625742882702 0.011753172663226298 0 -0.00050271220687213183 0.012326173057605874 0 -0.00093401709907561044 0.011301818537231513 0 -0.00050271220687213183 0.012326173057605874 0 -0.0001633135521504628 0.013099267501015538 0 -0.00045559699907525791 0.013973618327785863 0 -1.9028543055997222e-06 0.010546064718089648 0 -0.00050271220687213183 0.012326173057605874 0 -0.00014018775204797333 0.012416890836271196 0 -1.9028543055997222e-06 0.010546064718089648 0 1.9504670644757902e-07 0.012007553829308461 0 -0.00014018775204797333 0.012416890836271196 0 7.7934220021843805e-05 0.013304334313918156 0 1.9504670644757902e-07 0.012007553829308461 0 -0.00014018775204797333 0.012416890836271196 0 7.7934220021843805e-05 0.013304334313918156 0 -0.0001633135521504628 0.013099267501015538 0 -3.6178018554203968e-05 0.013769254376452865 0 7.7934220021843805e-05 0.013304334313918156 0 -0.00014018775204797333 0.012416890836271196 0 -0.0001633135521504628 0.013099267501015538 0 -0.00050271220687213183 0.012326173057605874 0 -0.00014018775204797333 0.012416890836271196 0 -0.0001633135521504628 0.013099267501015538 0 -0.0001633135521504628 0.013099267501015538 0 -3.6178018554203968e-05 0.013769254376452865 0 -0.00045559699907525791 0.013973618327785863 0 -3.6178018554203968e-05 0.013769254376452865 0 -0.00045559699907525791 0.013973618327785863 0 -0.00013272920754350356 0.014194208543832364 0 -0.00050271220687213183 0.012326173057605874 0 -0.0020804038242900544 0.010403157026385676 0 -0.00093401709907561044 0.011301818537231513 0 -0.0012487440802569701 0.012411348121442331 0 -0.0014533208679229383 0.012275819765971552 0 -0.00038212237026100505 0.0098813921091226511 0 -0.00059918901503982873 0.0098878912029738714 0 -0.0010728246712115718 0.010174029501702214 0 -0.0010082449104157759 0.01029401151766119 0 -0.0013657574297081152 0.010479374149644598 0 -0.00014679625742882702 0.011753172663226298 0 -0.00093401709907561044 0.011301818537231513 0 -0.0013657574297081152 0.010479374149644598 0 -0.0010728246712115718 0.010174029501702214 0 -0.0013657574297081152 0.010479374149644598 0 -0.0012822835567211182 0.0098827667309886544 0 -0.0020804038242900544 0.010403157026385676 0 -0.00093401709907561044 0.011301818537231513 0 -0.0013657574297081152 0.010479374149644598 0 -0.0020804038242900544 0.010403157026385676 0 -0.0013657574297081152 0.010479374149644598 0 -0.0018617960049747105 0.0098321860066394266 0 -0.0013657574297081152 0.010479374149644598 0 -0.0018617960049747105 0.0098321860066394266 0 -0.0012822835567211182 0.0098827667309886544 0 -0.0018617960049747105 0.0098321860066394266 0 -0.0012822835567211182 0.0098827667309886544 0 -0.0016728802988600446 0.0093440981978072952 0 -0.0010495583833741268 0.0093715898827912911 0 -0.0012822835567211182 0.0098827667309886544 0 -0.0016728802988600446 0.0093440981978072952 0 -0.0028345974774560971 0.0091677166027039746 0 -0.0018617960049747105 0.0098321860066394266 0 -0.0016728802988600446 0.0093440981978072952 0 -0.00011707746550852965 0.014624653645481515 0 -0.00045559699907525791 0.013973618327785863 0 -0.00013272920754350356 0.014194208543832364 0 -0.0028345974774560971 0.0091677166027039746 0 -0.0020804038242900544 0.010403157026385676 0 -0.0018617960049747105 0.0098321860066394266 0 -0.0018389821489980824 0.012101748633120388 0 -0.0014533208679229383 0.012275819765971552 0 0.0025055415521508069 0.00048353689994673802 0 0.0024404029406684723 0.00015588578601115959 0 0.0024683350427125461 0.00090142908087799444 0 0.0025055415521508069 0.00048353689994673802 0 0.0025924557193738322 0.00018247993121363811 0 0.0025087994441573892 0.00086580513438436278 0 0.0019306607771669075 0.0016372443352723367 0 0.0021725139663554926 0.001462492642097071 0 0.0017219513756823702 0.0025434243111483908 0 0.0016829095330906034 0.0030497217448617752 0 0.0021864905866140656 0.0022219570060212561 0 0.0014991271248016636 0.0028007860167734619 0 0.0017219513756823702 0.0025434243111483908 0 0.0016829095330906034 0.0030497217448617752 0 0.0025055415521508069 0.00048353689994673802 0 0.0025924557193738322 0.00018247993121363811 0 0.0025254178628627967 0.00021422723907146439 0 0.0017219513756823702 0.0025434243111483908 0 0.0015339947515150408 0.0023094437059569114 0 0.0018174935620039643 0.0022295828244658349 0 0.0014991271248016636 0.0028007860167734619 0 0.0017219513756823702 0.0025434243111483908 0 0.0014500624351258631 0.0025690566075005535 0 0.0017219513756823702 0.0025434243111483908 0 0.0014500624351258631 0.0025690566075005535 0 0.0015339947515150408 0.0023094437059569114 0 0.0014500624351258631 0.0025690566075005535 0 0.0015339947515150408 0.0023094437059569114 0 0.0011968238410712915 0.00235712868494297 0 0.0014500624351258631 0.0025690566075005535 0 0.0012220344674566247 0.0028300101065905081 0 0.0011968238410712915 0.00235712868494297 0 0.0012220344674566247 0.0028300101065905081 0 0.0011968238410712915 0.00235712868494297 0 0.00087913833510830321 0.0026195414746611181 0 0.0012220344674566247 0.0028300101065905081 0 0.00087913833510830321 0.0026195414746611181 0 0.00078785913523264335 0.0031357440290770613 0 0.0014991271248016636 0.0028007860167734619 0 0.0014500624351258631 0.0025690566075005535 0 0.0012220344674566247 0.0028300101065905081 0 0.0014991271248016636 0.0028007860167734619 0 0.0012220344674566247 0.0028300101065905081 0 0.0014092314772226847 0.0029885458995683222 0 0.0014092314772226847 0.0029885458995683222 0 0.0012373583004840051 0.0032708917594512529 0 0.0016829095330906034 0.0030497217448617752 0 0.0012220344674566247 0.0028300101065905081 0 0.0014092314772226847 0.0029885458995683222 0 0.0012373583004840051 0.0032708917594512529 0 0.0012373583004840051 0.0032708917594512529 0 0.0016829095330906034 0.0030497217448617752 0 0.0012279628806454953 0.0037738407214343264 0 0.0012220344674566247 0.0028300101065905081 0 0.0012373583004840051 0.0032708917594512529 0 0.00078785913523264335 0.0031357440290770613 0 0.0012373583004840051 0.0032708917594512529 0 0.00078785913523264335 0.0031357440290770613 0 0.00084967873048055103 0.0035363076704758773 0 0.0025533744315993159 0.00014054310148768737 0 0.0025362860474528468 0.00010018676089057103 0 0.0025500355634764074 7.9907385343537602e-05 0 0.0025924557193738322 0.00018247993121363811 0 0.0025533744315993159 0.00014054310148768737 0 0.0025500355634764074 7.9907385343537602e-05 0 0.0019306607771669075 0.0016372443352723367 0 0.0015296145448237069 0.0019183150308261538 0 0.0014991271248016636 0.0028007860167734619 0 0.0014092314772226847 0.0029885458995683222 0 0.0016829095330906034 0.0030497217448617752 0 0.0025055415521508069 0.00048353689994673802 0 0.0025254178628627967 0.00021422723907146439 0 0.0024404029406684723 0.00015588578601115959 0 0.0025924557193738322 0.00018247993121363811 0 0.0025254178628627967 0.00021422723907146439 0 0.0025533744315993159 0.00014054310148768737 0 0.0027871631276905622 -8.3687326468728936e-05 0 0.0027938925794461968 -8.6987720581334252e-05 0 0.0025254178628627967 0.00021422723907146439 0 0.0025533744315993159 0.00014054310148768737 0 0.0024404029406684723 0.00015588578601115959 0 0.0025533744315993159 0.00014054310148768737 0 0.0025268023602627019 0.0001091002932537395 0 0.0025289787306493573 0.0001042033268650531 0 0.0025533744315993159 0.00014054310148768737 0 0.0025289787306493573 0.0001042033268650531 0 0.0025362860474528468 0.00010018676089057103 0 0.0025289787306493573 0.0001042033268650531 0 0.0025362860474528468 0.00010018676089057103 0 0.0025307396428885906 8.8788475722691252e-05 0 0.0025268023602627019 0.0001091002932537395 0 0.0025341247883668948 6.527020940474588e-05 0 0.0025540039492942352 -6.7052381344378284e-05 0 0.0027938925794461968 -8.6987720581334252e-05 0 0.0029293435568134526 -0.00026014810316522856 0 0.0025362860474528468 0.00010018676089057103 0 0.0025307396428885906 8.8788475722691252e-05 0 0.0025335920203811979 8.585205080734812e-05 0 0.0025289787306493573 0.0001042033268650531 0 0.0025307396428885906 8.8788475722691252e-05 0 0.0025341247883668948 6.527020940474588e-05 0 0.0025348061969481532 7.4819178520050647e-05 0 0.0025335920203811979 8.585205080734812e-05 0 0.0025418760108386327 5.7480027945809998e-05 0 0.0025307396428885906 8.8788475722691252e-05 0 0.0025348061969481532 7.4819178520050647e-05 0 0.0025341247883668948 6.527020940474588e-05 0 0.0025307396428885906 8.8788475722691252e-05 0 0.0025348061969481532 7.4819178520050647e-05 0 0.0025335920203811979 8.585205080734812e-05 0 0.0025418760108386327 5.7480027945809998e-05 0 0.0025559547884759595 5.9449807564967541e-05 0 0.0025469161809680125 8.0667983183695758e-05 0 0.0025335920203811979 8.585205080734812e-05 0 0.0025418760108386327 5.7480027945809998e-05 0 0.0025469161809680125 8.0667983183695758e-05 0 0.0025348061969481532 7.4819178520050647e-05 0 0.0025418760108386327 5.7480027945809998e-05 0 0.0025341247883668948 6.527020940474588e-05 0 0.0025418760108386327 5.7480027945809998e-05 0 0.0025341247883668948 6.527020940474588e-05 0 0.0025540039492942352 -6.7052381344378284e-05 0 0.0025268023602627019 0.0001091002932537395 0 0.0025289787306493573 0.0001042033268650531 0 0.0025341247883668948 6.527020940474588e-05 0 0.0025786299921353299 6.9603207064543603e-05 0 0.0025685930628476959 2.1392837054777178e-05 0 0.0026553698893238649 -2.924551582619529e-05 0 0.0025418760108386327 5.7480027945809998e-05 0 0.0025559547884759595 5.9449807564967541e-05 0 0.0025685930628476959 2.1392837054777178e-05 0 0.0025786299921353299 6.9603207064543603e-05 0 0.0025559547884759595 5.9449807564967541e-05 0 0.0025469161809680125 8.0667983183695758e-05 0 0.0025786299921353299 6.9603207064543603e-05 0 0.0025559547884759595 5.9449807564967541e-05 0 0.0025685930628476959 2.1392837054777178e-05 0 0.0025418760108386327 5.7480027945809998e-05 0 0.0025685930628476959 2.1392837054777178e-05 0 0.0025540039492942352 -6.7052381344378284e-05 0 0.0025685930628476959 2.1392837054777178e-05 0 0.0025540039492942352 -6.7052381344378284e-05 0 0.0026553698893238649 -2.924551582619529e-05 0 0.0031903291077498277 -0.00060652151547728797 0 0.0032055800071938635 -0.00059239960232394947 0 0.0031971339596222415 -0.00057463691979807679 0 0.0031903291077498277 -0.00060652151547728797 0 0.0031690463524529917 -0.00057859120222753359 0 0.0031971339596222415 -0.00057463691979807679 0 0.0032289602233263972 -0.00061824183198379225 0 0.0031903291077498277 -0.00060652151547728797 0 0.0032055800071938635 -0.00059239960232394947 0 0.0032289602233263972 -0.00061824183198379225 0 0.0032055800071938635 -0.00059239960232394947 0 0.0032170968263399609 -0.00057666707333622934 0 0.0027938925794461968 -8.6987720581334252e-05 0 0.0028606651716098271 2.3349603573807541e-05 0 0.0025055415521508069 0.00048353689994673802 0 0.0024683350427125461 0.00090142908087799444 0 0.0025087994441573892 0.00086580513438436278 0 0.0024683350427125461 0.00090142908087799444 0 0.0025087994441573892 0.00086580513438436278 0 0.00267134478828389 0.001038617807453026 0 0.0021725139663554926 0.001462492642097071 0 0.0022995187578078238 0.0013110331517042395 0 0.0032055800071938635 -0.00059239960232394947 0 0.0032170968263399609 -0.00057666707333622934 0 0.0031971339596222415 -0.00057463691979807679 0 0.0032170968263399609 -0.00057666707333622934 0 0.0031971339596222415 -0.00057463691979807679 0 0.0032050299818657483 -0.00055024833509239798 0 0.0031690463524529917 -0.00057859120222753359 0 0.0031971339596222415 -0.00057463691979807679 0 0.0031722313683041066 -0.00056381798977040765 0 0.0031971339596222415 -0.00057463691979807679 0 0.0031722313683041066 -0.00056381798977040765 0 0.0031886088137367172 -0.00055622175588732395 0 0.0031971339596222415 -0.00057463691979807679 0 0.0031886088137367172 -0.00055622175588732395 0 0.0032050299818657483 -0.00055024833509239798 0 0.0031722313683041066 -0.00056381798977040765 0 0.0031758139863716033 -0.00054821088754406411 0 0.0031886088137367172 -0.00055622175588732395 0 0.0031758139863716033 -0.00054821088754406411 0 0.0031932685153673299 -0.00054378999156945559 0 0.0031886088137367172 -0.00055622175588732395 0 0.0031932685153673299 -0.00054378999156945559 0 0.0032050299818657483 -0.00055024833509239798 0 0.003201578163572708 -0.00053281637308808742 0 0.0031932685153673299 -0.00054378999156945559 0 0.0031886088137367172 -0.00055622175588732395 0 0.0032050299818657483 -0.00055024833509239798 0 0.0032214062231751359 -0.00052093683525862729 0 0.003191488560971819 -0.00052144632350731074 0 0.003201578163572708 -0.00053281637308808742 0 0.0032214062231751359 -0.00052093683525862729 0 0.0032050299818657483 -0.00055024833509239798 0 0.003201578163572708 -0.00053281637308808742 0 0.003191488560971819 -0.00052144632350731074 0 0.003201578163572708 -0.00053281637308808742 0 0.003186873392382513 -0.00053552069170792677 0 0.0031932685153673299 -0.00054378999156945559 0 0.003201578163572708 -0.00053281637308808742 0 0.003186873392382513 -0.00053552069170792677 0 0.0031758139863716033 -0.00054821088754406411 0 0.0031932685153673299 -0.00054378999156945559 0 0.003186873392382513 -0.00053552069170792677 0 0.003191488560971819 -0.00052144632350731074 0 0.003186873392382513 -0.00053552069170792677 0 0.0031738662578825057 -0.00053382509258644581 0 0.0031758139863716033 -0.00054821088754406411 0 0.003186873392382513 -0.00053552069170792677 0 0.0031738662578825057 -0.00053382509258644581 0 0.0032214062231751359 -0.00052093683525862729 0 0.0032170968263399609 -0.00057666707333622934 0 0.0032050299818657483 -0.00055024833509239798 0 0.0021864905866140656 0.0022219570060212561 0 0.0022265512617730891 0.0014909364254983718 0 0.00267134478828389 0.001038617807453026 0 0.0027411229892497502 0.0010463432006525748 0 0.0024683350427125461 0.00090142908087799444 0 0.00267134478828389 0.001038617807453026 0 0.0029354291739927688 4.1842242258354318e-05 0 0.0028606651716098271 2.3349603573807541e-05 0 0.0025020944222670753 0.00092227130366722202 0 0.0027411229892497502 0.0010463432006525748 0 0.00267134478828389 0.001038617807453026 0 0.0025020944222670753 0.00092227130366722202 0 0.00267134478828389 0.001038617807453026 0 0.002281984863153039 0.0010858508154710635 0 0.0022265512617730891 0.0014909364254983718 0 0.00267134478828389 0.001038617807453026 0 0.002281984863153039 0.0010858508154710635 0 0.0018465636687113171 0.000947801399433111 0 0.002281984863153039 0.0010858508154710635 0 0.0019435633859590771 0.0013630209644165984 0 0.0018465636687113171 0.000947801399433111 0 0.0015576090978587801 0.0012373055517929765 0 0.0019435633859590771 0.0013630209644165984 0 0.0013318687793885755 0.00081258895586668793 0 0.0018465636687113171 0.000947801399433111 0 0.0015576090978587801 0.0012373055517929765 0 0.0015576090978587801 0.0012373055517929765 0 0.0015588024976185499 0.0016387515265082707 0 0.0019435633859590771 0.0013630209644165984 0 0.0015588024976185499 0.0016387515265082707 0 0.0019435633859590771 0.0013630209644165984 0 0.0020184396104337664 0.001811149680826943 0 0.0022265512617730891 0.0014909364254983718 0 0.0019435633859590771 0.0013630209644165984 0 0.0020184396104337664 0.001811149680826943 0 0.0022265512617730891 0.0014909364254983718 0 0.002281984863153039 0.0010858508154710635 0 0.0019435633859590771 0.0013630209644165984 0 0.0021864905866140656 0.0022219570060212561 0 0.0022265512617730891 0.0014909364254983718 0 0.0020184396104337664 0.001811149680826943 0 0.0020184396104337664 0.001811149680826943 0 0.0016817559904361479 0.0019966919095908957 0 0.0019526178085405453 0.0020674827848431894 0 0.0015588024976185499 0.0016387515265082707 0 0.0020184396104337664 0.001811149680826943 0 0.0016817559904361479 0.0019966919095908957 0 0.0016817559904361479 0.0019966919095908957 0 0.0015339947515150408 0.0023094437059569114 0 0.0018174935620039643 0.0022295828244658349 0 0.0016817559904361479 0.0019966919095908957 0 0.0018174935620039643 0.0022295828244658349 0 0.0019526178085405453 0.0020674827848431894 0 0.0021864905866140656 0.0022219570060212561 0 0.0020184396104337664 0.001811149680826943 0 0.0019526178085405453 0.0020674827848431894 0 0.0017219513756823702 0.0025434243111483908 0 0.0021864905866140656 0.0022219570060212561 0 0.0018174935620039643 0.0022295828244658349 0 0.0021864905866140656 0.0022219570060212561 0 0.0018174935620039643 0.0022295828244658349 0 0.0019526178085405453 0.0020674827848431894 0 0.0011968238410712915 0.00235712868494297 0 0.00085118333837288758 0.0019696731709281583 0 0.00087913833510830321 0.0026195414746611181 0 0.0011968238410712915 0.00235712868494297 0 0.0012526970690927791 0.0018997499509461327 0 0.00085118333837288758 0.0019696731709281583 0 0.0015339947515150408 0.0023094437059569114 0 0.0011968238410712915 0.00235712868494297 0 0.0012526970690927791 0.0018997499509461327 0 0.0016817559904361479 0.0019966919095908957 0 0.0015339947515150408 0.0023094437059569114 0 0.0012526970690927791 0.0018997499509461327 0 0.0015588024976185499 0.0016387515265082707 0 0.0016817559904361479 0.0019966919095908957 0 0.0012526970690927791 0.0018997499509461327 0 0.0012526970690927791 0.0018997499509461327 0 0.001100839961885533 0.0014240050683614299 0 0.00085118333837288758 0.0019696731709281583 0 0.0008877430514245522 0.00096932835432752054 0 0.001100839961885533 0.0014240050683614299 0 0.00073461629244793978 0.0014177570094659521 0 0.0015588024976185499 0.0016387515265082707 0 0.0012526970690927791 0.0018997499509461327 0 0.001100839961885533 0.0014240050683614299 0 0.0015576090978587801 0.0012373055517929765 0 0.0015588024976185499 0.0016387515265082707 0 0.001100839961885533 0.0014240050683614299 0 0.0013318687793885755 0.00081258895586668793 0 0.0015576090978587801 0.0012373055517929765 0 0.001100839961885533 0.0014240050683614299 0 0.00048061343954508855 0.0010407908346975647 0 0.00073461629244793978 0.0014177570094659521 0 0.00031223264231616902 0.0017431165199057201 0 0.00073461629244793978 0.0014177570094659521 0 0.00031223264231616902 0.0017431165199057201 0 0.00085118333837288758 0.0019696731709281583 0 0.001100839961885533 0.0014240050683614299 0 0.00073461629244793978 0.0014177570094659521 0 0.00085118333837288758 0.0019696731709281583 0 -0.00023631634116012026 0.0014252380515475565 0 9.9831148875192339e-05 0.0012458630117963773 0 0.00031223264231616902 0.0017431165199057201 0 0.00035744898129896403 0.00092732888719029719 0 0.00031053857808365117 0.0011730205604838617 0 0.00015695575664472828 0.0022037979494187567 0 -0.00024444071238050768 0.0020441872450485984 0 5.126941270312928e-05 0.0026689248436624746 0 0.00031223264231616902 0.0017431165199057201 0 0.00015695575664472828 0.0022037979494187567 0 0.00053403863355171459 0.0024439804980631989 0 0.00031223264231616902 0.0017431165199057201 0 0.00015695575664472828 0.0022037979494187567 0 -0.00024444071238050768 0.0020441872450485984 0 0.00031223264231616902 0.0017431165199057201 0 0.00085118333837288758 0.0019696731709281583 0 0.00053403863355171459 0.0024439804980631989 0 0.00085118333837288758 0.0019696731709281583 0 0.00087913833510830321 0.0026195414746611181 0 0.00053403863355171459 0.0024439804980631989 0 -0.00094122764686601257 0.001296154885193214 0 -0.00059502292079267156 0.0015855707439578577 0 -0.00097121315820602354 0.0020799001691909134 0 -0.00010957178072408312 0.0036081308187237882 0 -0.0001934277839606615 0.004346613699643816 0 -0.00059502292079267156 0.0015855707439578577 0 -0.00024444071238050768 0.0020441872450485984 0 -0.00097121315820602354 0.0020799001691909134 0 -0.00023631634116012026 0.0014252380515475565 0 0.00031223264231616902 0.0017431165199057201 0 -0.00024444071238050768 0.0020441872450485984 0 -0.00023631634116012026 0.0014252380515475565 0 -0.00059502292079267156 0.0015855707439578577 0 -0.00024444071238050768 0.0020441872450485984 0 -0.00024444071238050768 0.0020441872450485984 0 -0.00097121315820602354 0.0020799001691909134 0 -0.00048474312586424464 0.0026102253713426496 0 -0.00095431974791320665 0.0029479972973441753 0 -0.00048474312586424464 0.0026102253713426496 0 -0.00031186863693354175 0.0033270724467342528 0 -0.0001934277839606615 0.004346613699643816 0 -0.00024080938250326295 0.0050346746185528151 0 -0.00097121315820602354 0.0020799001691909134 0 -0.00095431974791320665 0.0029479972973441753 0 -0.00048474312586424464 0.0026102253713426496 0 -0.00024444071238050768 0.0020441872450485984 0 -0.00048474312586424464 0.0026102253713426496 0 5.126941270312928e-05 0.0026689248436624746 0 -0.00048474312586424464 0.0026102253713426496 0 -0.00031186863693354175 0.0033270724467342528 0 5.126941270312928e-05 0.0026689248436624746 0 -0.00095431974791320665 0.0029479972973441753 0 -0.00031186863693354175 0.0033270724467342528 0 -0.00084453067384708698 0.0037985542018171628 0 -0.00024080938250326295 0.0050346746185528151 0 -0.00024630476089418986 0.0055787164011065786 0 0.00048673680265218672 0.0028899203948710506 0 0.00087913833510830321 0.0026195414746611181 0 0.00078785913523264335 0.0031357440290770613 0 0.00048673680265218672 0.0028899203948710506 0 0.00087913833510830321 0.0026195414746611181 0 0.00053403863355171459 0.0024439804980631989 0 0.00048673680265218672 0.0028899203948710506 0 0.00053403863355171459 0.0024439804980631989 0 5.126941270312928e-05 0.0026689248436624746 0 0.00015695575664472828 0.0022037979494187567 0 0.00053403863355171459 0.0024439804980631989 0 5.126941270312928e-05 0.0026689248436624746 0 0.00048673680265218672 0.0028899203948710506 0 5.126941270312928e-05 0.0026689248436624746 0 0.00026774165680933527 0.0032481339396203618 0 -0.00031186863693354175 0.0033270724467342528 0 5.126941270312928e-05 0.0026689248436624746 0 0.00026774165680933527 0.0032481339396203618 0 -0.00031186863693354175 0.0033270724467342528 0 0.00026774165680933527 0.0032481339396203618 0 0.00010995363479520885 0.0038518024844051207 0 0.00026774165680933527 0.0032481339396203618 0 0.00078785913523264335 0.0031357440290770613 0 0.00049988163990464282 0.0035410672875354535 0 0.00048673680265218672 0.0028899203948710506 0 0.00026774165680933527 0.0032481339396203618 0 0.00078785913523264335 0.0031357440290770613 0 0.00078785913523264335 0.0031357440290770613 0 0.00084967873048055103 0.0035363076704758773 0 0.00049988163990464282 0.0035410672875354535 0 0.00084967873048055103 0.0035363076704758773 0 0.00054818110277034975 0.0038949805067288322 0 0.00049988163990464282 0.0035410672875354535 0 0.00026774165680933527 0.0032481339396203618 0 0.00049988163990464282 0.0035410672875354535 0 0.00010995363479520885 0.0038518024844051207 0 0.00054818110277034975 0.0038949805067288322 0 0.00049988163990464282 0.0035410672875354535 0 0.00010995363479520885 0.0038518024844051207 0 0.00054818110277034975 0.0038949805067288322 0 0.00010995363479520885 0.0038518024844051207 0 0.00030653893207530601 0.0043110642525941816 0 0.00010995363479520885 0.0038518024844051207 0 0.00030653893207530601 0.0043110642525941816 0 9.3679160637579446e-05 0.0045776652713702768 0 0.00030653893207530601 0.0043110642525941816 0 0.00054286245961260922 0.0042331087110119171 0 0.00038004228666783154 0.0044788925580546363 0 0.00054818110277034975 0.0038949805067288322 0 0.00054286245961260922 0.0042331087110119171 0 0.0012279628806454953 0.0037738407214343264 0 0.00054286245961260922 0.0042331087110119171 0 0.00038004228666783154 0.0044788925580546363 0 0.00075043482293679902 0.0044208950062090899 0 0.00054818110277034975 0.0038949805067288322 0 0.00030653893207530601 0.0043110642525941816 0 0.00054286245961260922 0.0042331087110119171 0 -0.00031186863693354175 0.0033270724467342528 0 -0.00084453067384708698 0.0037985542018171628 0 -0.00027145858737806874 0.0042005744321863981 0 -0.00031186863693354175 0.0033270724467342528 0 0.00010995363479520885 0.0038518024844051207 0 -0.00027145858737806874 0.0042005744321863981 0 0.00010995363479520885 0.0038518024844051207 0 -0.00027145858737806874 0.0042005744321863981 0 9.3679160637579446e-05 0.0045776652713702768 0 -0.00024630476089418986 0.0055787164011065786 0 -0.00017394552059557083 0.0059436148329225285 0 -0.00084453067384708698 0.0037985542018171628 0 -0.00027145858737806874 0.0042005744321863981 0 -0.00067546699845728105 0.0046570306221826036 0 -0.00027145858737806874 0.0042005744321863981 0 -0.00067546699845728105 0.0046570306221826036 0 -2.7266877136802342e-05 0.0050033168705334802 0 -0.00027145858737806874 0.0042005744321863981 0 -2.7266877136802342e-05 0.0050033168705334802 0 9.3679160637579446e-05 0.0045776652713702768 0 -2.7266877136802342e-05 0.0050033168705334802 0 9.3679160637579446e-05 0.0045776652713702768 0 0.00014806837769664382 0.0046951431530130386 0 -2.7266877136802342e-05 0.0050033168705334802 0 8.0539849772564698e-07 0.0050277600837308435 0 0.00014806837769664382 0.0046951431530130386 0 -0.00067546699845728105 0.0046570306221826036 0 -2.7266877136802342e-05 0.0050033168705334802 0 -1.6400673388487243e-06 0.0062469879924757559 0 -2.7266877136802342e-05 0.0050033168705334802 0 8.0539849772564698e-07 0.0050277600837308435 0 -1.6400673388487243e-06 0.0062469879924757559 0 -0.00017394552059557083 0.0059436148329225285 0 -3.7374825529027659e-07 0.0062487206745786101 0 0.00038004228666783154 0.0044788925580546363 0 0.00021707711839394968 0.0045358089938472811 0 0.00015376212989518334 0.0044913954106468304 0 0.00021707711839394968 0.0045358089938472811 0 0.00014684624926771802 0.0044137397115871346 0 0.00015376212989518334 0.0044913954106468304 0 0.00032599345768136151 0.0032955215831701628 0 0.00077477016707174081 0.002547775265995051 0 3.708050525744007e-07 0.0028412556521764348 0 5.3728108164484318e-05 0.0026750965396028204 0 0.00011498327499597467 0.0026579692789658982 0 0.00038004228666783154 0.0044788925580546363 0 0.00015376212989518334 0.0044913954106468304 0 0.00043995044704777465 0.0044735221436638835 0 0.00069507698150844406 0.0026325655956489927 0 0.00077477016707174081 0.002547775265995051 0 0.00030653893207530601 0.0043110642525941816 0 0.00038004228666783154 0.0044788925580546363 0 0.00021707711839394968 0.0045358089938472811 0 0.00030653893207530601 0.0043110642525941816 0 9.3679160637579446e-05 0.0045776652713702768 0 0.00021707711839394968 0.0045358089938472811 0 9.3679160637579446e-05 0.0045776652713702768 0 0.00021707711839394968 0.0045358089938472811 0 0.00014806837769664382 0.0046951431530130386 0 8.0539849772564698e-07 0.0050277600837308435 0 0.00014806837769664382 0.0046951431530130386 0 -2.6314263026468474e-08 0.0038080021698809179 0 0.00014684624926771802 0.0044137397115871346 0 0.00014806837769664382 0.0046951431530130386 0 -2.6314263026468474e-08 0.0038080021698809179 0 0.00021707711839394968 0.0045358089938472811 0 0.00014684624926771802 0.0044137397115871346 0 0.00014806837769664382 0.0046951431530130386 0 6.2276645235680199e-07 0.0038054991897396601 0 0.00032599345768136151 0.0032955215831701628 0 -8.6661453906523626e-07 0.0038048967033509967 0 3.708050525744007e-07 0.0028412556521764348 0 8.3134375506661617e-07 0.0027537345376455091 0 0.00014684624926771802 0.0044137397115871346 0 -2.6314263026468474e-08 0.0038080021698809179 0 0.00015376212989518334 0.0044913954106468304 0 3.708050525744007e-07 0.0028412556521764348 0 8.3134375506661617e-07 0.0027537345376455091 0 5.3728108164484318e-05 0.0026750965396028204 0 8.3134375506661617e-07 0.0027537345376455091 0 6.6024393010625661e-05 0.0025064210030211905 0 5.3728108164484318e-05 0.0026750965396028204 0 8.3134375506661617e-07 0.0027537345376455091 0 -7.7200958271932474e-07 0.0017038157992786301 0 6.6024393010625661e-05 0.0025064210030211905 0 -7.7200958271932474e-07 0.0017038157992786301 0 6.6024393010625661e-05 0.0025064210030211905 0 -0.00022440325369147858 0.0024069317868913049 0 6.6024393010625661e-05 0.0025064210030211905 0 -9.96332325111573e-05 0.0028451926101431728 0 -0.00022440325369147858 0.0024069317868913049 0 6.6024393010625661e-05 0.0025064210030211905 0 0.00011498327499597467 0.0026579692789658982 0 -9.96332325111573e-05 0.0028451926101431728 0 6.6024393010625661e-05 0.0025064210030211905 0 5.3728108164484318e-05 0.0026750965396028204 0 0.00011498327499597467 0.0026579692789658982 0 0.0025355202473837145 9.7149174618240672e-05 0 0.002539207557430955 8.7598335421184287e-05 0 0.0025500355634764074 7.9907385343537602e-05 0 0.00077477016707174081 0.002547775265995051 0 0.0011745100464062895 0.0014902859060741739 0 0.00054286245961260922 0.0042331087110119171 0 0.00075043482293679902 0.0044208950062090899 0 0.0012279628806454953 0.0037738407214343264 0 0.00077477016707174081 0.002547775265995051 0 0.0015296145448237069 0.0019183150308261538 0 0.0025362860474528468 0.00010018676089057103 0 0.0025371181551229216 8.9216006100313323e-05 0 0.0025500355634764074 7.9907385343537602e-05 0 0.002539207557430955 8.7598335421184287e-05 0 0.0025371181551229216 8.9216006100313323e-05 0 0.0025500355634764074 7.9907385343537602e-05 0 0.002539207557430955 8.7598335421184287e-05 0 0.0025371181551229216 8.9216006100313323e-05 0 0.0025400593648730934 8.7310603144688818e-05 0 0.0025362860474528468 0.00010018676089057103 0 0.0025335920203811979 8.585205080734812e-05 0 0.0025371181551229216 8.9216006100313323e-05 0 0.00084967873048055103 0.0035363076704758773 0 0.00054818110277034975 0.0038949805067288322 0 0.0012279628806454953 0.0037738407214343264 0 0.0012373583004840051 0.0032708917594512529 0 0.00084967873048055103 0.0035363076704758773 0 0.0012279628806454953 0.0037738407214343264 0 0.0025786299921353299 6.9603207064543603e-05 0 0.0025593507929072695 0.00016938491302025775 0 0.0027534998674526878 8.5204040557768779e-05 0 0.0025786299921353299 6.9603207064543603e-05 0 0.0025562633936537195 9.3561012034823937e-05 0 0.0025469161809680125 8.0667983183695758e-05 0 0.0015649452889869733 0.00038768121076503359 0 0.0015077747511272248 0.00046876716158991406 0 0.0025335920203811979 8.585205080734812e-05 0 0.0025469161809680125 8.0667983183695758e-05 0 0.0025400593648730934 8.7310603144688818e-05 0 0.002539207557430955 8.7598335421184287e-05 0 0.0025562633936537195 9.3561012034823937e-05 0 0.0025400593648730934 8.7310603144688818e-05 0 0.0011745100464062895 0.0014902859060741739 0 0.0015077747511272248 0.00046876716158991406 0 0.0025562633936537195 9.3561012034823937e-05 0 0.0025469161809680125 8.0667983183695758e-05 0 0.0025400593648730934 8.7310603144688818e-05 0 0.0025335920203811979 8.585205080734812e-05 0 0.0025371181551229216 8.9216006100313323e-05 0 0.0025400593648730934 8.7310603144688818e-05 0 -9.96332325111573e-05 0.0028451926101431728 0 -0.00062310948040124477 0.0030840151845787701 0 -0.00055390842807958804 0.0026108210357628299 0 0.0015077747511272248 0.00046876716158991406 0 0.00066273976773759341 0.00092389566921066571 0 0.0011875939976371899 -0.000804477695995572 0 0.0011417787985942447 -0.00057284653115928128 0 0.0013177228519874312 -0.00067579958450043269 0 0.0011417787985942447 -0.00057284653115928128 0 0.0012589211385981645 -0.00050616974572543886 0 0.0013177228519874312 -0.00067579958450043269 0 0.0011417787985942447 -0.00057284653115928128 0 0.0012589211385981645 -0.00050616974572543886 0 0.0010953207231279832 -0.00033614814974019288 0 0.00066273976773759341 0.00092389566921066571 0 9.1184073127775279e-05 0.0010114863768099836 0 -0.00055390842807958804 0.0026108210357628299 0 -0.00022440325369147858 0.0024069317868913049 0 -0.00053687565883560134 0.001902872230830042 0 -9.96332325111573e-05 0.0028451926101431728 0 -0.00055390842807958804 0.0026108210357628299 0 -0.00022440325369147858 0.0024069317868913049 0 -7.7200958271932474e-07 0.0017038157992786301 0 -0.00022440325369147858 0.0024069317868913049 0 -0.00053687565883560134 0.001902872230830042 0 9.1184073127775279e-05 0.0010114863768099836 0 1.3524365943734633e-06 0.00098203289092679553 0 3.7247310255394061e-08 0.0016996527406545471 0 9.1184073127775279e-05 0.0010114863768099836 0 1.7623546521571094e-10 0.0017013049200884122 0 3.2109460397368409e-08 0.00095248541430449163 0 6.5150747354094592e-11 0.00098220023942171436 0 0.0012589211385981645 -0.00050616974572543886 0 0.0010953207231279832 -0.00033614814974019288 0 0.0013124493661014766 -0.00038761382283710193 0 9.1184073127775279e-05 0.0010114863768099836 0 0.00077434362433036403 -9.2755062346377209e-05 0 -1.7516469655533071e-05 0.00084324028266123912 0 -2.8136831282393553e-07 0.00098038244796046529 0 -1.0961385334217581e-06 -0.00034956707732336159 0 -2.8136831282393553e-07 0.00098038244796046529 0 -1.0961385334217581e-06 -0.00034956707732336159 0 1.9071194443787088e-07 -0.00046434917717001956 0 0.00077434362433036403 -9.2755062346377209e-05 0 0.00099467471827200445 -0.00096338598203731007 0 -1.0961385334217581e-06 -0.00034956707732336159 0 1.9071194443787088e-07 -0.00046434917717001956 0 5.3043675282705029e-06 -0.0011982936082044545 0 -2.9081851261128002e-07 -0.00046574710040194172 0 9.4590307468759684e-08 -0.0018059320344864813 0 -2.9053799755840557e-05 -0.0018621217075032916 0 1.0723195015176375e-07 -0.00046639849225916559 0 0.00014229001676220514 -0.0010324961411101998 0 1.9071194443787088e-07 -0.00046434917717001956 0 5.3043675282705029e-06 -0.0011982936082044545 0 5.2829131418098705e-05 -0.0012242714888865045 0 0.0015257068696525951 -0.00044050186667273671 0 0.0014247948449343717 -0.00055532435962663939 0 0.0015669367515408464 -0.00061189260700407944 0 0.0013124493661014766 -0.00038761382283710193 0 0.0015257068696525951 -0.00044050186667273671 0 0.0014247948449343717 -0.00055532435962663939 0 0.0012589211385981645 -0.00050616974572543886 0 0.0013124493661014766 -0.00038761382283710193 0 0.0014247948449343717 -0.00055532435962663939 0 0.0012589211385981645 -0.00050616974572543886 0 0.0014247948449343717 -0.00055532435962663939 0 0.0013177228519874312 -0.00067579958450043269 0 6.8229863849905603e-05 -0.0023201273490396522 0 9.4590307468759684e-08 -0.0018059320344864813 0 5.2170181683181202e-07 -0.0031457263190310379 0 6.8229863849905603e-05 -0.0023201273490396522 0 0.00015308671027246826 -0.0026566658200636215 0 5.2170181683181202e-07 -0.0031457263190310379 0 5.2829131418098705e-05 -0.0012242714888865045 0 0.00016226520581993827 -0.0025449274163622149 0 0.00015308671027246826 -0.0026566658200636215 0 5.3043675282705029e-06 -0.0011982936082044545 0 5.2829131418098705e-05 -0.0012242714888865045 0 0.00016226520581993827 -0.0025449274163622149 0 0.00014229001676220514 -0.0010324961411101998 0 0.00018645354329345645 -0.0012943084241671058 0 6.8229863849905603e-05 -0.0023201273490396522 0 -2.9053799755840557e-05 -0.0018621217075032916 0 0.00015308671027246826 -0.0026566658200636215 0 6.8229863849905603e-05 -0.0023201273490396522 0 9.4590307468759684e-08 -0.0018059320344864813 0 -2.9053799755840557e-05 -0.0018621217075032916 0 0.0017400174884151338 -0.00049422993510346189 0 0.0016791085288193296 -0.00065470365484088645 0 0.0015669367515408464 -0.00061189260700407944 0 0.00099467471827200445 -0.00096338598203731007 0 0.0010999430295051079 -0.0018348779559486 0 0.0015257068696525951 -0.00044050186667273671 0 0.0017400174884151338 -0.00049422993510346189 0 0.0015669367515408464 -0.00061189260700407944 0 0.0017400174884151338 -0.00049422993510346189 0 0.0017941139967812237 -0.0007205535155895864 0 0.0019517490088712911 -0.00054734207270151758 0 0.00016226520581993827 -0.0025449274163622149 0 0.00015308671027246826 -0.0026566658200636215 0 -6.05720645339378e-05 -0.0029714797217118144 0 0.0010999430295051079 -0.0018348779559486 0 0.0012466176307742707 -0.002884670747740163 0 0.0017400174884151338 -0.00049422993510346189 0 0.0017941139967812237 -0.0007205535155895864 0 0.0016791085288193296 -0.00065470365484088645 0 0.0017941139967812237 -0.0007205535155895864 0 0.0016791085288193296 -0.00065470365484088645 0 0.0016003655069196381 -0.00075836053302028722 0 0.0016791085288193296 -0.00065470365484088645 0 0.0015669367515408464 -0.00061189260700407944 0 0.0016003655069196381 -0.00075836053302028722 0 0.0020586784024012356 -0.0007116832065287049 0 0.0021188592788290122 -0.00077013259487831618 0 0.0017941139967812237 -0.0007205535155895864 0 0.0016003655069196381 -0.00075836053302028722 0 0.0016338559774451828 -0.00090049696648908449 0 0.0021188592788290122 -0.00077013259487831618 0 0.0023032285779468011 -0.00092142614275700916 0 0.001597886839844857 -0.0007458736944347317 0 0.0016303772442202184 -0.00088271162113090084 0 0.0015275806061624427 -0.00083609681410747722 0 0.0031920181501700435 -0.0018514151370514619 0 0.0034649171529923368 -0.0015550611080269821 0 0.0032009438201058209 -0.0014651041711331882 0 0.0021916154238503043 -0.0014812507834979205 0 0.0023032285779468011 -0.00092142614275700916 0 0.0031920181501700435 -0.0018514151370514619 0 0.0032009438201058209 -0.0014651041711331882 0 0.002957105699065979 -0.001565989643326371 0 0.0014247948449343717 -0.00055532435962663939 0 0.0013177228519874312 -0.00067579958450043269 0 0.0014684890396835337 -0.00071856172912302264 0 0.0014247948449343717 -0.00055532435962663939 0 0.0015669367515408464 -0.00061189260700407944 0 0.0014684890396835337 -0.00071856172912302264 0 0.0015669367515408464 -0.00061189260700407944 0 0.001597886839844857 -0.0007458736944347317 0 0.0014684890396835337 -0.00071856172912302264 0 0.0014684890396835337 -0.00071856172912302264 0 0.0015275806061624427 -0.00083609681410747722 0 0.0013723934965457214 -0.00088614267072744627 0 0.001597886839844857 -0.0007458736944347317 0 0.0014684890396835337 -0.00071856172912302264 0 0.0015275806061624427 -0.00083609681410747722 0 0.0013177228519874312 -0.00067579958450043269 0 0.0014684890396835337 -0.00071856172912302264 0 0.0013723934965457214 -0.00088614267072744627 0 0.0011875939976371899 -0.000804477695995572 0 0.0013177228519874312 -0.00067579958450043269 0 0.0013723934965457214 -0.00088614267072744627 0 0.0015077747511272248 0.00046876716158991406 0 0.0020295145993053892 -0.00019436817298037855 0 0.0025786299921353299 6.9603207064543603e-05 0 0.0027534998674526878 8.5204040557768779e-05 0 0.0026553698893238649 -2.924551582619529e-05 0 0.0027534998674526878 8.5204040557768779e-05 0 0.00279615538249344 -9.2111257563852841e-05 0 0.0026553698893238649 -2.924551582619529e-05 0 0.0029293435568134526 -0.00026014810316522856 0 0.003017896010187203 -0.00036299540936083458 0 0.0031903291077498277 -0.00060652151547728797 0 0.0031690463524529917 -0.00057859120222753359 0 0.0031383610365943123 -0.0005842307424326048 0 0.00279615538249344 -9.2111257563852841e-05 0 0.0026553698893238649 -2.924551582619529e-05 0 0.0027737980512561235 -0.00027779795808323805 0 0.0025540039492942352 -6.7052381344378284e-05 0 0.0026553698893238649 -2.924551582619529e-05 0 0.0027737980512561235 -0.00027779795808323805 0 0.0027737980512561235 -0.00027779795808323805 0 0.0029217435405211388 -0.0002213875391623192 0 0.0031230785761917281 -0.00051335287234796298 0 0.0029217435405211388 -0.0002213875391623192 0 0.0030745317653332778 -0.00025864359305313196 0 0.0031230785761917281 -0.00051335287234796298 0 0.00279615538249344 -9.2111257563852841e-05 0 0.0029217435405211388 -0.0002213875391623192 0 0.0029680414536531071 -7.8113984361271072e-05 0 0.00279615538249344 -9.2111257563852841e-05 0 0.0027737980512561235 -0.00027779795808323805 0 0.0029217435405211388 -0.0002213875391623192 0 0.0029217435405211388 -0.0002213875391623192 0 0.0030063568517556065 -0.00017322964424408229 0 0.0030745317653332778 -0.00025864359305313196 0 0.0029217435405211388 -0.0002213875391623192 0 0.0030063568517556065 -0.00017322964424408229 0 0.0029680414536531071 -7.8113984361271072e-05 0 0.0030063568517556065 -0.00017322964424408229 0 0.0029680414536531071 -7.8113984361271072e-05 0 0.0030656897125154827 -0.0001360265379221652 0 0.0029680414536531071 -7.8113984361271072e-05 0 0.0030188303262648456 -2.0847714458751982e-05 0 0.0030656897125154827 -0.0001360265379221652 0 0.0015275806061624427 -0.00083609681410747722 0 0.0013723934965457214 -0.00088614267072744627 0 0.0015554102174024408 -0.00096636904703067928 0 0.0027534998674526878 8.5204040557768779e-05 0 0.00279615538249344 -9.2111257563852841e-05 0 0.0029680414536531071 -7.8113984361271072e-05 0 0.0020295145993053892 -0.00019436817298037855 0 0.0023570432563080794 -0.00069353338918390242 0 0.0027534998674526878 8.5204040557768779e-05 0 0.0029680414536531071 -7.8113984361271072e-05 0 0.0030095426665213351 -3.1994401122265217e-05 0 0.0023793024158680837 -0.00066940675967751522 0 0.0023570432563080794 -0.00069353338918390242 0 0.0016303772442202184 -0.00088271162113090084 0 0.0015275806061624427 -0.00083609681410747722 0 0.0015554102174024408 -0.00096636904703067928 0 0.0023975549576822595 -0.00073220667404768258 0 0.002427984961071238 -0.00069833780701312163 0 0.0023860782700906328 -0.00067987244425016691 0 0.0034649171529923368 -0.0015550611080269821 0 0.0034172923304560594 -0.0013282785301855053 0 0.0032009438201058209 -0.0014651041711331882 0 0.0023032285779468011 -0.00092142614275700916 0 0.0023570432563080794 -0.00069353338918390242 0 0.0023032285779468011 -0.00092142614275700916 0 0.0026036292979305527 -0.00089679052116109763 0 0.0030188303262648456 -2.0847714458751982e-05 0 0.003210735754824009 -0.00011071378184176019 0 0.0030656897125154827 -0.0001360265379221652 0 0.0023570432563080794 -0.00069353338918390242 0 0.0026036292979305527 -0.00089679052116109763 0 0.0034172923304560594 -0.0013282785301855053 0 0.0032009438201058209 -0.0014651041711331882 0 0.0032072698183103006 -0.0012307259692875704 0 0.0032009438201058209 -0.0014651041711331882 0 0.0032072698183103006 -0.0012307259692875704 0 0.0030227843279251711 -0.0012289751492769859 0 0.0034010790555622349 -0.0013159651838574606 0 0.0032072698183103006 -0.0012307259692875704 0 0.0033168694044263102 -0.00099260710945082639 0 0.0032072698183103006 -0.0012307259692875704 0 0.0031546225847285192 -0.001067301413035989 0 0.0030227843279251711 -0.0012289751492769859 0 0.0026036292979305527 -0.00089679052116109763 0 0.0027839564450437971 -0.00098160531150176728 0 0.0032072698183103006 -0.0012307259692875704 0 0.0031546225847285192 -0.001067301413035989 0 0.0033168694044263102 -0.00099260710945082639 0 0.0026036292979305527 -0.00089679052116109763 0 0.0028251807601077871 -0.00081462404586769681 0 0.003210735754824009 -0.00011071378184176019 0 0.0031604221409013188 -0.00034147463419736203 0 0.0032377302849144114 -0.00047811664999659263 0 0.003210735754824009 -0.00011071378184176019 0 0.0030745317653332778 -0.00025864359305313196 0 0.0030656897125154827 -0.0001360265379221652 0 0.003210735754824009 -0.00011071378184176019 0 0.0030745317653332778 -0.00025864359305313196 0 0.0031604221409013188 -0.00034147463419736203 0 0.0030063568517556065 -0.00017322964424408229 0 0.0030745317653332778 -0.00025864359305313196 0 0.0030656897125154827 -0.0001360265379221652 0 0.0030745317653332778 -0.00025864359305313196 0 0.0031604221409013188 -0.00034147463419736203 0 0.0031230785761917281 -0.00051335287234796298 0 0.0032377302849144114 -0.00047811664999659263 0 0.0031606163377128778 -0.00067713000126571503 0 0.0031412403372773675 -0.00060748506394907287 0 0.0031604221409013188 -0.00034147463419736203 0 0.0031230785761917281 -0.00051335287234796298 0 0.0032377302849144114 -0.00047811664999659263 0 0.0031230785761917281 -0.00051335287234796298 0 0.0032377302849144114 -0.00047811664999659263 0 0.0031412403372773675 -0.00060748506394907287 0 0.0031230785761917281 -0.00051335287234796298 0 0.0031412403372773675 -0.00060748506394907287 0 0.0031252438334297607 -0.00057564698456355555 0 0.0028251807601077871 -0.00081462404586769681 0 0.0028818814333684932 -0.00078027527352185239 0 0.0033168694044263102 -0.00099260710945082639 0 0.0031352201474176525 -0.0009000245615056777 0 0.0031606163377128778 -0.00067713000126571503 0 0.0031546225847285192 -0.001067301413035989 0 0.0031352201474176525 -0.0009000245615056777 0 0.0030285815004768546 -0.00098119799273136939 0 0.0031546225847285192 -0.001067301413035989 0 0.0033168694044263102 -0.00099260710945082639 0 0.0031352201474176525 -0.0009000245615056777 0 0.0031606163377128778 -0.00067713000126571503 0 0.0030323100847517645 -0.00078696571025717386 0 0.0030584061772177987 -0.00065448548931402778 0 0.0031352201474176525 -0.0009000245615056777 0 0.0031606163377128778 -0.00067713000126571503 0 0.0030323100847517645 -0.00078696571025717386 0 0.0031412403372773675 -0.00060748506394907287 0 0.003132121609475002 -0.0005912838656967317 0 0.0031252438334297607 -0.00057564698456355555 0 0.0031606163377128778 -0.00067713000126571503 0 0.0031412403372773675 -0.00060748506394907287 0 0.0031346102242401381 -0.00062797214280477926 0 0.0031412403372773675 -0.00060748506394907287 0 0.003132121609475002 -0.0005912838656967317 0 0.0031346102242401381 -0.00062797214280477926 0 0.003132121609475002 -0.0005912838656967317 0 0.0031311161782538125 -0.00056958731498944813 0 0.0031370972332401309 -0.00056510373247340004 0 0.003132121609475002 -0.0005912838656967317 0 0.0031252438334297607 -0.00057564698456355555 0 0.0031311161782538125 -0.00056958731498944813 0 0.0031252438334297607 -0.00057564698456355555 0 0.0031311161782538125 -0.00056958731498944813 0 0.0031261132820668892 -0.00055892419302315684 0 0.0031311161782538125 -0.00056958731498944813 0 0.0031402838195319187 -0.00055918117138412885 0 0.0031261132820668892 -0.00055892419302315684 0 0.0031311161782538125 -0.00056958731498944813 0 0.0031430586821918718 -0.00055309983210413791 0 0.0031402838195319187 -0.00055918117138412885 0 0.0031311161782538125 -0.00056958731498944813 0 0.0031430586821918718 -0.00055309983210413791 0 0.0031370972332401309 -0.00056510373247340004 0 0.0031430586821918718 -0.00055309983210413791 0 0.0031570515203949976 -0.00054704179397724307 0 0.0031402838195319187 -0.00055918117138412885 0 0.0031430586821918718 -0.00055309983210413791 0 0.0031570515203949976 -0.00054704179397724307 0 0.0031570960442533881 -0.00053465951636985816 0 0.0031738662578825057 -0.00053382509258644581 0 0.0031570515203949976 -0.00054704179397724307 0 0.0031570960442533881 -0.00053465951636985816 0 0.0031758139863716033 -0.00054821088754406411 0 0.0031738662578825057 -0.00053382509258644581 0 0.0031570515203949976 -0.00054704179397724307 0 0.0031758139863716033 -0.00054821088754406411 0 0.0031570515203949976 -0.00054704179397724307 0 0.0031557414192981089 -0.00055711820628571833 0 0.0031722313683041066 -0.00056381798977040765 0 0.0031758139863716033 -0.00054821088754406411 0 0.0031557414192981089 -0.00055711820628571833 0 0.0031557414192981089 -0.00055711820628571833 0 0.0031402838195319187 -0.00055918117138412885 0 0.003148422132659796 -0.00056586541456523048 0 0.0031570515203949976 -0.00054704179397724307 0 0.0031557414192981089 -0.00055711820628571833 0 0.0031402838195319187 -0.00055918117138412885 0 0.0031402838195319187 -0.00055918117138412885 0 0.003148422132659796 -0.00056586541456523048 0 0.0031261132820668892 -0.00055892419302315684 0 0.0031722313683041066 -0.00056381798977040765 0 0.0031557414192981089 -0.00055711820628571833 0 0.003148422132659796 -0.00056586541456523048 0 0.0031690463524529917 -0.00057859120222753359 0 0.0031722313683041066 -0.00056381798977040765 0 0.003148422132659796 -0.00056586541456523048 0 0.0031690463524529917 -0.00057859120222753359 0 0.0031383610365943123 -0.0005842307424326048 0 0.003148422132659796 -0.00056586541456523048 0 0.0031383610365943123 -0.0005842307424326048 0 0.003148422132659796 -0.00056586541456523048 0 0.0031261132820668892 -0.00055892419302315684 0 0.0031383610365943123 -0.0005842307424326048 0 0.0031230785761917281 -0.00051335287234796298 0 0.0031261132820668892 -0.00055892419302315684 0 0.003017896010187203 -0.00036299540936083458 0 0.0030837638805758737 -0.00041043327997233962 0 0.0031230785761917281 -0.00051335287234796298 0 0.0031252438334297607 -0.00057564698456355555 0 0.0031261132820668892 -0.00055892419302315684 0 0.0026756513469618896 -0.0011250649322530712 0 0.0028715452796848379 -0.0012882649898610802 0 0.0025571703874353166 -0.0013703812000742594 0 0.0024862143518606218 -0.0011407564465060855 0 0.0025571703874353166 -0.0013703812000742594 0 0.0022939905406233392 -0.0012213293819321029 0 0.0024862143518606218 -0.0011407564465060855 0 0.0026756513469618896 -0.0011250649322530712 0 0.0025571703874353166 -0.0013703812000742594 0 0.0024862143518606218 -0.0011407564465060855 0 0.0026756513469618896 -0.0011250649322530712 0 0.0025184286275745614 -0.00092891856349867907 0 0.0026756513469618896 -0.0011250649322530712 0 0.002699073043094768 -0.00093666508556341165 0 0.0025184286275745614 -0.00092891856349867907 0 0.0029002282995486957 -0.00094522589820741736 0 0.0028541317652537581 -0.0011503246688596954 0 0.0026756513469618896 -0.0011250649322530712 0 0.0029310101095513285 -0.0010346362793806436 0 0.0028715452796848379 -0.0012882649898610802 0 0.0026756513469618896 -0.0011250649322530712 0 0.0029310101095513285 -0.0010346362793806436 0 0.002699073043094768 -0.00093666508556341165 0 0.0029348839736946333 -0.0007109535275018579 0 0.0030323100847517645 -0.00078696571025717386 0 0.0030584061772177987 -0.00065448548931402778 0 0.0029348839736946333 -0.0007109535275018579 0 0.0030323100847517645 -0.00078696571025717386 0 0.0028204942517790791 -0.00096982900881084535 0 0.0030323100847517645 -0.00078696571025717386 0 0.0030285815004768546 -0.00098119799273136939 0 0.0028204942517790791 -0.00096982900881084535 0 0.0031352201474176525 -0.0009000245615056777 0 0.0030323100847517645 -0.00078696571025717386 0 0.0030285815004768546 -0.00098119799273136939 0 0.0028541317652537581 -0.0011503246688596954 0 0.0028080311279390984 -0.0013739824241363705 0 0.0028715452796848379 -0.0012882649898610802 0 0.002805473165845283 -0.0015219810838969557 0 0.0025571703874353166 -0.0013703812000742594 0 0.0030285815004768546 -0.00098119799273136939 0 0.0028204942517790791 -0.00096982900881084535 0 0.0030227843279251711 -0.0012289751492769859 0 0.0028204942517790791 -0.00096982900881084535 0 0.0030227843279251711 -0.0012289751492769859 0 0.0027526451211758629 -0.0013419533797320714 0 0.0031546225847285192 -0.001067301413035989 0 0.0030285815004768546 -0.00098119799273136939 0 0.0030227843279251711 -0.0012289751492769859 0 0.0030227843279251711 -0.0012289751492769859 0 0.0027526451211758629 -0.0013419533797320714 0 0.002957105699065979 -0.001565989643326371 0 0.0032009438201058209 -0.0014651041711331882 0 0.0030227843279251711 -0.0012289751492769859 0 0.002957105699065979 -0.001565989643326371 0 0.0028080311279390984 -0.0013739824241363705 0 0.0027852139271101802 -0.0014973998412099883 0 0.0027526451211758629 -0.0013419533797320714 0 0.002957105699065979 -0.001565989643326371 0 0.0027411614139489461 -0.001725225898025719 0 0.002805473165845283 -0.0015219810838969557 0 0.0025961848360930859 -0.0015745678440844642 0 0.0027411614139489461 -0.001725225898025719 0 0.002805473165845283 -0.0015219810838969557 0 0.0025961848360930859 -0.0015745678440844642 0 0.0025571703874353166 -0.0013703812000742594 0 0.0029192651883610098 -0.0029829278317689456 0 0.0020154272056371347 -0.0052302114616998132 0 0.0025961848360930859 -0.0015745678440844642 0 0.0025571703874353166 -0.0013703812000742594 0 0.0023838892610797005 -0.0016175478927301355 0 0.0025961848360930859 -0.0015745678440844642 0 0.0025141454767699336 -0.0017793089870585411 0 0.0023838892610797005 -0.0016175478927301355 0 0.0025141454767699336 -0.0017793089870585411 0 0.0023607987492927731 -0.0018324394216339152 0 0.0023445375946384191 -0.0016117743349393652 0 0.0015751010026144327 -0.0040610625026158524 0 0.0020154272056371347 -0.0052302114616998132 0 0.0025961848360930859 -0.0015745678440844642 0 0.0025141454767699336 -0.0017793089870585411 0 0.0027411614139489461 -0.001725225898025719 0 0.0025141454767699336 -0.0017793089870585411 0 0.0027411614139489461 -0.001725225898025719 0 0.0026592846661250766 -0.0020286987006552263 0 0.00090375639471348306 -0.0053967704786215169 0 0.0011514695043510288 -0.0041488776129948533 0 0.0025141454767699336 -0.0017793089870585411 0 0.0024100831653529262 -0.0019809281735172659 0 0.0026592846661250766 -0.0020286987006552263 0 0.0025141454767699336 -0.0017793089870585411 0 0.0023607987492927731 -0.0018324394216339152 0 0.0024100831653529262 -0.0019809281735172659 0 0.0031920181501700435 -0.0018514151370514619 0 0.002957105699065979 -0.001565989643326371 0 0.0029410636632738454 -0.0018301540062481553 0 0.002957105699065979 -0.001565989643326371 0 0.0027411614139489461 -0.001725225898025719 0 0.0029410636632738454 -0.0018301540062481553 0 0.0027411614139489461 -0.001725225898025719 0 0.0029410636632738454 -0.0018301540062481553 0 0.0026592846661250766 -0.0020286987006552263 0 0.0029410636632738454 -0.0018301540062481553 0 0.0029464660442900933 -0.0021014224429031754 0 0.0026592846661250766 -0.0020286987006552263 0 0.0021916154238503043 -0.0014812507834979205 0 0.0012466176307742707 -0.002884670747740163 0 0.0031920181501700435 -0.0018514151370514619 0 0.0029410636632738454 -0.0018301540062481553 0 0.0029464660442900933 -0.0021014224429031754 0 0.00015308671027246826 -0.0026566658200636215 0 -6.05720645339378e-05 -0.0029714797217118144 0 -2.4767682196930485e-06 -0.0035551953146424043 0 -0.001399500940680333 -0.0060614227177899155 0 -0.00025834533979184049 -0.0056601380506204066 0 -9.4937748333874755e-05 -0.0061878331998600593 0 0.0012466176307742707 -0.002884670747740163 0 0.0011514695043510288 -0.0041488776129948533 0 0.0012466176307742707 -0.002884670747740163 0 0.0003087205768381409 -0.0039263905535728708 0 -1.0352984362445817e-06 -0.0044865043865095185 0 -6.6337951297282971e-05 -0.0046255997090484382 0 -2.4767682196930485e-06 -0.0035551953146424043 0 -0.001399500940680333 -0.0060614227177899155 0 -0.00025834533979184049 -0.0056601380506204066 0 -6.6337951297282971e-05 -0.0046255997090484382 0 -6.05720645339378e-05 -0.0029714797217118144 0 -6.6337951297282971e-05 -0.0046255997090484382 0 -2.4767682196930485e-06 -0.0035551953146424043 0 -1.0352984362445817e-06 -0.0044865043865095185 0 5.2170181683181202e-07 -0.0031457263190310379 0 -2.4767682196930485e-06 -0.0035551953146424043 0 0.00015308671027246826 -0.0026566658200636215 0 5.2170181683181202e-07 -0.0031457263190310379 0 -2.4767682196930485e-06 -0.0035551953146424043 0 0.00025951071186228067 -0.0065004158080285935 0 8.2757778087103151e-05 -0.0057916177236060976 0 0.00014321513434253463 -0.006388416946327316 0 0.00025951071186228067 -0.0065004158080285935 0 -9.4937748333874755e-05 -0.0061878331998600593 0 8.2757778087103151e-05 -0.0057916177236060976 0 -0.00025834533979184049 -0.0056601380506204066 0 -9.4937748333874755e-05 -0.0061878331998600593 0 8.2757778087103151e-05 -0.0057916177236060976 0 -1.0352984362445817e-06 -0.0044865043865095185 0 -6.6337951297282971e-05 -0.0046255997090484382 0 6.3485244621558103e-07 -0.0058271377210603178 0 -6.6337951297282971e-05 -0.0046255997090484382 0 8.2757778087103151e-05 -0.0057916177236060976 0 6.3485244621558103e-07 -0.0058271377210603178 0 -0.00025834533979184049 -0.0056601380506204066 0 -6.6337951297282971e-05 -0.0046255997090484382 0 8.2757778087103151e-05 -0.0057916177236060976 0 8.2757778087103151e-05 -0.0057916177236060976 0 6.3485244621558103e-07 -0.0058271377210603178 0 0.00014321513434253463 -0.006388416946327316 0 6.3485244621558103e-07 -0.0058271377210603178 0 0.00014321513434253463 -0.006388416946327316 0 5.6043127726098048e-08 -0.0071672174049946221 0 0.00014321513434253463 -0.006388416946327316 0 0.00011620547938834018 -0.0069275307693592364 0 5.6043127726098048e-08 -0.0071672174049946221 0 0.00025951071186228067 -0.0065004158080285935 0 0.00014321513434253463 -0.006388416946327316 0 0.00011620547938834018 -0.0069275307693592364 0 0.00025951071186228067 -0.0065004158080285935 0 0.00011620547938834018 -0.0069275307693592364 0 1.0987567867522367e-05 -0.0065800582624518603 0 -6.0498446742321964e-05 -0.0077904201127009277 0 0.00010615938722272289 -0.0084146945030380005 0 -0.00056836157189400533 -0.0086218404770892296 0 -4.3192858649275036e-05 -0.0074449472348969963 0 0.00011171479639505184 -0.0071470740522795902 0 0.00011620547938834018 -0.0069275307693592364 0 -6.0498446742321964e-05 -0.0077904201127009277 0 1.0987567867522367e-05 -0.0065800582624518603 0 0.00011620547938834018 -0.0069275307693592364 0 5.6043127726098048e-08 -0.0071672174049946221 0 -6.0498446742321964e-05 -0.0077904201127009277 0 -6.0498446742321964e-05 -0.0077904201127009277 0 7.2645066770823792e-08 -0.0085072328134069685 0 8.2413919470829253e-05 -0.0087654790881447966 0 5.6043127726098048e-08 -0.0071672174049946221 0 -6.0498446742321964e-05 -0.0077904201127009277 0 7.2645066770823792e-08 -0.0085072328134069685 0 -6.0498446742321964e-05 -0.0077904201127009277 0 8.2413919470829253e-05 -0.0087654790881447966 0 0.00015624391230259989 -0.0086377420870124809 0 7.2645066770823792e-08 -0.0085072328134069685 0 8.2413919470829253e-05 -0.0087654790881447966 0 3.2640314649886126e-07 -0.0098477014484801041 0 8.2413919470829253e-05 -0.0087654790881447966 0 0.00015624391230259989 -0.0086377420870124809 0 3.866581181852943e-05 -0.0091758593700319597 0 -0.00022602730261460182 -0.011103544494932414 0 -0.00012358636871853313 -0.011439197110013852 0 0.00015624391230259989 -0.0086377420870124809 0 0.00010400005040577842 -0.0085317726724315184 0 4.4339613420602172e-05 -0.0085892338999642021 0 0.00015624391230259989 -0.0086377420870124809 0 0.00015235856691813091 -0.0085163040423783462 0 0.00010615938722272289 -0.0084146945030380005 0 0.00015624391230259989 -0.0086377420870124809 0 0.00015235856691813091 -0.0085163040423783462 0 0.00016407533163794886 -0.0085238173075945414 0 0.00015624391230259989 -0.0086377420870124809 0 0.00010400005040577842 -0.0085317726724315184 0 0.00016407533163794886 -0.0085238173075945414 0 -6.0498446742321964e-05 -0.0077904201127009277 0 0.00015624391230259989 -0.0086377420870124809 0 0.00010615938722272289 -0.0084146945030380005 0 0.00019821786445133762 -0.0093506176731432186 0 0.00025600551175098638 -0.011281781706070717 0 0.00010615938722272289 -0.0084146945030380005 0 -0.00011573792963275785 -0.0086990692366263628 0 -0.00056836157189400533 -0.0086218404770892296 0 -0.00011573792963275785 -0.0086990692366263628 0 0.00013932122648083466 -0.0085525123996314841 0 0.00015946349526438643 -0.0086688074630414218 0 0.00015235856691813091 -0.0085163040423783462 0 0.00010615938722272289 -0.0084146945030380005 0 0.00013932122648083466 -0.0085525123996314841 0 0.00010615938722272289 -0.0084146945030380005 0 -0.00011573792963275785 -0.0086990692366263628 0 0.00013932122648083466 -0.0085525123996314841 0 0.0002087255748362289 -0.0085141028918882533 0 0.00016407533163794886 -0.0085238173075945414 0 0.00015946349526438643 -0.0086688074630414218 0 -8.3006562594714126e-05 -0.011585146828682707 0 -6.0728026187761132e-05 -0.011537970495206476 0 0.00015235856691813091 -0.0085163040423783462 0 0.00016407533163794886 -0.0085238173075945414 0 0.00013932122648083466 -0.0085525123996314841 0 0.00016407533163794886 -0.0085238173075945414 0 0.00013932122648083466 -0.0085525123996314841 0 0.00015946349526438643 -0.0086688074630414218 0 -8.3006562594714126e-05 -0.011585146828682707 0 0.00025600551175098638 -0.011281781706070717 0 -4.1879484957799968e-05 -0.012359269622813331 0 -0.00018432098300512082 -0.012141114315522096 0 -0.00044892099711076923 -0.012249791565032151 0 -4.1879484957799968e-05 -0.012359269622813331 0 -0.00018432098300512082 -0.012141114315522096 0 0.00019130584340856061 -0.012150177915097232 0 0.00024178686630029974 -0.012399049742936354 0 0.00019130584340856061 -0.012150177915097232 0 0.00040174383985149708 -0.012214126722347823 0 0.00024178686630029974 -0.012399049742936354 0 -1.1682457606611435e-05 -0.012341949646316078 0 0.00019130584340856061 -0.012150177915097232 0 0.00025600551175098638 -0.011281781706070717 0 9.9143044386889939e-05 -0.011523439331464163 0 0.00019130584340856061 -0.012150177915097232 0 0.00040174383985149708 -0.012214126722347823 0 0.0002694189616598898 -0.011982442454973407 0 0.00040174383985149708 -0.012214126722347823 0 0.00052443203069245208 -0.01205755061724607 0 0.0002694189616598898 -0.011982442454973407 0 0.00040174383985149708 -0.012214126722347823 0 0.00066006321497605336 -0.012216686942365397 0 0.00050834281228299169 -0.012453000592258333 0 0.00040174383985149708 -0.012214126722347823 0 0.00066006321497605336 -0.012216686942365397 0 0.00052443203069245208 -0.01205755061724607 0 0.0023607987492927731 -0.0018324394216339152 0 0.0022435467096196607 -0.0017689437254377284 0 0.0023445375946384191 -0.0016117743349393652 0 0.00066006321497605336 -0.012216686942365397 0 0.00081004145494814009 -0.011975618335860578 0 0.00052443203069245208 -0.01205755061724607 0 0.0010432790102434572 -0.0063684915519762828 0 0.0020154272056371347 -0.0052302114616998132 0 0.0023607987492927731 -0.0018324394216339152 0 0.0022435467096196607 -0.0017689437254377284 0 0.002138984666220351 -0.0019361971035399953 0 0.00090375639471348306 -0.0053967704786215169 0 0.00011171479639505184 -0.0071470740522795902 0 0.0023607987492927731 -0.0018324394216339152 0 0.0024100831653529262 -0.0019809281735172659 0 0.002138984666220351 -0.0019361971035399953 0 0.0010432790102434572 -0.0063684915519762828 0 0.00011171479639505184 -0.0071470740522795902 0 0.00019821786445133762 -0.0093506176731432186 0 0.00011171479639505184 -0.0071470740522795902 0 0.00024178686630029974 -0.012399049742936354 0 0.00040174383985149708 -0.012214126722347823 0 0.00050834281228299169 -0.012453000592258333 0 -0.00032595871316721799 -0.013224863260856356 0 -0.00015792212823349715 -0.013385690822028881 0 -0.00025261889426158045 -0.013485939944082601 0 -0.00075274784948762001 -0.014051991595008835 0 0.00015892007030190731 -0.013959888249764688 0 -0.00025261889426158045 -0.013485939944082601 0 -0.0011747568938322761 -0.013344801846288487 0 -0.00075274784948762001 -0.014051991595008835 0 -0.00025261889426158045 -0.013485939944082601 0 -1.3997080744135384e-06 -0.012308977313988913 0 -0.0011747568938322761 -0.013344801846288487 0 -2.3022340598338415e-07 -0.012306814746812276 0 -0.00025500223904557711 -0.012470561692290199 0 -4.555119820422676e-09 -0.011190756731044523 0 1.771131733272489e-05 -0.011374568170656883 0 -0.0001723016734557475 -0.011345665242472332 0 4.2231770414305728e-09 -0.012304367638316771 0 -4.555119820422676e-09 -0.011190756731044523 0 1.771131733272489e-05 -0.011374568170656883 0 -0.0014858932762598597 -0.013905801699293041 0 -0.0019826032391852843 -0.014122475891320662 0 -0.00075274784948762001 -0.014051991595008835 0 -0.0011747568938322761 -0.013344801846288487 0 -0.0014858932762598597 -0.013905801699293041 0 -0.0020544970894736917 -0.01412601519580017 0 -0.0011747568938322761 -0.013344801846288487 0 -0.0014858932762598597 -0.013905801699293041 0 -0.00075274784948762001 -0.014051991595008835 0 -0.00025500223904557711 -0.012470561692290199 0 -0.00013929061491544937 -0.012485554702333892 0 -0.0001723016734557475 -0.011345665242472332 0 -0.00032276039763229006 -0.011488536218813801 0 -0.00018088713646350585 -0.011548966184873177 0 1.771131733272489e-05 -0.011374568170656883 0 -0.0001723016734557475 -0.011345665242472332 0 -0.00018088713646350585 -0.011548966184873177 0 -9.2756423142503052e-07 -0.011186902960058465 0 -0.00014363153011970491 -0.0097033692261270753 0 3.2640314649886126e-07 -0.0098477014484801041 0 3.0352109617824878e-07 -0.011187819551378068 0 0.0001102881359029843 -0.011038064610724645 0 -0.00014363153011970491 -0.0097033692261270753 0 3.2640314649886126e-07 -0.0098477014484801041 0 3.866581181852943e-05 -0.0091758593700319597 0 8.2413919470829253e-05 -0.0087654790881447966 0 3.2640314649886126e-07 -0.0098477014484801041 0 3.866581181852943e-05 -0.0091758593700319597 0 -0.00014363153011970491 -0.0097033692261270753 0 3.866581181852943e-05 -0.0091758593700319597 0 -1.8479156270951119e-05 -0.0089385746136984457 0 0.00015624391230259989 -0.0086377420870124809 0 3.866581181852943e-05 -0.0091758593700319597 0 -1.8479156270951119e-05 -0.0089385746136984457 0 0.0001102881359029843 -0.011038064610724645 0 -0.00012358636871853313 -0.011439197110013852 0 -0.00012358636871853313 -0.011439197110013852 0 -0.00013929061491544937 -0.012485554702333892 0 -8.3006562594714126e-05 -0.011585146828682707 0 -0.00012358636871853313 -0.011439197110013852 0 -0.00013549004651965501 -0.013920300520532026 0 -7.1101701260535273e-05 -0.013951190475917861 0 -3.2850760047922669e-05 -0.013916049191773536 0 -0.00013549004651965501 -0.013920300520532026 0 -0.00019547249142061584 -0.013973466529946497 0 -7.1798592068956951e-05 -0.014009656225070277 0 -0.00013549004651965501 -0.013920300520532026 0 -7.1101701260535273e-05 -0.013951190475917861 0 -7.1798592068956951e-05 -0.014009656225070277 0 1.1611344446864953e-05 -0.012088105673213147 0 -8.0260061874888453e-05 -0.012174820063610871 0 -0.0002505465460002959 -0.012104064973260923 0 -8.3006562594714126e-05 -0.011585146828682707 0 -0.00013929061491544937 -0.012485554702333892 0 0.00025600551175098638 -0.011281781706070717 0 -5.808710005552295e-05 -0.01228139091567991 0 -7.1798592068956951e-05 -0.014009656225070277 0 -1.6920609755663845e-05 -0.013986645453427947 0 4.63610714371341e-05 -0.014046291029818421 0 -5.808710005552295e-05 -0.01228139091567991 0 -0.00025564511056442522 -0.012747806760897573 0 -0.00044892099711076923 -0.012249791565032151 0 -0.00074048787408533554 -0.012177449029411574 0 -0.00063030601136675939 -0.011961844602153939 0 9.8853131739460632e-06 -0.013969001016869188 0 -1.6920609755663845e-05 -0.013986645453427947 0 -2.8845478008118096e-05 -0.01394932464550541 0 9.8853131739460632e-06 -0.013969001016869188 0 -1.6920609755663845e-05 -0.013986645453427947 0 3.227490953190286e-05 -0.013995832643433235 0 -7.1101701260535273e-05 -0.013951190475917861 0 -1.6920609755663845e-05 -0.013986645453427947 0 -2.8845478008118096e-05 -0.01394932464550541 0 -7.1101701260535273e-05 -0.013951190475917861 0 -7.1798592068956951e-05 -0.014009656225070277 0 -1.6920609755663845e-05 -0.013986645453427947 0 -7.1101701260535273e-05 -0.013951190475917861 0 -2.8845478008118096e-05 -0.01394932464550541 0 -3.6026141896322997e-05 -0.013924535607519108 0 -0.00021037281181606507 -0.012609631959158164 0 -0.00013929061491544937 -0.012485554702333892 0 -2.8845478008118096e-05 -0.01394932464550541 0 -3.6026141896322997e-05 -0.013924535607519108 0 -2.8614575250671463e-05 -0.013924006527742795 0 -0.00013929061491544937 -0.012485554702333892 0 -0.00017277731052656319 -0.012604823494308087 0 -0.0014858932762598597 -0.013905801699293041 0 -0.0020544970894736917 -0.01412601519580017 0 -0.0019826032391852843 -0.014122475891320662 0 9.8853131739460632e-06 -0.013969001016869188 0 -2.8845478008118096e-05 -0.01394932464550541 0 -2.8614575250671463e-05 -0.013924006527742795 0 -0.00017277731052656319 -0.012604823494308087 0 0.00017679814375972484 -0.013394549191298085 0 -8.9392284899311568e-05 -0.013957661742778968 0 4.5302927163500131e-05 -0.014014454172090223 0 3.7825527641281746e-05 -0.013958102970823867 0 9.8853131739460632e-06 -0.013969001016869188 0 -2.8614575250671463e-05 -0.013924006527742795 0 9.0369073461267005e-05 -0.013989975932138203 0 9.8853131739460632e-06 -0.013969001016869188 0 3.227490953190286e-05 -0.013995832643433235 0 9.0369073461267005e-05 -0.013989975932138203 0 -0.00017277731052656319 -0.012604823494308087 0 -0.00032595871316721799 -0.013224863260856356 0 -1.6920609755663845e-05 -0.013986645453427947 0 3.227490953190286e-05 -0.013995832643433235 0 4.63610714371341e-05 -0.014046291029818421 0 3.227490953190286e-05 -0.013995832643433235 0 4.63610714371341e-05 -0.014046291029818421 0 9.0369073461267005e-05 -0.013989975932138203 0 -0.00025564511056442522 -0.012747806760897573 0 -0.00038255959360739006 -0.012988741902705683 0 4.63610714371341e-05 -0.014046291029818421 0 9.0369073461267005e-05 -0.013989975932138203 0 0.00014786652771441142 -0.014079571405971799 0 4.5302927163500131e-05 -0.014014454172090223 0 3.7825527641281746e-05 -0.013958102970823867 0 0.00015892007030190731 -0.013959888249764688 0 -0.0008392487249019847 -0.01196227170438029 0 -0.00086901851595526033 -0.011833161030611975 0 -0.00099283361921115049 -0.011929124454492205 0 -0.0008392487249019847 -0.01196227170438029 0 -0.00074616147534315531 -0.011846312763112389 0 -0.00086901851595526033 -0.011833161030611975 0 -0.0008392487249019847 -0.01196227170438029 0 -0.00098602025764292652 -0.012131724572402726 0 -0.00099283361921115049 -0.011929124454492205 0 -0.00074048787408533554 -0.012177449029411574 0 -0.0008392487249019847 -0.01196227170438029 0 -0.00098602025764292652 -0.012131724572402726 0 -0.00074048787408533554 -0.012177449029411574 0 -0.0008392487249019847 -0.01196227170438029 0 -0.00063030601136675939 -0.011961844602153939 0 -0.0008392487249019847 -0.01196227170438029 0 -0.00074616147534315531 -0.011846312763112389 0 -0.00063030601136675939 -0.011961844602153939 0 -0.00074616147534315531 -0.011846312763112389 0 -0.00063030601136675939 -0.011961844602153939 0 -0.00059551136742667986 -0.011796951062097171 0 -0.00063030601136675939 -0.011961844602153939 0 -0.00034509626056769294 -0.011860676309852821 0 -0.00059551136742667986 -0.011796951062097171 0 -0.00044892099711076923 -0.012249791565032151 0 -0.00063030601136675939 -0.011961844602153939 0 -0.00034509626056769294 -0.011860676309852821 0 -0.00018432098300512082 -0.012141114315522096 0 -0.00044892099711076923 -0.012249791565032151 0 -0.00034509626056769294 -0.011860676309852821 0 -0.00028747342255947055 -0.011375642677243291 0 -0.00039550693333008325 -0.011138743502490115 0 -0.00034509626056769294 -0.011860676309852821 0 -0.00045536660308395053 -0.011473110407666541 0 -0.00022139167307345025 -0.011484145404481363 0 -0.00034509626056769294 -0.011860676309852821 0 -0.00045536660308395053 -0.011473110407666541 0 -0.00076405819459031594 -0.011534273026794609 0 -0.00045536660308395053 -0.011473110407666541 0 -0.00035806989767405372 -0.011286488554113128 0 -0.00022139167307345025 -0.011484145404481363 0 -0.00045536660308395053 -0.011473110407666541 0 -0.00035806989767405372 -0.011286488554113128 0 -0.00064260533017522958 -0.011303258721226639 0 0.00014199798643128533 -0.0081652439085960499 0 0.00083604718813002938 -0.0065970197626328128 0 0.00072039975768757255 -0.0069777160211930691 0 0.00090399976492656453 -0.0069423470869702597 0 0.00075939223778177692 -0.0068131280594557128 0 0.00072039975768757255 -0.0069777160211930691 0 0.00063606814780162526 -0.0068711723854111865 0 0.00075939223778177692 -0.0068131280594557128 0 -0.00035806989767405372 -0.011286488554113128 0 -0.00052967298004147248 -0.011114602960280648 0 -0.00017388092257077228 -0.0110554660369336 0 -0.00035806989767405372 -0.011286488554113128 0 -0.00052967298004147248 -0.011114602960280648 0 -0.00064260533017522958 -0.011303258721226639 0 0.00014199798643128533 -0.0081652439085960499 0 -0.00031906563776015984 -0.0094372492789951048 0 0.00053462822714683811 -0.0070152576164126332 0 0.00051246985707296532 -0.0068133276435027841 0 0.00063606814780162526 -0.0068711723854111865 0 -0.00052967298004147248 -0.011114602960280648 0 -0.00064260533017522958 -0.011303258721226639 0 -0.00089419727416936018 -0.011177777025720308 0 0.00072039975768757255 -0.0069777160211930691 0 0.00053462822714683811 -0.0070152576164126332 0 0.00063606814780162526 -0.0068711723854111865 0 -0.00088550638460564929 -0.011254502772303748 0 -0.00064260533017522958 -0.011303258721226639 0 -0.00089419727416936018 -0.011177777025720308 0 -0.00088550638460564929 -0.011254502772303748 0 -0.00064260533017522958 -0.011303258721226639 0 -0.00076405819459031594 -0.011534273026794609 0 -0.00045536660308395053 -0.011473110407666541 0 -0.00064260533017522958 -0.011303258721226639 0 -0.00076405819459031594 -0.011534273026794609 0 -0.00074616147534315531 -0.011846312763112389 0 -0.00079208296866999214 -0.011703481542243634 0 -0.00086901851595526033 -0.011833161030611975 0 -0.00088550638460564929 -0.011254502772303748 0 -0.00076405819459031594 -0.011534273026794609 0 -0.0011610328701674327 -0.011225475534936859 0 -0.00074616147534315531 -0.011846312763112389 0 -0.00059551136742667986 -0.011796951062097171 0 -0.00079208296866999214 -0.011703481542243634 0 -0.00039550693333008325 -0.011138743502490115 0 -0.00059200472382974932 -0.010417575000398579 0 -0.00031906563776015984 -0.0094372492789951048 0 -0.00059200472382974932 -0.010417575000398579 0 -0.00031906563776015984 -0.0094372492789951048 0 0.00022281171901922437 -0.0080070673849847989 0 -0.00088550638460564929 -0.011254502772303748 0 -0.00089422904281224959 -0.011178416815419544 0 -0.0011610328701674327 -0.011225475534936859 0 -0.00072119806701955781 -0.010414814165980547 0 -0.0006848452416052471 -0.010472990544211545 0 -0.00070356215645025631 -0.010550607008929833 0 -0.00072119806701955781 -0.010414814165980547 0 -0.0006848452416052471 -0.010472990544211545 0 -0.00062375549746504348 -0.010396194785719263 0 -0.0003188912531331103 -0.0094778502140167777 0 -0.00031906563776015984 -0.0094372492789951048 0 -0.00058274819109731149 -0.010510343715118334 0 -0.0004789234695897883 -0.010534125890802767 0 -0.00051679151906557433 -0.010546259899878906 0 -0.00043618805620548813 -0.010532136923487735 0 -0.00043781516931403229 -0.010605609102101182 0 -0.0006848452416052471 -0.010472990544211545 0 -0.00062375549746504348 -0.010396194785719263 0 -0.00047760958352003761 -0.01050652552053663 0 -0.00059200472382974932 -0.010417575000398579 0 -0.0004789234695897883 -0.010534125890802767 0 -0.00086901851595526033 -0.011833161030611975 0 -0.00099283361921115049 -0.011929124454492205 0 -0.000975522132794784 -0.011766724805802369 0 -0.00059200472382974932 -0.010417575000398579 0 -0.0006954405924926904 -0.010962107559867445 0 -0.00079208296866999214 -0.011703481542243634 0 -0.00086901851595526033 -0.011833161030611975 0 -0.000975522132794784 -0.011766724805802369 0 0.0005546826940761386 -0.011684329919967882 0 0.00034559878243199091 -0.011693691705631205 0 0.00046791869804325086 -0.011870642656787136 0 0.00034559878243199091 -0.011693691705631205 0 0.00046791869804325086 -0.011870642656787136 0 0.00026445539228582099 -0.011798609143884236 0 0.0005546826940761386 -0.011684329919967882 0 0.00034559878243199091 -0.011693691705631205 0 0.00029544643183567371 -0.011476778670537827 0 0.0025571703874353166 -0.0013703812000742594 0 0.0022335405309171588 -0.0014488931062355561 0 0.0024008294429132774 -0.0016454595779807873 0 0.0005546826940761386 -0.011684329919967882 0 0.00081004145494814009 -0.011975618335860578 0 0.00046791869804325086 -0.011870642656787136 0 0.00081004145494814009 -0.011975618335860578 0 0.00052443203069245208 -0.01205755061724607 0 0.00046791869804325086 -0.011870642656787136 0 0.0019065882807158961 -0.0057782669552822151 0 0.0020154272056371347 -0.0052302114616998132 0 0.00046791869804325086 -0.011870642656787136 0 0.0002694189616598898 -0.011982442454973407 0 0.00026445539228582099 -0.011798609143884236 0 0.00052443203069245208 -0.01205755061724607 0 0.00046791869804325086 -0.011870642656787136 0 0.0002694189616598898 -0.011982442454973407 0 0.0002694189616598898 -0.011982442454973407 0 -4.315232157254562e-05 -0.011961167667424348 0 0.00010679616874333236 -0.011812689438682116 0 0.00019130584340856061 -0.012150177915097232 0 0.0002694189616598898 -0.011982442454973407 0 -4.315232157254562e-05 -0.011961167667424348 0 0.0002694189616598898 -0.011982442454973407 0 0.00026445539228582099 -0.011798609143884236 0 0.00010679616874333236 -0.011812689438682116 0 -0.00018432098300512082 -0.012141114315522096 0 0.00019130584340856061 -0.012150177915097232 0 -4.315232157254562e-05 -0.011961167667424348 0 -0.00018432098300512082 -0.012141114315522096 0 -0.00034509626056769294 -0.011860676309852821 0 -4.315232157254562e-05 -0.011961167667424348 0 -0.00034509626056769294 -0.011860676309852821 0 -4.315232157254562e-05 -0.011961167667424348 0 -4.5193093534123364e-05 -0.011658705450302521 0 -0.00034509626056769294 -0.011860676309852821 0 -4.5193093534123364e-05 -0.011658705450302521 0 -0.00022139167307345025 -0.011484145404481363 0 -4.315232157254562e-05 -0.011961167667424348 0 -4.5193093534123364e-05 -0.011658705450302521 0 0.00010679616874333236 -0.011812689438682116 0 0.00034559878243199091 -0.011693691705631205 0 0.00026445539228582099 -0.011798609143884236 0 0.00016982293413957583 -0.01165221100217371 0 0.00026445539228582099 -0.011798609143884236 0 0.00010679616874333236 -0.011812689438682116 0 0.00016982293413957583 -0.01165221100217371 0 -4.5193093534123364e-05 -0.011658705450302521 0 0.00010679616874333236 -0.011812689438682116 0 0.00016982293413957583 -0.01165221100217371 0 -4.5193093534123364e-05 -0.011658705450302521 0 0.00016982293413957583 -0.01165221100217371 0 8.7810761616555672e-05 -0.01149734560609582 0 0.00016982293413957583 -0.01165221100217371 0 8.7810761616555672e-05 -0.01149734560609582 0 0.00029544643183567371 -0.011476778670537827 0 0.00034559878243199091 -0.011693691705631205 0 0.00016982293413957583 -0.01165221100217371 0 0.00029544643183567371 -0.011476778670537827 0 0.0012696300025648584 -0.0084562093583196354 0 0.0013747099158855202 -0.0090016927962660014 0 8.7810761616555672e-05 -0.01149734560609582 0 6.8908744229130144e-05 -0.011286510812158736 0 -4.9358629276418623e-05 -0.011436130126473366 0 8.7810761616555672e-05 -0.01149734560609582 0 6.8908744229130144e-05 -0.011286510812158736 0 0.00029544643183567371 -0.011476778670537827 0 -4.2266212861362967e-06 -0.011189913247040759 0 0.00027004395337647269 -0.011309800835532487 0 0.00029544643183567371 -0.011476778670537827 0 -0.00022139167307345025 -0.011484145404481363 0 -4.9358629276418623e-05 -0.011436130126473366 0 -0.00013628372243482031 -0.011290286100372577 0 -4.5193093534123364e-05 -0.011658705450302521 0 -0.00022139167307345025 -0.011484145404481363 0 -4.9358629276418623e-05 -0.011436130126473366 0 -4.5193093534123364e-05 -0.011658705450302521 0 8.7810761616555672e-05 -0.01149734560609582 0 -4.9358629276418623e-05 -0.011436130126473366 0 6.8908744229130144e-05 -0.011286510812158736 0 -4.9358629276418623e-05 -0.011436130126473366 0 -0.00013628372243482031 -0.011290286100372577 0 -0.00035806989767405372 -0.011286488554113128 0 -0.00022139167307345025 -0.011484145404481363 0 -0.00013628372243482031 -0.011290286100372577 0 -0.00035806989767405372 -0.011286488554113128 0 -0.00013628372243482031 -0.011290286100372577 0 -0.00017388092257077228 -0.0110554660369336 0 0.0012696300025648584 -0.0084562093583196354 0 0.00083604718813002938 -0.0065970197626328128 0 6.8908744229130144e-05 -0.011286510812158736 0 -0.00013628372243482031 -0.011290286100372577 0 -0.00017388092257077228 -0.0110554660369336 0 -4.2266212861362967e-06 -0.011189913247040759 0 -0.00010050302759030712 -0.010842540014528695 0 -0.00032780647072808578 -0.010880369876130431 0 0.0015984627455103519 -0.0047678170183168391 0 0.00083604718813002938 -0.0065970197626328128 0 0.0011231224933452245 -0.0047441267706667435 0 0.0011311952023873753 -0.0047434042467026918 0 0.0011284028075459103 -0.0047497935973957574 0 0.0016962124546493289 -0.0042555676216419957 0 0.0014123074321470371 -0.0040969735577982055 0 0.0017425087291526625 -0.003878557670167954 0 0.0015498604777352861 -0.0039139900977785708 0 0.0019882110954807992 -0.0041528881476182201 0 0.0015984627455103519 -0.0047678170183168391 0 0.0014123074321470371 -0.0040969735577982055 0 0.0020667810027780258 -0.0012597648462772358 0 0.0019040084667715448 -0.0010811001008160202 0 0.0020149884676177818 -0.0011048677764569973 0 0.0019465661403550967 -0.0010720635571075377 0 0.0020149884676177818 -0.0011048677764569973 0 0.0022169001887824068 -0.0010024485740506373 0 0.0017190943544010231 -0.0055661931737105751 0 0.0015984627455103519 -0.0047678170183168391 0 -4.2266212861362967e-06 -0.011189913247040759 0 0.00027004395337647269 -0.011309800835532487 0 -0.00010050302759030712 -0.010842540014528695 0 0.0020667810027780258 -0.0012597648462772358 0 0.0020149884676177818 -0.0011048677764569973 0 0.0021521685861232861 -0.0011395491395603588 0 0.0019040084667715448 -0.0010811001008160202 0 0.00194934449583998 -0.0010721520809521962 0 0.0020149884676177818 -0.0011048677764569973 0 0.0016962124546493289 -0.0042555676216419957 0 0.001635716127485953 -0.0041515298883726889 0 0.0015984627455103519 -0.0047678170183168391 0 0.0016962124546493289 -0.0042555676216419957 0 0.0021521685861232861 -0.0011395491395603588 0 0.0022939905406233392 -0.0012213293819321029 0 0.0022169001887824068 -0.0010024485740506373 0 0.0020149884676177818 -0.0011048677764569973 0 0.0021521685861232861 -0.0011395491395603588 0 0.0022169001887824068 -0.0010024485740506373 0 0.0016962124546493289 -0.0042555676216419957 0 0.0023983719474260272 -0.0026958402265190341 0 0.0020667810027780258 -0.0012597648462772358 0 0.0021521685861232861 -0.0011395491395603588 0 0.0022939905406233392 -0.0012213293819321029 0 0.0022335405309171588 -0.0014488931062355561 0 0.0020667810027780258 -0.0012597648462772358 0 0.0022939905406233392 -0.0012213293819321029 0 0.0005546826940761386 -0.011684329919967882 0 0.00027004395337647269 -0.011309800835532487 0 0.00029544643183567371 -0.011476778670537827 0 0.0019065882807158961 -0.0057782669552822151 0 0.0017190943544010231 -0.0055661931737105751 0 0.0025571703874353166 -0.0013703812000742594 0 0.0022335405309171588 -0.0014488931062355561 0 0.0022939905406233392 -0.0012213293819321029 0 0.0024862143518606218 -0.0011407564465060855 0 0.0022169001887824068 -0.0010024485740506373 0 0.0025184286275745614 -0.00092891856349867907 0 0.0024862143518606218 -0.0011407564465060855 0 0.0022939905406233392 -0.0012213293819321029 0 0.0022169001887824068 -0.0010024485740506373 0 0.002426941110903164 -0.00086828257058076846 0 0.0023852123773971589 -0.00095864234771420129 0 0.0025184286275745614 -0.00092891856349867907 0 0.0023983719474260272 -0.0026958402265190341 0 0.0025532688770943607 -0.0022680580886179063 0 0.002426941110903164 -0.00086828257058076846 0 0.0024497466801818085 -0.00078178543965842166 0 0.0025507438228112387 -0.00079702581497563942 0 0.002426941110903164 -0.00086828257058076846 0 0.0024497466801818085 -0.00078178543965842166 0 0.0023493735532287745 -0.0008278208415506208 0 0.002426941110903164 -0.00086828257058076846 0 0.0023493735532287745 -0.0008278208415506208 0 0.0023361627663908667 -0.00089950152563177609 0 0.0023493735532287745 -0.0008278208415506208 0 0.0022925341409975666 -0.00083229399748037652 0 0.002361442287729487 -0.00076000643297336476 0 0.0023493735532287745 -0.0008278208415506208 0 0.0023361627663908667 -0.00089950152563177609 0 0.0023001845646158799 -0.00087214505543303171 0 0.002426941110903164 -0.00086828257058076846 0 0.0023361627663908667 -0.00089950152563177609 0 0.0023852123773971589 -0.00095864234771420129 0 0.0022571311648779788 -0.0009895913807471228 0 0.0023361627663908667 -0.00089950152563177609 0 0.0023852123773971589 -0.00095864234771420129 0 0.0022571311648779788 -0.0009895913807471228 0 0.0023361627663908667 -0.00089950152563177609 0 0.0022671660126420386 -0.00091217407585208804 0 0.0022571311648779788 -0.0009895913807471228 0 0.0022671660126420386 -0.00091217407585208804 0 0.0022359120147796333 -0.00094783920400895428 0 0.0023361627663908667 -0.00089950152563177609 0 0.0022671660126420386 -0.00091217407585208804 0 0.0023001845646158799 -0.00087214505543303171 0 0.0011311952023873753 -0.0047434042467026918 0 0.0011284028075459103 -0.0047497935973957574 0 0.0011425639890443504 -0.004753347834134833 0 0.0014123074321470371 -0.0040969735577982055 0 0.0011263583047299048 -0.0042013089908386281 0 0.0014123074321470371 -0.0040969735577982055 0 0.0012484604186695724 -0.0036259721235308174 0 0.0022571311648779788 -0.0009895913807471228 0 0.0022359120147796333 -0.00094783920400895428 0 0.0022125397766595127 -0.0009630568932010253 0 0.0022359120147796333 -0.00094783920400895428 0 0.0022125397766595127 -0.0009630568932010253 0 0.0022121585944757912 -0.00092666758192782857 0 0.0022671660126420386 -0.00091217407585208804 0 0.0022359120147796333 -0.00094783920400895428 0 0.0022121585944757912 -0.00092666758192782857 0 0.0022671660126420386 -0.00091217407585208804 0 0.0022121585944757912 -0.00092666758192782857 0 0.0022201699223630628 -0.00088907213301962166 0 0.0022121585944757912 -0.00092666758192782857 0 0.002192206175726086 -0.00090249357260035546 0 0.0022201699223630628 -0.00088907213301962166 0 0.0022121585944757912 -0.00092666758192782857 0 0.002192206175726086 -0.00090249357260035546 0 0.0021753154115028619 -0.00092710833106556738 0 0.0022125397766595127 -0.0009630568932010253 0 0.0022121585944757912 -0.00092666758192782857 0 0.0021753154115028619 -0.00092710833106556738 0 0.002192206175726086 -0.00090249357260035546 0 0.0022201699223630628 -0.00088907213301962166 0 0.0021836464614073577 -0.00087104709717991148 0 0.002192206175726086 -0.00090249357260035546 0 0.0021836464614073577 -0.00087104709717991148 0 0.0021560720178703009 -0.00090015963942187448 0 0.0022201699223630628 -0.00088907213301962166 0 0.0022348326322534123 -0.00084962041571540723 0 0.002261904665543055 -0.00087322249092247281 0 0.0022201699223630628 -0.00088907213301962166 0 0.0022348326322534123 -0.00084962041571540723 0 0.0021836464614073577 -0.00087104709717991148 0 0.0021836464614073577 -0.00087104709717991148 0 0.0022053405727877375 -0.00083078551877259585 0 0.002164499245151249 -0.00083119549838266366 0 0.0022348326322534123 -0.00084962041571540723 0 0.0021836464614073577 -0.00087104709717991148 0 0.0022053405727877375 -0.00083078551877259585 0 0.0023001845646158799 -0.00087214505543303171 0 0.002261904665543055 -0.00087322249092247281 0 0.0022925341409975666 -0.00083229399748037652 0 0.0022671660126420386 -0.00091217407585208804 0 0.0022201699223630628 -0.00088907213301962166 0 0.002261904665543055 -0.00087322249092247281 0 0.0022671660126420386 -0.00091217407585208804 0 0.0023001845646158799 -0.00087214505543303171 0 0.002261904665543055 -0.00087322249092247281 0 0.0022348326322534123 -0.00084962041571540723 0 0.0022925341409975666 -0.00083229399748037652 0 0.0022486235495589716 -0.00080049521260411435 0 0.0022348326322534123 -0.00084962041571540723 0 0.002261904665543055 -0.00087322249092247281 0 0.0022925341409975666 -0.00083229399748037652 0 0.0023493735532287745 -0.0008278208415506208 0 0.0023001845646158799 -0.00087214505543303171 0 0.0022925341409975666 -0.00083229399748037652 0 0.0022925341409975666 -0.00083229399748037652 0 0.0022486235495589716 -0.00080049521260411435 0 0.0022959013683363874 -0.00075273743797411819 0 0.0022925341409975666 -0.00083229399748037652 0 0.0022959013683363874 -0.00075273743797411819 0 0.002361442287729487 -0.00076000643297336476 0 0.0022486235495589716 -0.00080049521260411435 0 0.0022959013683363874 -0.00075273743797411819 0 0.0022481675215215305 -0.00075340322736903748 0 0.0022053405727877375 -0.00083078551877259585 0 0.002198304283728093 -0.00079020785078924528 0 0.002164499245151249 -0.00083119549838266366 0 0.0022348326322534123 -0.00084962041571540723 0 0.0022486235495589716 -0.00080049521260411435 0 0.0022053405727877375 -0.00083078551877259585 0 0.0022486235495589716 -0.00080049521260411435 0 0.0022053405727877375 -0.00083078551877259585 0 0.002198304283728093 -0.00079020785078924528 0 0.0022486235495589716 -0.00080049521260411435 0 0.002198304283728093 -0.00079020785078924528 0 0.0022481675215215305 -0.00075340322736903748 0 0.0022481675215215305 -0.00075340322736903748 0 0.0021918233786659197 -0.00073496987547271822 0 0.0022860928918723542 -0.00070346940033744643 0 0.002198304283728093 -0.00079020785078924528 0 0.0022481675215215305 -0.00075340322736903748 0 0.0021918233786659197 -0.00073496987547271822 0 0.0022959013683363874 -0.00075273743797411819 0 0.0022860928918723542 -0.00070346940033744643 0 0.0023488992068535766 -0.00068057762318656987 0 0.0022959013683363874 -0.00075273743797411819 0 0.0022481675215215305 -0.00075340322736903748 0 0.0022860928918723542 -0.00070346940033744643 0 0.0023488992068535766 -0.00068057762318656987 0 0.002328997300762161 -0.00058700539744521989 0 0.0025221306646858359 -0.00057208531714619587 0 0.0022860928918723542 -0.00070346940033744643 0 0.0023488992068535766 -0.00068057762318656987 0 0.0023303510329993997 -0.00066672066909845848 0 0.0026960622713661942 -0.0032870664027332469 0 0.0028579224175087786 -0.0041097524533934438 0 0.0024471934529750297 -0.00069538768367526245 0 0.0025221306646858359 -0.00057208531714619587 0 0.0025653944898263218 -0.00067726057435355739 0 0.0023488992068535766 -0.00068057762318656987 0 0.0024471934529750297 -0.00069538768367526245 0 0.0025221306646858359 -0.00057208531714619587 0 0.0024497466801818085 -0.00078178543965842166 0 0.0024471934529750297 -0.00069538768367526245 0 0.0025653944898263218 -0.00067726057435355739 0 0.0024497466801818085 -0.00078178543965842166 0 0.0024471934529750297 -0.00069538768367526245 0 0.002361442287729487 -0.00076000643297336476 0 0.0023488992068535766 -0.00068057762318656987 0 0.0024471934529750297 -0.00069538768367526245 0 0.002361442287729487 -0.00076000643297336476 0 0.0022959013683363874 -0.00075273743797411819 0 0.0023488992068535766 -0.00068057762318656987 0 0.002361442287729487 -0.00076000643297336476 0 0.0024497466801818085 -0.00078178543965842166 0 0.0023493735532287745 -0.0008278208415506208 0 0.002361442287729487 -0.00076000643297336476 0 -0.00058884146049090853 -0.010642504282791893 0 -0.00068501996729102943 -0.010673341003624416 0 -0.00056635511408944909 -0.010738875750720718 0 -0.00058884146049090853 -0.010642504282791893 0 -0.00056635511408944909 -0.010738875750720718 0 -0.00048814292217697096 -0.010646494016686032 0 -0.0006848452416052471 -0.010472990544211545 0 -0.00059868528099005865 -0.010540413271726255 0 -0.00049924019142664978 -0.010516623311633774 0 -0.00059868528099005865 -0.010540413271726255 0 -0.00048814292217697096 -0.010646494016686032 0 -0.00049924019142664978 -0.010516623311633774 0 -0.00058884146049090853 -0.010642504282791893 0 -0.00059868528099005865 -0.010540413271726255 0 -0.00048814292217697096 -0.010646494016686032 0 -0.00058884146049090853 -0.010642504282791893 0 -0.00059868528099005865 -0.010540413271726255 0 -0.00064361700785338426 -0.010593689482439406 0 -0.00064361700785338426 -0.010593689482439406 0 -0.00065747309775157745 -0.010539895668715304 0 -0.00070356215645025631 -0.010550607008929833 0 -0.00059868528099005865 -0.010540413271726255 0 -0.00064361700785338426 -0.010593689482439406 0 -0.00065747309775157745 -0.010539895668715304 0 -0.0006848452416052471 -0.010472990544211545 0 -0.00059868528099005865 -0.010540413271726255 0 -0.00065747309775157745 -0.010539895668715304 0 -0.0006848452416052471 -0.010472990544211545 0 -0.00065747309775157745 -0.010539895668715304 0 -0.00070356215645025631 -0.010550607008929833 0 0.00051246985707296532 -0.0068133276435027841 0 0.00049038855584608956 -0.0066100504178232874 0 0.00061445007978787021 -0.00668038012813382 0 -0.00064361700785338426 -0.010593689482439406 0 -0.00070356215645025631 -0.010550607008929833 0 -0.00068501996729102943 -0.010673341003624416 0 0.00022281171901922437 -0.0080070673849847989 0 0.00077633943832148265 -0.0055791888916866409 0 -0.00058884146049090853 -0.010642504282791893 0 -0.00064361700785338426 -0.010593689482439406 0 -0.00068501996729102943 -0.010673341003624416 0 0.0020323880744433811 -0.00088635234999442892 0 0.0020511779060085832 -0.0008859947533754758 0 0.002059572075816779 -0.00085303341983659431 0 0.0020511779060085832 -0.0008859947533754758 0 0.0020901809527939337 -0.00086948568969982376 0 0.002059572075816779 -0.00085303341983659431 0 0.0020511779060085832 -0.0008859947533754758 0 0.0020901809527939337 -0.00086948568969982376 0 0.0020795060421405168 -0.00090402436628502739 0 0.0020323880744433811 -0.00088635234999442892 0 0.0020511779060085832 -0.0008859947533754758 0 0.0020862651309248607 -0.00093804589432263438 0 0.0020901809527939337 -0.00086948568969982376 0 0.0020795060421405168 -0.00090402436628502739 0 0.0021194354270130614 -0.00089490769559896928 0 0.00077216373835483558 -0.0044782287534015112 0 0.0008719340704555935 -0.0047885635926684222 0 0.00077633943832148265 -0.0055791888916866409 0 0.0008719340704555935 -0.0047885635926684222 0 0.00051246985707296532 -0.0068133276435027841 0 0.00061445007978787021 -0.00668038012813382 0 0.00063606814780162526 -0.0068711723854111865 0 0.00061445007978787021 -0.00668038012813382 0 0.00063606814780162526 -0.0068711723854111865 0 0.00075939223778177692 -0.0068131280594557128 0 0.0008719340704555935 -0.0047885635926684222 0 0.0011263583047299048 -0.0042013089908386281 0 0.0008719340704555935 -0.0047885635926684222 0 0.00089586201578315829 -0.0057305015098394457 0 0.002223552566312576 -0.00099599163455694638 0 0.0021390392032389276 -0.0009341212726524901 0 0.0021753154115028619 -0.00092710833106556738 0 0.0011284028075459103 -0.0047497935973957574 0 0.001141459599314093 -0.0047556118736223653 0 0.0011425639890443504 -0.004753347834134833 0 0.0011497738501933864 -0.0047584209879656565 0 0.001141459599314093 -0.0047556118736223653 0 0.0011425639890443504 -0.004753347834134833 0 0.00083604718813002938 -0.0065970197626328128 0 0.00089586201578315829 -0.0057305015098394457 0 0.0021390392032389276 -0.0009341212726524901 0 0.0021753154115028619 -0.00092710833106556738 0 0.0021560720178703009 -0.00090015963942187448 0 0.002192206175726086 -0.00090249357260035546 0 0.0021753154115028619 -0.00092710833106556738 0 0.0021560720178703009 -0.00090015963942187448 0 0.0021836464614073577 -0.00087104709717991148 0 0.0021560720178703009 -0.00090015963942187448 0 0.0021358243888099757 -0.0008692223040974986 0 0.0020795060421405168 -0.00090402436628502739 0 0.0021390392032389276 -0.0009341212726524901 0 0.0021194354270130614 -0.00089490769559896928 0 0.0021560720178703009 -0.00090015963942187448 0 0.0021194354270130614 -0.00089490769559896928 0 0.0021358243888099757 -0.0008692223040974986 0 0.0021390392032389276 -0.0009341212726524901 0 0.0021560720178703009 -0.00090015963942187448 0 0.0021194354270130614 -0.00089490769559896928 0 0.0020901809527939337 -0.00086948568969982376 0 0.0021194354270130614 -0.00089490769559896928 0 0.0021358243888099757 -0.0008692223040974986 0 0.0020901809527939337 -0.00086948568969982376 0 0.0021358243888099757 -0.0008692223040974986 0 0.0021260217487779733 -0.00083804801177359998 0 0.0021836464614073577 -0.00087104709717991148 0 0.0021358243888099757 -0.0008692223040974986 0 0.002164499245151249 -0.00083119549838266366 0 0.002164499245151249 -0.00083119549838266366 0 0.0021260217487779733 -0.00083804801177359998 0 0.0021411357929139161 -0.00080280330485094315 0 0.0021358243888099757 -0.0008692223040974986 0 0.002164499245151249 -0.00083119549838266366 0 0.0021260217487779733 -0.00083804801177359998 0 0.0021260217487779733 -0.00083804801177359998 0 0.0021411357929139161 -0.00080280330485094315 0 0.0020917009338014898 -0.0008267509954375243 0 0.002198304283728093 -0.00079020785078924528 0 0.002164499245151249 -0.00083119549838266366 0 0.0021411357929139161 -0.00080280330485094315 0 0.0021918233786659197 -0.00073496987547271822 0 0.0021411357929139161 -0.00080280330485094315 0 0.002083126309714372 -0.00078448692249667305 0 0.002198304283728093 -0.00079020785078924528 0 0.0021918233786659197 -0.00073496987547271822 0 0.0021411357929139161 -0.00080280330485094315 0 0.002083126309714372 -0.00078448692249667305 0 0.0020202892128589954 -0.00080714981874233929 0 0.0020300178630295713 -0.00076019391959579431 0 0.002083126309714372 -0.00078448692249667305 0 0.0020633240948841614 -0.00081624844349135919 0 0.0020202892128589954 -0.00080714981874233929 0 0.002083126309714372 -0.00078448692249667305 0 0.0020633240948841614 -0.00081624844349135919 0 0.0020917009338014898 -0.0008267509954375243 0 0.0020633240948841614 -0.00081624844349135919 0 0.0020917009338014898 -0.0008267509954375243 0 0.002059572075816779 -0.00085303341983659431 0 0.0021411357929139161 -0.00080280330485094315 0 0.002083126309714372 -0.00078448692249667305 0 0.0020917009338014898 -0.0008267509954375243 0 0.0020901809527939337 -0.00086948568969982376 0 0.0021260217487779733 -0.00083804801177359998 0 0.0020917009338014898 -0.0008267509954375243 0 0.0020901809527939337 -0.00086948568969982376 0 0.0020917009338014898 -0.0008267509954375243 0 0.002059572075816779 -0.00085303341983659431 0 0.0020323880744433811 -0.00088635234999442892 0 0.002059572075816779 -0.00085303341983659431 0 0.0020202892128589954 -0.00080714981874233929 0 0.00077633943832148265 -0.0055791888916866409 0 0.0011449622436206382 -0.0025338170376836473 0 0.002364521865355317 -0.0040223625568257945 0 0.0021733133778376137 -0.0023894001346653829 0 0.0011258148518029484 -0.0033394487535783664 0 0.00077633943832148265 -0.0055791888916866409 0 0.00038237519754081548 -0.007084048985880889 0 0.0020633240948841614 -0.00081624844349135919 0 0.002059572075816779 -0.00085303341983659431 0 0.0020202892128589954 -0.00080714981874233929 0 0.0011449622436206382 -0.0025338170376836473 0 0.0012529163608268792 -0.0017200098142898196 0 0.0021733133778376137 -0.0023894001346653829 0 0.0010273304053532468 -0.0023899380045976164 0 0.0014569687913034836 -0.0014759454289852247 0 0.0010273304053532468 -0.0023899380045976164 0 0.00068672172229174904 -0.0015092197103403868 0 0.0014569687913034836 -0.0014759454289852247 0 0.0021733133778376137 -0.0023894001346653829 0 0.0010273304053532468 -0.0023899380045976164 0 0.0011258148518029484 -0.0033394487535783664 0 0.0010273304053532468 -0.0023899380045976164 0 0.0011258148518029484 -0.0033394487535783664 0 -0.00011321609490938726 -0.002666066585269888 0 0.0017045422879106416 -0.013112678119849529 0 0.0016496888558816365 -0.013192855350100952 0 0.00072184542724300946 -0.012948962068849079 0 0.0016460631276869315 -0.021063010320930303 0 0.0016233785448950737 -0.021163391089849777 0 0.001670947912833208 -0.021113567195701066 0 0.0012622538375932925 -0.012001162164173833 0 0.00081570145389518354 -0.01557839669782061 0 0.0016460631276869315 -0.021063010320930303 0 0.001670947912833208 -0.021113567195701066 0 0.0017252392507104797 -0.021062545342869592 0 0.00027584569041053645 -0.017448048012642711 0 0.00081570145389518354 -0.01557839669782061 0 0.0012622538375932925 -0.012001162164173833 0 0.0014498144197685155 -0.011615281884131013 0 0.0015072545516142686 -0.00045917371474760068 0 0.0014569687913034836 -0.0014759454289852247 0 0.0019396323676771957 -0.00076130138999852168 0 0.0015072545516142686 -0.00045917371474760068 0 0.00068672172229174904 -0.0015092197103403868 0 0.0014569687913034836 -0.0014759454289852247 0 0.0014498144197685155 -0.011615281884131013 0 0.0013086825075937047 -0.0089020958846469187 0 0.0010826868000318719 -0.011705548836017664 0 0.00094714543711220465 -0.01189799950594608 0 0.00077959883666140894 -0.011713282613185506 0 0.0020202892128589954 -0.00080714981874233929 0 0.0019396323676771957 -0.00076130138999852168 0 0.0020300178630295713 -0.00076019391959579431 0 0.0021733133778376137 -0.0023894001346653829 0 0.0014569687913034836 -0.0014759454289852247 0 0.0019396323676771957 -0.00076130138999852168 0 0.0019396323676771957 -0.00076130138999852168 0 0.0020300178630295713 -0.00076019391959579431 0 0.0019653190635121375 -0.00061881343143976484 0 0.0020349068508914224 -0.009272274096807618 0 0.0021048594649968372 -0.0092818373455608397 0 0.0021514248487150126 -0.0091091582156446402 0 0.0021048594649968372 -0.0092818373455608397 0 0.0022177255212060629 -0.0091889510426556645 0 0.0021514248487150126 -0.0091091582156446402 0 0.0015596212739578132 -0.010880400391800207 0 0.001962853844083119 -0.010491616911081235 0 0.0012622538375932925 -0.012001162164173833 0 0.0014904183409326925 -0.013784340559334793 0 0.0015072545516142686 -0.00045917371474760068 0 0.0019396323676771957 -0.00076130138999852168 0 0.0019653190635121375 -0.00061881343143976484 0 0.00069234914239342711 -0.010919453216896755 0 0.00053537677841932125 -0.011148659673779418 0 0.0018756029343839329 -0.011120273275538111 0 0.0014498144197685155 -0.011615281884131013 0 0.0015596212739578132 -0.010880400391800207 0 0.0012622538375932925 -0.012001162164173833 0 0.0015596212739578132 -0.010880400391800207 0 0.0022337959400462498 -0.0092611489706232782 0 0.002315379417172113 -0.0092961445834400872 0 0.0023705152328915057 -0.0092541421510405186 0 0.0020918553296708424 -0.0092734192142422834 0 0.0022337959400462498 -0.0092611489706232782 0 0.002315379417172113 -0.0092961445834400872 0 0.0015596212739578132 -0.010880400391800207 0 0.0018914849061092837 -0.0074912659218194146 0 0.001962853844083119 -0.010491616911081235 0 0.0020853698955060774 -0.010370323645633596 0 0.0023019498233440919 -0.0091948060318095218 0 0.002241107312774545 -0.0092717003884269962 0 0.0023705152328915057 -0.0092541421510405186 0 0.0021048594649968372 -0.0092818373455608397 0 0.0022177255212060629 -0.0091889510426556645 0 0.002241107312774545 -0.0092717003884269962 0 0.0022177255212060629 -0.0091889510426556645 0 0.0023019498233440919 -0.0091948060318095218 0 0.002241107312774545 -0.0092717003884269962 0 0.002083126309714372 -0.00078448692249667305 0 0.0020300178630295713 -0.00076019391959579431 0 0.0021289551445873409 -0.00069217628622831294 0 0.0020300178630295713 -0.00076019391959579431 0 0.0019653190635121375 -0.00061881343143976484 0 0.0021289551445873409 -0.00069217628622831294 0 0.002315379417172113 -0.0092961445834400872 0 0.0023705152328915057 -0.0092541421510405186 0 0.0025156590783857939 -0.0093079927912064694 0 0.0021918233786659197 -0.00073496987547271822 0 0.0021289551445873409 -0.00069217628622831294 0 0.0022290782704083192 -0.00067913318884818888 0 0.0021918233786659197 -0.00073496987547271822 0 0.002083126309714372 -0.00078448692249667305 0 0.0021289551445873409 -0.00069217628622831294 0 0.0018914849061092837 -0.0074912659218194146 0 0.0023213307459932723 -0.0056096886840779712 0 0.0023019498233440919 -0.0091948060318095218 0 0.0023705152328915057 -0.0092541421510405186 0 0.0023890275095067937 -0.0091590459557125883 0 0.0023705152328915057 -0.0092541421510405186 0 0.0023890275095067937 -0.0091590459557125883 0 0.002469198011927156 -0.0092007998541485878 0 0.0023890275095067937 -0.0091590459557125883 0 0.00239875647755724 -0.0090432053093901701 0 0.0024997756310584426 -0.0091069885869029307 0 0.0023019498233440919 -0.0091948060318095218 0 0.0023890275095067937 -0.0091590459557125883 0 0.002288442049632862 -0.0091104147918849264 0 0.0023890275095067937 -0.0091590459557125883 0 0.00239875647755724 -0.0090432053093901701 0 0.002288442049632862 -0.0091104147918849264 0 0.0024480772573339574 -0.01356283526484617 0 0.0034856911410883931 -0.010679606890145646 0 0.00239875647755724 -0.0090432053093901701 0 0.0022629827965394539 -0.008957582425170885 0 0.0024386971197694961 -0.0089166663019525569 0 0.00239875647755724 -0.0090432053093901701 0 0.0022629827965394539 -0.008957582425170885 0 0.002288442049632862 -0.0091104147918849264 0 0.0024480772573339574 -0.01356283526484617 0 0.0014904183409326925 -0.013784340559334793 0 0.0019957314184809835 -0.020884962535378367 0 0.001796457942555387 -0.020967478240999236 0 0.0016479158130191236 -0.021170916749679584 0 0.0019957314184809835 -0.020884962535378367 0 0.0018711814060624176 -0.02090146787676472 0 0.001796457942555387 -0.020967478240999236 0 0.0020516939113866275 -0.02088507391415366 0 0.0018711814060624176 -0.02090146787676472 0 0.0020014817677206378 -0.020622136138274256 0 0.0024480772573339574 -0.01356283526484617 0 0.0023483663283636459 -0.013698657152323381 0 0.0022629827965394539 -0.008957582425170885 0 0.002288442049632862 -0.0091104147918849264 0 0.0021514248487150126 -0.0091091582156446402 0 0.0022177255212060629 -0.0091889510426556645 0 0.002288442049632862 -0.0091104147918849264 0 0.0021514248487150126 -0.0091091582156446402 0 0.0022177255212060629 -0.0091889510426556645 0 0.0023019498233440919 -0.0091948060318095218 0 0.002288442049632862 -0.0091104147918849264 0 0.0016460631276869315 -0.021063010320930303 0 0.0016479158130191236 -0.021170916749679584 0 0.0016233785448950737 -0.021163391089849777 0 0.0016233785448950737 -0.021163391089849777 0 0.0015854028562743636 -0.021042459981121881 0 0.0014564135481900306 -0.021111323321588504 0 0.0016233785448950737 -0.021163391089849777 0 0.0016478132622285567 -0.021084907345692742 0 0.0015854028562743636 -0.021042459981121881 0 0.0016479158130191236 -0.021170916749679584 0 0.0016478132622285567 -0.021084907345692742 0 0.0017002565832894834 -0.021031958411897943 0 0.001796457942555387 -0.020967478240999236 0 0.0016479158130191236 -0.021170916749679584 0 0.0017002565832894834 -0.021031958411897943 0 0.0016479158130191236 -0.021170916749679584 0 0.0016233785448950737 -0.021163391089849777 0 0.0016478132622285567 -0.021084907345692742 0 0.0016478132622285567 -0.021084907345692742 0 0.0017002565832894834 -0.021031958411897943 0 0.0016531282091700717 -0.020978110055222269 0 0.0016531282091700717 -0.020978110055222269 0 0.0017163215272957008 -0.020910258924796234 0 0.0015627746165985563 -0.020913132838187288 0 0.0017002565832894834 -0.021031958411897943 0 0.0016531282091700717 -0.020978110055222269 0 0.0017163215272957008 -0.020910258924796234 0 0.001796457942555387 -0.020967478240999236 0 0.0017002565832894834 -0.021031958411897943 0 0.0017163215272957008 -0.020910258924796234 0 0.0018711814060624176 -0.02090146787676472 0 0.001796457942555387 -0.020967478240999236 0 0.0017163215272957008 -0.020910258924796234 0 0.0017163215272957008 -0.020910258924796234 0 0.0016115460088161838 -0.020762369648352808 0 0.0017742240856751044 -0.020751258358093327 0 0.0018711814060624176 -0.02090146787676472 0 0.0017163215272957008 -0.020910258924796234 0 0.0017742240856751044 -0.020751258358093327 0 0.0014535569323576645 -0.020782755251604227 0 0.0015627746165985563 -0.020913132838187288 0 0.0016115460088161838 -0.020762369648352808 0 0.0017163215272957008 -0.020910258924796234 0 0.0015627746165985563 -0.020913132838187288 0 0.0016115460088161838 -0.020762369648352808 0 0.0015627746165985563 -0.020913132838187288 0 0.0015854028562743636 -0.021042459981121881 0 0.0014635479151727606 -0.020994829710498129 0 0.0016531282091700717 -0.020978110055222269 0 0.0015627746165985563 -0.020913132838187288 0 0.0015854028562743636 -0.021042459981121881 0 0.0016478132622285567 -0.021084907345692742 0 0.0016531282091700717 -0.020978110055222269 0 0.0015854028562743636 -0.021042459981121881 0 0.0015854028562743636 -0.021042459981121881 0 0.0014635479151727606 -0.020994829710498129 0 0.0014564135481900306 -0.021111323321588504 0 0.0014635479151727606 -0.020994829710498129 0 0.0012741158685961539 -0.021075823279192659 0 0.0014564135481900306 -0.021111323321588504 0 0.0015627746165985563 -0.020913132838187288 0 0.0014635479151727606 -0.020994829710498129 0 0.0013536147417642422 -0.020897182968512399 0 0.0014635479151727606 -0.020994829710498129 0 0.0013536147417642422 -0.020897182968512399 0 0.0012741158685961539 -0.021075823279192659 0 0.0014535569323576645 -0.020782755251604227 0 0.0013536147417642422 -0.020897182968512399 0 0.0012705108932522713 -0.020696465613666334 0 0.0014535569323576645 -0.020782755251604227 0 0.0015627746165985563 -0.020913132838187288 0 0.0013536147417642422 -0.020897182968512399 0 0.0013536147417642422 -0.020897182968512399 0 0.0010494808651159606 -0.020891039895955053 0 0.0012705108932522713 -0.020696465613666334 0 0.0013536147417642422 -0.020897182968512399 0 0.0012741158685961539 -0.021075823279192659 0 0.0010494808651159606 -0.020891039895955053 0 0.0012741158685961539 -0.021075823279192659 0 0.0010720925707543346 -0.021206154189255522 0 0.0010494808651159606 -0.020891039895955053 0 0.0012741158685961539 -0.021075823279192659 0 0.0012955759960976971 -0.02137967766429795 0 0.0010720925707543346 -0.021206154189255522 0 0.0012955759960976971 -0.02137967766429795 0 0.0010058417754823536 -0.021559455233660169 0 0.0010720925707543346 -0.021206154189255522 0 0.0012741158685961539 -0.021075823279192659 0 0.0014564135481900306 -0.021111323321588504 0 0.0012955759960976971 -0.02137967766429795 0 0.0016233785448950737 -0.021163391089849777 0 0.0014564135481900306 -0.021111323321588504 0 0.0012955759960976971 -0.02137967766429795 0 0.00020489977050109986 -0.017962647587858458 0 0.00027584569041053645 -0.017448048012642711 0 0.0060792587696806948 -0.0022708404316418586 0 0.0067039773221657592 -0.0024719867401275589 0 0.0063622463231381553 -0.0029107863525299582 0 0.0060792587696806948 -0.0022708404316418586 0 0.0065652457980464067 -0.0018590046074758199 0 0.0067039773221657592 -0.0024719867401275589 0 0.0028579224175087786 -0.0041097524533934438 0 0.0037618805910034064 -0.0023402282071198609 0 0.0060792587696806948 -0.0022708404316418586 0 0.0065652457980464067 -0.0018590046074758199 0 0.0057474079590695299 -0.0017138285952613143 0 0.0028579224175087786 -0.0041097524533934438 0 0.0038657676570990895 -0.0056076634247301154 0 0.0028579224175087786 -0.0041097524533934438 0 0.0023213307459932723 -0.0056096886840779712 0 0.0022860928918723542 -0.00070346940033744643 0 0.0023303510329993997 -0.00066672066909845848 0 0.0022290782704083192 -0.00067913318884818888 0 0.0026975976639339759 -0.0093228311617156914 0 0.0025156590783857939 -0.0093079927912064694 0 0.0026676470529572865 -0.0091829303111176305 0 0.0021918233786659197 -0.00073496987547271822 0 0.0022860928918723542 -0.00070346940033744643 0 0.0022290782704083192 -0.00067913318884818888 0 0.0025156590783857939 -0.0093079927912064694 0 0.002469198011927156 -0.0092007998541485878 0 0.0025609245916491099 -0.0091692185630892469 0 0.0023705152328915057 -0.0092541421510405186 0 0.0025156590783857939 -0.0093079927912064694 0 0.002469198011927156 -0.0092007998541485878 0 0.002469198011927156 -0.0092007998541485878 0 0.0025609245916491099 -0.0091692185630892469 0 0.0024997756310584426 -0.0091069885869029307 0 0.0025156590783857939 -0.0093079927912064694 0 0.0026676470529572865 -0.0091829303111176305 0 0.0025609245916491099 -0.0091692185630892469 0 0.0026676470529572865 -0.0091829303111176305 0 0.0025609245916491099 -0.0091692185630892469 0 0.0026404222959548218 -0.0090335879562789146 0 0.0025609245916491099 -0.0091692185630892469 0 0.0024997756310584426 -0.0091069885869029307 0 0.0026404222959548218 -0.0090335879562789146 0 0.0038657676570990895 -0.0056076634247301154 0 0.0044262984249183145 -0.0064301923127880311 0 0.0024997756310584426 -0.0091069885869029307 0 0.0025250407387734609 -0.0090010139173000488 0 0.0026404222959548218 -0.0090335879562789146 0 0.00239875647755724 -0.0090432053093901701 0 0.0024997756310584426 -0.0091069885869029307 0 0.0025250407387734609 -0.0090010139173000488 0 0.0023890275095067937 -0.0091590459557125883 0 0.002469198011927156 -0.0092007998541485878 0 0.0024997756310584426 -0.0091069885869029307 0 0.00239875647755724 -0.0090432053093901701 0 0.0025250407387734609 -0.0090010139173000488 0 0.0024386971197694961 -0.0089166663019525569 0 0.0025250407387734609 -0.0090010139173000488 0 0.0026114304019855543 -0.0088767877619389188 0 0.0024386971197694961 -0.0089166663019525569 0 0.0044262984249183145 -0.0064301923127880311 0 0.0049567285158527733 -0.007834929359204542 0 0.0068515069216274404 -0.0030860824151050918 0 0.0065410746615906226 -0.0034149162926844574 0 0.0070037065147673843 -0.0037192452523449079 0 0.0025250407387734609 -0.0090010139173000488 0 0.0026404222959548218 -0.0090335879562789146 0 0.0026114304019855543 -0.0088767877619389188 0 0.0068515069216274404 -0.0030860824151050918 0 0.0065410746615906226 -0.0034149162926844574 0 0.0063622463231381553 -0.0029107863525299582 0 0.0065410746615906226 -0.0034149162926844574 0 0.0063622463231381553 -0.0029107863525299582 0 0.006173976752978527 -0.0033881355536783094 0 0.0067039773221657592 -0.0024719867401275589 0 0.0068515069216274404 -0.0030860824151050918 0 0.0063622463231381553 -0.0029107863525299582 0 0.0060792587696806948 -0.0022708404316418586 0 0.0063622463231381553 -0.0029107863525299582 0 0.0057559174273409059 -0.0027931966053375652 0 0.0063622463231381553 -0.0029107863525299582 0 0.006173976752978527 -0.0033881355536783094 0 0.0057559174273409059 -0.0027931966053375652 0 0.0056930566806209764 -0.0030086547719432762 0 0.005414576777605257 -0.0026888198879015004 0 0.006173976752978527 -0.0033881355536783094 0 0.0056730749368449499 -0.0025494687984495635 0 0.0055857766344739219 -0.0035581487814711514 0 0.0049103921667524048 -0.0032861018841401153 0 0.0056730749368449499 -0.0025494687984495635 0 0.0055857766344739219 -0.0035581487814711514 0 0.0049103921667524048 -0.0032861018841401153 0 0.0043031421844099164 -0.0033542411075368705 0 0.0043562523554799334 -0.0038192721628890979 0 0.0049103921667524048 -0.0032861018841401153 0 0.0043982126483606068 -0.0029358854927401617 0 0.0043031421844099164 -0.0033542411075368705 0 0.0049103921667524048 -0.0032861018841401153 0 0.0049641432098016863 -0.002499125332243838 0 0.0043982126483606068 -0.0029358854927401617 0 0.0049641432098016863 -0.002499125332243838 0 0.0043850906845843982 -0.0024184998539115484 0 0.0043982126483606068 -0.0029358854927401617 0 0.0049641432098016863 -0.002499125332243838 0 0.0046029447618596096 -0.0020471367741238602 0 0.0043850906845843982 -0.0024184998539115484 0 0.0049103921667524048 -0.0032861018841401153 0 0.0049641432098016863 -0.002499125332243838 0 0.0056730749368449499 -0.0025494687984495635 0 0.005414576777605257 -0.0026888198879015004 0 0.0047866483990487473 -0.0020967626576581704 0 0.0060792587696806948 -0.0022708404316418586 0 0.0057559174273409059 -0.0027931966053375652 0 0.0053366759348739377 -0.002185235677188715 0 0.0049641432098016863 -0.002499125332243838 0 0.0056730749368449499 -0.0025494687984495635 0 0.0051123468530205919 -0.001725659897080119 0 0.0049641432098016863 -0.002499125332243838 0 0.0051123468530205919 -0.001725659897080119 0 0.0046029447618596096 -0.0020471367741238602 0 0.0051123468530205919 -0.001725659897080119 0 0.0046029447618596096 -0.0020471367741238602 0 0.0043352443309637879 -0.0016181158833302343 0 0.0051123468530205919 -0.001725659897080119 0 0.0043352443309637879 -0.0016181158833302343 0 0.0045624955089014346 -0.00093876580433953187 0 0.0047866483990487473 -0.0020967626576581704 0 0.0037420567262401892 -0.0013145870283350102 0 0.0053366759348739377 -0.002185235677188715 0 0.0057474079590695299 -0.0017138285952613143 0 0.0049185215686128022 -0.0015702081707135917 0 0.0060792587696806948 -0.0022708404316418586 0 0.0053366759348739377 -0.002185235677188715 0 0.0057474079590695299 -0.0017138285952613143 0 0.0038548524608941273 -0.0013424165718332651 0 0.0032109230416053794 -0.0015125138038692271 0 0.0035205020040664191 -0.00077719056576274642 0 0.0038548524608941273 -0.0013424165718332651 0 0.0036545226268441082 -0.0018652270436322496 0 0.0032109230416053794 -0.0015125138038692271 0 0.0038548524608941273 -0.0013424165718332651 0 0.0043352443309637879 -0.0016181158833302343 0 0.0036545226268441082 -0.0018652270436322496 0 0.0038548524608941273 -0.0013424165718332651 0 0.0043352443309637879 -0.0016181158833302343 0 0.0045624955089014346 -0.00093876580433953187 0 0.0043352443309637879 -0.0016181158833302343 0 0.0040724859880841976 -0.0021261291160129423 0 0.0036545226268441082 -0.0018652270436322496 0 0.0046029447618596096 -0.0020471367741238602 0 0.0043352443309637879 -0.0016181158833302343 0 0.0040724859880841976 -0.0021261291160129423 0 0.0046029447618596096 -0.0020471367741238602 0 0.0040724859880841976 -0.0021261291160129423 0 0.0043850906845843982 -0.0024184998539115484 0 0.0040724859880841976 -0.0021261291160129423 0 0.0036545226268441082 -0.0018652270436322496 0 0.0036979420408537913 -0.0023208740764525922 0 0.0036545226268441082 -0.0018652270436322496 0 0.0032886348514748562 -0.0019282458105949764 0 0.0032109230416053794 -0.0015125138038692271 0 0.0036545226268441082 -0.0018652270436322496 0 0.0032886348514748562 -0.0019282458105949764 0 0.0033472396484089187 -0.0022423456996502156 0 0.0036545226268441082 -0.0018652270436322496 0 0.0033472396484089187 -0.0022423456996502156 0 0.0036979420408537913 -0.0023208740764525922 0 0.0033472396484089187 -0.0022423456996502156 0 0.0035434602122299264 -0.002465433533394071 0 0.0034219650360569351 -0.0026473073533301423 0 0.0031844661063426031 -0.0027144708024970819 0 0.0033076408567810816 -0.0025653636355032184 0 0.0038756228681913829 -0.0032054814603649992 0 0.0033472396484089187 -0.0022423456996502156 0 0.0035434602122299264 -0.002465433533394071 0 0.0036979420408537913 -0.0023208740764525922 0 0.0035434602122299264 -0.002465433533394071 0 0.0037060856159860651 -0.0026498919446360097 0 0.0034219650360569351 -0.0026473073533301423 0 0.0035434602122299264 -0.002465433533394071 0 0.0036979420408537913 -0.0023208740764525922 0 0.0037060856159860651 -0.0026498919446360097 0 0.0036979420408537913 -0.0023208740764525922 0 0.0037060856159860651 -0.0026498919446360097 0 0.0040062654136746841 -0.00261020943352748 0 0.0037060856159860651 -0.0026498919446360097 0 0.0034219650360569351 -0.0026473073533301423 0 0.0038756228681913829 -0.0032054814603649992 0 0.0040724859880841976 -0.0021261291160129423 0 0.0043850906845843982 -0.0024184998539115484 0 0.0040062654136746841 -0.00261020943352748 0 0.0040724859880841976 -0.0021261291160129423 0 0.0036979420408537913 -0.0023208740764525922 0 0.0040062654136746841 -0.00261020943352748 0 0.0037060856159860651 -0.0026498919446360097 0 0.0040062654136746841 -0.00261020943352748 0 0.0038756228681913829 -0.0032054814603649992 0 0.0043850906845843982 -0.0024184998539115484 0 0.0040062654136746841 -0.00261020943352748 0 0.0043982126483606068 -0.0029358854927401617 0 0.0043982126483606068 -0.0029358854927401617 0 0.0038756228681913829 -0.0032054814603649992 0 0.0043031421844099164 -0.0033542411075368705 0 0.0040062654136746841 -0.00261020943352748 0 0.0043982126483606068 -0.0029358854927401617 0 0.0038756228681913829 -0.0032054814603649992 0 0.0038756228681913829 -0.0032054814603649992 0 0.0036151908643833504 -0.0034924857690328791 0 0.0039629080936219654 -0.0035794100905831199 0 0.0038756228681913829 -0.0032054814603649992 0 0.0043031421844099164 -0.0033542411075368705 0 0.0039629080936219654 -0.0035794100905831199 0 0.0031844661063426031 -0.0027144708024970819 0 0.0038756228681913829 -0.0032054814603649992 0 0.0036151908643833504 -0.0034924857690328791 0 0.0031824311879889455 -0.0026699684259046869 0 0.0036151908643833504 -0.0034924857690328791 0 0.0031067527854428739 -0.0032287055198501244 0 0.0031732707185025502 -0.002530835840954114 0 0.0033329436760920865 -0.0028396794846875244 0 0.003282026082590643 -0.0024398503682437666 0 0.003479891054117694 -0.002674902345561178 0 0.0036151908643833504 -0.0034924857690328791 0 0.0031067527854428739 -0.0032287055198501244 0 0.0032343554150012087 -0.0035929449619942376 0 0.0027521465865267551 -0.0029481879805841912 0 0.0027576760380635564 -0.0034603965559616883 0 0.0019858511036556386 -0.002977992450406679 0 0.0031067527854428739 -0.0032287055198501244 0 0.0027521465865267551 -0.0029481879805841912 0 0.0027576760380635564 -0.0034603965559616883 0 0.0031067527854428739 -0.0032287055198501244 0 0.0027576760380635564 -0.0034603965559616883 0 0.0032343554150012087 -0.0035929449619942376 0 0.0031824311879889455 -0.0026699684259046869 0 0.0031067527854428739 -0.0032287055198501244 0 0.0027521465865267551 -0.0029481879805841912 0 0.0027576760380635564 -0.0034603965559616883 0 0.0019858511036556386 -0.002977992450406679 0 0.0024495998184973201 -0.0040002975830374776 0 0.0027521465865267551 -0.0029481879805841912 0 0.0019858511036556386 -0.002977992450406679 0 0.0026077137804230745 -0.002458237115856968 0 0.0022064924581077974 -0.0029012874320246775 0 0.0022752916558042881 -0.0024695928599119772 0 0.0023796918249824632 -0.0024278716593813389 0 0.0021664239690247357 -0.001952820313748061 0 0.0023690587536191864 -0.0018705440529881762 0 0.0019858511036556386 -0.002977992450406679 0 0.0026077137804230745 -0.002458237115856968 0 0.0023690587536191864 -0.0018705440529881762 0 0.0031844661063426031 -0.0027144708024970819 0 0.0033076408567810816 -0.0025653636355032184 0 0.0027444980883068377 -0.0019299009753015915 0 0.0031732707185025502 -0.002530835840954114 0 0.0029104192868977942 -0.0019850406277992232 0 0.0031824311879889455 -0.0026699684259046869 0 0.0026077137804230745 -0.002458237115856968 0 0.0027470487061987186 -0.0019094708283880696 0 0.003282026082590643 -0.0024398503682437666 0 0.0029104192868977942 -0.0019850406277992232 0 0.0033472396484089187 -0.0022423456996502156 0 0.0034219650360569351 -0.0026473073533301423 0 0.0029433667555595197 -0.0020933839605043951 0 0.0031824311879889455 -0.0026699684259046869 0 0.0027521465865267551 -0.0029481879805841912 0 0.0026077137804230745 -0.002458237115856968 0 0.0017139239457065923 -0.0024256023289398673 0 0.0020177681358037364 -0.0027826826408031799 0 0.0015544662111003919 -0.0028597764823473757 0 0.001359185166640696 -0.0024613930944935129 0 0.0017139239457065923 -0.0024256023289398673 0 0.0015544662111003919 -0.0028597764823473757 0 0.001359185166640696 -0.0024613930944935129 0 0.0014371424578055454 -0.0020990822818686564 0 0.0017139239457065923 -0.0024256023289398673 0 0.0023796918249824632 -0.0024278716593813389 0 0.0017139239457065923 -0.0024256023289398673 0 0.0020177681358037364 -0.0027826826408031799 0 0.0023796918249824632 -0.0024278716593813389 0 0.0017139239457065923 -0.0024256023289398673 0 0.001881117284810643 -0.002062522294507724 0 0.0023796918249824632 -0.0024278716593813389 0 0.001881117284810643 -0.002062522294507724 0 0.0021664239690247357 -0.001952820313748061 0 0.0014371424578055454 -0.0020990822818686564 0 0.0017139239457065923 -0.0024256023289398673 0 0.001881117284810643 -0.002062522294507724 0 0.0014371424578055454 -0.0020990822818686564 0 0.001881117284810643 -0.002062522294507724 0 0.0016332932461381169 -0.0017819104066315371 0 0.0016332932461381169 -0.0017819104066315371 0 0.0019645627659842357 -0.0017345636330784984 0 0.0017154672978794989 -0.0015251205258994217 0 0.001881117284810643 -0.002062522294507724 0 0.0019645627659842357 -0.0017345636330784984 0 0.0021664239690247357 -0.001952820313748061 0 0.001881117284810643 -0.002062522294507724 0 0.0016332932461381169 -0.0017819104066315371 0 0.0019645627659842357 -0.0017345636330784984 0 0.0019645627659842357 -0.0017345636330784984 0 0.0021664239690247357 -0.001952820313748061 0 0.002233308085761449 -0.0016567034796275133 0 0.0019645627659842357 -0.0017345636330784984 0 0.0019346331715157082 -0.0013914631583149034 0 0.002233308085761449 -0.0016567034796275133 0 0.0019346331715157082 -0.0013914631583149034 0 0.002233308085761449 -0.0016567034796275133 0 0.0022132651704404472 -0.0013238089156525628 0 0.0019645627659842357 -0.0017345636330784984 0 0.0019346331715157082 -0.0013914631583149034 0 0.0017154672978794989 -0.0015251205258994217 0 0.0013926814784058236 -0.0014569902671966045 0 0.0014216865805378499 -0.00106369916224474 0 0.0016597445659955407 -0.001267930849118297 0 0.0019346331715157082 -0.0013914631583149034 0 0.0017154672978794989 -0.0015251205258994217 0 0.0016597445659955407 -0.001267930849118297 0 0.0013926814784058236 -0.0014569902671966045 0 0.0017154672978794989 -0.0015251205258994217 0 0.0016597445659955407 -0.001267930849118297 0 0.0013926814784058236 -0.0014569902671966045 0 0.0016332932461381169 -0.0017819104066315371 0 0.0017154672978794989 -0.0015251205258994217 0 0.0029104192868977942 -0.0019850406277992232 0 0.0026575390695720274 -0.0015383297372386332 0 0.0032886348514748562 -0.0019282458105949764 0 0.0029433667555595197 -0.0020933839605043951 0 0.0032109230416053794 -0.0015125138038692271 0 0.0032886348514748562 -0.0019282458105949764 0 0.0033472396484089187 -0.0022423456996502156 0 0.0029433667555595197 -0.0020933839605043951 0 0.0026077137804230745 -0.002458237115856968 0 0.0027470487061987186 -0.0019094708283880696 0 0.0023690587536191864 -0.0018705440529881762 0 0.0027470487061987186 -0.0019094708283880696 0 0.002233308085761449 -0.0016567034796275133 0 0.0022132651704404472 -0.0013238089156525628 0 0.0027470487061987186 -0.0019094708283880696 0 0.0023690587536191864 -0.0018705440529881762 0 0.002233308085761449 -0.0016567034796275133 0 0.0021664239690247357 -0.001952820313748061 0 0.0023690587536191864 -0.0018705440529881762 0 0.002233308085761449 -0.0016567034796275133 0 0.0029104192868977942 -0.0019850406277992232 0 0.002464829371344286 -0.0012230579297936649 0 0.0029236143640320703 -0.0020015089092727256 0 0.002580560074442296 -0.0013936281689596421 0 0.0022413241160909965 -0.0012344959276282207 0 0.002580560074442296 -0.0013936281689596421 0 0.0022413241160909965 -0.0012344959276282207 0 0.0022371619764705829 -0.00078564093327841646 0 0.0025826018544150052 -0.0014307665984034652 0 0.0028762276564094432 -0.0010694019904493395 0 0.0025636512726281658 -0.0010083189092923686 0 0.0029433667555595197 -0.0020933839605043951 0 0.0025826018544150052 -0.0014307665984034652 0 0.0032109230416053794 -0.0015125138038692271 0 0.0032109230416053794 -0.0015125138038692271 0 0.0028762276564094432 -0.0010694019904493395 0 0.0035205020040664191 -0.00077719056576274642 0 0.0025826018544150052 -0.0014307665984034652 0 0.0032109230416053794 -0.0015125138038692271 0 0.0028762276564094432 -0.0010694019904493395 0 0.0028762276564094432 -0.0010694019904493395 0 0.0025096158521353013 -0.00062384988558381428 0 0.0035205020040664191 -0.00077719056576274642 0 0.002814213536291737 -0.00076063539337262653 0 0.0032376085603481662 -0.00092601855101003255 0 0.0028762276564094432 -0.0010694019904493395 0 0.0025636512726281658 -0.0010083189092923686 0 0.0025096158521353013 -0.00062384988558381428 0 0.0025826018544150052 -0.0014307665984034652 0 0.0025636512726281658 -0.0010083189092923686 0 0.0022371619764705829 -0.00078564093327841646 0 0.0026575390695720274 -0.0015383297372386332 0 0.0025202246935854471 -0.0012942057398092567 0 0.0025636512726281658 -0.0010083189092923686 0 0.0022371619764705829 -0.00078564093327841646 0 0.0025096158521353013 -0.00062384988558381428 0 0.0031166121243806936 -0.0004936876673756629 0 0.0031357162221582126 -0.00052661036782941043 0 0.0031025187870938999 -0.00057953304967145718 0 0.0031166121243806936 -0.0004936876673756629 0 0.0030415254679631012 -0.00055138072018716931 0 0.0029951541112575 -0.00046884126301645611 0 0.0031166121243806936 -0.0004936876673756629 0 0.0030415254679631012 -0.00055138072018716931 0 0.0031025187870938999 -0.00057953304967145718 0 0.0014216865805378499 -0.00106369916224474 0 0.0016597445659955407 -0.001267930849118297 0 0.001770077543322289 -0.0008337715626069354 0 0.0019346331715157082 -0.0013914631583149034 0 0.0016597445659955407 -0.001267930849118297 0 0.001770077543322289 -0.0008337715626069354 0 0.002464829371344286 -0.0012230579297936649 0 0.0025075307415381325 -0.00075451521697635689 0 0.0019346331715157082 -0.0013914631583149034 0 0.0022132651704404472 -0.0013238089156525628 0 0.001770077543322289 -0.0008337715626069354 0 0.0022371619764705829 -0.00078564093327841646 0 0.0025096158521353013 -0.00062384988558381428 0 0.0015587026002491949 -0.00046908504158670939 0 0.0022413241160909965 -0.0012344959276282207 0 0.0022371619764705829 -0.00078564093327841646 0 0.0015587026002491949 -0.00046908504158670939 0 0.002814213536291737 -0.00076063539337262653 0 0.0025075307415381325 -0.00075451521697635689 0 0.0031547637963936239 -0.00049228864298719475 0 0.0031357162221582126 -0.00052661036782941043 0 0.0031501438416711462 -0.00051093468763331487 0 0.0031166121243806936 -0.0004936876673756629 0 0.0031547637963936239 -0.00049228864298719475 0 0.0031357162221582126 -0.00052661036782941043 0 0.001982136421891672 -0.00060969272777263534 0 0.0025075307415381325 -0.00075451521697635689 0 0.002821651700646056 -0.00080657142374394679 0 0.0025075307415381325 -0.00075451521697635689 0 0.003196920769161411 -0.00041067385285658577 0 0.0031712368192055216 -0.0004190900127820204 0 0.0036976682444211733 -0.00087706224699077848 0 0.003196920769161411 -0.00041067385285658577 0 0.0031547637963936239 -0.00049228864298719475 0 0.0031658822710421966 -0.00046720584940951408 0 0.0031547637963936239 -0.00049228864298719475 0 0.0031658822710421966 -0.00046720584940951408 0 0.0031501438416711462 -0.00051093468763331487 0 0.0031708481610548478 -0.00047504382602771408 0 0.0031658822710421966 -0.00046720584940951408 0 0.0031587302305360523 -0.00049682684145892198 0 0.0031791568071780846 -0.00045013773365284977 0 0.0031708481610548478 -0.00047504382602771408 0 0.0031658822710421966 -0.00046720584940951408 0 0.0031791568071780846 -0.00045013773365284977 0 0.003196920769161411 -0.00041067385285658577 0 0.0031658822710421966 -0.00046720584940951408 0 0.0031658822710421966 -0.00046720584940951408 0 0.0031587302305360523 -0.00049682684145892198 0 0.0031501438416711462 -0.00051093468763331487 0 0.0031357162221582126 -0.00052661036782941043 0 0.0031501438416711462 -0.00051093468763331487 0 0.0031375277728186443 -0.00056861847445812948 0 0.003132121609475002 -0.0005912838656967317 0 0.0031375277728186443 -0.00056861847445812948 0 0.0031370972332401309 -0.00056510373247340004 0 0.0031375277728186443 -0.00056861847445812948 0 0.0031370972332401309 -0.00056510373247340004 0 0.0031471642250805875 -0.00053524501270516445 0 0.0031430586821918718 -0.00055309983210413791 0 0.0031370972332401309 -0.00056510373247340004 0 0.0031471642250805875 -0.00053524501270516445 0 0.0031501438416711462 -0.00051093468763331487 0 0.0031375277728186443 -0.00056861847445812948 0 0.0031471642250805875 -0.00053524501270516445 0 0.0031587302305360523 -0.00049682684145892198 0 0.0031471642250805875 -0.00053524501270516445 0 0.0031625581344781198 -0.00050879468807204511 0 0.0031587302305360523 -0.00049682684145892198 0 0.0031501438416711462 -0.00051093468763331487 0 0.0031471642250805875 -0.00053524501270516445 0 0.0031471642250805875 -0.00053524501270516445 0 0.0031570960442533881 -0.00053465951636985816 0 0.0031625581344781198 -0.00050879468807204511 0 0.0031430586821918718 -0.00055309983210413791 0 0.0031471642250805875 -0.00053524501270516445 0 0.0031570960442533881 -0.00053465951636985816 0 0.0031739214236067019 -0.00051578681448709687 0 0.0031738662578825057 -0.00053382509258644581 0 0.0031570960442533881 -0.00053465951636985816 0 0.0031739214236067019 -0.00051578681448709687 0 0.0031570960442533881 -0.00053465951636985816 0 0.0031625581344781198 -0.00050879468807204511 0 0.0031739214236067019 -0.00051578681448709687 0 0.003176274169839326 -0.00049209860519345357 0 0.0031625581344781198 -0.00050879468807204511 0 0.003176274169839326 -0.00049209860519345357 0 0.0031708481610548478 -0.00047504382602771408 0 0.0031625581344781198 -0.00050879468807204511 0 0.0031708481610548478 -0.00047504382602771408 0 0.0031587302305360523 -0.00049682684145892198 0 0.0031625581344781198 -0.00050879468807204511 0 0.0031025187870938999 -0.00057953304967145718 0 0.0030584061772177987 -0.00065448548931402778 0 0.0030317063085706 -0.00063145470287758669 0 0.0030415254679631012 -0.00055138072018716931 0 0.0031025187870938999 -0.00057953304967145718 0 0.0030317063085706 -0.00063145470287758669 0 0.0031357162221582126 -0.00052661036782941043 0 0.0031375277728186443 -0.00056861847445812948 0 0.0031025187870938999 -0.00057953304967145718 0 0.0031375277728186443 -0.00056861847445812948 0 0.0031025187870938999 -0.00057953304967145718 0 0.0031346102242401381 -0.00062797214280477926 0 0.003132121609475002 -0.0005912838656967317 0 0.0031375277728186443 -0.00056861847445812948 0 0.0031346102242401381 -0.00062797214280477926 0 0.0031025187870938999 -0.00057953304967145718 0 0.0031346102242401381 -0.00062797214280477926 0 0.0030584061772177987 -0.00065448548931402778 0 0.0031606163377128778 -0.00067713000126571503 0 0.0031346102242401381 -0.00062797214280477926 0 0.0030584061772177987 -0.00065448548931402778 0 0.0029002282995486957 -0.00094522589820741736 0 0.0029215180111853843 -0.00084836953361197185 0 0.0029348839736946333 -0.0007109535275018579 0 0.0030584061772177987 -0.00065448548931402778 0 0.0029743010080986957 -0.00069199119001975588 0 0.0030584061772177987 -0.00065448548931402778 0 0.0030317063085706 -0.00063145470287758669 0 0.0029743010080986957 -0.00069199119001975588 0 0.0030317063085706 -0.00063145470287758669 0 0.0029743010080986957 -0.00069199119001975588 0 0.0029529441551336094 -0.00064806946615584334 0 0.0029743010080986957 -0.00069199119001975588 0 0.0029529441551336094 -0.00064806946615584334 0 0.0028330371781544929 -0.00072654463664780671 0 0.0030415254679631012 -0.00055138072018716931 0 0.0030317063085706 -0.00063145470287758669 0 0.0029529441551336094 -0.00064806946615584334 0 0.0029529441551336094 -0.00064806946615584334 0 0.0028330371781544929 -0.00072654463664780671 0 0.0028092013310969484 -0.00061779635122680143 0 0.0029743010080986957 -0.00069199119001975588 0 0.0028330371781544929 -0.00072654463664780671 0 0.0028323287117824059 -0.00083912758764494763 0 0.0028330371781544929 -0.00072654463664780671 0 0.0028323287117824059 -0.00083912758764494763 0 0.0027037437431032857 -0.00078774160099541306 0 0.0029310101095513285 -0.0010346362793806436 0 0.0029743010080986957 -0.00069199119001975588 0 0.0028323287117824059 -0.00083912758764494763 0 0.0029310101095513285 -0.0010346362793806436 0 0.0028323287117824059 -0.00083912758764494763 0 0.002699073043094768 -0.00093666508556341165 0 0.002699073043094768 -0.00093666508556341165 0 0.0025184286275745614 -0.00092891856349867907 0 0.0027037437431032857 -0.00078774160099541306 0 0.0028323287117824059 -0.00083912758764494763 0 0.002699073043094768 -0.00093666508556341165 0 0.0027037437431032857 -0.00078774160099541306 0 0.002426941110903164 -0.00086828257058076846 0 0.0025184286275745614 -0.00092891856349867907 0 0.0025507438228112387 -0.00079702581497563942 0 0.0025184286275745614 -0.00092891856349867907 0 0.0025507438228112387 -0.00079702581497563942 0 0.0027037437431032857 -0.00078774160099541306 0 0.0025507438228112387 -0.00079702581497563942 0 0.0027037437431032857 -0.00078774160099541306 0 0.0027013670430802881 -0.00068620589324677186 0 0.0028330371781544929 -0.00072654463664780671 0 0.0027037437431032857 -0.00078774160099541306 0 0.0027013670430802881 -0.00068620589324677186 0 0.0027013670430802881 -0.00068620589324677186 0 0.0025653944898263218 -0.00067726057435355739 0 0.0027185604407590405 -0.00055055554155598505 0 0.0024497466801818085 -0.00078178543965842166 0 0.0025507438228112387 -0.00079702581497563942 0 0.0025653944898263218 -0.00067726057435355739 0 0.0025507438228112387 -0.00079702581497563942 0 0.0027013670430802881 -0.00068620589324677186 0 0.0025653944898263218 -0.00067726057435355739 0 0.0037618805910034064 -0.0023402282071198609 0 0.0037420567262401892 -0.0013145870283350102 0 0.0025221306646858359 -0.00057208531714619587 0 0.0025653944898263218 -0.00067726057435355739 0 0.0027185604407590405 -0.00055055554155598505 0 0.0038548524608941273 -0.0013424165718332651 0 0.0045624955089014346 -0.00093876580433953187 0 0.0035205020040664191 -0.00077719056576274642 0 0.0028336692237474902 -0.00044164585403103752 0 0.0029951541112575 -0.00046884126301645611 0 0.0028946306801901568 -0.00053351295377386857 0 0.0037420567262401892 -0.0013145870283350102 0 0.0032376085603481662 -0.00092601855101003255 0 0.0037420567262401892 -0.0013145870283350102 0 0.0032673543743560328 -0.00078587907285698028 0 0.0030415254679631012 -0.00055138072018716931 0 0.0029951541112575 -0.00046884126301645611 0 0.0029706424199530753 -0.00054854750293259697 0 0.0029951541112575 -0.00046884126301645611 0 0.0029706424199530753 -0.00054854750293259697 0 0.0028946306801901568 -0.00053351295377386857 0 0.0029529441551336094 -0.00064806946615584334 0 0.0029706424199530753 -0.00054854750293259697 0 0.0028946306801901568 -0.00053351295377386857 0 0.0030415254679631012 -0.00055138072018716931 0 0.0029529441551336094 -0.00064806946615584334 0 0.0029706424199530753 -0.00054854750293259697 0 0.0028330371781544929 -0.00072654463664780671 0 0.0027013670430802881 -0.00068620589324677186 0 0.0028092013310969484 -0.00061779635122680143 0 0.0031745221906209604 -0.0006968855312877646 0 0.0032673543743560328 -0.00078587907285698028 0 0.0027013670430802881 -0.00068620589324677186 0 0.0027185604407590405 -0.00055055554155598505 0 0.0028092013310969484 -0.00061779635122680143 0 -7.6296016054909466e-06 -0.02498954081890151 0 -7.1010198443523461e-06 -0.024814557420826527 0 2.3142503045993807e-05 -0.024916343025005734 0 8.4432948940140578e-06 -0.024806028257570702 0 4.5165943598703946e-06 -0.024804207900618738 0 -7.1010198443523461e-06 -0.024814557420826527 0 -6.423637854481479e-06 -0.024910576463134038 0 -9.8280095522635752e-06 -0.024888957674545256 0 8.4432948940140578e-06 -0.024806028257570702 0 4.5165943598703946e-06 -0.024804207900618738 0 -2.0733938390452311e-05 -0.024819836568956678 0 -7.6296016054909466e-06 -0.02498954081890151 0 9.9151286166891568e-06 -0.024988396082501526 0 2.3142503045993807e-05 -0.024916343025005734 0 3.490289931325297e-08 -0.024999888613598562 0 9.9151286166891568e-06 -0.024988396082501526 0 1.3533705436239781e-09 -0.025000016847126178 0 3.490289931325297e-08 -0.024999888613598562 0 9.9151286166891568e-06 -0.024988396082501526 0 2.3142503045993807e-05 -0.024916343025005734 0 -7.6296016054909466e-06 -0.02498954081890151 0 9.9151286166891568e-06 -0.024988396082501526 0 2.3143602515778892e-06 -0.024995263523030095 0 -6.423637854481479e-06 -0.024910576463134038 0 -4.0721646474011895e-06 -0.02494701196443885 0 9.9151286166891568e-06 -0.024988396082501526 0 2.3143602515778892e-06 -0.024995263523030095 0 1.3533705436239781e-09 -0.025000016847126178 0 -7.6296016054909466e-06 -0.02498954081890151 0 2.3143602515778892e-06 -0.024995263523030095 0 1.2172605551375617e-06 -0.025000924244502488 0 2.3143602515778892e-06 -0.024995263523030095 0 1.3533705436239781e-09 -0.025000016847126178 0 1.2172605551375617e-06 -0.025000924244502488 0 8.4432948940140578e-06 -0.024806028257570702 0 -2.0072481995413884e-06 -0.024866181009807406 0 -9.0705347617480682e-06 -0.024840790966461208 0 8.4432948940140578e-06 -0.024806028257570702 0 -2.0072481995413884e-06 -0.024866181009807406 0 2.3452209517919692e-05 -0.024893867494396441 0 -9.0705347617480682e-06 -0.024840790966461208 0 -2.609671202741867e-05 -0.024865460289140055 0 -2.0733938390452311e-05 -0.024819836568956678 0 8.4432948940140578e-06 -0.024806028257570702 0 -9.0705347617480682e-06 -0.024840790966461208 0 -2.0733938390452311e-05 -0.024819836568956678 0 -2.0072481995413884e-06 -0.024866181009807406 0 -9.0705347617480682e-06 -0.024840790966461208 0 -2.609671202741867e-05 -0.024865460289140055 0 -2.609671202741867e-05 -0.024865460289140055 0 -5.2231501474912094e-05 -0.024822434671093522 0 -6.9733120291073534e-05 -0.024868330476305885 0 -2.609671202741867e-05 -0.024865460289140055 0 -5.2231501474912094e-05 -0.024822434671093522 0 -2.0733938390452311e-05 -0.024819836568956678 0 -0.00010277974211438822 -0.024818468449059737 0 -0.00014306434638877816 -0.024883002424534888 0 -6.9733120291073534e-05 -0.024868330476305885 0 -5.2231501474912094e-05 -0.024822434671093522 0 -0.00010277974211438822 -0.024818468449059737 0 -6.9733120291073534e-05 -0.024868330476305885 0 -5.2231501474912094e-05 -0.024822434671093522 0 -0.00010277974211438822 -0.024818468449059737 0 -6.8083745969614142e-05 -0.024769923655501552 0 -6.8083745969614142e-05 -0.024769923655501552 0 -9.7379735688250382e-05 -0.024713443197710516 0 -0.00013445054683645723 -0.024747493057603123 0 -0.00010277974211438822 -0.024818468449059737 0 -6.8083745969614142e-05 -0.024769923655501552 0 -0.00013445054683645723 -0.024747493057603123 0 -6.8083745969614142e-05 -0.024769923655501552 0 -3.2377041395775078e-05 -0.024785806344908134 0 -4.8473536044246651e-05 -0.024668925058840233 0 4.5165943598703946e-06 -0.024804207900618738 0 -3.2377041395775078e-05 -0.024785806344908134 0 -4.8473536044246651e-05 -0.024668925058840233 0 -5.2231501474912094e-05 -0.024822434671093522 0 -2.0733938390452311e-05 -0.024819836568956678 0 -3.2377041395775078e-05 -0.024785806344908134 0 4.5165943598703946e-06 -0.024804207900618738 0 -2.0733938390452311e-05 -0.024819836568956678 0 -3.2377041395775078e-05 -0.024785806344908134 0 -5.2231501474912094e-05 -0.024822434671093522 0 -6.8083745969614142e-05 -0.024769923655501552 0 -3.2377041395775078e-05 -0.024785806344908134 0 4.5165943598703946e-06 -0.024804207900618738 0 -6.6079380359590031e-05 -0.024781456733219215 0 -7.1010198443523461e-06 -0.024814557420826527 0 0.00014169942148297129 -0.024476407094066593 0 0.00014288419943833742 -0.024362054437163359 0 -6.6079380359590031e-05 -0.024781456733219215 0 -9.9002333802190775e-06 -0.024696158082045911 0 -7.1010198443523461e-06 -0.024814557420826527 0 -4.8473536044246651e-05 -0.024668925058840233 0 -0.0001284007691094118 -0.024552179082095858 0 -0.00013480933624660771 -0.024663408848251019 0 -6.8083745969614142e-05 -0.024769923655501552 0 -4.8473536044246651e-05 -0.024668925058840233 0 -9.7379735688250382e-05 -0.024713443197710516 0 -9.7379735688250382e-05 -0.024713443197710516 0 -0.00013480933624660771 -0.024663408848251019 0 -0.00013445054683645723 -0.024747493057603123 0 -4.8473536044246651e-05 -0.024668925058840233 0 -9.7379735688250382e-05 -0.024713443197710516 0 -0.00013480933624660771 -0.024663408848251019 0 -6.6079380359590031e-05 -0.024781456733219215 0 -8.7856361900085576e-05 -0.024529476153760606 0 -0.00027089261350083955 -0.024404762060389006 0 0.00014288419943833742 -0.024362054437163359 0 0.00015341197205606498 -0.023981913552286994 0 -8.7856361900085576e-05 -0.024529476153760606 0 -0.00015966021972333274 -0.024266674683713706 0 -0.00027089261350083955 -0.024404762060389006 0 -8.7856361900085576e-05 -0.024529476153760606 0 -9.9002333802190775e-06 -0.024696158082045911 0 -3.2450000021650241e-06 -0.024496461403621838 0 -9.9002333802190775e-06 -0.024696158082045911 0 4.3981472284312195e-05 -0.024799772132333277 0 -3.2450000021650241e-06 -0.024496461403621838 0 -6.6079380359590031e-05 -0.024781456733219215 0 -8.7856361900085576e-05 -0.024529476153760606 0 -9.9002333802190775e-06 -0.024696158082045911 0 -9.9002333802190775e-06 -0.024696158082045911 0 4.3981472284312195e-05 -0.024799772132333277 0 -7.1010198443523461e-06 -0.024814557420826527 0 4.3981472284312195e-05 -0.024799772132333277 0 -7.1010198443523461e-06 -0.024814557420826527 0 2.3142503045993807e-05 -0.024916343025005734 0 3.490289931325297e-08 -0.024999888613598562 0 2.3142503045993807e-05 -0.024916343025005734 0 2.6784777427447285e-08 -0.024999812291747133 0 4.3981472284312195e-05 -0.024799772132333277 0 2.3142503045993807e-05 -0.024916343025005734 0 2.6784777427447285e-08 -0.024999812291747133 0 4.3981472284312195e-05 -0.024799772132333277 0 2.6784777427447285e-08 -0.024999812291747133 0 9.0761893941439326e-05 -0.024672380966754316 0 2.6784777427447285e-08 -0.024999812291747133 0 9.0761893941439326e-05 -0.024672380966754316 0 3.8239031502747812e-07 -0.024998986920857967 0 4.3981472284312195e-05 -0.024799772132333277 0 9.0761893941439326e-05 -0.024672380966754316 0 -3.2450000021650241e-06 -0.024496461403621838 0 9.0761893941439326e-05 -0.024672380966754316 0 0.00018254033008537459 -0.024174777651795886 0 1.503433235324494e-05 -0.024288594357967649 0 1.3350404656382135e-07 -0.024999163774407501 0 -3.977291546951098e-05 -0.024481908746699747 0 9.0761893941439326e-05 -0.024672380966754316 0 3.8239031502747812e-07 -0.024998986920857967 0 0.00018254033008537459 -0.024174777651795886 0 7.0493668048847404e-07 -0.024997900611106544 0 0.00011659014765919635 -0.024421943520397376 0 -1.0318978904541954e-06 -0.022336821670887613 0 -2.6024676840968902e-07 -0.025000067409503102 0 7.0493668048847404e-07 -0.024997900611106544 0 0.00011659014765919635 -0.024421943520397376 0 -0.00010754799294463031 -0.023203727668817585 0 -1.0318978904541954e-06 -0.022336821670887613 0 -0.00052271882033250996 -0.023651821417197863 0 4.1526774391358692e-09 -0.022332449269048819 0 -0.00012130900941844194 -0.022693233984831293 0 0.00011659014765919635 -0.024421943520397376 0 -0.00010754799294463031 -0.023203727668817585 0 -1.0318978904541954e-06 -0.022336821670887613 0 -3.977291546951098e-05 -0.024481908746699747 0 -0.00015591036388093817 -0.024165883704861543 0 0.00018254033008537459 -0.024174777651795886 0 -0.00010754799294463031 -0.023203727668817585 0 -0.00013780552634890913 -0.023884313282407327 0 -0.00013780552634890913 -0.023884313282407327 0 -0.00031198486964365322 -0.023788724812809223 0 -0.00052271882033250996 -0.023651821417197863 0 -0.00010754799294463031 -0.023203727668817585 0 -0.00013780552634890913 -0.023884313282407327 0 -0.00052271882033250996 -0.023651821417197863 0 -0.00013780552634890913 -0.023884313282407327 0 -0.00016680518011954001 -0.0240602186146231 0 -0.00031198486964365322 -0.023788724812809223 0 -0.00013780552634890913 -0.023884313282407327 0 -0.00016680518011954001 -0.0240602186146231 0 1.503433235324494e-05 -0.024288594357967649 0 -0.00016680518011954001 -0.0240602186146231 0 -0.00023225160794316813 -0.023967947977573463 0 -0.00031198486964365322 -0.023788724812809223 0 0.00018254033008537459 -0.024174777651795886 0 -0.00013780552634890913 -0.023884313282407327 0 1.503433235324494e-05 -0.024288594357967649 0 -0.00016680518011954001 -0.0240602186146231 0 1.503433235324494e-05 -0.024288594357967649 0 -3.2450000021650241e-06 -0.024496461403621838 0 9.0761893941439326e-05 -0.024672380966754316 0 1.503433235324494e-05 -0.024288594357967649 0 -3.2450000021650241e-06 -0.024496461403621838 0 -8.7856361900085576e-05 -0.024529476153760606 0 -3.2450000021650241e-06 -0.024496461403621838 0 -0.00015966021972333274 -0.024266674683713706 0 -0.00016680518011954001 -0.0240602186146231 0 -3.2450000021650241e-06 -0.024496461403621838 0 -0.00015966021972333274 -0.024266674683713706 0 -0.00015966021972333274 -0.024266674683713706 0 -0.00023225160794316813 -0.023967947977573463 0 -0.00027089261350083955 -0.024404762060389006 0 -0.00016680518011954001 -0.0240602186146231 0 -0.00015966021972333274 -0.024266674683713706 0 -0.00023225160794316813 -0.023967947977573463 0 0.00013693329216549042 -0.023168059014854737 0 0.00015341197205606498 -0.023981913552286994 0 -0.00023225160794316813 -0.023967947977573463 0 -0.00035496866605088051 -0.023861420089222374 0 -0.00027089261350083955 -0.024404762060389006 0 -0.00023225160794316813 -0.023967947977573463 0 -0.00035496866605088051 -0.023861420089222374 0 -0.00018085194004714334 -0.023493485283208961 0 -0.00024987100125140608 -0.024411233513553381 0 -0.00029315021666780837 -0.024511203635344085 0 -0.0001284007691094118 -0.024552179082095858 0 -0.00024987100125140608 -0.024411233513553381 0 -0.00033559472494447981 -0.024404268290756766 0 -0.00029315021666780837 -0.024511203635344085 0 -0.00035496866605088051 -0.023861420089222374 0 -0.00044610067615933751 -0.022959464808060114 0 -0.0012052112971895493 -0.022712713270307501 0 0.00013693329216549042 -0.023168059014854737 0 -0.00016442361275719903 -0.021397715277878489 0 -0.00024987100125140608 -0.024411233513553381 0 -0.00033559472494447981 -0.024404268290756766 0 -0.0004048934772651061 -0.02426062305648952 0 -0.00035496866605088051 -0.023861420089222374 0 -0.00018085194004714334 -0.023493485283208961 0 -0.00044610067615933751 -0.022959464808060114 0 -0.00018085194004714334 -0.023493485283208961 0 -0.00044610067615933751 -0.022959464808060114 0 -0.00013296066580932957 -0.022504441359329361 0 -0.00044610067615933751 -0.022959464808060114 0 -0.00027231697442086782 -0.021950975385418414 0 -0.0012052112971895493 -0.022712713270307501 0 -0.00018085194004714334 -0.023493485283208961 0 0.00037658986955632948 -0.02165793286692233 0 -0.00013296066580932957 -0.022504441359329361 0 -0.00018085194004714334 -0.023493485283208961 0 -0.00031198486964365322 -0.023788724812809223 0 -0.00052271882033250996 -0.023651821417197863 0 -0.00024162645721562356 -0.022989572297534049 0 -0.00012130900941844194 -0.022693233984831293 0 -0.00023225160794316813 -0.023967947977573463 0 -0.00018085194004714334 -0.023493485283208961 0 -0.00031198486964365322 -0.023788724812809223 0 0.00037658986955632948 -0.02165793286692233 0 -0.00027231697442086782 -0.021950975385418414 0 0.00016407272004084346 -0.021416589498187394 0 0.00037658986955632948 -0.02165793286692233 0 -0.00013296066580932957 -0.022504441359329361 0 -0.00027231697442086782 -0.021950975385418414 0 -0.00044610067615933751 -0.022959464808060114 0 -0.00013296066580932957 -0.022504441359329361 0 -0.00027231697442086782 -0.021950975385418414 0 -0.00027231697442086782 -0.021950975385418414 0 -0.00013082805757560752 -0.02104704441616945 0 -0.00093647499250185649 -0.021447372840100412 0 -0.00027231697442086782 -0.021950975385418414 0 -0.00013082805757560752 -0.02104704441616945 0 0.00016407272004084346 -0.021416589498187394 0 -0.00013082805757560752 -0.02104704441616945 0 9.1377098882447333e-07 -0.021070677103786382 0 -2.4185938566893046e-06 -0.019810045246293026 0 -0.00013082805757560752 -0.02104704441616945 0 9.1377098882447333e-07 -0.021070677103786382 0 0.00016407272004084346 -0.021416589498187394 0 -2.6481088726935321e-08 -0.022330425509272736 0 0.00037658986955632948 -0.02165793286692233 0 0.00016407272004084346 -0.021416589498187394 0 -2.6481088726935321e-08 -0.022330425509272736 0 9.1377098882447333e-07 -0.021070677103786382 0 0.00016407272004084346 -0.021416589498187394 0 0.00010217071742910421 -0.019125886765775507 0 -1.0756370416216873e-07 -0.01980583470184329 0 9.7935021978646799e-08 -0.018430066179227732 0 0.00010217071742910421 -0.019125886765775507 0 4.6406206748813534e-05 -0.019059443296893037 0 2.3552779910447866e-05 -0.019022853921326147 0 -4.5523921403252331e-07 -0.019809598990779692 0 -0.00012493095247237019 -0.020571797032979521 0 -0.00013082805757560752 -0.02104704441616945 0 -2.4185938566893046e-06 -0.019810045246293026 0 -0.00093647499250185649 -0.021447372840100412 0 0.00010217071742910421 -0.019125886765775507 0 -1.0756370416216873e-07 -0.01980583470184329 0 -0.00011032504696509066 -0.019135244888800303 0 -0.00012493095247237019 -0.020571797032979521 0 -0.00016442361275719903 -0.021397715277878489 0 -0.00027231697442086782 -0.021950975385418414 0 -0.00093647499250185649 -0.021447372840100412 0 -0.0012052112971895493 -0.022712713270307501 0 -0.00011032504696509066 -0.019135244888800303 0 4.6406206748813534e-05 -0.019059443296893037 0 -0.0001193320287220308 -0.01892362252578984 0 -0.0004261852053032336 -0.020529508150154998 0 -0.00016442361275719903 -0.021397715277878489 0 0.00010217071742910421 -0.019125886765775507 0 -0.00011032504696509066 -0.019135244888800303 0 4.6406206748813534e-05 -0.019059443296893037 0 0.00020874295124954941 -0.019261105356727728 0 4.7347469246091012e-05 -0.019292313880541898 0 2.3552779910447866e-05 -0.019022853921326147 0 -0.0004261852053032336 -0.020529508150154998 0 -0.00048741281728757161 -0.020276272870101152 0 0.00010736603315176089 -0.019369756328681615 0 3.6393340263597586e-06 -0.019447214552527736 0 4.7347469246091012e-05 -0.019292313880541898 0 0.00020874295124954941 -0.019261105356727728 0 0.00010736603315176089 -0.019369756328681615 0 4.7347469246091012e-05 -0.019292313880541898 0 0.00010736603315176089 -0.019369756328681615 0 0.00016931745469007627 -0.019476932504286004 0 3.6393340263597586e-06 -0.019447214552527736 0 0.00020874295124954941 -0.019261105356727728 0 0.00010736603315176089 -0.019369756328681615 0 0.00016931745469007627 -0.019476932504286004 0 0.00020874295124954941 -0.019261105356727728 0 0.00016931745469007627 -0.019476932504286004 0 0.00037293672189259695 -0.019422170011628121 0 0.00016931745469007627 -0.019476932504286004 0 0.00026683991877415284 -0.019573635479614528 0 0.00017055491955334485 -0.019611505142290552 0 0.00016931745469007627 -0.019476932504286004 0 0.00017055491955334485 -0.019611505142290552 0 2.3963521206929616e-05 -0.019647894142987773 0 0.00016931745469007627 -0.019476932504286004 0 2.3963521206929616e-05 -0.019647894142987773 0 3.6393340263597586e-06 -0.019447214552527736 0 -0.00033559472494447981 -0.024404268290756766 0 -0.0004048934772651061 -0.02426062305648952 0 -0.00039461136431085341 -0.024427064546682125 0 0.00037293672189259695 -0.019422170011628121 0 0.00026683991877415284 -0.019573635479614528 0 0.00038440877005419867 -0.019680482607032115 0 -0.00016442361275719903 -0.021397715277878489 0 8.7617044613439826e-05 -0.021675750551745861 0 0.00016931745469007627 -0.019476932504286004 0 0.00037293672189259695 -0.019422170011628121 0 0.00026683991877415284 -0.019573635479614528 0 0.00026683991877415284 -0.019573635479614528 0 0.00038440877005419867 -0.019680482607032115 0 0.000227304657196434 -0.019693824269840839 0 0.00038440877005419867 -0.019680482607032115 0 0.000227304657196434 -0.019693824269840839 0 0.00030331640610515838 -0.019809179729714653 0 -0.00033559472494447981 -0.024404268290756766 0 -0.00039461136431085341 -0.024427064546682125 0 -0.00029315021666780837 -0.024511203635344085 0 0.00017055491955334485 -0.019611505142290552 0 0.00013984249233155692 -0.019695070879224442 0 2.3963521206929616e-05 -0.019647894142987773 0 0.00026683991877415284 -0.019573635479614528 0 0.00017055491955334485 -0.019611505142290552 0 0.000227304657196434 -0.019693824269840839 0 0.00017055491955334485 -0.019611505142290552 0 0.000227304657196434 -0.019693824269840839 0 0.00013984249233155692 -0.019695070879224442 0 0.000227304657196434 -0.019693824269840839 0 0.00017968330810456696 -0.019767958350284866 0 0.0001974416237495085 -0.019878798850709225 0 -0.00038079868008495017 -0.019655103358694224 0 -0.0004372581237247996 -0.019635564604359574 0 0.000227304657196434 -0.019693824269840839 0 0.00017968330810456696 -0.019767958350284866 0 0.00013984249233155692 -0.019695070879224442 0 0.00013984249233155692 -0.019695070879224442 0 8.1905890278032497e-05 -0.019765412485079886 0 2.3963521206929616e-05 -0.019647894142987773 0 0.00017968330810456696 -0.019767958350284866 0 0.00013984249233155692 -0.019695070879224442 0 8.1905890278032497e-05 -0.019765412485079886 0 -0.00039790987066956862 -0.018246298384439922 0 -0.00034931854914807965 -0.018100814262413743 0 0.00017968330810456696 -0.019767958350284866 0 7.7495850678251462e-05 -0.019856124243357445 0 0.0001974416237495085 -0.019878798850709225 0 0.00017968330810456696 -0.019767958350284866 0 8.1905890278032497e-05 -0.019765412485079886 0 6.7664402393402149e-05 -0.019865905007224852 0 8.1905890278032497e-05 -0.019765412485079886 0 6.7664402393402149e-05 -0.019865905007224852 0 4.1875323582534721e-06 -0.019854719360547883 0 -0.00034931854914807965 -0.018100814262413743 0 -0.0004372581237247996 -0.019635564604359574 0 0.000227304657196434 -0.019693824269840839 0 0.00019825816544753483 -0.019913787385602677 0 0.00030331640610515838 -0.019809179729714653 0 -0.00029304949547849193 -0.024615468060433271 0 -0.00028889995311408891 -0.024642987347316528 0 -0.00028350625894681109 -0.024632912056678471 0 -0.0004372581237247996 -0.019635564604359574 0 -0.00029003811854745284 -0.019945890003993841 0 5.1154372130579205e-05 -0.018284160578721488 0 1.9799469325854972e-05 -0.018317987227082683 0 4.3371022269215249e-05 -0.018362376673843661 0 2.3992460346569931e-07 -0.018273882647895312 0 5.1154372130579205e-05 -0.018284160578721488 0 1.9799469325854972e-05 -0.018317987227082683 0 2.3992460346569931e-07 -0.018273882647895312 0 1.9799469325854972e-05 -0.018317987227082683 0 -2.8086726702344207e-05 -0.018298534854350484 0 -0.00027974255386219469 -0.017102186221544479 0 -0.00017268870048869941 -0.017289261359583929 0 1.9799469325854972e-05 -0.018317987227082683 0 1.6737653474022899e-05 -0.01839209932637732 0 -2.8086726702344207e-05 -0.018298534854350484 0 1.9799469325854972e-05 -0.018317987227082683 0 4.3371022269215249e-05 -0.018362376673843661 0 1.6737653474022899e-05 -0.01839209932637732 0 -0.00028889995311408891 -0.024642987347316528 0 -0.00027970228613410203 -0.024657218396052633 0 -0.00028350625894681109 -0.024632912056678471 0 4.3371022269215249e-05 -0.018362376673843661 0 3.0818158041347372e-05 -0.018395171354293086 0 3.8944437416619071e-05 -0.018440328381099644 0 -0.00028889995311408891 -0.024642987347316528 0 -0.00027970228613410203 -0.024657218396052633 0 -0.00026862153835138683 -0.024650230573742493 0 -0.00029003811854745284 -0.019945890003993841 0 -4.9006360288958822e-05 -0.018935284268423509 0 0.00051398838384395342 -0.014014458277307644 0 0.00050119752936953702 -0.013967843294739671 0 0.00055832865751431217 -0.014023968275759363 0 -0.00027454505064592041 -0.017106545617256431 0 -0.00027974255386219469 -0.017102186221544479 0 4.3371022269215249e-05 -0.018362376673843661 0 3.0818158041347372e-05 -0.018395171354293086 0 1.6737653474022899e-05 -0.01839209932637732 0 -0.00027970228613410203 -0.024657218396052633 0 -0.00027847671985035364 -0.024641934369560175 0 -0.00027999885902894818 -0.024682909531036364 0 -0.00028350625894681109 -0.024632912056678471 0 -0.00027847671985035364 -0.024641934369560175 0 -0.0002730571968210917 -0.024621883161242152 0 -0.00027970228613410203 -0.024657218396052633 0 -0.00028350625894681109 -0.024632912056678471 0 -0.00027847671985035364 -0.024641934369560175 0 0.00033565702624318954 -0.02205413775633951 0 0.00034236632597440175 -0.021438195661354114 0 8.7617044613439826e-05 -0.021675750551745861 0 0.00034236632597440175 -0.021438195661354114 0 0.00038440877005419867 -0.019680482607032115 0 0.00040212903345582989 -0.019949452158056828 0 0.00030331640610515838 -0.019809179729714653 0 -0.00039461136431085341 -0.024427064546682125 0 -0.00037979641203377061 -0.024579056555179613 0 -0.00029315021666780837 -0.024511203635344085 0 -0.00029304949547849193 -0.024615468060433271 0 -0.00028350625894681109 -0.024632912056678471 0 -0.0002730571968210917 -0.024621883161242152 0 -0.0004372581237247996 -0.019635564604359574 0 0.00034236632597440175 -0.021438195661354114 0 0.00019825816544753483 -0.019913787385602677 0 0.00040212903345582989 -0.019949452158056828 0 0.00030331640610515838 -0.019809179729714653 0 -0.00029315021666780837 -0.024511203635344085 0 -0.00023570275191612939 -0.024604816149928585 0 -0.0001284007691094118 -0.024552179082095858 0 -0.00037979641203377061 -0.024579056555179613 0 -0.00029315021666780837 -0.024511203635344085 0 -0.00023570275191612939 -0.024604816149928585 0 -0.00027847671985035364 -0.024641934369560175 0 -0.00028231918314816016 -0.024600398161667234 0 -0.00023570275191612939 -0.024604816149928585 0 0.00034236632597440175 -0.021438195661354114 0 0.00025249299911859281 -0.021818712071989543 0 -0.00023570275191612939 -0.024604816149928585 0 -0.0001284007691094118 -0.024552179082095858 0 -0.00013480933624660771 -0.024663408848251019 0 -0.00023570275191612939 -0.024604816149928585 0 -0.00013480933624660771 -0.024663408848251019 0 -0.00020679061719206286 -0.024685166504641864 0 -0.00013480933624660771 -0.024663408848251019 0 -0.00020679061719206286 -0.024685166504641864 0 -0.00013445054683645723 -0.024747493057603123 0 -0.00023570275191612939 -0.024604816149928585 0 -0.00020679061719206286 -0.024685166504641864 0 -0.00025303542572909275 -0.024653767160826744 0 -0.00027847671985035364 -0.024641934369560175 0 -0.00023570275191612939 -0.024604816149928585 0 -0.00025303542572909275 -0.024653767160826744 0 -0.00027847671985035364 -0.024641934369560175 0 -0.00025303542572909275 -0.024653767160826744 0 -0.00027999885902894818 -0.024682909531036364 0 -0.00020679061719206286 -0.024685166504641864 0 -0.00025303542572909275 -0.024653767160826744 0 -0.00027999885902894818 -0.024682909531036364 0 -0.00020679061719206286 -0.024685166504641864 0 -0.00027999885902894818 -0.024682909531036364 0 -0.00020364747595676057 -0.024754797414485514 0 -0.00020679061719206286 -0.024685166504641864 0 -0.00020364747595676057 -0.024754797414485514 0 -0.00013445054683645723 -0.024747493057603123 0 -0.00020364747595676057 -0.024754797414485514 0 -0.00013445054683645723 -0.024747493057603123 0 -0.00015638398750375017 -0.024812099497769923 0 -0.00015638398750375017 -0.024812099497769923 0 -0.00024402104375343 -0.024843836119777314 0 -0.00014306434638877816 -0.024883002424534888 0 -0.00010277974211438822 -0.024818468449059737 0 -0.00015638398750375017 -0.024812099497769923 0 -0.00014306434638877816 -0.024883002424534888 0 -0.00010277974211438822 -0.024818468449059737 0 -0.00013445054683645723 -0.024747493057603123 0 -0.00015638398750375017 -0.024812099497769923 0 -0.00027999885902894818 -0.024682909531036364 0 -0.00020364747595676057 -0.024754797414485514 0 -0.00024402104375343 -0.024843836119777314 0 -0.00020364747595676057 -0.024754797414485514 0 -0.00015638398750375017 -0.024812099497769923 0 -0.00024402104375343 -0.024843836119777314 0 -5.2222973237952443e-05 -0.024599497182944862 0 7.2585835965979943e-07 -0.024516195538800009 0 -0.00031413048810457198 -0.024606835805654044 0 -0.00025175344577988584 -0.024613673590297227 0 -0.00027164348480096377 -0.024647575391636499 0 -0.00027999885902894818 -0.024682909531036364 0 -0.00031413048810457198 -0.024606835805654044 0 -0.00027164348480096377 -0.024647575391636499 0 8.6700749644496631e-05 -0.018224486789554396 0 -4.9006360288958822e-05 -0.018935284268423509 0 0.00028870271525434458 -0.021405379393821613 0 -4.9006360288958822e-05 -0.018935284268423509 0 -0.00037116266886229446 -0.019920085203376878 0 -5.1173517998001066e-05 -0.020016653571391048 0 -0.00030293638177189845 -0.019341024144116592 0 -0.00025175344577988584 -0.024613673590297227 0 -0.00026862153835138683 -0.024650230573742493 0 -0.00027164348480096377 -0.024647575391636499 0 0.00053168952732439922 -0.013887904858892533 0 0.00050119752936953702 -0.013967843294739671 0 0.0005651964616587129 -0.013924326532502017 0 3.0818158041347372e-05 -0.018395171354293086 0 1.8431699850809463e-05 -0.018391955343052102 0 3.8944437416619071e-05 -0.018440328381099644 0 -0.00027974255386219469 -0.017102186221544479 0 -4.9006360288958822e-05 -0.018935284268423509 0 -0.00027970228613410203 -0.024657218396052633 0 -0.00027999885902894818 -0.024682909531036364 0 -0.00027164348480096377 -0.024647575391636499 0 -0.00027970228613410203 -0.024657218396052633 0 -0.00026862153835138683 -0.024650230573742493 0 -0.00027164348480096377 -0.024647575391636499 0 0.00023085244829473402 -0.013350404301528623 0 0.00038798350130391364 -0.013189645949152911 0 0.00039979515338509493 -0.013431950802510207 0 0.00023085244829473402 -0.013350404301528623 0 0.00038798350130391364 -0.013189645949152911 0 7.2318758774565323e-05 -0.013162230308942898 0 0.00038798350130391364 -0.013189645949152911 0 7.2318758774565323e-05 -0.013162230308942898 0 0.00040870399671951894 -0.012884839675256114 0 0.00038798350130391364 -0.013189645949152911 0 0.00054312042132885333 -0.013104289030851755 0 0.00041160729614071062 -0.012884842269525965 0 0.00027489686786704934 -0.014444681631324905 0 -1.1283462794782823e-05 -0.016021624969922408 0 0.00054312042132885333 -0.013104289030851755 0 0.00065676555750983432 -0.013401470842545818 0 0.00070357356321650217 -0.012945526400049829 0 0.00050119752936953702 -0.013967843294739671 0 0.0005651964616587129 -0.013924326532502017 0 0.00055832865751431217 -0.014023968275759363 0 0.00038798350130391364 -0.013189645949152911 0 0.00065676555750983432 -0.013401470842545818 0 0.00039979515338509493 -0.013431950802510207 0 0.00038798350130391364 -0.013189645949152911 0 0.00054312042132885333 -0.013104289030851755 0 0.00065676555750983432 -0.013401470842545818 0 0.00065676555750983432 -0.013401470842545818 0 0.00047074580097508515 -0.013650862824477908 0 0.00039979515338509493 -0.013431950802510207 0 0.00065676555750983432 -0.013401470842545818 0 0.00047074580097508515 -0.013650862824477908 0 0.00053739559427700269 -0.013860748756865401 0 0.00027489686786704934 -0.014444681631324905 0 0.00033883416326476986 -0.014145145817211912 0 0.00053168952732439922 -0.013887904858892533 0 0.0005651964616587129 -0.013924326532502017 0 0.00053739559427700269 -0.013860748756865401 0 0.00047074580097508515 -0.013650862824477908 0 0.00026628712488024604 -0.013593069841816236 0 0.00045879773168505043 -0.013886215936585651 0 0.00026628712488024604 -0.013593069841816236 0 -4.4938557377983715e-05 -0.013767603510447911 0 0.00045879773168505043 -0.013886215936585651 0 0.00047074580097508515 -0.013650862824477908 0 0.00039979515338509493 -0.013431950802510207 0 0.00026628712488024604 -0.013593069841816236 0 0.00023085244829473402 -0.013350404301528623 0 0.00039979515338509493 -0.013431950802510207 0 0.00026628712488024604 -0.013593069841816236 0 0.00023085244829473402 -0.013350404301528623 0 0.00026628712488024604 -0.013593069841816236 0 4.170533897578764e-05 -0.013442198722022271 0 0.00026628712488024604 -0.013593069841816236 0 -4.4938557377983715e-05 -0.013767603510447911 0 4.170533897578764e-05 -0.013442198722022271 0 -4.4938557377983715e-05 -0.013767603510447911 0 4.170533897578764e-05 -0.013442198722022271 0 -0.00034607188410367069 -0.013404426317313357 0 -0.00030379397802494836 -0.015656482372455885 0 -0.00058199286068090104 -0.015255112147430082 0 -0.00077974750654924983 -0.013624058557955617 0 -0.0010720948995254869 -0.013554605549419214 0 -0.00034529951403880889 -0.01451007791013505 0 -4.4938557377983715e-05 -0.013767603510447911 0 -0.00077974750654924983 -0.013624058557955617 0 -0.00034607188410367069 -0.013404426317313357 0 -0.00077974750654924983 -0.013624058557955617 0 -0.00078587318993181808 -0.013098979054047678 0 -0.0010720948995254869 -0.013554605549419214 0 -0.00077974750654924983 -0.013624058557955617 0 -0.00034607188410367069 -0.013404426317313357 0 -0.00078587318993181808 -0.013098979054047678 0 -0.00034607188410367069 -0.013404426317313357 0 -0.00078587318993181808 -0.013098979054047678 0 -0.0002982366990249813 -0.012843140448287899 0 -0.00078587318993181808 -0.013098979054047678 0 -0.0002982366990249813 -0.012843140448287899 0 -0.00057628011814487862 -0.012513876012562181 0 -0.0002982366990249813 -0.012843140448287899 0 -0.00057628011814487862 -0.012513876012562181 0 -3.4826804891847097e-05 -0.012499523040813157 0 4.170533897578764e-05 -0.013442198722022271 0 -0.00034607188410367069 -0.013404426317313357 0 7.2318758774565323e-05 -0.013162230308942898 0 0.00023085244829473402 -0.013350404301528623 0 4.170533897578764e-05 -0.013442198722022271 0 7.2318758774565323e-05 -0.013162230308942898 0 -0.00034607188410367069 -0.013404426317313357 0 -0.0002982366990249813 -0.012843140448287899 0 0.0002276310581812945 -0.012789478040697275 0 0.00041493119136679036 -0.014070866568246219 0 0.00050267358021950908 -0.014219703390097552 0 -0.0002982366990249813 -0.012843140448287899 0 0.0002276310581812945 -0.012789478040697275 0 -3.4826804891847097e-05 -0.012499523040813157 0 -3.4826804891847097e-05 -0.012499523040813157 0 -0.00021945589963905758 -0.01210816632540729 0 0.00076309098672950855 -0.012297062430074333 0 -0.00023179665215528302 -0.014000422684404866 0 0.00021756495175538751 -0.015231125031896513 0 -0.00057628011814487862 -0.012513876012562181 0 -3.4826804891847097e-05 -0.012499523040813157 0 -0.00021945589963905758 -0.01210816632540729 0 -0.00057628011814487862 -0.012513876012562181 0 -0.00021945589963905758 -0.01210816632540729 0 -0.00092983111369149458 -0.012017531207631417 0 -0.00023179665215528302 -0.014000422684404866 0 -0.00041147250549880348 -0.013438133360813424 0 -0.00012390307732330054 -0.01396407977746476 0 -2.9244607263419465e-06 -0.014121017514417751 0 9.0001504622270071e-05 -0.014006356163419777 0 -0.00012390307732330054 -0.01396407977746476 0 -0.00026675538105125254 -0.014007196129467131 0 -0.00018640463146340049 -0.014117899981265418 0 -0.00012390307732330054 -0.01396407977746476 0 -0.00018640463146340049 -0.014117899981265418 0 -2.9244607263419465e-06 -0.014121017514417751 0 -0.00026675538105125254 -0.014007196129467131 0 -0.00035587000970420125 -0.014090819746051858 0 -0.00018640463146340049 -0.014117899981265418 0 -0.00026675538105125254 -0.014007196129467131 0 -0.00032919880371625609 -0.013927594972571079 0 -0.00035587000970420125 -0.014090819746051858 0 0.00021756495175538751 -0.015231125031896513 0 -0.00018547042942807234 -0.016495719231816107 0 -0.00018547042942807234 -0.016495719231816107 0 -0.00035692977906665789 -0.01604095000114018 0 0.0002276310581812945 -0.012789478040697275 0 -3.4826804891847097e-05 -0.012499523040813157 0 0.00076309098672950855 -0.012297062430074333 0 -0.00012390307732330054 -0.01396407977746476 0 -0.00026675538105125254 -0.014007196129467131 0 -0.00032919880371625609 -0.013927594972571079 0 0.00025770306132126563 -0.014685025036397946 0 0.00021756495175538751 -0.015231125031896513 0 0.00050267358021950908 -0.014219703390097552 0 0.00021756495175538751 -0.015231125031896513 0 -8.2292064819002858e-05 -0.016005661171634766 0 4.6244467376214458e-05 -0.016035050697271912 0 6.3402174577478843e-05 -0.015877557710743 0 -1.1283462794782823e-05 -0.016021624969922408 0 -0.00017268870048869941 -0.017289261359583929 0 -0.00051447278543106999 -0.016966442372021759 0 -0.00063935070199514952 -0.016938830747312533 0 -0.00061737297451251109 -0.016737852824218184 0 -0.00027974255386219469 -0.017102186221544479 0 -1.1283462794782823e-05 -0.016021624969922408 0 0.00054312042132885333 -0.013104289030851755 0 0.00041160729614071062 -0.012884842269525965 0 0.00070357356321650217 -0.012945526400049829 0 0.00021756495175538751 -0.015231125031896513 0 -1.1283462794782823e-05 -0.016021624969922408 0 0.00021756495175538751 -0.015231125031896513 0 -0.00017268870048869941 -0.017289261359583929 0 0.0001418202798402148 -0.016576052375323936 0 6.2683478368410472e-05 -0.016722501108273176 0 0.00010754185764405559 -0.016774669213735854 0 3.2774405865289782e-06 -0.016702505153147314 0 6.2683478368410472e-05 -0.016722501108273176 0 2.4082378329733415e-07 -0.016729967029464745 0 -0.00034931854914807965 -0.018100814262413743 0 -0.00017268870048869941 -0.017289261359583929 0 0.00038933991182426501 -0.01773832453415931 0 -0.00042252807578325557 -0.018464572050010473 0 -0.000373979932083777 -0.018028238756317344 0 -0.00017268870048869941 -0.017289261359583929 0 -0.00017386773195659705 -0.017479547266827711 0 0.0001418202798402148 -0.016576052375323936 0 3.2774405865289782e-06 -0.016702505153147314 0 6.2683478368410472e-05 -0.016722501108273176 0 -0.00018547042942807234 -0.016495719231816107 0 -0.00017509695764339288 -0.017662524526433489 0 6.2683478368410472e-05 -0.016722501108273176 0 0.00010754185764405559 -0.016774669213735854 0 -2.723188447884613e-06 -0.016756092016016057 0 -0.00034931854914807965 -0.018100814262413743 0 -0.00017509695764339288 -0.017662524526433489 0 0.00038933991182426501 -0.01773832453415931 0 -0.00032782983059323272 -0.017613942373655048 0 -0.000373979932083777 -0.018028238756317344 0 -0.00017509695764339288 -0.017662524526433489 0 -0.00017386773195659705 -0.017479547266827711 0 6.2683478368410472e-05 -0.016722501108273176 0 -2.723188447884613e-06 -0.016756092016016057 0 2.4082378329733415e-07 -0.016729967029464745 0 8.1905890278032497e-05 -0.019765412485079886 0 4.1875323582534721e-06 -0.019854719360547883 0 2.3963521206929616e-05 -0.019647894142987773 0 -0.00017509695764339288 -0.017662524526433489 0 -0.00020634716086653722 -0.018290658776209136 0 5.7300019007720636e-06 -0.019835793052588573 0 2.3963521206929616e-05 -0.019647894142987773 0 -0.00011977574923961224 -0.019572577188747407 0 -0.00018547042942807234 -0.016495719231816107 0 -0.00026322221441883107 -0.016732956833434225 0 -0.00056742159166710455 -0.017050667408427041 0 -0.00048692109467803329 -0.017065163370341131 0 -0.00055083485359680863 -0.016917202520502245 0 -0.00017509695764339288 -0.017662524526433489 0 -0.00026322221441883107 -0.016732956833434225 0 -0.0003900229014452674 -0.014089656564827475 0 -0.00032585696167487972 -0.014186435400513347 0 -0.00041395267307569537 -0.01426641729886801 0 -0.00032585696167487972 -0.014186435400513347 0 -0.00027723546510970002 -0.014278267291700321 0 -0.00018640463146340049 -0.014117899981265418 0 -0.0003900229014452674 -0.014089656564827475 0 -0.00032585696167487972 -0.014186435400513347 0 -0.00018640463146340049 -0.014117899981265418 0 -0.00032585696167487972 -0.014186435400513347 0 -0.00027723546510970002 -0.014278267291700321 0 -0.00041395267307569537 -0.01426641729886801 0 -0.00027723546510970002 -0.014278267291700321 0 -0.00037092458590120344 -0.014385308520066363 0 -0.00041395267307569537 -0.01426641729886801 0 -0.00027723546510970002 -0.014278267291700321 0 -0.00037092458590120344 -0.014385308520066363 0 -0.00026092124985573094 -0.014401617533662025 0 -0.00026322221441883107 -0.016732956833434225 0 -0.00018229414225127478 -0.017012939115181928 0 -0.00037092458590120344 -0.014385308520066363 0 -0.00040555485025089489 -0.014287510900030005 0 -0.00043300203277181324 -0.014451284654710368 0 -0.00011977574923961224 -0.019572577188747407 0 3.6393340263597586e-06 -0.019447214552527736 0 -0.00012265861885975412 -0.019303064919213922 0 2.3963521206929616e-05 -0.019647894142987773 0 -0.00011977574923961224 -0.019572577188747407 0 3.6393340263597586e-06 -0.019447214552527736 0 -0.0004092795531165541 -0.016191737553945949 0 -0.00026322221441883107 -0.016732956833434225 0 3.6393340263597586e-06 -0.019447214552527736 0 4.7347469246091012e-05 -0.019292313880541898 0 -0.00012265861885975412 -0.019303064919213922 0 -0.00043300203277181324 -0.014451284654710368 0 -0.00031418160945613234 -0.014504482959578681 0 -0.00045768019951814747 -0.014636440045690357 0 4.7347469246091012e-05 -0.019292313880541898 0 -0.00012265861885975412 -0.019303064919213922 0 2.3552779910447866e-05 -0.019022853921326147 0 -0.00037092458590120344 -0.014385308520066363 0 -0.00043300203277181324 -0.014451284654710368 0 -0.00031418160945613234 -0.014504482959578681 0 -0.00037092458590120344 -0.014385308520066363 0 -0.00026092124985573094 -0.014401617533662025 0 -0.00031418160945613234 -0.014504482959578681 0 -0.00026092124985573094 -0.014401617533662025 0 -0.00031418160945613234 -0.014504482959578681 0 -0.00018255807611504874 -0.014507036788791491 0 -0.00031418160945613234 -0.014504482959578681 0 -0.000276953733727648 -0.014653171043814014 0 -0.00018255807611504874 -0.014507036788791491 0 -1.3588232763873748e-06 -0.017410515640977384 0 5.4715683182262584e-08 -0.017406671831706994 0 3.5753395294631051e-06 -0.01832476759189984 0 -0.00031418160945613234 -0.014504482959578681 0 -0.000276953733727648 -0.014653171043814014 0 -0.00045768019951814747 -0.014636440045690357 0 0.00035766432265930655 -0.016720849504375641 0 -9.6111297044162124e-05 -0.01756315417883119 0 5.4715683182262584e-08 -0.017406671831706994 0 -5.6702709216514358e-08 -0.018426827095194255 0 3.5753395294631051e-06 -0.01832476759189984 0 -0.00012265861885975412 -0.019303064919213922 0 -9.0360041768797346e-05 -0.018764878944100966 0 2.3552779910447866e-05 -0.019022853921326147 0 -0.00018229414225127478 -0.017012939115181928 0 -9.6111297044162124e-05 -0.01756315417883119 0 0.00010217071742910421 -0.019125886765775507 0 9.7935021978646799e-08 -0.018430066179227732 0 -9.0360041768797346e-05 -0.018764878944100966 0 -1.4156025495005241e-06 -0.018423459195209029 0 -9.6111297044162124e-05 -0.01756315417883119 0 0.00010217071742910421 -0.019125886765775507 0 -9.0360041768797346e-05 -0.018764878944100966 0 2.3552779910447866e-05 -0.019022853921326147 0 0.0012511251053837855 -0.016154709868812164 0 0.00077729460463610604 -0.015145743099833598 0 -9.3828063199859446e-05 -0.014672219111424425 0 -0.00018255807611504874 -0.014507036788791491 0 1.8503309104906002e-06 -0.014481153945576759 0 -1.3380178371670969e-06 -0.016044889134463572 0 -0.00019529732110084929 -0.014536577469417458 0 5.2800917558987899e-05 -0.01496072574952061 0 -1.3380178371670969e-06 -0.016044889134463572 0 -0.00040822553074615434 -0.016001684885605341 0 -0.00019529732110084929 -0.014536577469417458 0 7.9220747024306702e-07 -0.016047215470190754 0 0.0012511251053837855 -0.016154709868812164 0 0.00035766432265930655 -0.016720849504375641 0 0.0012511251053837855 -0.016154709868812164 0 -0.000276953733727648 -0.014653171043814014 0 -9.3828063199859446e-05 -0.014672219111424425 0 -0.00018255807611504874 -0.014507036788791491 0 -1.3588232763873748e-06 -0.017410515640977384 0 5.4715683182262584e-08 -0.017406671831706994 0 -4.850152181722598e-08 -0.016366008439711366 0 -0.00026092124985573094 -0.014401617533662025 0 -0.00018255807611504874 -0.014507036788791491 0 -0.00015813931659694331 -0.014332128438753634 0 -0.00018255807611504874 -0.014507036788791491 0 1.8503309104906002e-06 -0.014481153945576759 0 -0.00015813931659694331 -0.014332128438753634 0 1.8503309104906002e-06 -0.014481153945576759 0 -3.7967333979280935e-05 -0.014270201879666482 0 8.8835220802575848e-05 -0.014281979320005231 0 1.8503309104906002e-06 -0.014481153945576759 0 -3.7967333979280935e-05 -0.014270201879666482 0 -0.00015813931659694331 -0.014332128438753634 0 -0.00027723546510970002 -0.014278267291700321 0 -0.00026092124985573094 -0.014401617533662025 0 -0.00015813931659694331 -0.014332128438753634 0 -0.00027723546510970002 -0.014278267291700321 0 -0.00015813931659694331 -0.014332128438753634 0 -0.00018640463146340049 -0.014117899981265418 0 -3.7967333979280935e-05 -0.014270201879666482 0 -0.00015813931659694331 -0.014332128438753634 0 -0.00018640463146340049 -0.014117899981265418 0 -3.7967333979280935e-05 -0.014270201879666482 0 -0.00018640463146340049 -0.014117899981265418 0 -2.9244607263419465e-06 -0.014121017514417751 0 -3.7967333979280935e-05 -0.014270201879666482 0 -2.9244607263419465e-06 -0.014121017514417751 0 8.8835220802575848e-05 -0.014281979320005231 0 0.00052036269717098524 -0.014480503651408455 0 0.00057008895311060851 -0.014643083098745648 0 -2.9244607263419465e-06 -0.014121017514417751 0 0.00014923978034988512 -0.014072610881443813 0 8.8835220802575848e-05 -0.014281979320005231 0 0.00014923978034988512 -0.014072610881443813 0 0.00019339534376034784 -0.014075192249426534 0 0.00019684831294800866 -0.014063988013751021 0 0.00014923978034988512 -0.014072610881443813 0 0.00020888865123486989 -0.014092079904637097 0 0.00019339534376034784 -0.014075192249426534 0 0.00014923978034988512 -0.014072610881443813 0 0.00020888865123486989 -0.014092079904637097 0 3.9682272611279285e-05 -0.014133020357349105 0 0.00020888865123486989 -0.014092079904637097 0 3.9682272611279285e-05 -0.014133020357349105 0 0.00013343800550143022 -0.014396095979211754 0 0.00077729460463610604 -0.015145743099833598 0 0.00057008895311060851 -0.014643083098745648 0 -0.00019529732110084929 -0.014536577469417458 0 0.00013343800550143022 -0.014396095979211754 0 5.2800917558987899e-05 -0.01496072574952061 0 -0.00019529732110084929 -0.014536577469417458 0 3.9682272611279285e-05 -0.014133020357349105 0 0.00013343800550143022 -0.014396095979211754 0 0.00020888865123486989 -0.014092079904637097 0 0.00013343800550143022 -0.014396095979211754 0 0.00021298970569160706 -0.01404752294938149 0 6.7223201284605322e-07 -0.014800329763819845 0 7.0907830855614796e-07 -0.01355333015568882 0 0.00021298970569160706 -0.01404752294938149 0 0.00013343800550143022 -0.014396095979211754 0 6.7223201284605322e-07 -0.014800329763819845 0 0.00021298970569160706 -0.01404752294938149 0 0.00013343800550143022 -0.014396095979211754 0 6.7223201284605322e-07 -0.014800329763819845 0 5.2800917558987899e-05 -0.01496072574952061 0 -1.3380178371670969e-06 -0.016044889134463572 0 6.7223201284605322e-07 -0.014800329763819845 0 5.2800917558987899e-05 -0.01496072574952061 0 -0.00025261889426158045 -0.013485939944082601 0 -1.3997080744135384e-06 -0.012308977313988913 0 0.00010535937950221659 -0.01348747019072483 0 -1.3997080744135384e-06 -0.012308977313988913 0 0.00010535937950221659 -0.01348747019072483 0 7.0907830855614796e-07 -0.01355333015568882 0 0.00010535937950221659 -0.01348747019072483 0 7.0907830855614796e-07 -0.01355333015568882 0 0.00021298970569160706 -0.01404752294938149 0 0.00010535937950221659 -0.01348747019072483 0 0.00021298970569160706 -0.01404752294938149 0 0.00015892007030190731 -0.013959888249764688 0 0.00020888865123486989 -0.014092079904637097 0 0.00021298970569160706 -0.01404752294938149 0 0.00015892007030190731 -0.013959888249764688 0 -0.00025261889426158045 -0.013485939944082601 0 0.00010535937950221659 -0.01348747019072483 0 0.00015892007030190731 -0.013959888249764688 0 4.5302927163500131e-05 -0.014014454172090223 0 0.00015892007030190731 -0.013959888249764688 0 0.00017393425815841597 -0.014063815351833332 0 0.00020888865123486989 -0.014092079904637097 0 0.00015892007030190731 -0.013959888249764688 0 0.00017393425815841597 -0.014063815351833332 0 0.00020888865123486989 -0.014092079904637097 0 0.00019339534376034784 -0.014075192249426534 0 0.00017393425815841597 -0.014063815351833332 0 0.00019339534376034784 -0.014075192249426534 0 0.00017393425815841597 -0.014063815351833332 0 0.00019684831294800866 -0.014063988013751021 0 0.00017679814375972484 -0.013394549191298085 0 0.00023809560371667736 -0.013596370357617245 0 0.00017393425815841597 -0.014063815351833332 0 0.00014786652771441142 -0.014079571405971799 0 0.00019684831294800866 -0.014063988013751021 0 9.0369073461267005e-05 -0.013989975932138203 0 0.00017393425815841597 -0.014063815351833332 0 0.00014786652771441142 -0.014079571405971799 0 -0.00098602025764292652 -0.012131724572402726 0 -0.00099283361921115049 -0.011929124454492205 0 -0.0011144734853577936 -0.012019952550568655 0 -0.00099283361921115049 -0.011929124454492205 0 -0.0011144734853577936 -0.012019952550568655 0 -0.00114164964053152 -0.011840894975413902 0 -0.0011144734853577936 -0.012019952550568655 0 -0.0012029973341717785 -0.012081260738753199 0 -0.00114164964053152 -0.011840894975413902 0 -0.0011144734853577936 -0.012019952550568655 0 -0.0011907238105201591 -0.012053343327711666 0 -0.0012029973341717785 -0.012081260738753199 0 -0.00038255959360739006 -0.012988741902705683 0 -0.00045190454400783443 -0.013168374520450575 0 -0.00098602025764292652 -0.012131724572402726 0 -0.0011144734853577936 -0.012019952550568655 0 -0.0011907238105201591 -0.012053343327711666 0 0.00014923978034988512 -0.014072610881443813 0 0.00019684831294800866 -0.014063988013751021 0 9.0001504622270071e-05 -0.014006356163419777 0 -0.0011907238105201591 -0.012053343327711666 0 -0.00092983111369149458 -0.012017531207631417 0 -0.0012029973341717785 -0.012081260738753199 0 -0.00045190454400783443 -0.013168374520450575 0 -0.00041147250549880348 -0.013438133360813424 0 -2.9244607263419465e-06 -0.014121017514417751 0 0.00014923978034988512 -0.014072610881443813 0 9.0001504622270071e-05 -0.014006356163419777 0 -0.00057628011814487862 -0.012513876012562181 0 -0.00092983111369149458 -0.012017531207631417 0 -0.0010603521760453052 -0.012441864135354249 0 -0.00094619405623657662 -0.012001076133203271 0 -0.00088525577900448803 -0.012001335750193801 0 -0.00092983111369149458 -0.012017531207631417 0 -0.0012029973341717785 -0.012081260738753199 0 -0.0010603521760453052 -0.012441864135354249 0 -0.0012029973341717785 -0.012081260738753199 0 -0.0013655341189980873 -0.011892726782455103 0 -0.00114164964053152 -0.011840894975413902 0 -0.000277470163854025 -0.010506246428613785 0 -0.00028757481867649489 -0.010570168596634196 0 -0.00035599861378430046 -0.010518857237430533 0 -0.00088525577900448803 -0.012001335750193801 0 -0.00075213799818386244 -0.011427523148083237 0 -0.00078587318993181808 -0.013098979054047678 0 -0.00057628011814487862 -0.012513876012562181 0 -0.0017535046903510382 -0.012730111851630654 0 -0.00088525577900448803 -0.012001335750193801 0 -0.00060955633755671124 -0.012205069611048409 0 -0.00087968136249230678 -0.012121206402424452 0 -0.00088525577900448803 -0.012001335750193801 0 -0.00078587318993181808 -0.013098979054047678 0 -0.0017535046903510382 -0.012730111851630654 0 -0.0010720948995254869 -0.013554605549419214 0 -0.00022044861858683387 -0.010571738149723828 0 -0.00028757481867649489 -0.010570168596634196 0 -0.00022602064866609326 -0.010633952156924925 0 -0.000277470163854025 -0.010506246428613785 0 -0.00022044861858683387 -0.010571738149723828 0 -0.00028757481867649489 -0.010570168596634196 0 -0.00028757481867649489 -0.010570168596634196 0 -0.00033847123569196407 -0.010570305078942509 0 -0.00035599861378430046 -0.010518857237430533 0 -0.00028757481867649489 -0.010570168596634196 0 -0.00033847123569196407 -0.010570305078942509 0 -0.0003315662291576482 -0.010621550075402728 0 -0.00033847123569196407 -0.010570305078942509 0 -0.00037875490586275631 -0.010570894433386959 0 -0.0003315662291576482 -0.010621550075402728 0 -0.00037875490586275631 -0.010570894433386959 0 -0.00043781516931403229 -0.010605609102101182 0 -0.0003315662291576482 -0.010621550075402728 0 -0.00033847123569196407 -0.010570305078942509 0 -0.00037875490586275631 -0.010570894433386959 0 -0.00035599861378430046 -0.010518857237430533 0 -0.00037875490586275631 -0.010570894433386959 0 -0.00043618805620548813 -0.010532136923487735 0 -0.00043781516931403229 -0.010605609102101182 0 -0.0006954405924926904 -0.010962107559867445 0 -0.00075213799818386244 -0.011427523148083237 0 -0.00099283361921115049 -0.011929124454492205 0 -0.000975522132794784 -0.011766724805802369 0 -0.00114164964053152 -0.011840894975413902 0 -0.00037875490586275631 -0.010570894433386959 0 -0.00043618805620548813 -0.010532136923487735 0 -0.00035599861378430046 -0.010518857237430533 0 -0.00037215907487116683 -0.010640690043430502 0 -0.0003547284337886387 -0.010712036115462212 0 -0.00031867267703332961 -0.010688245119138141 0 -0.00037215907487116683 -0.010640690043430502 0 -0.0003547284337886387 -0.010712036115462212 0 -0.00042167628568379775 -0.010694578074467992 0 -0.00042167628568379775 -0.010694578074467992 0 -0.00048814292217697096 -0.010646494016686032 0 -0.00046830909829915444 -0.010723706408122435 0 -0.00056635511408944909 -0.010738875750720718 0 -0.00048814292217697096 -0.010646494016686032 0 -0.00046830909829915444 -0.010723706408122435 0 -0.00037215907487116683 -0.010640690043430502 0 -0.00042167628568379775 -0.010694578074467992 0 -0.00048814292217697096 -0.010646494016686032 0 -0.00042974661995683251 -0.010576506211783817 0 -0.0004789234695897883 -0.010534125890802767 0 -0.00037215907487116683 -0.010640690043430502 0 -0.00048814292217697096 -0.010646494016686032 0 -0.00049924019142664978 -0.010516623311633774 0 -0.0004789234695897883 -0.010534125890802767 0 -0.00035370491599007712 -0.010580606535426364 0 -0.00037215907487116683 -0.010640690043430502 0 -0.00045533552863020668 -0.010577874113312827 0 -0.00034856517924532605 -0.010595515088107367 0 -0.00035370491599007712 -0.010580606535426364 0 -0.00029440862273487746 -0.010597930958310508 0 -0.00028757481867649489 -0.010570168596634196 0 -0.0003315662291576482 -0.010621550075402728 0 -0.00022602064866609326 -0.010633952156924925 0 -0.00037215907487116683 -0.010640690043430502 0 -0.00034856517924532605 -0.010595515088107367 0 -0.00030128784462029153 -0.010650600821606555 0 -0.00034856517924532605 -0.010595515088107367 0 -0.00022602064866609326 -0.010633952156924925 0 -0.00030128784462029153 -0.010650600821606555 0 -0.00022602064866609326 -0.010633952156924925 0 -0.00025341278782626533 -0.010669475255194582 0 -0.00030128784462029153 -0.010650600821606555 0 -0.00022602064866609326 -0.010633952156924925 0 -0.00025341278782626533 -0.010669475255194582 0 -0.00020084257216281426 -0.010668964274597318 0 -0.00025341278782626533 -0.010669475255194582 0 -0.00021437829311762708 -0.010700648469915584 0 -0.00020084257216281426 -0.010668964274597318 0 -0.00025341278782626533 -0.010669475255194582 0 -0.00024730699236584405 -0.010708144757938343 0 -0.00028435869642795981 -0.010681663088439767 0 -0.00024730699236584405 -0.010708144757938343 0 -0.00028713625585131638 -0.010711667891887688 0 -0.00027150855287530359 -0.010745197057869431 0 -0.00024730699236584405 -0.010708144757938343 0 -0.00028435869642795981 -0.010681663088439767 0 -0.00028713625585131638 -0.010711667891887688 0 -0.00024730699236584405 -0.010708144757938343 0 -0.00022686903215283859 -0.010721874004948277 0 -0.00023887713004183683 -0.010744535283457847 0 -0.00025341278782626533 -0.010669475255194582 0 -0.00024730699236584405 -0.010708144757938343 0 -0.00021437829311762708 -0.010700648469915584 0 -0.00024730699236584405 -0.010708144757938343 0 -0.00022686903215283859 -0.010721874004948277 0 -0.00021437829311762708 -0.010700648469915584 0 -0.00022686903215283859 -0.010721874004948277 0 -0.00021437829311762708 -0.010700648469915584 0 -0.00020714936367516681 -0.010734400494998794 0 -0.00037215907487116683 -0.010640690043430502 0 -0.00030128784462029153 -0.010650600821606555 0 -0.00031867267703332961 -0.010688245119138141 0 -0.00025341278782626533 -0.010669475255194582 0 -0.00030128784462029153 -0.010650600821606555 0 -0.00028435869642795981 -0.010681663088439767 0 -0.00030128784462029153 -0.010650600821606555 0 -0.00028435869642795981 -0.010681663088439767 0 -0.00031867267703332961 -0.010688245119138141 0 -0.00028435869642795981 -0.010681663088439767 0 -0.00028713625585131638 -0.010711667891887688 0 -0.00031867267703332961 -0.010688245119138141 0 -0.00028713625585131638 -0.010711667891887688 0 -0.00031867267703332961 -0.010688245119138141 0 -0.00031378508179929094 -0.010734729759824237 0 -0.0003547284337886387 -0.010712036115462212 0 -0.00031867267703332961 -0.010688245119138141 0 -0.00031378508179929094 -0.010734729759824237 0 -0.0003547284337886387 -0.010712036115462212 0 -0.00031378508179929094 -0.010734729759824237 0 -0.00035938406642736163 -0.010772678367305532 0 -0.00031378508179929094 -0.010734729759824237 0 -0.00029233486668053213 -0.01077736189032028 0 -0.00027150855287530359 -0.010745197057869431 0 -0.00028713625585131638 -0.010711667891887688 0 -0.00031378508179929094 -0.010734729759824237 0 -0.00027150855287530359 -0.010745197057869431 0 -0.00029233486668053213 -0.01077736189032028 0 -0.00032616212834945505 -0.010815820480387522 0 -0.00035938406642736163 -0.010772678367305532 0 -0.00031378508179929094 -0.010734729759824237 0 -0.00029233486668053213 -0.01077736189032028 0 -0.00035938406642736163 -0.010772678367305532 0 -0.00022102227868281798 -0.010758475655665393 0 -0.00020714936367516681 -0.010734400494998794 0 -0.00019325685072896408 -0.010771012463858491 0 -0.00022102227868281798 -0.010758475655665393 0 -0.00020714936367516681 -0.010734400494998794 0 -0.00023887713004183683 -0.010744535283457847 0 -0.00022686903215283859 -0.010721874004948277 0 -0.00020714936367516681 -0.010734400494998794 0 -0.00023887713004183683 -0.010744535283457847 0 -0.00022102227868281798 -0.010758475655665393 0 -0.00023887713004183683 -0.010744535283457847 0 -0.00023487877073030482 -0.010772501783251431 0 -0.00023887713004183683 -0.010744535283457847 0 -0.00027150855287530359 -0.010745197057869431 0 -0.00023487877073030482 -0.010772501783251431 0 -0.00024730699236584405 -0.010708144757938343 0 -0.00023887713004183683 -0.010744535283457847 0 -0.00027150855287530359 -0.010745197057869431 0 -0.00029233486668053213 -0.01077736189032028 0 -0.00023487877073030482 -0.010772501783251431 0 -0.00024428100070015066 -0.010825336333522943 0 -0.00029233486668053213 -0.01077736189032028 0 -0.00027150855287530359 -0.010745197057869431 0 -0.00023487877073030482 -0.010772501783251431 0 -0.00022102227868281798 -0.010758475655665393 0 -0.00023487877073030482 -0.010772501783251431 0 -0.00019325685072896408 -0.010771012463858491 0 -0.00023487877073030482 -0.010772501783251431 0 -0.00024428100070015066 -0.010825336333522943 0 -0.00018399914218984959 -0.010783259376971693 0 0.00022485904618530793 -0.016556600531559475 0 0.00031219762345866908 -0.016615572080476735 0 0.00031857777157600823 -0.016488947578830834 0 0.00022485904618530793 -0.016556600531559475 0 0.00012558910864193636 -0.016621674216727375 0 0.00024405654246529985 -0.016691244801811597 0 0.00022485904618530793 -0.016556600531559475 0 0.00024405654246529985 -0.016691244801811597 0 0.00031219762345866908 -0.016615572080476735 0 0.00021694673485638053 -0.013869319263764704 0 -6.5773135302226842e-05 -0.014436750273292963 0 -0.00029233486668053213 -0.01077736189032028 0 -0.00024428100070015066 -0.010825336333522943 0 -0.00032616212834945505 -0.010815820480387522 0 -0.00024428100070015066 -0.010825336333522943 0 -0.00032616212834945505 -0.010815820480387522 0 -0.000307889130205756 -0.010870213593082552 0 0.00021694673485638053 -0.013869319263764704 0 0.00061825235884235363 -0.013302597669405732 0 0.00061825235884235363 -0.013302597669405732 0 0.00036246398598235104 -0.011032081000325005 0 -0.00032616212834945505 -0.010815820480387522 0 -0.000307889130205756 -0.010870213593082552 0 -0.00037614095139963145 -0.010830406478652009 0 0.000647170140454021 -0.012003943290293967 0 0.00081119052455181197 -0.012089184954883973 0 0.00076321492241458613 -0.011904240355024675 0 -0.00037614095139963145 -0.010830406478652009 0 -0.00035938406642736163 -0.010772678367305532 0 -0.00044705728010350229 -0.010789037163008573 0 0.00048211622973196657 -0.011917103066361835 0 0.000647170140454021 -0.012003943290293967 0 0.0006305427517522569 -0.011814691796023614 0 0.00036246398598235104 -0.011032081000325005 0 0.00016733496370986578 -0.0086823383566516192 0 -0.00032616212834945505 -0.010815820480387522 0 -0.00037614095139963145 -0.010830406478652009 0 -0.00035938406642736163 -0.010772678367305532 0 -0.00035938406642736163 -0.010772678367305532 0 -0.00041438443399800687 -0.010740385843965777 0 -0.00044705728010350229 -0.010789037163008573 0 -0.0003547284337886387 -0.010712036115462212 0 -0.00042167628568379775 -0.010694578074467992 0 -0.00041438443399800687 -0.010740385843965777 0 -0.0003547284337886387 -0.010712036115462212 0 -0.00035938406642736163 -0.010772678367305532 0 -0.00041438443399800687 -0.010740385843965777 0 -0.00056635511408944909 -0.010738875750720718 0 -0.00046830909829915444 -0.010723706408122435 0 -0.00045460674312225934 -0.010797542036293463 0 0.00038237519754081548 -0.007084048985880889 0 0.00016733496370986578 -0.0086823383566516192 0 -0.00042167628568379775 -0.010694578074467992 0 -0.00041438443399800687 -0.010740385843965777 0 -0.00046830909829915444 -0.010723706408122435 0 -0.00041438443399800687 -0.010740385843965777 0 -0.00046830909829915444 -0.010723706408122435 0 -0.00045460674312225934 -0.010797542036293463 0 -4.3441212019915377e-05 -0.0090614432123838524 0 0.00016733496370986578 -0.0086823383566516192 0 0.0013086825075937047 -0.0089020958846469187 0 0.00016733496370986578 -0.0086823383566516192 0 0.00094714543711220465 -0.01189799950594608 0 0.00081119052455181197 -0.012089184954883973 0 0.00076321492241458613 -0.011904240355024675 0 0.0010273304053532468 -0.0023899380045976164 0 0.00068672172229174904 -0.0015092197103403868 0 -0.00011321609490938726 -0.002666066585269888 0 0.00094714543711220465 -0.01189799950594608 0 0.00076321492241458613 -0.011904240355024675 0 0.00077959883666140894 -0.011713282613185506 0 0.00013800552117955382 -0.016690715222774308 0 9.9625360920883873e-05 -0.016712192592371694 0 0.00017192619727280495 -0.01672449937071269 0 0.00076321492241458613 -0.011904240355024675 0 0.0006305427517522569 -0.011814691796023614 0 0.00077959883666140894 -0.011713282613185506 0 0.000647170140454021 -0.012003943290293967 0 0.00076321492241458613 -0.011904240355024675 0 0.0006305427517522569 -0.011814691796023614 0 0.00059743137001040377 -0.013963077993939818 0 0.00081260112275054934 -0.014433456041768839 0 0.0010058417754823536 -0.021559455233660169 0 0.00074506670694617495 -0.021124733038776433 0 0.00046190342601422634 -0.021456012982035946 0 0.00081260112275054934 -0.014433456041768839 0 0.00042737294559959686 -0.01487883572567284 0 9.2569049127221904e-05 -0.01672732646861216 0 0.00017192619727280495 -0.01672449937071269 0 0.00015402577358345954 -0.016767150970668783 0 6.7334634514345081e-05 -0.016743716921374517 0 9.2569049127221904e-05 -0.01672732646861216 0 0.00015402577358345954 -0.016767150970668783 0 0.00081570145389518354 -0.01557839669782061 0 0.00049683592002981367 -0.017762515169232929 0 0.0014498144197685155 -0.011615281884131013 0 0.00081260112275054934 -0.014433456041768839 0 0.0016496888558816365 -0.013192855350100952 0 0.00072184542724300946 -0.012948962068849079 0 0.00031932908284917243 -0.013224771241762691 0 0.00081570145389518354 -0.01557839669782061 0 0.00081260112275054934 -0.014433456041768839 0 0.0010058417754823536 -0.021559455233660169 0 0.0010720925707543346 -0.021206154189255522 0 0.00074506670694617495 -0.021124733038776433 0 0.0010720925707543346 -0.021206154189255522 0 0.00074506670694617495 -0.021124733038776433 0 0.0010494808651159606 -0.020891039895955053 0 0.00074506670694617495 -0.021124733038776433 0 0.00029711011731652689 -0.021004751171127913 0 0.00046190342601422634 -0.021456012982035946 0 -9.5357808565170929e-05 -0.020319983392157244 0 0.00027458972645992785 -0.020409865531634725 0 0.00074506670694617495 -0.021124733038776433 0 0.00029711011731652689 -0.021004751171127913 0 0.0006604280532088231 -0.020646198813274053 0 0.00074506670694617495 -0.021124733038776433 0 0.0010494808651159606 -0.020891039895955053 0 0.0006604280532088231 -0.020646198813274053 0 -4.6449967315940261e-05 -0.021203176459012998 0 -0.00068035544462677355 -0.021072927857864736 0 -0.0002869736626164509 -0.020594043319631449 0 0.00029711011731652689 -0.021004751171127913 0 -6.7587158360943203e-05 -0.021358526300371987 0 0.00046190342601422634 -0.021456012982035946 0 -9.5357808565170929e-05 -0.020319983392157244 0 0.00014255186662416575 -0.019048958940443415 0 -4.6449967315940261e-05 -0.021203176459012998 0 -0.00046615261597591319 -0.021599023647003352 0 -0.00068035544462677355 -0.021072927857864736 0 0.00026520686875953912 -0.016809151763224246 0 0.00017192619727280495 -0.01672449937071269 0 0.00024405654246529985 -0.016691244801811597 0 0.00026520686875953912 -0.016809151763224246 0 0.00017192619727280495 -0.01672449937071269 0 0.00015402577358345954 -0.016767150970668783 0 0.00014255186662416575 -0.019048958940443415 0 0.00049683592002981367 -0.017762515169232929 0 0.00018224319936447643 -0.016655801547334672 0 0.00017192619727280495 -0.01672449937071269 0 0.00024405654246529985 -0.016691244801811597 0 0.00018224319936447643 -0.016655801547334672 0 0.00013800552117955382 -0.016690715222774308 0 0.00017192619727280495 -0.01672449937071269 0 0.00061825235884235363 -0.013302597669405732 0 0.00059743137001040377 -0.013963077993939818 0 0.00061825235884235363 -0.013302597669405732 0 0.00087090459303501881 -0.013885326327383025 0 0.00024405654246529985 -0.016691244801811597 0 0.00037723627882091295 -0.016740429150727265 0 0.00031219762345866908 -0.016615572080476735 0 0.00037723627882091295 -0.016740429150727265 0 0.00042166567578156677 -0.016613470018109297 0 0.00031219762345866908 -0.016615572080476735 0 0.000763220484275156 -0.018319462903737115 0 0.00083148525654526786 -0.017348131192043932 0 -2.2978126595465226e-05 -0.017320038138812614 0 0.00011564475942376743 -0.018251820196653064 0 0.00019523408023037719 -0.016634002531643481 0 0.00037723627882091295 -0.016740429150727265 0 0.00058581268998328362 -0.016790288907952023 0 0.00042166567578156677 -0.016613470018109297 0 0.00037723627882091295 -0.016740429150727265 0 0.0004354612507801564 -0.017021000782836825 0 0.00058581268998328362 -0.016790288907952023 0 0.0004354612507801564 -0.017021000782836825 0 0.00058581268998328362 -0.016790288907952023 0 0.00061612905735720577 -0.016961900543835926 0 0.00026520686875953912 -0.016809151763224246 0 0.00024405654246529985 -0.016691244801811597 0 0.00037723627882091295 -0.016740429150727265 0 0.00014255186662416575 -0.019048958940443415 0 0.00067940576909351891 -0.018031591128485909 0 0.00013882559666264236 -0.016975573705810262 0 0.00037723627882091295 -0.016740429150727265 0 0.0004354612507801564 -0.017021000782836825 0 -0.00046615261597591319 -0.021599023647003352 0 -0.0010158019958352417 -0.02149995205869655 0 -0.00068035544462677355 -0.021072927857864736 0 0.00014255186662416575 -0.019048958940443415 0 -0.00024001855136391534 -0.019796787601178503 0 -0.0010158019958352417 -0.02149995205869655 0 -0.00068035544462677355 -0.021072927857864736 0 -0.0012686927594063155 -0.020985131599595568 0 -0.0024200319856323058 -0.022528424342010064 0 -0.0028497721238757339 -0.022296691731367582 0 -0.0026728431081865767 -0.022699897906644832 0 -0.0024200319856323058 -0.022528424342010064 0 -0.0028497721238757339 -0.022296691731367582 0 -0.002439985916408296 -0.022098208784817667 0 -0.00099554113666325359 -0.021400690890294744 0 -0.00027567466439577473 -0.020882874397632242 0 -0.0024200319856323058 -0.022528424342010064 0 -0.001793641344950828 -0.022278663491333797 0 -0.002439985916408296 -0.022098208784817667 0 -0.0024200319856323058 -0.022528424342010064 0 -0.001793641344950828 -0.022278663491333797 0 -0.002262660685196378 -0.022907743601340892 0 -0.00024001855136391534 -0.019796787601178503 0 -0.00027567466439577473 -0.020882874397632242 0 0.0004354612507801564 -0.017021000782836825 0 0.00071678401977037581 -0.017076313785379486 0 0.00061612905735720577 -0.016961900543835926 0 -0.0010158019958352417 -0.02149995205869655 0 -0.0012686927594063155 -0.020985131599595568 0 -0.0015563511264878626 -0.021405299354364915 0 0.00071678401977037581 -0.017076313785379486 0 0.00075967180382483391 -0.017016868591985902 0 0.00061612905735720577 -0.016961900543835926 0 -0.00027567466439577473 -0.020882874397632242 0 5.8017654228131239e-06 -0.02048180606885824 0 -3.501789291758903e-05 -0.02074007621659724 0 -0.00014136515905846127 -0.020606405655418332 0 -0.00020286444753666634 -0.020981778605379482 0 -0.00010496189538183435 -0.0213194570704387 0 -2.2627834433780629e-05 -0.021178629003686975 0 -0.00033866473488044076 -0.024728813367065214 0 -0.00034255598281407787 -0.024700056447561139 0 -0.00032599904791605539 -0.024716244971306593 0 0.00053769146857515239 -0.021068359599978506 0 4.4861807443039862e-07 -0.021846127531158877 0 -0.00079967816241736651 -0.020842048709083974 0 5.8017654228131239e-06 -0.02048180606885824 0 -0.00010496189538183435 -0.0213194570704387 0 -0.0024200319856323058 -0.022528424342010064 0 -0.002262660685196378 -0.022907743601340892 0 -0.0025576962283583929 -0.022849658035280784 0 -0.0024200319856323058 -0.022528424342010064 0 -0.0025576962283583929 -0.022849658035280784 0 -0.0026728431081865767 -0.022699897906644832 0 -0.00027567466439577473 -0.020882874397632242 0 -0.00010496189538183435 -0.0213194570704387 0 -0.00010496189538183435 -0.0213194570704387 0 -0.000143653217300393 -0.021323888055337553 0 -0.00033866473488044076 -0.024728813367065214 0 -0.00032599904791605539 -0.024716244971306593 0 -0.00031819798486002723 -0.024722565529339817 0 -0.00034255598281407787 -0.024700056447561139 0 -0.00032676392854838498 -0.024708099149551521 0 -0.00032599904791605539 -0.024716244971306593 0 5.8017654228131239e-06 -0.02048180606885824 0 -2.2627834433780629e-05 -0.021178629003686975 0 -0.00034781616757304835 -0.024687678707149927 0 -0.00034255598281407787 -0.024700056447561139 0 -0.00032676392854838498 -0.024708099149551521 0 -0.00013630213528980376 -0.021408681927318686 0 -2.2627834433780629e-05 -0.021178629003686975 0 5.8017654228131239e-06 -0.02048180606885824 0 0.00011564475942376743 -0.018251820196653064 0 0.00075967180382483391 -0.017016868591985902 0 0.00058581268998328362 -0.016790288907952023 0 0.00061612905735720577 -0.016961900543835926 0 0.0019984117290251756 -0.018674310121188132 0 0.000763220484275156 -0.018319462903737115 0 0.0015413477888886569 -0.017928684534432731 0 0.0015526124333025168 -0.019319878394065473 0 0.0019984117290251756 -0.018674310121188132 0 0.000763220484275156 -0.018319462903737115 0 0.000763220484275156 -0.018319462903737115 0 0.0015413477888886569 -0.017928684534432731 0 0.00083148525654526786 -0.017348131192043932 0 -2.2627834433780629e-05 -0.021178629003686975 0 0.00030602096765787397 -0.020760069171331774 0 0.0019984117290251756 -0.018674310121188132 0 0.0015413477888886569 -0.017928684534432731 0 0.0021663595316948185 -0.017323583592815169 0 -0.00034781616757304835 -0.024687678707149927 0 -0.00036521491259289453 -0.024727813380109712 0 -0.00039124346478406578 -0.024558415179346017 0 0.0015413477888886569 -0.017928684534432731 0 0.0021663595316948185 -0.017323583592815169 0 0.0013988677899399889 -0.016737516488872475 0 0.0021663595316948185 -0.017323583592815169 0 0.0013988677899399889 -0.016737516488872475 0 0.0023292248960073334 -0.015975635018806014 0 0.00030602096765787397 -0.020760069171331774 0 0.0003477512257991979 -0.020030235245264243 0 0.0015646619745919401 -0.015934707653971127 0 0.0013988677899399889 -0.016737516488872475 0 0.0023292248960073334 -0.015975635018806014 0 0.0015646619745919401 -0.015934707653971127 0 0.0018025523527390541 -0.015375815345124536 0 0.0023292248960073334 -0.015975635018806014 0 0.0010221340951778199 -0.016000854629241352 0 0.0013988677899399889 -0.016737516488872475 0 0.00047762330624886946 -0.016436503119087335 0 0.0010221340951778199 -0.016000854629241352 0 0.00047762330624886946 -0.016436503119087335 0 0.00060556637087460987 -0.015760109042380576 0 0.0010221340951778199 -0.016000854629241352 0 0.0012518812769371623 -0.015568742125367805 0 0.00089496337589116761 -0.01559346507291035 0 0.0010221340951778199 -0.016000854629241352 0 0.00060556637087460987 -0.015760109042380576 0 0.00089496337589116761 -0.01559346507291035 0 0.0015646619745919401 -0.015934707653971127 0 0.0010221340951778199 -0.016000854629241352 0 0.0012518812769371623 -0.015568742125367805 0 0.0015646619745919401 -0.015934707653971127 0 0.0010221340951778199 -0.016000854629241352 0 0.0013988677899399889 -0.016737516488872475 0 0.00083148525654526786 -0.017348131192043932 0 0.0013988677899399889 -0.016737516488872475 0 0.00047762330624886946 -0.016436503119087335 0 0.0015413477888886569 -0.017928684534432731 0 0.00083148525654526786 -0.017348131192043932 0 0.0013988677899399889 -0.016737516488872475 0 -2.2978126595465226e-05 -0.017320038138812614 0 -0.00081157995988095769 -0.01632274627584334 0 0.00047762330624886946 -0.016436503119087335 0 0.00083148525654526786 -0.017348131192043932 0 -2.2978126595465226e-05 -0.017320038138812614 0 0.00047762330624886946 -0.016436503119087335 0 0.00019523408023037719 -0.016634002531643481 0 -6.5773135302226842e-05 -0.014436750273292963 0 0.00042166567578156677 -0.016613470018109297 0 0.00031219762345866908 -0.016615572080476735 0 0.00031857777157600823 -0.016488947578830834 0 -0.00019325685072896408 -0.010771012463858491 0 -0.00018493952643161503 -0.010782774350677671 0 -0.00017024704070086821 -0.010713169482652992 0 -0.00018493952643161503 -0.010782774350677671 0 -9.1153452311267203e-05 -0.010720076376907521 0 -0.00017024704070086821 -0.010713169482652992 0 -0.00023487877073030482 -0.010772501783251431 0 -0.00019325685072896408 -0.010771012463858491 0 -0.00018399914218984959 -0.010783259376971693 0 -8.9884026240165499e-05 -0.014391275805913309 0 -6.5773135302226842e-05 -0.014436750273292963 0 -0.00020714936367516681 -0.010734400494998794 0 -0.00019325685072896408 -0.010771012463858491 0 -0.00017024704070086821 -0.010713169482652992 0 -6.5773135302226842e-05 -0.014436750273292963 0 0.00040132785346602294 -0.013248953730880598 0 -0.00081157995988095769 -0.01632274627584334 0 0.00047762330624886946 -0.016436503119087335 0 0.00039278017073753947 -0.0155001098551338 0 0.00047762330624886946 -0.016436503119087335 0 0.00060556637087460987 -0.015760109042380576 0 0.00039278017073753947 -0.0155001098551338 0 -9.1153452311267203e-05 -0.010720076376907521 0 -0.00017024704070086821 -0.010713169482652992 0 -0.00015716792899817108 -0.010639542694113859 0 0.00060556637087460987 -0.015760109042380576 0 0.0006232272320285322 -0.015343319003559779 0 0.00039492367246741453 -0.015496376340139825 0 0.00041094499877919666 -0.015485816973157377 0 0.00040080338090672237 -0.01488757406178178 0 -0.00034529951403880889 -0.01451007791013505 0 0.00040132785346602294 -0.013248953730880598 0 -0.00017513448189109527 -0.012645432104879627 0 0.00045668044623764389 -0.013350102261174014 0 0.00040132785346602294 -0.013248953730880598 0 0.00037754753366904808 -0.013286758047300312 0 0.00040132785346602294 -0.013248953730880598 0 0.0006232272320285322 -0.015343319003559779 0 0.00040080338090672237 -0.01488757406178178 0 0.00084124793772204015 -0.014966668395899026 0 0.0006232272320285322 -0.015343319003559779 0 0.00041094499877919666 -0.015485816973157377 0 0.00040080338090672237 -0.01488757406178178 0 -0.00017024704070086821 -0.010713169482652992 0 -0.00020084257216281426 -0.010668964274597318 0 -0.00015716792899817108 -0.010639542694113859 0 -0.00021437829311762708 -0.010700648469915584 0 -0.00020714936367516681 -0.010734400494998794 0 -0.00017024704070086821 -0.010713169482652992 0 -0.00021437829311762708 -0.010700648469915584 0 -0.00017024704070086821 -0.010713169482652992 0 -0.00020084257216281426 -0.010668964274597318 0 -0.00022044861858683387 -0.010571738149723828 0 -0.00022602064866609326 -0.010633952156924925 0 -0.00015716792899817108 -0.010639542694113859 0 -0.00022602064866609326 -0.010633952156924925 0 -0.00020084257216281426 -0.010668964274597318 0 -0.00015716792899817108 -0.010639542694113859 0 0.00027125076121765722 -0.013972712641777317 0 -0.00077974750654924983 -0.013624058557955617 0 -0.00034529951403880889 -0.01451007791013505 0 -0.00060955633755671124 -0.012205069611048409 0 -0.00017513448189109527 -0.012645432104879627 0 0.00040080338090672237 -0.01488757406178178 0 0.00019188120564029933 -0.01446995212595768 0 0.00069132882703214237 -0.014549839796163189 0 0.00040080338090672237 -0.01488757406178178 0 0.00069132882703214237 -0.014549839796163189 0 0.00084124793772204015 -0.014966668395899026 0 0.00040080338090672237 -0.01488757406178178 0 -0.00034529951403880889 -0.01451007791013505 0 0.00019188120564029933 -0.01446995212595768 0 0.00027125076121765722 -0.013972712641777317 0 -0.00034529951403880889 -0.01451007791013505 0 0.00019188120564029933 -0.01446995212595768 0 0.00027125076121765722 -0.013972712641777317 0 0.00019188120564029933 -0.01446995212595768 0 0.00069132882703214237 -0.014549839796163189 0 0.00027125076121765722 -0.013972712641777317 0 0.00069132882703214237 -0.014549839796163189 0 0.0013675481549941088 -0.014307534875960695 0 -0.00030379397802494836 -0.015656482372455885 0 4.838608917905312e-05 -0.01685015740948477 0 0.00069132882703214237 -0.014549839796163189 0 0.0011361043366744175 -0.01470752619658991 0 0.00084124793772204015 -0.014966668395899026 0 0.00069132882703214237 -0.014549839796163189 0 0.0011361043366744175 -0.01470752619658991 0 0.0013675481549941088 -0.014307534875960695 0 0.0014242088674927397 -0.014696280214732819 0 0.0011361043366744175 -0.01470752619658991 0 0.0013089010781874083 -0.015045167656041081 0 0.0014242088674927397 -0.014696280214732819 0 0.0011361043366744175 -0.01470752619658991 0 0.0013675481549941088 -0.014307534875960695 0 4.838608917905312e-05 -0.01685015740948477 0 6.3333001796416204e-05 -0.019157987138824027 0 0.00045879773168505043 -0.013886215936585651 0 0.00053739559427700269 -0.013860748756865401 0 0.00058677912497428109 -0.013900280862155058 0 0.0013675481549941088 -0.014307534875960695 0 0.0018059591958295264 -0.014765456222085917 0 0.0024861810496487544 -0.014645916278386351 0 0.00053168952732439922 -0.013887904858892533 0 0.00053739559427700269 -0.013860748756865401 0 0.00058677912497428109 -0.013900280862155058 0 0.00047074580097508515 -0.013650862824477908 0 0.00045879773168505043 -0.013886215936585651 0 0.00053739559427700269 -0.013860748756865401 0 0.0014242088674927397 -0.014696280214732819 0 0.0018059591958295264 -0.014765456222085917 0 0.0013089010781874083 -0.015045167656041081 0 0.0014242088674927397 -0.014696280214732819 0 0.0013675481549941088 -0.014307534875960695 0 0.0018059591958295264 -0.014765456222085917 0 0.0018059591958295264 -0.014765456222085917 0 0.0018025523527390541 -0.015375815345124536 0 0.0013089010781874083 -0.015045167656041081 0 0.0018025523527390541 -0.015375815345124536 0 0.0024861810496487544 -0.014645916278386351 0 0.0023292248960073334 -0.015975635018806014 0 0.0018059591958295264 -0.014765456222085917 0 0.0018025523527390541 -0.015375815345124536 0 0.0024861810496487544 -0.014645916278386351 0 0.0015646619745919401 -0.015934707653971127 0 0.0018025523527390541 -0.015375815345124536 0 0.0012518812769371623 -0.015568742125367805 0 0.0018025523527390541 -0.015375815345124536 0 0.0012518812769371623 -0.015568742125367805 0 0.0013089010781874083 -0.015045167656041081 0 0.0012518812769371623 -0.015568742125367805 0 0.00096958512198707443 -0.0152958518999261 0 0.0013089010781874083 -0.015045167656041081 0 0.0012518812769371623 -0.015568742125367805 0 0.00089496337589116761 -0.01559346507291035 0 0.00096958512198707443 -0.0152958518999261 0 0.00060556637087460987 -0.015760109042380576 0 0.0006232272320285322 -0.015343319003559779 0 0.00089496337589116761 -0.01559346507291035 0 0.0006232272320285322 -0.015343319003559779 0 0.00089496337589116761 -0.01559346507291035 0 0.00096958512198707443 -0.0152958518999261 0 0.00096958512198707443 -0.0152958518999261 0 0.00084124793772204015 -0.014966668395899026 0 0.0013089010781874083 -0.015045167656041081 0 0.0006232272320285322 -0.015343319003559779 0 0.00096958512198707443 -0.0152958518999261 0 0.00084124793772204015 -0.014966668395899026 0 0.0011361043366744175 -0.01470752619658991 0 0.00084124793772204015 -0.014966668395899026 0 0.0013089010781874083 -0.015045167656041081 0 0.00039801749066268661 -0.022348074472256084 0 0.00040240203757103352 -0.023878370430779783 0 -0.00015955871793107084 -0.024122180720641498 0 -0.00035993847958605367 -0.024054130879413931 0 -0.00038680643702032185 -0.0243138151857668 0 6.3333001796416204e-05 -0.019157987138824027 0 0.0003477512257991979 -0.020030235245264243 0 -0.00037116266886229446 -0.019920085203376878 0 -5.1173517998001066e-05 -0.020016653571391048 0 -0.00044130287102926534 -0.020497991976814442 0 -5.1173517998001066e-05 -0.020016653571391048 0 0.00019778921384355804 -0.020691471043819933 0 -0.00044130287102926534 -0.020497991976814442 0 0.00039801749066268661 -0.022348074472256084 0 6.3333001796416204e-05 -0.019157987138824027 0 8.6700749644496631e-05 -0.018224486789554396 0 6.3333001796416204e-05 -0.019157987138824027 0 -0.00031413048810457198 -0.024606835805654044 0 -0.00025175344577988584 -0.024613673590297227 0 -0.00026959233917862695 -0.024541214878012026 0 0.00028870271525434458 -0.021405379393821613 0 0.00039801749066268661 -0.022348074472256084 0 -0.00024402104375343 -0.024843836119777314 0 -0.00014306434638877816 -0.024883002424534888 0 -0.00020606025428492644 -0.024947110941882719 0 -0.00031413048810457198 -0.024606835805654044 0 -0.00026959233917862695 -0.024541214878012026 0 -0.00033115631049003823 -0.024521355502471032 0 7.2585835965979943e-07 -0.024516195538800009 0 0.00013987520604201914 -0.023966929877116464 0 -0.00014306434638877816 -0.024883002424534888 0 -0.00020606025428492644 -0.024947110941882719 0 -7.1911250583495248e-05 -0.024961463780208283 0 0.00013987520604201914 -0.023966929877116464 0 0.00010667337096759274 -0.024246027824633452 0 -5.0559353456032565e-05 -0.024747504809456304 0 7.9019920954256388e-06 -0.024770499976591146 0 -2.6106653486282432e-05 -0.024817469838405829 0 0.00039801749066268661 -0.022348074472256084 0 0.00013987520604201914 -0.023966929877116464 0 7.9019920954256388e-06 -0.024770499976591146 0 1.1920088471278813e-05 -0.024837529990954586 0 -2.6106653486282432e-05 -0.024817469838405829 0 0.00013987520604201914 -0.023966929877116464 0 0.00014938269767000777 -0.02458249962240237 0 1.1920088471278813e-05 -0.024837529990954586 0 3.9379938612318383e-07 -0.024861313558197436 0 -2.6106653486282432e-05 -0.024817469838405829 0 8.9927227314522994e-06 -0.024986651316764977 0 -1.9195591501984955e-06 -0.024932097033587619 0 -7.1911250583495248e-05 -0.024961463780208283 0 -1.9195591501984955e-06 -0.024932097033587619 0 -4.4653950039190845e-05 -0.024916955480716752 0 -7.1911250583495248e-05 -0.024961463780208283 0 -1.9195591501984955e-06 -0.024932097033587619 0 -1.5286779473561457e-05 -0.024857773263717898 0 -4.4653950039190845e-05 -0.024916955480716752 0 0.00014938269767000777 -0.02458249962240237 0 0.00013893804306008281 -0.024703270211714291 0 -1.5286779473561457e-05 -0.024857773263717898 0 -4.6652372151579322e-05 -0.024873479807229135 0 -4.4653950039190845e-05 -0.024916955480716752 0 -3.4705672392423052e-05 -0.024547874386386222 0 -0.00014843203811304318 -0.024490862132387579 0 -9.0245655836173591e-05 -0.024336470519969119 0 1.1920088471278813e-05 -0.024837529990954586 0 3.9379938612318383e-07 -0.024861313558197436 0 -1.5286779473561457e-05 -0.024857773263717898 0 0.00032022374134166906 -0.024381099963653074 0 0.00040240203757103352 -0.023878370430779783 0 -3.4705672392423052e-05 -0.024547874386386222 0 -0.00014843203811304318 -0.024490862132387579 0 -0.00014453265613100253 -0.024625191366815256 0 -0.00023386188208411073 -0.024543928885408524 0 -0.00014843203811304318 -0.024490862132387579 0 -0.00014453265613100253 -0.024625191366815256 0 -0.00023386188208411073 -0.024543928885408524 0 -0.00014843203811304318 -0.024490862132387579 0 -0.00023526094109175308 -0.024394337797215251 0 -0.00015955871793107084 -0.024122180720641498 0 -0.00023526094109175308 -0.024394337797215251 0 -9.0245655836173591e-05 -0.024336470519969119 0 -0.00014843203811304318 -0.024490862132387579 0 -0.00023526094109175308 -0.024394337797215251 0 -9.0245655836173591e-05 -0.024336470519969119 0 -0.00015955871793107084 -0.024122180720641498 0 -0.00023526094109175308 -0.024394337797215251 0 -0.00038680643702032185 -0.0243138151857668 0 -0.00039124346478406578 -0.024558415179346017 0 -0.00023526094109175308 -0.024394337797215251 0 -0.00038680643702032185 -0.0243138151857668 0 -0.00039124346478406578 -0.024558415179346017 0 -0.00023386188208411073 -0.024543928885408524 0 -0.00023526094109175308 -0.024394337797215251 0 -0.00034781616757304835 -0.024687678707149927 0 -0.00039124346478406578 -0.024558415179346017 0 -0.00030994601186441566 -0.024628237449987718 0 -0.00039124346478406578 -0.024558415179346017 0 -0.00023386188208411073 -0.024543928885408524 0 -0.00030994601186441566 -0.024628237449987718 0 -0.00023386188208411073 -0.024543928885408524 0 -0.00030994601186441566 -0.024628237449987718 0 -0.00022800366223799429 -0.02463143262595063 0 -0.00030994601186441566 -0.024628237449987718 0 -0.00027941618920585085 -0.024692085977116821 0 -0.00022800366223799429 -0.02463143262595063 0 -0.00034781616757304835 -0.024687678707149927 0 -0.00030994601186441566 -0.024628237449987718 0 -0.00027941618920585085 -0.024692085977116821 0 -0.00023386188208411073 -0.024543928885408524 0 -0.00014453265613100253 -0.024625191366815256 0 -0.00022800366223799429 -0.02463143262595063 0 -0.00014453265613100253 -0.024625191366815256 0 -0.00022800366223799429 -0.02463143262595063 0 -0.00015593840800593527 -0.024728569657598985 0 -0.00027941618920585085 -0.024692085977116821 0 -0.00022800366223799429 -0.02463143262595063 0 -0.00015593840800593527 -0.024728569657598985 0 -0.00014453265613100253 -0.024625191366815256 0 -0.00015593840800593527 -0.024728569657598985 0 -8.892421832041908e-05 -0.024731290549949596 0 -0.00015593840800593527 -0.024728569657598985 0 -0.00011581920956940938 -0.024781495326027119 0 -0.00016021025464488833 -0.024805616392876862 0 -0.00015593840800593527 -0.024728569657598985 0 -0.00011581920956940938 -0.024781495326027119 0 -8.892421832041908e-05 -0.024731290549949596 0 -0.00015593840800593527 -0.024728569657598985 0 -0.00019928009915845638 -0.024764065630209837 0 -0.00016021025464488833 -0.024805616392876862 0 -0.00027941618920585085 -0.024692085977116821 0 -0.00015593840800593527 -0.024728569657598985 0 -0.00019928009915845638 -0.024764065630209837 0 -0.00019928009915845638 -0.024764065630209837 0 -0.00021120751882287221 -0.024823739828499069 0 -0.00016021025464488833 -0.024805616392876862 0 -0.00011581920956940938 -0.024781495326027119 0 -0.00016021025464488833 -0.024805616392876862 0 -0.00010716951681725454 -0.024831520716399103 0 -0.00027941618920585085 -0.024692085977116821 0 -0.00019928009915845638 -0.024764065630209837 0 -0.00021120751882287221 -0.024823739828499069 0 -0.00027941618920585085 -0.024692085977116821 0 -0.00029941561766348522 -0.024716245297622223 0 -0.00030605503490088102 -0.024708408816183903 0 -0.00090069130901468332 -0.024298467043088998 0 -0.0010279669405316269 -0.024049587556834243 0 -0.00034781616757304835 -0.024687678707149927 0 -0.00027941618920585085 -0.024692085977116821 0 -0.00030605503490088102 -0.024708408816183903 0 -0.00034781616757304835 -0.024687678707149927 0 -0.00030605503490088102 -0.024708408816183903 0 -0.00032676392854838498 -0.024708099149551521 0 -0.00029941561766348522 -0.024716245297622223 0 -0.00031000494859301486 -0.024716707847185639 0 -0.00030605503490088102 -0.024708408816183903 0 -0.00031000494859301486 -0.024716707847185639 0 -0.00030605503490088102 -0.024708408816183903 0 -0.00032676392854838498 -0.024708099149551521 0 -0.00031000494859301486 -0.024716707847185639 0 -0.00032676392854838498 -0.024708099149551521 0 -0.00032599904791605539 -0.024716244971306593 0 -0.00010496189538183435 -0.0213194570704387 0 -0.001510957719983701 -0.022994394007349882 0 -0.00033866473488044076 -0.024728813367065214 0 -0.00031819798486002723 -0.024722565529339817 0 -0.00031090040633932056 -0.024727623722467954 0 -0.00033866473488044076 -0.024728813367065214 0 -0.00031090040633932056 -0.024727623722467954 0 -0.00029548368077888447 -0.024734860090328568 0 -0.0025674421338528113 -0.022835499269348608 0 -0.0026728431081865767 -0.022699897906644832 0 -0.0034803240839311215 -0.022639450033452101 0 -0.00031000494859301486 -0.024716707847185639 0 -0.00032599904791605539 -0.024716244971306593 0 -0.00031819798486002723 -0.024722565529339817 0 -0.00031090040633932056 -0.024727623722467954 0 -0.00030566501249217867 -0.024722549342598814 0 -0.00029548368077888447 -0.024734860090328568 0 -0.00029941561766348522 -0.024716245297622223 0 -0.00031000494859301486 -0.024716707847185639 0 -0.00030566501249217867 -0.024722549342598814 0 -0.00031819798486002723 -0.024722565529339817 0 -0.00031090040633932056 -0.024727623722467954 0 -0.00030566501249217867 -0.024722549342598814 0 -0.00031000494859301486 -0.024716707847185639 0 -0.00031819798486002723 -0.024722565529339817 0 -0.00030566501249217867 -0.024722549342598814 0 -0.00029941561766348522 -0.024716245297622223 0 -0.00030566501249217867 -0.024722549342598814 0 -0.00029548368077888447 -0.024734860090328568 0 -0.00021120751882287221 -0.024823739828499069 0 -0.00018794603114106009 -0.024839656943506854 0 -0.00018491042411220815 -0.024867695675381132 0 -0.00021120751882287221 -0.024823739828499069 0 -0.00016021025464488833 -0.024805616392876862 0 -0.00018794603114106009 -0.024839656943506854 0 -0.0010279669405316269 -0.024049587556834243 0 -0.001510957719983701 -0.022994394007349882 0 -0.00016021025464488833 -0.024805616392876862 0 -0.00018794603114106009 -0.024839656943506854 0 -0.00013987867382139732 -0.024840598999348804 0 -0.00016021025464488833 -0.024805616392876862 0 -0.00013987867382139732 -0.024840598999348804 0 -0.00010716951681725454 -0.024831520716399103 0 -0.00013987867382139732 -0.024840598999348804 0 -0.00010451681813531481 -0.024879445072601338 0 -0.00010716951681725454 -0.024831520716399103 0 -0.00018794603114106009 -0.024839656943506854 0 -0.00013987867382139732 -0.024840598999348804 0 -0.00010451681813531481 -0.024879445072601338 0 -0.00018794603114106009 -0.024839656943506854 0 -0.00018491042411220815 -0.024867695675381132 0 -0.00015828411158992867 -0.024869524495913828 0 -0.00095332014400590921 -0.023911117367859325 0 -0.0014357074978899949 -0.023401245181611876 0 -0.0034803240839311215 -0.022639450033452101 0 -0.0032067455702246262 -0.022077186674093297 0 -0.003630449692913402 -0.021947863524900094 0 -0.0037607174322011601 -0.021169379824063739 0 -0.0037084125059904851 -0.021224553353910439 0 -0.0037480984695679878 -0.021256628019716312 0 -0.001510957719983701 -0.022994394007349882 0 -0.0025525971736366244 -0.021797324297627468 0 -0.001510957719983701 -0.022994394007349882 0 -0.0014357074978899949 -0.023401245181611876 0 -0.0037607174322011601 -0.021169379824063739 0 -0.0037084125059904851 -0.021224553353910439 0 -0.0037160447185141357 -0.021176355044016156 0 -0.0028497721238757339 -0.022296691731367582 0 -0.0034803240839311215 -0.022639450033452101 0 -0.0032067455702246262 -0.022077186674093297 0 -0.0028497721238757339 -0.022296691731367582 0 -0.0026728431081865767 -0.022699897906644832 0 -0.0034803240839311215 -0.022639450033452101 0 -0.00085875640619230691 -0.023808028278082552 0 -0.00063738884245823069 -0.024026468052594663 0 -4.9203913526882107e-05 -0.024856358349195071 0 -3.8930245410976901e-05 -0.024836435848207539 0 -4.0346632664706475e-05 -0.024837900779136769 0 -0.0012257522008338076 -0.023729670046037658 0 -0.0011016437504288411 -0.02375069576555746 0 -0.0012062757987495046 -0.023854384091995039 0 -0.00063738884245823069 -0.024026468052594663 0 -0.0015418290871774855 -0.023498128959392281 0 -0.00085875640619230691 -0.023808028278082552 0 -0.0014357074978899949 -0.023401245181611876 0 -0.0012257522008338076 -0.023729670046037658 0 -0.0013496570060303535 -0.023708712176840164 0 -0.0012062757987495046 -0.023854384091995039 0 -0.0014357074978899949 -0.023401245181611876 0 -0.0015418290871774855 -0.023498128959392281 0 -0.0037084125059904851 -0.021224553353910439 0 -0.0037160447185141357 -0.021176355044016156 0 -0.0036176227476744081 -0.021255308908234082 0 -4.9203913526882107e-05 -0.024856358349195071 0 -0.00010451681813531481 -0.024879445072601338 0 -5.937252361489893e-05 -0.024840631682636779 0 -0.00010451681813531481 -0.024879445072601338 0 -0.00010716951681725454 -0.024831520716399103 0 -5.937252361489893e-05 -0.024840631682636779 0 -0.00010716951681725454 -0.024831520716399103 0 -5.937252361489893e-05 -0.024840631682636779 0 -6.0852563354228683e-05 -0.024807445956839459 0 -5.937252361489893e-05 -0.024840631682636779 0 -3.8930245410976901e-05 -0.024836435848207539 0 -3.6191210512870109e-05 -0.024819819837898702 0 -4.9203913526882107e-05 -0.024856358349195071 0 -5.937252361489893e-05 -0.024840631682636779 0 -3.8930245410976901e-05 -0.024836435848207539 0 -3.8930245410976901e-05 -0.024836435848207539 0 -3.6191210512870109e-05 -0.024819819837898702 0 -3.9410137290326918e-05 -0.024829127291551793 0 -3.6191210512870109e-05 -0.024819819837898702 0 -3.3415735479522836e-05 -0.024826264068268426 0 -3.9410137290326918e-05 -0.024829127291551793 0 -3.6191210512870109e-05 -0.024819819837898702 0 -3.3415735479522836e-05 -0.024826264068268426 0 -1.5314907245547147e-05 -0.024790842872589029 0 -0.00011581920956940938 -0.024781495326027119 0 -0.00010716951681725454 -0.024831520716399103 0 -6.0852563354228683e-05 -0.024807445956839459 0 -5.937252361489893e-05 -0.024840631682636779 0 -3.6191210512870109e-05 -0.024819819837898702 0 -6.0852563354228683e-05 -0.024807445956839459 0 -3.6191210512870109e-05 -0.024819819837898702 0 -6.0852563354228683e-05 -0.024807445956839459 0 -1.5314907245547147e-05 -0.024790842872589029 0 -6.0852563354228683e-05 -0.024807445956839459 0 -1.5314907245547147e-05 -0.024790842872589029 0 -8.892421832041908e-05 -0.024731290549949596 0 -0.00011581920956940938 -0.024781495326027119 0 -6.0852563354228683e-05 -0.024807445956839459 0 -8.892421832041908e-05 -0.024731290549949596 0 -3.4705672392423052e-05 -0.024547874386386222 0 -1.5314907245547147e-05 -0.024790842872589029 0 -8.892421832041908e-05 -0.024731290549949596 0 3.9379938612318383e-07 -0.024861313558197436 0 -1.5314907245547147e-05 -0.024790842872589029 0 -1.5286779473561457e-05 -0.024857773263717898 0 0.00032022374134166906 -0.024381099963653074 0 0.00028780072334873627 -0.024511297400932431 0 -3.4705672392423052e-05 -0.024547874386386222 0 -0.00014453265613100253 -0.024625191366815256 0 -8.892421832041908e-05 -0.024731290549949596 0 -3.3415735479522836e-05 -0.024826264068268426 0 -1.5286779473561457e-05 -0.024857773263717898 0 -4.6652372151579322e-05 -0.024873479807229135 0 -3.3415735479522836e-05 -0.024826264068268426 0 -1.5314907245547147e-05 -0.024790842872589029 0 -1.5286779473561457e-05 -0.024857773263717898 0 -3.3415735479522836e-05 -0.024826264068268426 0 -4.6652372151579322e-05 -0.024873479807229135 0 -5.4775921332109336e-05 -0.024843483527485253 0 -3.1626538486698772e-05 -0.024915066602488885 0 -3.9308992541724296e-05 -0.024922361317681239 0 -4.6652372151579322e-05 -0.024873479807229135 0 -6.6066852765304579e-05 -0.024854082400974472 0 -5.4775921332109336e-05 -0.024843483527485253 0 -4.6652372151579322e-05 -0.024873479807229135 0 -4.848255185804208e-05 -0.024953775491052866 0 -5.6191464615352001e-05 -0.024944712102844366 0 -6.6066852765304579e-05 -0.024854082400974472 0 -5.4775921332109336e-05 -0.024843483527485253 0 -7.0714701059048827e-05 -0.024840703614922289 0 -5.4775921332109336e-05 -0.024843483527485253 0 -5.150934173547594e-05 -0.024829681178238663 0 -7.0714701059048827e-05 -0.024840703614922289 0 -5.4775921332109336e-05 -0.024843483527485253 0 -3.9410137290326918e-05 -0.024829127291551793 0 -5.150934173547594e-05 -0.024829681178238663 0 -3.3415735479522836e-05 -0.024826264068268426 0 -5.4775921332109336e-05 -0.024843483527485253 0 -3.9410137290326918e-05 -0.024829127291551793 0 -3.8930245410976901e-05 -0.024836435848207539 0 -3.9410137290326918e-05 -0.024829127291551793 0 -5.150934173547594e-05 -0.024829681178238663 0 -3.8930245410976901e-05 -0.024836435848207539 0 -5.150934173547594e-05 -0.024829681178238663 0 -4.0346632664706475e-05 -0.024837900779136769 0 -0.00037208983534933596 -0.024502883864374842 0 -0.00063738884245823069 -0.024026468052594663 0 -0.00037208983534933596 -0.024502883864374842 0 -0.00018664861789086416 -0.024758026228817998 0 1.2422620553067429e-06 -0.024995435077395125 0 7.1471256131929748e-07 -0.024992760809388198 0 1.478856218407898e-06 -0.024991403302691007 0 1.2422620553067429e-06 -0.024995435077395125 0 7.1471256131929748e-07 -0.024992760809388198 0 2.8421829377794401e-07 -0.024997424698989107 0 -0.00027314366845358735 -0.024230656259371788 0 -0.00063738884245823069 -0.024026468052594663 0 7.1471256131929748e-07 -0.024992760809388198 0 -5.9290194822295227e-06 -0.024984993600571818 0 -3.5409481959263011e-06 -0.024989963033957611 0 -9.9611079079590544e-09 -0.025000009288679705 0 2.8421829377794401e-07 -0.024997424698989107 0 1.7041166085780521e-06 -0.02499667032046652 0 -9.9611079079590544e-09 -0.025000009288679705 0 2.8421829377794401e-07 -0.024997424698989107 0 2.6055063335583155e-09 -0.024999993300980215 0 7.1471256131929748e-07 -0.024992760809388198 0 2.8421829377794401e-07 -0.024997424698989107 0 1.7041166085780521e-06 -0.02499667032046652 0 1.2422620553067429e-06 -0.024995435077395125 0 2.8421829377794401e-07 -0.024997424698989107 0 5.3659786969076275e-07 -0.024998612595845283 0 2.8421829377794401e-07 -0.024997424698989107 0 2.6055063335583155e-09 -0.024999993300980215 0 1.852510678455038e-08 -0.024999399670284642 0 2.6055063335583155e-09 -0.024999993300980215 0 1.852510678455038e-08 -0.024999399670284642 0 -1.6073869769437061e-09 -0.025000002179770373 0 2.8421829377794401e-07 -0.024997424698989107 0 1.852510678455038e-08 -0.024999399670284642 0 5.3659786969076275e-07 -0.024998612595845283 0 1.852510678455038e-08 -0.024999399670284642 0 5.3659786969076275e-07 -0.024998612595845283 0 5.0297455145805598e-08 -0.024999859264561875 0 -0.00018664861789086416 -0.024758026228817998 0 -5.1986726252576551e-05 -0.0249392927771976 0 -3.9308992541724296e-05 -0.024922361317681239 0 -5.1986726252576551e-05 -0.0249392927771976 0 -4.848255185804208e-05 -0.024953775491052866 0 -1.7589141738390898e-05 -0.02499275297698049 0 -1.9703670740841352e-05 -0.024983648162419332 0 -6.6066852765304579e-05 -0.024854082400974472 0 -7.0714701059048827e-05 -0.024840703614922289 0 -8.2688655082244138e-05 -0.024852622950987776 0 -1.0308445091863815e-07 -0.024999736898405792 0 -5.1986726252576551e-05 -0.0249392927771976 0 1.852510678455038e-08 -0.024999399670284642 0 -1.6073869769437061e-09 -0.025000002179770373 0 5.0297455145805598e-08 -0.024999859264561875 0 -1.7589141738390898e-05 -0.02499275297698049 0 -1.5107444951641242e-08 -0.024999960718539632 0 -1.9703670740841352e-05 -0.024983648162419332 0 -1.0900454551259617e-10 -0.024999999844758338 0 -1.0003596172280839e-07 -0.024999900311278831 0 2.8806605509310888e-11 -0.024999999967745479 0 -5.1986726252576551e-05 -0.0249392927771976 0 -1.6634581528791536e-07 -0.024999816884288508 0 -1.9703670740841352e-05 -0.024983648162419332 0 -2.4363540120792372e-08 -0.025000003594979055 0 -2.9862908929185623e-05 -0.024971785353390022 0 -1.5107444951641242e-08 -0.024999960718539632 0 -1.9703670740841352e-05 -0.024983648162419332 0 -2.4363540120792372e-08 -0.025000003594979055 0 -2.4363540120792372e-08 -0.025000003594979055 0 -1.613645253150676e-05 -0.024972983810779423 0 -2.9862908929185623e-05 -0.024971785353390022 0 -2.4363540120792372e-08 -0.025000003594979055 0 -1.613645253150676e-05 -0.024972983810779423 0 6.584495728823047e-08 -0.024999861181328891 0 -1.613645253150676e-05 -0.024972983810779423 0 -2.9862908929185623e-05 -0.024971785353390022 0 -4.2339510426045352e-05 -0.024961032355233063 0 -1.613645253150676e-05 -0.024972983810779423 0 -4.2339510426045352e-05 -0.024961032355233063 0 -3.7602779008446383e-05 -0.024944265604162616 0 -4.848255185804208e-05 -0.024953775491052866 0 -1.9703670740841352e-05 -0.024983648162419332 0 -2.9862908929185623e-05 -0.024971785353390022 0 -4.848255185804208e-05 -0.024953775491052866 0 -2.9862908929185623e-05 -0.024971785353390022 0 -5.6191464615352001e-05 -0.024944712102844366 0 -4.6652372151579322e-05 -0.024873479807229135 0 -5.6191464615352001e-05 -0.024944712102844366 0 -4.4653950039190845e-05 -0.024916955480716752 0 -5.6191464615352001e-05 -0.024944712102844366 0 -4.4653950039190845e-05 -0.024916955480716752 0 -7.1911250583495248e-05 -0.024961463780208283 0 -5.6191464615352001e-05 -0.024944712102844366 0 -7.1911250583495248e-05 -0.024961463780208283 0 -4.2339510426045352e-05 -0.024961032355233063 0 -2.9862908929185623e-05 -0.024971785353390022 0 -5.6191464615352001e-05 -0.024944712102844366 0 -4.2339510426045352e-05 -0.024961032355233063 0 -3.7602779008446383e-05 -0.024944265604162616 0 -7.5308783952101143e-05 -0.024914627256193988 0 -4.5346008048666303e-05 -0.024902532464830405 0 -7.1911250583495248e-05 -0.024961463780208283 0 -3.7602779008446383e-05 -0.024944265604162616 0 -7.5308783952101143e-05 -0.024914627256193988 0 -7.1911250583495248e-05 -0.024961463780208283 0 -4.2339510426045352e-05 -0.024961032355233063 0 -3.7602779008446383e-05 -0.024944265604162616 0 -0.00014306434638877816 -0.024883002424534888 0 -7.1911250583495248e-05 -0.024961463780208283 0 -7.5308783952101143e-05 -0.024914627256193988 0 -0.00014306434638877816 -0.024883002424534888 0 -7.5308783952101143e-05 -0.024914627256193988 0 -6.9733120291073534e-05 -0.024868330476305885 0 -2.609671202741867e-05 -0.024865460289140055 0 -6.9733120291073534e-05 -0.024868330476305885 0 -4.5346008048666303e-05 -0.024902532464830405 0 -7.5308783952101143e-05 -0.024914627256193988 0 -6.9733120291073534e-05 -0.024868330476305885 0 -4.5346008048666303e-05 -0.024902532464830405 0 -1.6187586270285251e-05 -0.024912683343037176 0 2.3452209517919692e-05 -0.024893867494396441 0 -8.488955592816911e-06 -0.024953430199535196 0 -2.609671202741867e-05 -0.024865460289140055 0 -4.5346008048666303e-05 -0.024902532464830405 0 -1.6187586270285251e-05 -0.024912683343037176 0 -2.0072481995413884e-06 -0.024866181009807406 0 -2.609671202741867e-05 -0.024865460289140055 0 -1.6187586270285251e-05 -0.024912683343037176 0 -3.7602779008446383e-05 -0.024944265604162616 0 -4.5346008048666303e-05 -0.024902532464830405 0 -1.6187586270285251e-05 -0.024912683343037176 0 -2.0072481995413884e-06 -0.024866181009807406 0 -1.6187586270285251e-05 -0.024912683343037176 0 2.3452209517919692e-05 -0.024893867494396441 0 2.3452209517919692e-05 -0.024893867494396441 0 6.584495728823047e-08 -0.024999861181328891 0 -8.488955592816911e-06 -0.024953430199535196 0 1.3533705436239781e-09 -0.025000016847126178 0 1.2172605551375617e-06 -0.025000924244502488 0 -1.0625783900981348e-10 -0.024999991370437177 0 -4.0721646474011895e-06 -0.02494701196443885 0 9.5844550404503176e-09 -0.024999922673820667 0 -1.613645253150676e-05 -0.024972983810779423 0 6.584495728823047e-08 -0.024999861181328891 0 -8.488955592816911e-06 -0.024953430199535196 0 -1.613645253150676e-05 -0.024972983810779423 0 -3.7602779008446383e-05 -0.024944265604162616 0 -8.488955592816911e-06 -0.024953430199535196 0 -3.7602779008446383e-05 -0.024944265604162616 0 -1.6187586270285251e-05 -0.024912683343037176 0 -8.488955592816911e-06 -0.024953430199535196 0 -3.19485142800744e-06 -0.024994635978561955 0 -4.5708025268073194e-06 -0.024992721141026943 0 -4.7750943751660954e-06 -0.024991543125878302 0 -3.19485142800744e-06 -0.024994635978561955 0 -4.5708025268073194e-06 -0.024992721141026943 0 -2.6197053729973517e-06 -0.02499615836511947 0 -4.5708025268073194e-06 -0.024992721141026943 0 -4.7750943751660954e-06 -0.024991543125878302 0 -6.6369691544022092e-06 -0.024989242283481983 0 -4.5708025268073194e-06 -0.024992721141026943 0 -6.6369691544022092e-06 -0.024989242283481983 0 -5.110474012201558e-06 -0.024992804373746486 0 -4.5708025268073194e-06 -0.024992721141026943 0 -2.6197053729973517e-06 -0.02499615836511947 0 -5.110474012201558e-06 -0.024992804373746486 0 -3.19485142800744e-06 -0.024994635978561955 0 -2.6197053729973517e-06 -0.02499615836511947 0 -2.8377182575917332e-09 -0.024999991905749665 0 -2.6197053729973517e-06 -0.02499615836511947 0 -2.8377182575917332e-09 -0.024999991905749665 0 -2.9588085076963543e-09 -0.024999991528597391 0 -3.19485142800744e-06 -0.024994635978561955 0 -2.8377182575917332e-09 -0.024999991905749665 0 -3.7097530919642206e-06 -0.024992813355462641 0 -2.8377182575917332e-09 -0.024999991905749665 0 -3.7097530919642206e-06 -0.024992813355462641 0 -1.9622269611503139e-06 -0.024995353137679095 0 -3.19485142800744e-06 -0.024994635978561955 0 -3.7097530919642206e-06 -0.024992813355462641 0 -4.7750943751660954e-06 -0.024991543125878302 0 -3.7097530919642206e-06 -0.024992813355462641 0 -4.7750943751660954e-06 -0.024991543125878302 0 -5.5078187471008354e-06 -0.02498861481036755 0 -3.7097530919642206e-06 -0.024992813355462641 0 -5.5078187471008354e-06 -0.02498861481036755 0 -4.6921361802202268e-06 -0.024989079297965979 0 -5.5078187471008354e-06 -0.02498861481036755 0 -6.0964637940758888e-06 -0.024985443001290276 0 -5.239485483655836e-06 -0.024983850087477426 0 -5.5078187471008354e-06 -0.02498861481036755 0 -6.0964637940758888e-06 -0.024985443001290276 0 -6.6369691544022092e-06 -0.024989242283481983 0 -4.7750943751660954e-06 -0.024991543125878302 0 -5.5078187471008354e-06 -0.02498861481036755 0 -6.6369691544022092e-06 -0.024989242283481983 0 -6.0964637940758888e-06 -0.024985443001290276 0 -4.084529780593846e-06 -0.024982424787799325 0 -3.8331669858897674e-06 -0.024978931526630454 0 -6.0964637940758888e-06 -0.024985443001290276 0 -3.8331669858897674e-06 -0.024978931526630454 0 -5.239485483655836e-06 -0.024983850087477426 0 -0.0015303828733767837 -0.023375038242553662 0 -0.0018469924406461747 -0.022431441342433037 0 -6.0964637940758888e-06 -0.024985443001290276 0 -7.854015146861143e-06 -0.024987135102716579 0 -4.084529780593846e-06 -0.024982424787799325 0 -0.00270039103548169 -0.022048386721891872 0 -0.0025659080784228971 -0.021982031303726956 0 -0.0025984614101187097 -0.021826134141643139 0 -0.0028242532936807356 -0.021948333495652485 0 -0.00270039103548169 -0.022048386721891872 0 -0.0025984614101187097 -0.021826134141643139 0 -0.0015303828733767837 -0.023375038242553662 0 -0.0025008697592771197 -0.022714899809582217 0 -0.0013442708883894656 -0.023537194913951814 0 -0.0015303828733767837 -0.023375038242553662 0 -6.0964637940758888e-06 -0.024985443001290276 0 -6.6369691544022092e-06 -0.024989242283481983 0 -7.854015146861143e-06 -0.024987135102716579 0 -6.6369691544022092e-06 -0.024989242283481983 0 -8.0754179936928485e-06 -0.024988222352497008 0 -5.110474012201558e-06 -0.024992804373746486 0 -0.0028509287898137773 -0.026530223952000862 0 -0.0021066363175476803 -0.025688997761157725 0 -0.0013284141999603566 -0.025739271473862166 0 -0.0015303828733767837 -0.023375038242553662 0 -0.0010223049795007942 -0.024291571563968974 0 -0.002585033130524409 -0.025504864179261368 0 -0.0035251615004561936 -0.025010318080331984 0 -0.0016621247836207252 -0.024982540212055038 0 -0.0035251615004561936 -0.025010318080331984 0 -0.0025958893963044841 -0.023758899300667765 0 -0.0018621441856073509 -0.025005712568378191 0 -0.0020668673549012334 -0.024931422514615071 0 -0.0014631621832135735 -0.024913287013823122 0 -0.0021066363175476803 -0.025688997761157725 0 -0.002585033130524409 -0.025504864179261368 0 -0.0016621247836207252 -0.024982540212055038 0 -0.0028509287898137773 -0.026530223952000862 0 -0.0021066363175476803 -0.025688997761157725 0 -0.002585033130524409 -0.025504864179261368 0 -0.0028509287898137773 -0.026530223952000862 0 -0.002585033130524409 -0.025504864179261368 0 -0.0040516385653231414 -0.025568253181159437 0 -0.0040516385653231414 -0.025568253181159437 0 -0.0035251615004561936 -0.025010318080331984 0 -0.0052751845188575017 -0.024579113244530017 0 -0.002585033130524409 -0.025504864179261368 0 -0.0040516385653231414 -0.025568253181159437 0 -0.0035251615004561936 -0.025010318080331984 0 -0.0025008697592771197 -0.022714899809582217 0 -0.00329841852213525 -0.021836171730851901 0 -0.0035251615004561936 -0.025010318080331984 0 -0.0033590071073372192 -0.022220387785949192 0 -0.0052751845188575017 -0.024579113244530017 0 -0.0036098645049450579 -0.022294970647257703 0 -0.00329841852213525 -0.021836171730851901 0 -0.0033590071073372192 -0.022220387785949192 0 -0.0035493722267770627 -0.021954731100433229 0 -0.0035848817692850487 -0.021966168645139422 0 -0.0035251615004561936 -0.025010318080331984 0 -0.0025958893963044841 -0.023758899300667765 0 -0.0033590071073372192 -0.022220387785949192 0 -0.0025958893963044841 -0.023758899300667765 0 -0.0018129660044584443 -0.023885644927249355 0 -0.0018621441856073509 -0.025005712568378191 0 -0.0025958893963044841 -0.023758899300667765 0 -0.0023573311621641183 -0.022731565616904013 0 -0.0033590071073372192 -0.022220387785949192 0 -0.0025958893963044841 -0.023758899300667765 0 -0.0018129660044584443 -0.023885644927249355 0 -0.0023573311621641183 -0.022731565616904013 0 -0.0018129660044584443 -0.023885644927249355 0 -0.0012067091690709738 -0.022728383511132207 0 -0.0023573311621641183 -0.022731565616904013 0 -0.001004470552593681 -0.024328524457077325 0 -0.0018129660044584443 -0.023885644927249355 0 -0.0012067091690709738 -0.022728383511132207 0 -0.001004470552593681 -0.024328524457077325 0 -0.0018129660044584443 -0.023885644927249355 0 -0.0018621441856073509 -0.025005712568378191 0 -0.0014631621832135735 -0.024913287013823122 0 -0.00045800650955199652 -0.024862786487310742 0 -0.0016621247836207252 -0.024982540212055038 0 -0.0013284141999603566 -0.025739271473862166 0 0.00018425619499897228 -0.024955990044771684 0 -0.001004470552593681 -0.024328524457077325 0 -0.0018621441856073509 -0.025005712568378191 0 -0.00039668150567876521 -0.025147851425668381 0 -2.6197053729973517e-06 -0.02499615836511947 0 -5.110474012201558e-06 -0.024992804373746486 0 -2.1934169595991287e-06 -0.024996946734832451 0 -0.0010223049795007942 -0.024291571563968974 0 -0.00045800650955199652 -0.024862786487310742 0 -0.0021066363175476803 -0.025688997761157725 0 -0.0016621247836207252 -0.024982540212055038 0 -0.0013284141999603566 -0.025739271473862166 0 -2.6197053729973517e-06 -0.02499615836511947 0 -2.1934169595991287e-06 -0.024996946734832451 0 -2.9588085076963543e-09 -0.024999991528597391 0 -0.00045800650955199652 -0.024862786487310742 0 -1.1440927862880739e-06 -0.024999167373492406 0 -1.5422597006460443e-06 -0.024999636800023345 0 -1.115882443998844e-09 -0.025000000666790652 0 6.1099450786774925e-10 -0.02499999898357751 0 -0.00045800650955199652 -0.024862786487310742 0 -9.3981721315237854e-07 -0.024999394694604535 0 -0.00039668150567876521 -0.025147851425668381 0 -3.508833051606331e-05 -0.024884765666394717 0 3.1780003708571992e-07 -0.024998951210611638 0 -3.508833051606331e-05 -0.024884765666394717 0 3.1780003708571992e-07 -0.024998951210611638 0 -1.3884468909900614e-07 -0.025000189799880806 0 -0.001004470552593681 -0.024328524457077325 0 -3.508833051606331e-05 -0.024884765666394717 0 -0.0012067091690709738 -0.022728383511132207 0 -0.00053479089557025863 -0.024178623302374101 0 -0.00080320625835039728 -0.02389451146321615 0 -0.001004470552593681 -0.024328524457077325 0 -0.00039668150567876521 -0.025147851425668381 0 -3.508833051606331e-05 -0.024884765666394717 0 -3.508833051606331e-05 -0.024884765666394717 0 -1.3884468909900614e-07 -0.025000189799880806 0 2.2468105536779378e-05 -0.024975438581485723 0 -1.3884468909900614e-07 -0.025000189799880806 0 2.2468105536779378e-05 -0.024975438581485723 0 7.6809091558287539e-06 -0.024995516864308041 0 -0.00080320625835039728 -0.02389451146321615 0 -0.0012498400191910126 -0.023503440146307886 0 2.2468105536779378e-05 -0.024975438581485723 0 7.6809091558287539e-06 -0.024995516864308041 0 7.7154048480675556e-06 -0.024992391257034743 0 -1.3884468909900614e-07 -0.025000189799880806 0 7.6809091558287539e-06 -0.024995516864308041 0 4.1969650125537634e-08 -0.02499994488872179 0 4.1969650125537634e-08 -0.02499994488872179 0 3.9791284191371842e-06 -0.024995940869389936 0 1.7041166085780521e-06 -0.02499667032046652 0 7.6809091558287539e-06 -0.024995516864308041 0 4.1969650125537634e-08 -0.02499994488872179 0 3.9791284191371842e-06 -0.024995940869389936 0 7.6809091558287539e-06 -0.024995516864308041 0 3.9791284191371842e-06 -0.024995940869389936 0 3.5881492686469337e-06 -0.024993905876772159 0 7.1471256131929748e-07 -0.024992760809388198 0 1.7041166085780521e-06 -0.02499667032046652 0 1.1369351411814221e-06 -0.024992790807458861 0 3.9791284191371842e-06 -0.024995940869389936 0 1.7041166085780521e-06 -0.02499667032046652 0 1.1369351411814221e-06 -0.024992790807458861 0 -9.9611079079590544e-09 -0.025000009288679705 0 4.1969650125537634e-08 -0.02499994488872179 0 1.7041166085780521e-06 -0.02499667032046652 0 -3.5409481959263011e-06 -0.024989963033957611 0 -4.3749703627721767e-06 -0.02499308211778993 0 -1.3062498674310199e-05 -0.024987743346203711 0 -3.5409481959263011e-06 -0.024989963033957611 0 1.1369351411814221e-06 -0.024992790807458861 0 -4.3749703627721767e-06 -0.02499308211778993 0 -5.9290194822295227e-06 -0.024984993600571818 0 -3.5409481959263011e-06 -0.024989963033957611 0 -1.3062498674310199e-05 -0.024987743346203711 0 7.1471256131929748e-07 -0.024992760809388198 0 -3.5409481959263011e-06 -0.024989963033957611 0 1.1369351411814221e-06 -0.024992790807458861 0 3.9791284191371842e-06 -0.024995940869389936 0 1.1369351411814221e-06 -0.024992790807458861 0 3.5881492686469337e-06 -0.024993905876772159 0 1.1369351411814221e-06 -0.024992790807458861 0 3.5881492686469337e-06 -0.024993905876772159 0 -4.3749703627721767e-06 -0.02499308211778993 0 3.5881492686469337e-06 -0.024993905876772159 0 -4.3749703627721767e-06 -0.02499308211778993 0 7.7154048480675556e-06 -0.024992391257034743 0 -0.0034345180103107905 -0.021248653289348607 0 -0.0034075226641234932 -0.021606887843979055 0 -0.0035493687234177274 -0.021450926334397841 0 -0.0034345180103107905 -0.021248653289348607 0 -0.0034075226641234932 -0.021606887843979055 0 -0.002751274010200833 -0.021474197706922545 0 -0.0015468398514957736 -0.023331837598742501 0 -0.0012498400191910126 -0.023503440146307886 0 7.6809091558287539e-06 -0.024995516864308041 0 3.5881492686469337e-06 -0.024993905876772159 0 7.7154048480675556e-06 -0.024992391257034743 0 -0.0012067091690709738 -0.022728383511132207 0 -0.002751274010200833 -0.021474197706922545 0 -0.0023573311621641183 -0.022731565616904013 0 -0.002751274010200833 -0.021474197706922545 0 -0.0023573311621641183 -0.022731565616904013 0 -0.0033590071073372192 -0.022220387785949192 0 -0.0034075226641234932 -0.021606887843979055 0 -0.0033590071073372192 -0.022220387785949192 0 -0.0035493722267770627 -0.021954731100433229 0 -0.0034075226641234932 -0.021606887843979055 0 -0.002751274010200833 -0.021474197706922545 0 -0.0033590071073372192 -0.022220387785949192 0 -0.0036477814797290279 -0.021704084688785319 0 -0.0036388813582822056 -0.021534094479098875 0 -0.0035493722267770627 -0.021954731100433229 0 -0.0034075226641234932 -0.021606887843979055 0 -0.0036388813582822056 -0.021534094479098875 0 -0.0035493722267770627 -0.021954731100433229 0 -0.0036477814797290279 -0.021704084688785319 0 -0.0037211199215420087 -0.021475697867104477 0 -0.0036388813582822056 -0.021534094479098875 0 -0.0037211199215420087 -0.021475697867104477 0 -0.0037640332868975504 -0.021152892771851308 0 -0.0037046310168483742 -0.021814476842821433 0 -0.003796647911664786 -0.021376806090967204 0 -0.0037722385328224006 -0.021421082309960458 0 -0.0036477814797290279 -0.021704084688785319 0 -0.0037211199215420087 -0.021475697867104477 0 -0.0037046310168483742 -0.021814476842821433 0 -0.0037211199215420087 -0.021475697867104477 0 -0.0037375378983713426 -0.021402723940749432 0 -0.0036388813582822056 -0.021534094479098875 0 -0.0037211199215420087 -0.021475697867104477 0 -0.0037375378983713426 -0.021402723940749432 0 -0.0037640332868975504 -0.021152892771851308 0 -0.0037375378983713426 -0.021402723940749432 0 -0.0036634511525507648 -0.021384774307110246 0 -0.0037166448721912765 -0.021419244479113541 0 -0.0037375378983713426 -0.021402723940749432 0 -0.0037166448721912765 -0.021419244479113541 0 -0.0037640332868975504 -0.021152892771851308 0 -0.0034075226641234932 -0.021606887843979055 0 -0.0036388813582822056 -0.021534094479098875 0 -0.0035493687234177274 -0.021450926334397841 0 -0.0037375378983713426 -0.021402723940749432 0 -0.0036388813582822056 -0.021534094479098875 0 -0.0036634511525507648 -0.021384774307110246 0 -0.0036388813582822056 -0.021534094479098875 0 -0.0035493687234177274 -0.021450926334397841 0 -0.0036634511525507648 -0.021384774307110246 0 -0.0015468398514957736 -0.023331837598742501 0 -0.0015418290871774855 -0.023498128959392281 0 -0.0034345180103107905 -0.021248653289348607 0 -0.0036122725716127343 -0.021289961871457933 0 -0.0036187182944526376 -0.021238887239802634 0 -0.0034345180103107905 -0.021248653289348607 0 -0.0035493687234177274 -0.021450926334397841 0 -0.0036634511525507648 -0.021384774307110246 0 -0.0034345180103107905 -0.021248653289348607 0 -0.0036122725716127343 -0.021289961871457933 0 -0.0036634511525507648 -0.021384774307110246 0 -0.0036122725716127343 -0.021289961871457933 0 -0.0036634511525507648 -0.021384774307110246 0 -0.0036729213065447601 -0.021334578025424749 0 -0.0036122725716127343 -0.021289961871457933 0 -0.0036729213065447601 -0.021334578025424749 0 -0.0036341987096191923 -0.02126697404314775 0 -0.0036634511525507648 -0.021384774307110246 0 -0.0037166448721912765 -0.021419244479113541 0 -0.0036729213065447601 -0.021334578025424749 0 -0.0037166448721912765 -0.021419244479113541 0 -0.0036729213065447601 -0.021334578025424749 0 -0.0036892464463994866 -0.021270099269643076 0 -0.0037084125059904851 -0.021224553353910439 0 -0.0036892464463994866 -0.021270099269643076 0 -0.0036176227476744081 -0.021255308908234082 0 -0.0036892464463994866 -0.021270099269643076 0 -0.0036176227476744081 -0.021255308908234082 0 -0.0036341987096191923 -0.02126697404314775 0 -0.0037166448721912765 -0.021419244479113541 0 -0.0036892464463994866 -0.021270099269643076 0 -0.0037480984695679878 -0.021256628019716312 0 -0.0036729213065447601 -0.021334578025424749 0 -0.0036892464463994866 -0.021270099269643076 0 -0.0036341987096191923 -0.02126697404314775 0 -0.0037084125059904851 -0.021224553353910439 0 -0.0036892464463994866 -0.021270099269643076 0 -0.0037480984695679878 -0.021256628019716312 0 -0.0036122725716127343 -0.021289961871457933 0 -0.0036187182944526376 -0.021238887239802634 0 -0.0036341987096191923 -0.02126697404314775 0 -0.0015418290871774855 -0.023498128959392281 0 -0.0015626463042955237 -0.023469283022909532 0 -0.0028497721238757339 -0.022296691731367582 0 -0.0032067455702246262 -0.022077186674093297 0 -0.0028493763819199902 -0.021757626952185746 0 -0.0032886808500297111 -0.021743158185439315 0 -0.0032067455702246262 -0.022077186674093297 0 -0.0028493763819199902 -0.021757626952185746 0 -0.0032886808500297111 -0.021743158185439315 0 -0.0032067455702246262 -0.022077186674093297 0 -0.003630449692913402 -0.021947863524900094 0 -0.0028276864607679982 -0.021534274607722635 0 -0.0025525971736366244 -0.021797324297627468 0 -0.0037166448721912765 -0.021419244479113541 0 -0.0032886808500297111 -0.021743158185439315 0 -0.0031310964905367305 -0.021367564019374879 0 -0.0037166448721912765 -0.021419244479113541 0 -0.0032886808500297111 -0.021743158185439315 0 -0.003630449692913402 -0.021947863524900094 0 -0.0032886808500297111 -0.021743158185439315 0 -0.0031310964905367305 -0.021367564019374879 0 -0.0028493763819199902 -0.021757626952185746 0 -0.0031310964905367305 -0.021367564019374879 0 -0.0033080372247614861 -0.021188123348596443 0 -0.0026359870110066515 -0.021035949671347542 0 -0.0037166448721912765 -0.021419244479113541 0 -0.0031310964905367305 -0.021367564019374879 0 -0.0033080372247614861 -0.021188123348596443 0 -0.0037166448721912765 -0.021419244479113541 0 -0.0033080372247614861 -0.021188123348596443 0 -0.0037640332868975504 -0.021152892771851308 0 -0.0033080372247614861 -0.021188123348596443 0 -0.0037640332868975504 -0.021152892771851308 0 -0.0031451459014936846 -0.020642723949068208 0 -0.0033080372247614861 -0.021188123348596443 0 -0.0031451459014936846 -0.020642723949068208 0 -0.0026359870110066515 -0.021035949671347542 0 -0.0031451459014936846 -0.020642723949068208 0 -0.0031901854590109867 -0.019570890939105027 0 -0.0036462771479976877 -0.020216908775857523 0 -0.0031451459014936846 -0.020642723949068208 0 -0.0031901854590109867 -0.019570890939105027 0 -0.0026810867284463203 -0.020035990958284042 0 -0.0031901854590109867 -0.019570890939105027 0 -0.0039113513541045647 -0.019639579051788661 0 -0.0035402640135175777 -0.018844401551841045 0 -0.0031901854590109867 -0.019570890939105027 0 -0.0039113513541045647 -0.019639579051788661 0 -0.0036462771479976877 -0.020216908775857523 0 -0.0037640332868975504 -0.021152892771851308 0 -0.0036462771479976877 -0.020216908775857523 0 -0.0040921339474029369 -0.02028941361384853 0 -0.0037640332868975504 -0.021152892771851308 0 -0.0031451459014936846 -0.020642723949068208 0 -0.0036462771479976877 -0.020216908775857523 0 -0.0039113513541045647 -0.019639579051788661 0 -0.0036462771479976877 -0.020216908775857523 0 -0.0040921339474029369 -0.02028941361384853 0 -0.0037640332868975504 -0.021152892771851308 0 -0.0045667840533068355 -0.020498024901906733 0 -0.0040921339474029369 -0.02028941361384853 0 -0.0045667840533068355 -0.020498024901906733 0 -0.0045495755886092604 -0.020049845928718377 0 -0.0040921339474029369 -0.02028941361384853 0 -0.0036477814797290279 -0.021704084688785319 0 -0.0037046310168483742 -0.021814476842821433 0 -0.0035493722267770627 -0.021954731100433229 0 -0.0037046310168483742 -0.021814476842821433 0 -0.0035493722267770627 -0.021954731100433229 0 -0.0035848817692850487 -0.021966168645139422 0 -0.0037722385328224006 -0.021421082309960458 0 -0.00329841852213525 -0.021836171730851901 0 -0.0045667840533068355 -0.020498024901906733 0 -0.0045495755886092604 -0.020049845928718377 0 -0.0052128312264321641 -0.019936769295134212 0 -0.00270039103548169 -0.022048386721891872 0 -0.0025761773138071719 -0.022149452131824704 0 -0.0025659080784228971 -0.021982031303726956 0 -0.0025761773138071719 -0.022149452131824704 0 -0.0023879015651996753 -0.021903812397218947 0 -0.0025659080784228971 -0.021982031303726956 0 -0.00329841852213525 -0.021836171730851901 0 -0.0032965228454304497 -0.020256714759226475 0 -0.0045495755886092604 -0.020049845928718377 0 -0.0052128312264321641 -0.019936769295134212 0 -0.0044423232461578465 -0.01894853871580135 0 -0.0035572951509829 -0.019945693147551308 0 -0.0032965228454304497 -0.020256714759226475 0 -0.0039113513541045647 -0.019639579051788661 0 -0.0045495755886092604 -0.020049845928718377 0 -0.0044050729583737774 -0.018931870372742958 0 -0.0039113513541045647 -0.019639579051788661 0 -0.0045495755886092604 -0.020049845928718377 0 -0.0040921339474029369 -0.02028941361384853 0 -0.0023879015651996753 -0.021903812397218947 0 -0.0025659080784228971 -0.021982031303726956 0 -0.0025984614101187097 -0.021826134141643139 0 -0.0018469924406461747 -0.022431441342433037 0 -0.0025296713389537312 -0.021019492722876815 0 -0.0023879015651996753 -0.021903812397218947 0 -0.0025984614101187097 -0.021826134141643139 0 -0.0023687017791106622 -0.021703680459331035 0 -4.084529780593846e-06 -0.024982424787799325 0 6.0732336439554429e-06 -0.024973372758793255 0 -3.8331669858897674e-06 -0.024978931526630454 0 -0.0043482243131659623 -0.018958279713484572 0 -0.004280037230456943 -0.018197472394349261 0 -0.0037382057580074525 -0.018157632737927695 0 -0.0032965228454304497 -0.020256714759226475 0 -0.0031938333712027609 -0.019535564238089234 0 -0.0032965228454304497 -0.020256714759226475 0 -0.0025296713389537312 -0.021019492722876815 0 -0.0044050729583737774 -0.018931870372742958 0 -0.0037382057580074525 -0.018157632737927695 0 -0.0035402640135175777 -0.018844401551841045 0 -0.0037382057580074525 -0.018157632737927695 0 -0.0031875646533513747 -0.018219912740688255 0 -0.0035402640135175777 -0.018844401551841045 0 -0.0028361124288775303 -0.01863243132279549 0 -0.0031875646533513747 -0.018219912740688255 0 -0.0026069721228738976 -0.017908999978241157 0 -0.0028361124288775303 -0.01863243132279549 0 -0.0031875646533513747 -0.018219912740688255 0 -0.0035402640135175777 -0.018844401551841045 0 -0.0031901854590109867 -0.019570890939105027 0 -0.0028361124288775303 -0.01863243132279549 0 -0.0023920439615068606 -0.019253289175484106 0 -0.0031901854590109867 -0.019570890939105027 0 -0.0028361124288775303 -0.01863243132279549 0 -0.0035402640135175777 -0.018844401551841045 0 -0.0039113513541045647 -0.019639579051788661 0 -0.0044050729583737774 -0.018931870372742958 0 -0.0035402640135175777 -0.018844401551841045 0 -0.0021713073779107755 -0.01846481232091397 0 -0.0015267421822495989 -0.018314076878893772 0 -0.0014919010998173843 -0.01889036686447939 0 -0.0021713073779107755 -0.01846481232091397 0 -0.0014919010998173843 -0.01889036686447939 0 -0.0023920439615068606 -0.019253289175484106 0 -0.0028361124288775303 -0.01863243132279549 0 -0.0021713073779107755 -0.01846481232091397 0 -0.0023920439615068606 -0.019253289175484106 0 -0.0028361124288775303 -0.01863243132279549 0 -0.0021713073779107755 -0.01846481232091397 0 -0.0026069721228738976 -0.017908999978241157 0 -0.0021713073779107755 -0.01846481232091397 0 -0.0015267421822495989 -0.018314076878893772 0 -0.0019318967713820943 -0.017819842440557003 0 -0.0015267421822495989 -0.018314076878893772 0 -0.0010153668600935805 -0.018068747378608557 0 -0.0014220039775061936 -0.017824592500603413 0 -0.0015267421822495989 -0.018314076878893772 0 -0.0010153668600935805 -0.018068747378608557 0 -0.00084544562685871512 -0.018670222937923558 0 -0.0010153668600935805 -0.018068747378608557 0 -0.00084544562685871512 -0.018670222937923558 0 -0.00059503402092554215 -0.018198886691311353 0 -0.0015267421822495989 -0.018314076878893772 0 -0.00084544562685871512 -0.018670222937923558 0 -0.0014919010998173843 -0.01889036686447939 0 -0.0014919010998173843 -0.01889036686447939 0 -0.0011036455643826419 -0.019174567094066564 0 -0.0019748856767849076 -0.019354000882672574 0 -0.00084544562685871512 -0.018670222937923558 0 -0.0011036455643826419 -0.019174567094066564 0 -0.00041781273703391566 -0.018937686922044016 0 -0.00084544562685871512 -0.018670222937923558 0 -0.0014919010998173843 -0.01889036686447939 0 -0.0011036455643826419 -0.019174567094066564 0 -0.0011036455643826419 -0.019174567094066564 0 -0.0013013931784792085 -0.019845846937001792 0 -0.00044588281743110114 -0.019799322021518944 0 -0.0011036455643826419 -0.019174567094066564 0 -0.0019748856767849076 -0.019354000882672574 0 -0.0013013931784792085 -0.019845846937001792 0 -0.0014919010998173843 -0.01889036686447939 0 -0.0019651234678676774 -0.020080207693915983 0 -0.0023920439615068606 -0.019253289175484106 0 -0.0018469294090753159 -0.019439143268834769 0 -0.0020898613062361906 -0.01983091432510873 0 -0.0019651234678676774 -0.020080207693915983 0 -0.0023920439615068606 -0.019253289175484106 0 -0.0026810867284463203 -0.020035990958284042 0 -0.0031901854590109867 -0.019570890939105027 0 -0.0023920439615068606 -0.019253289175484106 0 -0.0026810867284463203 -0.020035990958284042 0 -0.0031451459014936846 -0.020642723949068208 0 -0.0026810867284463203 -0.020035990958284042 0 -0.0026359870110066515 -0.021035949671347542 0 -0.0019651234678676774 -0.020080207693915983 0 -0.0026810867284463203 -0.020035990958284042 0 -0.0026359870110066515 -0.021035949671347542 0 -0.0020898613062361906 -0.01983091432510873 0 -0.0025132192302941914 -0.020492676148689031 0 -0.0019748856767849076 -0.019354000882672574 0 -0.0019087029614583246 -0.02024566030502304 0 -0.0013013931784792085 -0.019845846937001792 0 -0.0019748856767849076 -0.019354000882672574 0 -0.002606225728533139 -0.02022340391827214 0 -0.0019087029614583246 -0.02024566030502304 0 -0.002606225728533139 -0.02022340391827214 0 -0.0019087029614583246 -0.02024566030502304 0 -0.0021801772703814808 -0.021249551745259158 0 -0.0019087029614583246 -0.02024566030502304 0 -0.0021801772703814808 -0.021249551745259158 0 -0.0014936840140888871 -0.020685158346302922 0 -0.0027521289924103964 -0.020865168833632205 0 -0.0025132192302941914 -0.020492676148689031 0 -0.0031310964905367305 -0.021367564019374879 0 -0.002606225728533139 -0.02022340391827214 0 -0.0021801772703814808 -0.021249551745259158 0 -0.0031310964905367305 -0.021367564019374879 0 -0.0021801772703814808 -0.021249551745259158 0 -0.0028493763819199902 -0.021757626952185746 0 -0.001793641344950828 -0.022278663491333797 0 -0.0021801772703814808 -0.021249551745259158 0 -0.002439985916408296 -0.022098208784817667 0 -0.0021801772703814808 -0.021249551745259158 0 -0.002439985916408296 -0.022098208784817667 0 -0.0028493763819199902 -0.021757626952185746 0 -0.0028497721238757339 -0.022296691731367582 0 -0.002439985916408296 -0.022098208784817667 0 -0.0028493763819199902 -0.021757626952185746 0 -0.00068035544462677355 -0.021072927857864736 0 -0.0009776991161954587 -0.020557875847619912 0 -0.0002869736626164509 -0.020594043319631449 0 -0.001793641344950828 -0.022278663491333797 0 -0.0021801772703814808 -0.021249551745259158 0 -0.0012845810224621074 -0.021563141234969958 0 -0.00099554113666325359 -0.021400690890294744 0 -0.00095873990989751856 -0.021071215359169754 0 -0.00068035544462677355 -0.021072927857864736 0 -0.0012686927594063155 -0.020985131599595568 0 -0.0009776991161954587 -0.020557875847619912 0 -0.0012845810224621074 -0.021563141234969958 0 -0.00080943683132226295 -0.020718753299342904 0 -0.0014936840140888871 -0.020685158346302922 0 -0.0021801772703814808 -0.021249551745259158 0 -0.0012845810224621074 -0.021563141234969958 0 -0.0014936840140888871 -0.020685158346302922 0 -0.0009776991161954587 -0.020557875847619912 0 -0.00068306029413092413 -0.02013133970293593 0 -0.0002869736626164509 -0.020594043319631449 0 -0.00095873990989751856 -0.021071215359169754 0 -0.00074111234316040552 -0.02060460281865437 0 -0.00080943683132226295 -0.020718753299342904 0 -0.0014936840140888871 -0.020685158346302922 0 -0.0013013931784792085 -0.019845846937001792 0 -0.0019087029614583246 -0.02024566030502304 0 -0.0014936840140888871 -0.020685158346302922 0 -0.0013013931784792085 -0.019845846937001792 0 -0.00080943683132226295 -0.020718753299342904 0 -0.0013013931784792085 -0.019845846937001792 0 -0.00044588281743110114 -0.019799322021518944 0 -0.00044588281743110114 -0.019799322021518944 0 0.00031326978394426966 -0.019759494444600019 0 5.7168714729561375e-05 -0.019349580781807669 0 -0.00044588281743110114 -0.019799322021518944 0 -0.00017266726602284255 -0.020121263587670711 0 0.00031326978394426966 -0.019759494444600019 0 -0.00068306029413092413 -0.02013133970293593 0 -0.00044588281743110114 -0.019799322021518944 0 -0.00017266726602284255 -0.020121263587670711 0 -0.00074111234316040552 -0.02060460281865437 0 -0.00060275299666532147 -0.020346158484613502 0 -0.00068306029413092413 -0.02013133970293593 0 -0.00017266726602284255 -0.020121263587670711 0 -0.0002869736626164509 -0.020594043319631449 0 -0.00017266726602284255 -0.020121263587670711 0 -0.0002869736626164509 -0.020594043319631449 0 0.00035487061976256952 -0.020251589488898564 0 -4.6449967315940261e-05 -0.021203176459012998 0 -0.0002869736626164509 -0.020594043319631449 0 0.00040893391674509818 -0.020796070393384321 0 -0.0002869736626164509 -0.020594043319631449 0 0.00040893391674509818 -0.020796070393384321 0 0.00035487061976256952 -0.020251589488898564 0 0.0010494808651159606 -0.020891039895955053 0 0.0010439372748339512 -0.02058691601537577 0 0.0006604280532088231 -0.020646198813274053 0 0.0010439372748339512 -0.02058691601537577 0 0.0006604280532088231 -0.020646198813274053 0 0.00096613843411961923 -0.020290692898851839 0 0.00027458972645992785 -0.020409865531634725 0 0.00051068928736554915 -0.020304316626623908 0 0.00040893391674509818 -0.020796070393384321 0 0.00035487061976256952 -0.020251589488898564 0 0.00096613843411961923 -0.020290692898851839 0 0.00035487061976256952 -0.020251589488898564 0 0.00096613843411961923 -0.020290692898851839 0 0.0010638486828225238 -0.019911512323240971 0 0.00031326978394426966 -0.019759494444600019 0 0.0007605942453568509 -0.019366821177170021 0 0.0009658882544256943 -0.01980118568752914 0 0.00073114804957449722 -0.019788241331549668 0 0.0010649751547547003 -0.019872267193985705 0 0.00035487061976256952 -0.020251589488898564 0 0.00031326978394426966 -0.019759494444600019 0 0.0010638486828225238 -0.019911512323240971 0 -0.00017266726602284255 -0.020121263587670711 0 0.00035487061976256952 -0.020251589488898564 0 0.00031326978394426966 -0.019759494444600019 0 0.00031326978394426966 -0.019759494444600019 0 0.0007605942453568509 -0.019366821177170021 0 5.7168714729561375e-05 -0.019349580781807669 0 0.0007605942453568509 -0.019366821177170021 0 0.00058949608126538863 -0.018688394452205249 0 0.0013594982400416853 -0.019057338564454233 0 0.0007605942453568509 -0.019366821177170021 0 0.00058949608126538863 -0.018688394452205249 0 5.7168714729561375e-05 -0.019349580781807669 0 0.00058949608126538863 -0.018688394452205249 0 -0.00041781273703391566 -0.018937686922044016 0 -8.4889330416238796e-05 -0.017899864484973074 0 0.00058949608126538863 -0.018688394452205249 0 5.7168714729561375e-05 -0.019349580781807669 0 -0.00041781273703391566 -0.018937686922044016 0 -0.00044588281743110114 -0.019799322021518944 0 5.7168714729561375e-05 -0.019349580781807669 0 -0.00041781273703391566 -0.018937686922044016 0 -0.0011036455643826419 -0.019174567094066564 0 -0.00044588281743110114 -0.019799322021518944 0 -0.00041781273703391566 -0.018937686922044016 0 -0.00017494487380025631 -0.018505902915104344 0 3.4043496956178593e-05 -0.018144773726591474 0 -0.00084544562685871512 -0.018670222937923558 0 -0.00041781273703391566 -0.018937686922044016 0 -9.4884184254736626e-05 -0.018432662170018911 0 -0.00084544562685871512 -0.018670222937923558 0 -9.4884184254736626e-05 -0.018432662170018911 0 -0.00059503402092554215 -0.018198886691311353 0 -0.0010153668600935805 -0.018068747378608557 0 -0.00059503402092554215 -0.018198886691311353 0 -0.0006919508913326766 -0.017813769178736616 0 -9.4884184254736626e-05 -0.018432662170018911 0 -0.00059503402092554215 -0.018198886691311353 0 -0.00031433945135774411 -0.017892735155475275 0 -9.4884184254736626e-05 -0.018432662170018911 0 -2.7287072768174022e-05 -0.017875137016101932 0 -0.00031433945135774411 -0.017892735155475275 0 -9.4884184254736626e-05 -0.018432662170018911 0 0.0002891402797893074 -0.017768979176127502 0 -2.7287072768174022e-05 -0.017875137016101932 0 3.4043496956178593e-05 -0.018144773726591474 0 0.00038182102469059924 -0.017674457369880849 0 0.00066936555972659342 -0.017391446465582223 0 0.00044949335517858395 -0.017870852491648683 0 0.00031264715710537568 -0.016980584505527418 0 -8.4889330416238796e-05 -0.017899864484973074 0 0.00044949335517858395 -0.017870852491648683 0 0.00031264715710537568 -0.016980584505527418 0 0.00066936555972659342 -0.017391446465582223 0 0.00097076410150024922 -0.017984184375887554 0 0.00044949335517858395 -0.017870852491648683 0 0.00066936555972659342 -0.017391446465582223 0 0.00097076410150024922 -0.017984184375887554 0 0.0011592631185339797 -0.017183414002433749 0 0.00058949608126538863 -0.018688394452205249 0 0.00097076410150024922 -0.017984184375887554 0 0.00044949335517858395 -0.017870852491648683 0 0.00058949608126538863 -0.018688394452205249 0 -8.4889330416238796e-05 -0.017899864484973074 0 0.00044949335517858395 -0.017870852491648683 0 0.0014225090222906268 -0.01528050078114297 0 0.0014612754068005405 -0.015241924613657283 0 0.0014275240577295062 -0.015107935814091663 0 0.0014938001172339393 -0.01518856422026468 0 0.0014716232240436658 -0.015297972922929216 0 0.0016154605822821253 -0.015107839145380749 0 0.0014873474659576644 -0.01536110849391634 0 0.0014716232240436658 -0.015297972922929216 0 0.0016154605822821253 -0.015107839145380749 0 0.0014938001172339393 -0.01518856422026468 0 0.0014275240577295062 -0.015107935814091663 0 0.0016154605822821253 -0.015107839145380749 0 0.0014612754068005405 -0.015241924613657283 0 0.0014938001172339393 -0.01518856422026468 0 0.0014716232240436658 -0.015297972922929216 0 0.0002419861234781702 -0.018348540600971207 0 0.00026146119653424466 -0.018321113766978283 0 0.0014225090222906268 -0.01528050078114297 0 0.0014612754068005405 -0.015241924613657283 0 0.0014716232240436658 -0.015297972922929216 0 0.0014612754068005405 -0.015241924613657283 0 0.0014938001172339393 -0.01518856422026468 0 0.0014275240577295062 -0.015107935814091663 0 0.00038182102469059924 -0.017674457369880849 0 0.0011528180248055867 -0.015912091477865448 0 0.00093362587822984463 -0.016619039370811932 0 0.00018931706659435085 -0.0168202536823732 0 0.00072071247003124915 -0.015913386252335016 0 0.00093362587822984463 -0.016619039370811932 0 0.00075014555230847187 -0.017008411728544611 0 0.00018931706659435085 -0.0168202536823732 0 0.00066936555972659342 -0.017391446465582223 0 0.00075014555230847187 -0.017008411728544611 0 0.0011592631185339797 -0.017183414002433749 0 0.00093362587822984463 -0.016619039370811932 0 0.00075014555230847187 -0.017008411728544611 0 0.0011592631185339797 -0.017183414002433749 0 0.00066936555972659342 -0.017391446465582223 0 0.00075014555230847187 -0.017008411728544611 0 0.00018931706659435085 -0.0168202536823732 0 0.00035931574902275281 -0.017579187888814723 0 0.00038182102469059924 -0.017674457369880849 0 0.0001286637349163449 -0.017580863378907605 0 0.0002891402797893074 -0.017768979176127502 0 -2.7287072768174022e-05 -0.017875137016101932 0 0.0014185070576817854 -0.015284096647484573 0 0.0014873474659576644 -0.01536110849391634 0 0.0014716232240436658 -0.015297972922929216 0 0.0002419861234781702 -0.018348540600971207 0 0.00038182102469059924 -0.017674457369880849 0 0.0001286637349163449 -0.017580863378907605 0 -0.00031433945135774411 -0.017892735155475275 0 -0.00054601352129240652 -0.017351070740814718 0 0.0001286637349163449 -0.017580863378907605 0 -2.7287072768174022e-05 -0.017875137016101932 0 -0.00031433945135774411 -0.017892735155475275 0 -0.00031433945135774411 -0.017892735155475275 0 -0.0006919508913326766 -0.017813769178736616 0 -0.00054601352129240652 -0.017351070740814718 0 -0.00059503402092554215 -0.018198886691311353 0 -0.00031433945135774411 -0.017892735155475275 0 -0.0006919508913326766 -0.017813769178736616 0 -0.0006919508913326766 -0.017813769178736616 0 -0.00054601352129240652 -0.017351070740814718 0 -0.0010098411549987081 -0.017550298535427146 0 0.0014225090222906268 -0.01528050078114297 0 0.0012600604504101394 -0.015070175085583042 0 0.0014275240577295062 -0.015107935814091663 0 -0.00072351786410711455 -0.021805795577986897 0 6.0722090850386458e-05 -0.022063568800707426 0 -0.00020987812425616077 -0.022415305045310193 0 0.0002419861234781702 -0.018348540600971207 0 -0.00012085470679450678 -0.019275299421025575 0 0.0002419861234781702 -0.018348540600971207 0 0.0004148201051836349 -0.018956212508837254 0 0.0012600604504101394 -0.015070175085583042 0 0.0013554469765557498 -0.01497823624605087 0 0.0014275240577295062 -0.015107935814091663 0 0.0012600604504101394 -0.015070175085583042 0 0.0012233828346961911 -0.01491515735595543 0 0.001274353951455545 -0.014964003513327891 0 0.0012600604504101394 -0.015070175085583042 0 0.0013554469765557498 -0.01497823624605087 0 0.001274353951455545 -0.014964003513327891 0 -0.00020987812425616077 -0.022415305045310193 0 0.00030073051918288508 -0.022445059458838682 0 0.00023741513390166888 -0.022623058570733687 0 0.0004148201051836349 -0.018956212508837254 0 0.00068805929495394439 -0.019891796668660106 0 6.0722090850386458e-05 -0.022063568800707426 0 -0.00020987812425616077 -0.022415305045310193 0 0.00030073051918288508 -0.022445059458838682 0 -0.00020987812425616077 -0.022415305045310193 0 0.00023741513390166888 -0.022623058570733687 0 0.00029719563570859838 -0.022944117020990321 0 -0.00020987812425616077 -0.022415305045310193 0 0.00029467571327865353 -0.022987691719635342 0 0.00029719563570859838 -0.022944117020990321 0 0.0012600604504101394 -0.015070175085583042 0 0.0012233828346961911 -0.01491515735595543 0 0.0011066933742493873 -0.014878326339274528 0 0.0012233828346961911 -0.01491515735595543 0 0.0012428043430288322 -0.014834051175399555 0 0.0011845563655245889 -0.014834374887613225 0 0.0012233828346961911 -0.01491515735595543 0 0.0011845563655245889 -0.014834374887613225 0 0.0011066933742493873 -0.014878326339274528 0 0.00068805929495394439 -0.019891796668660106 0 0.00068712918578425948 -0.019903327915359113 0 0.0013554469765557498 -0.01497823624605087 0 0.0012901641705680862 -0.014893297875972064 0 0.0013969736445538364 -0.014858261590535242 0 0.0013554469765557498 -0.01497823624605087 0 0.001274353951455545 -0.014964003513327891 0 0.0012901641705680862 -0.014893297875972064 0 0.0012233828346961911 -0.01491515735595543 0 0.001274353951455545 -0.014964003513327891 0 0.0012901641705680862 -0.014893297875972064 0 0.0012428043430288322 -0.014834051175399555 0 0.0012901641705680862 -0.014893297875972064 0 0.0013084434044757394 -0.014788735763125543 0 0.0012233828346961911 -0.01491515735595543 0 0.0012428043430288322 -0.014834051175399555 0 0.0012901641705680862 -0.014893297875972064 0 0.0012901641705680862 -0.014893297875972064 0 0.0013969736445538364 -0.014858261590535242 0 0.0013084434044757394 -0.014788735763125543 0 0.0013554469765557498 -0.01497823624605087 0 0.0015082018049647624 -0.014949359145943895 0 0.0013969736445538364 -0.014858261590535242 0 0.0015082018049647624 -0.014949359145943895 0 0.0013969736445538364 -0.014858261590535242 0 0.0015312039588057063 -0.014778624447525692 0 0.0013554469765557498 -0.01497823624605087 0 0.0015082018049647624 -0.014949359145943895 0 0.0014275240577295062 -0.015107935814091663 0 0.0015082018049647624 -0.014949359145943895 0 0.0014275240577295062 -0.015107935814091663 0 0.0016154605822821253 -0.015107839145380749 0 0.0011528180248055867 -0.015912091477865448 0 0.0014718899272139594 -0.0152123424091157 0 0.0015082018049647624 -0.014949359145943895 0 0.0016154605822821253 -0.015107839145380749 0 0.0017283340415630663 -0.014854687519929587 0 0.0015082018049647624 -0.014949359145943895 0 0.0015312039588057063 -0.014778624447525692 0 0.0017283340415630663 -0.014854687519929587 0 0.0016492737729829959 -0.014647968977754548 0 0.0015312039588057063 -0.014778624447525692 0 0.0017283340415630663 -0.014854687519929587 0 0.0016492737729829959 -0.014647968977754548 0 0.0015312039588057063 -0.014778624447525692 0 0.0014894831544523281 -0.014606413793968504 0 0.0014115284066396798 -0.014740394454762903 0 0.0015312039588057063 -0.014778624447525692 0 0.0014894831544523281 -0.014606413793968504 0 0.0014115284066396798 -0.014740394454762903 0 0.0014894831544523281 -0.014606413793968504 0 0.001316664125906263 -0.014643299340342338 0 0.0013969736445538364 -0.014858261590535242 0 0.0014115284066396798 -0.014740394454762903 0 0.0015312039588057063 -0.014778624447525692 0 0.0014894831544523281 -0.014606413793968504 0 0.0016225007964846151 -0.01446875012190244 0 0.0014936133946027584 -0.014460551467764366 0 0.0014894831544523281 -0.014606413793968504 0 0.0014936133946027584 -0.014460551467764366 0 0.001391495383020219 -0.014517689918586853 0 0.0016492737729829959 -0.014647968977754548 0 0.0014894831544523281 -0.014606413793968504 0 0.0016225007964846151 -0.01446875012190244 0 0.0016492737729829959 -0.014647968977754548 0 0.0016225007964846151 -0.01446875012190244 0 0.0017645141627777858 -0.014490602100994074 0 0.0016225007964846151 -0.01446875012190244 0 0.0015613296049299342 -0.014307158862290241 0 0.0018489926717039241 -0.014349191176439695 0 0.0019944961472119745 -0.018152017875728163 0 0.0018421098447801267 -0.017511632953401319 0 0.0016225007964846151 -0.01446875012190244 0 0.0014936133946027584 -0.014460551467764366 0 0.0015719909320968308 -0.014368670935423336 0 0.0017302459337710015 -0.017258590149934864 0 0.0019944961472119745 -0.018152017875728163 0 0.0014936133946027584 -0.014460551467764366 0 0.001366517443061772 -0.014355709854307726 0 0.001391495383020219 -0.014517689918586853 0 0.0014936133946027584 -0.014460551467764366 0 0.0015719909320968308 -0.014368670935423336 0 0.001366517443061772 -0.014355709854307726 0 0.0054166469999643325 -0.024242438503211332 0 0.0057534683129386475 -0.024571050131548124 0 0.0051992709305505357 -0.024520753178790638 0 0.0019944961472119745 -0.018152017875728163 0 0.0028624609170729808 -0.019839497840208883 0 0.0027962633232218046 -0.015357085742654224 0 0.0028554484267750767 -0.014336614188660481 0 0.0037263069407483832 -0.016303619922487932 0 0.0054166469999643325 -0.024242438503211332 0 0.0057534683129386475 -0.024571050131548124 0 0.0055592906474124645 -0.023945543450316888 0 0.0019944961472119745 -0.018152017875728163 0 0.0037147741090704017 -0.020060917782803188 0 0.0022526671828589128 -0.014749727878102964 0 0.0028554484267750767 -0.014336614188660481 0 0.0018489926717039241 -0.014349191176439695 0 0.0027962633232218046 -0.015357085742654224 0 0.0022526671828589128 -0.014749727878102964 0 0.0024739329836818706 -0.015561019393441313 0 0.0027962633232218046 -0.015357085742654224 0 0.0022526671828589128 -0.014749727878102964 0 0.0028554484267750767 -0.014336614188660481 0 0.0045851391700833157 -0.024447348576020114 0 0.0051992709305505357 -0.024520753178790638 0 0.0048911471892442351 -0.024098857300687549 0 0.0029020867277035093 -0.021619977733498254 0 0.0028624609170729808 -0.019839497840208883 0 0.0051992709305505357 -0.024520753178790638 0 0.0051883440908335882 -0.024142342160985465 0 0.0048911471892442351 -0.024098857300687549 0 0.0054166469999643325 -0.024242438503211332 0 0.0051992709305505357 -0.024520753178790638 0 0.0051883440908335882 -0.024142342160985465 0 0.0011654361589581537 -0.01434432053351343 0 0.001366517443061772 -0.014355709854307726 0 0.0012751072591652378 -0.014491302652726808 0 0.001366517443061772 -0.014355709854307726 0 0.001391495383020219 -0.014517689918586853 0 0.0012751072591652378 -0.014491302652726808 0 0.0011654361589581537 -0.01434432053351343 0 0.0012751072591652378 -0.014491302652726808 0 0.0011373741896919828 -0.014601485679581038 0 0.0029020867277035093 -0.021619977733498254 0 0.0015934300875841056 -0.019637700345298513 0 0.0012751072591652378 -0.014491302652726808 0 0.0011373741896919828 -0.014601485679581038 0 0.001316664125906263 -0.014643299340342338 0 0.0011373741896919828 -0.014601485679581038 0 0.001316664125906263 -0.014643299340342338 0 0.0012081978283775309 -0.014741038894717944 0 0.001391495383020219 -0.014517689918586853 0 0.0012751072591652378 -0.014491302652726808 0 0.001316664125906263 -0.014643299340342338 0 0.0014894831544523281 -0.014606413793968504 0 0.001391495383020219 -0.014517689918586853 0 0.001316664125906263 -0.014643299340342338 0 0.0014115284066396798 -0.014740394454762903 0 0.001316664125906263 -0.014643299340342338 0 0.0013084434044757394 -0.014788735763125543 0 0.001316664125906263 -0.014643299340342338 0 0.0013084434044757394 -0.014788735763125543 0 0.0012081978283775309 -0.014741038894717944 0 0.0012428043430288322 -0.014834051175399555 0 0.0013084434044757394 -0.014788735763125543 0 0.0012081978283775309 -0.014741038894717944 0 0.0013969736445538364 -0.014858261590535242 0 0.0014115284066396798 -0.014740394454762903 0 0.0013084434044757394 -0.014788735763125543 0 0.00068805929495394439 -0.019891796668660106 0 0.0015934300875841056 -0.019637700345298513 0 0.0011066933742493873 -0.014878326339274528 0 0.0011373741896919828 -0.014601485679581038 0 0.0012081978283775309 -0.014741038894717944 0 0.0012428043430288322 -0.014834051175399555 0 0.0011845563655245889 -0.014834374887613225 0 0.0012081978283775309 -0.014741038894717944 0 0.0011845563655245889 -0.014834374887613225 0 0.0011066933742493873 -0.014878326339274528 0 0.0012081978283775309 -0.014741038894717944 0 0.00074234263298587184 -0.023348974270470405 0 0.00072668532322310608 -0.023743033677408681 0 0.00090939646122034027 -0.023549313966705048 0 0.00068805929495394439 -0.019891796668660106 0 0.001357050728136658 -0.021722297986232091 0 0.0010241993089180211 -0.023241341586486327 0 0.0012195351094580968 -0.023216678570458806 0 0.0011846747883670595 -0.022995453961957339 0 0.00065030458667534056 -0.023380183205278564 0 0.0010241993089180211 -0.023241341586486327 0 0.00069439057665039564 -0.022991047902128935 0 0.00065030458667534056 -0.023380183205278564 0 0.0010241993089180211 -0.023241341586486327 0 0.0010696397717033102 -0.023493402992312212 0 0.00065030458667534056 -0.023380183205278564 0 0.0010696397717033102 -0.023493402992312212 0 0.0010393185352775378 -0.02374362327291004 0 0.0010241993089180211 -0.023241341586486327 0 0.0010696397717033102 -0.023493402992312212 0 0.0012458637841786654 -0.023409892407420238 0 0.0010696397717033102 -0.023493402992312212 0 0.0010393185352775378 -0.02374362327291004 0 0.0012766233890950957 -0.023605385449517013 0 0.00090939646122034027 -0.023549313966705048 0 0.0010393185352775378 -0.02374362327291004 0 0.00090585087494878327 -0.023740237007136795 0 0.001357050728136658 -0.021722297986232091 0 0.0015196882661735966 -0.022228828558602462 0 0.0010393185352775378 -0.02374362327291004 0 0.00090585087494878327 -0.023740237007136795 0 0.0010848162681912812 -0.023954924794556996 0 0.0010393185352775378 -0.02374362327291004 0 0.0010848162681912812 -0.023954924794556996 0 0.0012039632811229057 -0.02381568833833865 0 0.00072668532322310608 -0.023743033677408681 0 0.00090939646122034027 -0.023549313966705048 0 0.00090585087494878327 -0.023740237007136795 0 0.00072668532322310608 -0.023743033677408681 0 0.00090585087494878327 -0.023740237007136795 0 0.00091129906465524499 -0.023947048290195404 0 0.00071535073416483007 -0.024148184967829969 0 0.00072668532322310608 -0.023743033677408681 0 0.00091129906465524499 -0.023947048290195404 0 0.00091129906465524499 -0.023947048290195404 0 0.0010848162681912812 -0.023954924794556996 0 0.0011364064674607016 -0.024180043270398983 0 0.00090585087494878327 -0.023740237007136795 0 0.00091129906465524499 -0.023947048290195404 0 0.0010848162681912812 -0.023954924794556996 0 0.0011364064674607016 -0.024180043270398983 0 0.001150545224514916 -0.024168343727988414 0 0.0011546627029881803 -0.024115856092968371 0 0.0010848162681912812 -0.023954924794556996 0 0.0011364064674607016 -0.024180043270398983 0 0.001150545224514916 -0.024168343727988414 0 0.0014423941948563603 -0.02422049393607071 0 0.0011364064674607016 -0.024180043270398983 0 0.0013024267356489905 -0.024056559717694378 0 0.0029020867277035093 -0.021619977733498254 0 0.0018645698075549291 -0.022176545989068024 0 0.00071535073416483007 -0.024148184967829969 0 0.00091129906465524499 -0.023947048290195404 0 0.0011364064674607016 -0.024180043270398983 0 0.00088938293448698549 -0.024368078644877438 0 0.00075121936876135003 -0.024417331068251592 0 0.00089562997631257224 -0.024244118565971133 0 0.00088938293448698549 -0.024368078644877438 0 0.0010242968425278308 -0.024568261792281516 0 0.00075121936876135003 -0.024417331068251592 0 0.00062144121244850955 -0.024453535203475301 0 0.0006885427379119079 -0.02439310961943297 0 0.001150545224514916 -0.024168343727988414 0 0.001273583343388006 -0.024055843787250245 0 0.0010505413898837437 -0.024227538740790366 0 0.0010322857423097143 -0.02413530134006172 0 0.0010422185243060271 -0.024163620700214872 0 0.00088938293448698549 -0.024368078644877438 0 0.0010242968425278308 -0.024568261792281516 0 0.0010505413898837437 -0.024227538740790366 0 0.0010848162681912812 -0.023954924794556996 0 0.001273583343388006 -0.024055843787250245 0 0.0012039632811229057 -0.02381568833833865 0 0.0010848162681912812 -0.023954924794556996 0 0.001150545224514916 -0.024168343727988414 0 0.001273583343388006 -0.024055843787250245 0 0.0010242968425278308 -0.024568261792281516 0 0.00080467612764726477 -0.024745450821763885 0 0.00075121936876135003 -0.024417331068251592 0 0.0010242968425278308 -0.024568261792281516 0 0.00080467612764726477 -0.024745450821763885 0 0.001030016357070126 -0.024854300609075619 0 0.0014141483962831528 -0.022942443185735944 0 0.0014379013582582628 -0.023002095955237001 0 0.0013675843743584323 -0.023034265405068251 0 0.00090020263734566486 -0.024074206800777515 0 0.00096575258735456717 -0.023837454646837244 0 0.0014141483962831528 -0.022942443185735944 0 0.0014850199279115731 -0.023001215528877187 0 0.0014379013582582628 -0.023002095955237001 0 0.0010322857423097143 -0.02413530134006172 0 0.00096575258735456717 -0.023837454646837244 0 0.001273583343388006 -0.024055843787250245 0 0.0012039632811229057 -0.02381568833833865 0 0.0013594176544556643 -0.023669090539282039 0 0.00096575258735456717 -0.023837454646837244 0 0.0009781776226179895 -0.023837942832545013 0 0.0010393185352775378 -0.02374362327291004 0 0.0012039632811229057 -0.02381568833833865 0 0.0012766233890950957 -0.023605385449517013 0 0.0012039632811229057 -0.02381568833833865 0 0.0013594176544556643 -0.023669090539282039 0 0.0012766233890950957 -0.023605385449517013 0 0.0014256746710687826 -0.023676937519238848 0 0.0012458637841786654 -0.023409892407420238 0 0.0014292789416491508 -0.02321906183710315 0 0.0014850199279115731 -0.023001215528877187 0 0.0014371459285500161 -0.023025368202233935 0 0.0014677260173902008 -0.023021983050818495 0 0.00096575258735456717 -0.023837454646837244 0 0.0010749597613272793 -0.023370168273603619 0 0.0014256746710687826 -0.023676937519238848 0 0.0012766233890950957 -0.023605385449517013 0 0.0012458637841786654 -0.023409892407420238 0 0.0010696397717033102 -0.023493402992312212 0 0.0012766233890950957 -0.023605385449517013 0 0.0012458637841786654 -0.023409892407420238 0 0.0014371459285500161 -0.023025368202233935 0 0.0014677260173902008 -0.023021983050818495 0 0.0014828362247926302 -0.023034236284804943 0 0.0010241993089180211 -0.023241341586486327 0 0.0012458637841786654 -0.023409892407420238 0 0.0012195351094580968 -0.023216678570458806 0 0.0012458637841786654 -0.023409892407420238 0 0.0014292789416491508 -0.02321906183710315 0 0.0012195351094580968 -0.023216678570458806 0 0.0014379013582582628 -0.023002095955237001 0 0.0014525184787578685 -0.023026373766333791 0 0.0014212686379877692 -0.023045498727456815 0 0.0014379013582582628 -0.023002095955237001 0 0.0014212686379877692 -0.023045498727456815 0 0.0013675843743584323 -0.023034265405068251 0 0.0014850199279115731 -0.023001215528877187 0 0.0014379013582582628 -0.023002095955237001 0 0.0014677260173902008 -0.023021983050818495 0 0.0014379013582582628 -0.023002095955237001 0 0.0014677260173902008 -0.023021983050818495 0 0.0014525184787578685 -0.023026373766333791 0 0.0014525184787578685 -0.023026373766333791 0 0.0014828362247926302 -0.023034236284804943 0 0.0014212686379877692 -0.023045498727456815 0 0.0014677260173902008 -0.023021983050818495 0 0.0014525184787578685 -0.023026373766333791 0 0.0014828362247926302 -0.023034236284804943 0 0.0014828362247926302 -0.023034236284804943 0 0.0014212686379877692 -0.023045498727456815 0 0.001359591720476947 -0.023149386645350836 0 0.0014828362247926302 -0.023034236284804943 0 0.0015241877813082089 -0.022847537852411965 0 0.0018749782607917649 -0.022767997760960407 0 0.0015241877813082089 -0.022847537852411965 0 0.0014569196552777822 -0.022603619622656501 0 0.0018749782607917649 -0.022767997760960407 0 0.00077419652714954255 -0.022466469335702691 0 4.0394495869800326e-05 -0.022602208078220148 0 -0.002135775043020342 -0.01675838795294431 0 -0.0028316876650778195 -0.01692297256365647 0 -0.003024022252911783 -0.016491244596639462 0 -0.00047951960006339104 -0.020777280207080293 0 4.0394495869800326e-05 -0.022602208078220148 0 -0.0024199720977737776 -0.017055839214093767 0 -0.002135775043020342 -0.01675838795294431 0 -0.0028316876650778195 -0.01692297256365647 0 0.0014569196552777822 -0.022603619622656501 0 0.0013960654209681544 -0.022760477151381846 0 0.0010481431638803202 -0.022654907295727996 0 -0.002135775043020342 -0.01675838795294431 0 -0.0012869708384933894 -0.017062887920854867 0 -0.001943602909482799 -0.017118516406371471 0 -0.0024199720977737776 -0.017055839214093767 0 -0.002135775043020342 -0.01675838795294431 0 -0.001943602909482799 -0.017118516406371471 0 0.0014371459285500161 -0.023025368202233935 0 0.0015241877813082089 -0.022847537852411965 0 0.0013960654209681544 -0.022760477151381846 0 0.0013960654209681544 -0.022760477151381846 0 0.0011846747883670595 -0.022995453961957339 0 0.0010481431638803202 -0.022654907295727996 0 0.0014292789416491508 -0.02321906183710315 0 0.0013960654209681544 -0.022760477151381846 0 0.0011846747883670595 -0.022995453961957339 0 0.0010749597613272793 -0.023370168273603619 0 0.0011068321432634739 -0.023200541336620681 0 0.0015241877813082089 -0.022847537852411965 0 0.0014569196552777822 -0.022603619622656501 0 0.0013960654209681544 -0.022760477151381846 0 0.0014371459285500161 -0.023025368202233935 0 0.0014828362247926302 -0.023034236284804943 0 0.0015241877813082089 -0.022847537852411965 0 0.0014292789416491508 -0.02321906183710315 0 0.0012195351094580968 -0.023216678570458806 0 0.0011846747883670595 -0.022995453961957339 0 0.00069439057665039564 -0.022991047902128935 0 0.00055525014827653306 -0.022687801014838284 0 0.0010481431638803202 -0.022654907295727996 0 0.0011846747883670595 -0.022995453961957339 0 0.00069439057665039564 -0.022991047902128935 0 0.0010481431638803202 -0.022654907295727996 0 0.0010241993089180211 -0.023241341586486327 0 0.0011846747883670595 -0.022995453961957339 0 0.00069439057665039564 -0.022991047902128935 0 0.00029507884500907887 -0.022985636298643346 0 0.00029719563570859838 -0.022944117020990321 0 0.00069439057665039564 -0.022991047902128935 0 0.00029507884500907887 -0.022985636298643346 0 0.00065030458667534056 -0.023380183205278564 0 0.00069439057665039564 -0.022991047902128935 0 0.00023741513390166888 -0.022623058570733687 0 0.00029719563570859838 -0.022944117020990321 0 0.00055525014827653306 -0.022687801014838284 0 0.00029719563570859838 -0.022944117020990321 0 0.00069439057665039564 -0.022991047902128935 0 0.00055525014827653306 -0.022687801014838284 0 0.00030073051918288508 -0.022445059458838682 0 0.00055525014827653306 -0.022687801014838284 0 0.00080516217758693355 -0.022332031688159663 0 6.0722090850386458e-05 -0.022063568800707426 0 0.00030073051918288508 -0.022445059458838682 0 0.00080516217758693355 -0.022332031688159663 0 0.00030073051918288508 -0.022445059458838682 0 0.00023741513390166888 -0.022623058570733687 0 0.00055525014827653306 -0.022687801014838284 0 -0.00047951960006339104 -0.020777280207080293 0 -0.0003273188599306827 -0.0199309731351664 0 0.00055525014827653306 -0.022687801014838284 0 0.00080516217758693355 -0.022332031688159663 0 0.0010481431638803202 -0.022654907295727996 0 0.0014569196552777822 -0.022603619622656501 0 0.00080516217758693355 -0.022332031688159663 0 0.0010481431638803202 -0.022654907295727996 0 -0.0012869708384933894 -0.017062887920854867 0 -0.0016375913754076668 -0.017430938114123756 0 -0.001943602909482799 -0.017118516406371471 0 -0.0012869708384933894 -0.017062887920854867 0 -0.0016375913754076668 -0.017430938114123756 0 -0.0010098411549987081 -0.017550298535427146 0 -0.00012085470679450678 -0.019275299421025575 0 -0.0003273188599306827 -0.0199309731351664 0 -0.00054601352129240652 -0.017351070740814718 0 -0.0012869708384933894 -0.017062887920854867 0 -0.0010098411549987081 -0.017550298535427146 0 -0.0010153668600935805 -0.018068747378608557 0 -0.0006919508913326766 -0.017813769178736616 0 -0.0010098411549987081 -0.017550298535427146 0 -0.0010153668600935805 -0.018068747378608557 0 -0.0010098411549987081 -0.017550298535427146 0 -0.0014220039775061936 -0.017824592500603413 0 -0.0015267421822495989 -0.018314076878893772 0 -0.0014220039775061936 -0.017824592500603413 0 -0.0019318967713820943 -0.017819842440557003 0 -0.0016375913754076668 -0.017430938114123756 0 -0.0010098411549987081 -0.017550298535427146 0 -0.0014220039775061936 -0.017824592500603413 0 -0.0016375913754076668 -0.017430938114123756 0 -0.0014220039775061936 -0.017824592500603413 0 -0.0019318967713820943 -0.017819842440557003 0 -0.0019318967713820943 -0.017819842440557003 0 -0.0026069721228738976 -0.017908999978241157 0 -0.0022339387870641565 -0.017365612794765041 0 -0.0021713073779107755 -0.01846481232091397 0 -0.0019318967713820943 -0.017819842440557003 0 -0.0026069721228738976 -0.017908999978241157 0 -0.0026069721228738976 -0.017908999978241157 0 -0.0022339387870641565 -0.017365612794765041 0 -0.0027424806292169488 -0.017271010897918871 0 -0.0024199720977737776 -0.017055839214093767 0 -0.0027424806292169488 -0.017271010897918871 0 -0.0028316876650778195 -0.01692297256365647 0 -0.0024199720977737776 -0.017055839214093767 0 -0.0022339387870641565 -0.017365612794765041 0 -0.0027424806292169488 -0.017271010897918871 0 -0.0016375913754076668 -0.017430938114123756 0 -0.0022339387870641565 -0.017365612794765041 0 -0.001943602909482799 -0.017118516406371471 0 -0.0024199720977737776 -0.017055839214093767 0 -0.0022339387870641565 -0.017365612794765041 0 -0.001943602909482799 -0.017118516406371471 0 -0.0016375913754076668 -0.017430938114123756 0 -0.0019318967713820943 -0.017819842440557003 0 -0.0022339387870641565 -0.017365612794765041 0 -0.0035092784583430222 -0.017307690114713174 0 -0.0031980434451275674 -0.017702021589881062 0 -0.00371200819822566 -0.01767308444384148 0 -0.0035092784583430222 -0.017307690114713174 0 -0.0031645726960700111 -0.017114109633919284 0 -0.0031980434451275674 -0.017702021589881062 0 -0.0035092784583430222 -0.017307690114713174 0 -0.00371200819822566 -0.01767308444384148 0 -0.0039458980437826552 -0.017207181174529969 0 -0.0035092784583430222 -0.017307690114713174 0 -0.0039458980437826552 -0.017207181174529969 0 -0.003494625030651166 -0.016851234358989494 0 -0.0035092784583430222 -0.017307690114713174 0 -0.0031645726960700111 -0.017114109633919284 0 -0.003494625030651166 -0.016851234358989494 0 -0.0027424806292169488 -0.017271010897918871 0 -0.0031645726960700111 -0.017114109633919284 0 -0.0031980434451275674 -0.017702021589881062 0 -0.0027424806292169488 -0.017271010897918871 0 -0.0031645726960700111 -0.017114109633919284 0 -0.0028316876650778195 -0.01692297256365647 0 -0.0026069721228738976 -0.017908999978241157 0 -0.0027424806292169488 -0.017271010897918871 0 -0.0031980434451275674 -0.017702021589881062 0 -0.0031875646533513747 -0.018219912740688255 0 -0.0026069721228738976 -0.017908999978241157 0 -0.0031980434451275674 -0.017702021589881062 0 -0.0037382057580074525 -0.018157632737927695 0 -0.0031875646533513747 -0.018219912740688255 0 -0.0031980434451275674 -0.017702021589881062 0 -0.0025296713389537312 -0.021019492722876815 0 -0.0026001126476049557 -0.019985274764335398 0 -0.004280037230456943 -0.018197472394349261 0 -0.0037382057580074525 -0.018157632737927695 0 -0.0031980434451275674 -0.017702021589881062 0 -0.0040263340797237106 -0.018152388981301112 0 -0.0031980434451275674 -0.017702021589881062 0 -0.00371200819822566 -0.01767308444384148 0 -0.0040263340797237106 -0.018152388981301112 0 -0.00371200819822566 -0.01767308444384148 0 -0.0039458980437826552 -0.017207181174529969 0 6.0732336439554429e-06 -0.024973372758793255 0 -2.6748753225865545e-07 -0.02497059858853614 0 1.0597109335807606e-05 -0.024951468125138213 0 -0.0025296713389537312 -0.021019492722876815 0 -0.00072926542745386808 -0.022619432057794889 0 6.0732336439554429e-06 -0.024973372758793255 0 -2.6748753225865545e-07 -0.02497059858853614 0 -3.8331669858897674e-06 -0.024978931526630454 0 -2.6748753225865545e-07 -0.02497059858853614 0 4.4869994691629624e-06 -0.024965145936958366 0 3.7662333433649741e-07 -0.02496932460277666 0 -2.6748753225865545e-07 -0.02497059858853614 0 3.7662333433649741e-07 -0.02496932460277666 0 -1.7196867388216829e-06 -0.024973204563495811 0 -0.00083064098274740364 -0.023293784586644519 0 -0.00072926542745386808 -0.022619432057794889 0 -2.6748753225865545e-07 -0.02497059858853614 0 4.4869994691629624e-06 -0.024965145936958366 0 8.6224188674969921e-06 -0.024963231666402404 0 4.4869994691629624e-06 -0.024965145936958366 0 8.6224188674969921e-06 -0.024963231666402404 0 8.9827806889753813e-06 -0.024959800765146627 0 -0.00072926542745386808 -0.022619432057794889 0 -0.0007261604105115346 -0.022799127749700412 0 4.4869994691629624e-06 -0.024965145936958366 0 8.9827806889753813e-06 -0.024959800765146627 0 4.7765976811527731e-06 -0.024960681925693482 0 8.9827806889753813e-06 -0.024959800765146627 0 8.8772859150241476e-06 -0.024961548689414616 0 4.7765976811527731e-06 -0.024960681925693482 0 7.2008435998038749e-06 -0.024976569437468392 0 6.8966121408104883e-06 -0.02497501178290492 0 8.8772859150241476e-06 -0.024961548689414616 0 4.7765976811527731e-06 -0.024960681925693482 0 1.0384640884290069e-05 -0.02496529046377538 0 8.5001915341190551e-06 -0.024955652924917002 0 8.9827806889753813e-06 -0.024959800765146627 0 6.4774102369184119e-06 -0.024958221107578404 0 4.4869994691629624e-06 -0.024965145936958366 0 3.7662333433649741e-07 -0.02496932460277666 0 4.7765976811527731e-06 -0.024960681925693482 0 2.042682468210467e-05 -0.024983648654139042 0 1.5457064370177358e-05 -0.024984493272874442 0 1.912286911958333e-05 -0.024981247651978348 0 2.042682468210467e-05 -0.024983648654139042 0 1.5457064370177358e-05 -0.024984493272874442 0 1.2472961943599537e-05 -0.024988475001299883 0 1.5457064370177358e-05 -0.024984493272874442 0 1.912286911958333e-05 -0.024981247651978348 0 1.720210839424389e-05 -0.024982667569541463 0 2.042682468210467e-05 -0.024983648654139042 0 1.912286911958333e-05 -0.024981247651978348 0 1.9105221754920766e-05 -0.024979213422478809 0 2.042682468210467e-05 -0.024983648654139042 0 1.9105221754920766e-05 -0.024979213422478809 0 1.6275648061128635e-05 -0.024974806741648727 0 1.912286911958333e-05 -0.024981247651978348 0 1.9605841041801926e-05 -0.024979534554749997 0 2.1224854257001172e-05 -0.024980473079549741 0 1.912286911958333e-05 -0.024981247651978348 0 1.9105221754920766e-05 -0.024979213422478809 0 1.9605841041801926e-05 -0.024979534554749997 0 1.9105221754920766e-05 -0.024979213422478809 0 1.9605841041801926e-05 -0.024979534554749997 0 1.8143849000733942e-05 -0.024977745277908348 0 1.9759087028181023e-05 -0.024979673247644458 0 1.989152548948989e-05 -0.024981692106156597 0 1.8143849000733942e-05 -0.024977745277908348 0 1.9605841041801926e-05 -0.024979534554749997 0 1.9759087028181023e-05 -0.024979673247644458 0 2.1224854257001172e-05 -0.024980473079549741 0 1.9605841041801926e-05 -0.024979534554749997 0 1.9759087028181023e-05 -0.024979673247644458 0 1.8143849000733942e-05 -0.024977745277908348 0 1.9759087028181023e-05 -0.024979673247644458 0 1.989152548948989e-05 -0.024981692106156597 0 2.1224854257001172e-05 -0.024980473079549741 0 0.00033159959637724779 -0.023759512976263768 0 0.00031474054208653835 -0.023785090223350451 0 2.1224854257001172e-05 -0.024980473079549741 0 2.0892169472045724e-05 -0.024981823442185677 0 2.500899675750787e-05 -0.024982879976530797 0 2.0351318815171503e-05 -0.024981868876659968 0 2.1224854257001172e-05 -0.024980473079549741 0 2.500899675750787e-05 -0.024982879976530797 0 0.00033159959637724779 -0.023759512976263768 0 0.0003302454549629896 -0.023773199492533613 0 1.912286911958333e-05 -0.024981247651978348 0 2.1224854257001172e-05 -0.024980473079549741 0 2.0892169472045724e-05 -0.024981823442185677 0 1.912286911958333e-05 -0.024981247651978348 0 2.0892169472045724e-05 -0.024981823442185677 0 1.720210839424389e-05 -0.024982667569541463 0 2.0892169472045724e-05 -0.024981823442185677 0 1.9060605625874148e-05 -0.024981045067621228 0 2.500899675750787e-05 -0.024982879976530797 0 2.0892169472045724e-05 -0.024981823442185677 0 1.9060605625874148e-05 -0.024981045067621228 0 1.720210839424389e-05 -0.024982667569541463 0 1.989152548948989e-05 -0.024981692106156597 0 1.8143849000733942e-05 -0.024977745277908348 0 1.1075794772800318e-05 -0.024969233283790835 0 1.6275648061128635e-05 -0.024974806741648727 0 1.8143849000733942e-05 -0.024977745277908348 0 1.1075794772800318e-05 -0.024969233283790835 0 0.0011443468958415922 -0.023088745022826301 0 0.001252912012424383 -0.023119507609290487 0 0.0012310246396219208 -0.023061769254523377 0 0.00033159959637724779 -0.023759512976263768 0 0.00047248436267495258 -0.023386519169371272 0 2.042682468210467e-05 -0.024983648654139042 0 1.6275648061128635e-05 -0.024974806741648727 0 1.0384640884290069e-05 -0.02496529046377538 0 1.6275648061128635e-05 -0.024974806741648727 0 1.1075794772800318e-05 -0.024969233283790835 0 1.0384640884290069e-05 -0.02496529046377538 0 1.9105221754920766e-05 -0.024979213422478809 0 1.6275648061128635e-05 -0.024974806741648727 0 1.8143849000733942e-05 -0.024977745277908348 0 0.001252912012424383 -0.023119507609290487 0 0.0013179529739393342 -0.023088592055851433 0 0.001359591720476947 -0.023149386645350836 0 1.1075794772800318e-05 -0.024969233283790835 0 1.0384640884290069e-05 -0.02496529046377538 0 -2.7322183129462281e-07 -0.024958894977811171 0 0.00047248436267495258 -0.023386519169371272 0 4.0394495869800326e-05 -0.022602208078220148 0 0.001252912012424383 -0.023119507609290487 0 0.0013179529739393342 -0.023088592055851433 0 0.0012924474925890821 -0.023050949494227403 0 1.0384640884290069e-05 -0.02496529046377538 0 6.4774102369184119e-06 -0.024958221107578404 0 -2.7322183129462281e-07 -0.024958894977811171 0 8.8772859150241476e-06 -0.024961548689414616 0 1.0384640884290069e-05 -0.02496529046377538 0 6.4774102369184119e-06 -0.024958221107578404 0 -0.00072926542745386808 -0.022619432057794889 0 -0.0005215031556863555 -0.022424471987109097 0 8.9827806889753813e-06 -0.024959800765146627 0 8.8772859150241476e-06 -0.024961548689414616 0 6.4774102369184119e-06 -0.024958221107578404 0 -0.003494625030651166 -0.016851234358989494 0 -0.0028316876650778195 -0.01692297256365647 0 -0.003024022252911783 -0.016491244596639462 0 -0.0031645726960700111 -0.017114109633919284 0 -0.003494625030651166 -0.016851234358989494 0 -0.0028316876650778195 -0.01692297256365647 0 -0.0005215031556863555 -0.022424471987109097 0 4.0394495869800326e-05 -0.022602208078220148 0 0.0013179529739393342 -0.023088592055851433 0 0.001359591720476947 -0.023149386645350836 0 0.0013675843743584323 -0.023034265405068251 0 0.0014212686379877692 -0.023045498727456815 0 0.001359591720476947 -0.023149386645350836 0 0.0013675843743584323 -0.023034265405068251 0 0.0013179529739393342 -0.023088592055851433 0 0.0013675843743584323 -0.023034265405068251 0 0.0012924474925890821 -0.023050949494227403 0 0.0013675843743584323 -0.023034265405068251 0 0.0012924474925890821 -0.023050949494227403 0 0.0013224587807229413 -0.022978417213117237 0 0.0012924474925890821 -0.023050949494227403 0 0.0013224587807229413 -0.022978417213117237 0 0.0012343745165834335 -0.022988431533933876 0 0.001252912012424383 -0.023119507609290487 0 0.0012924474925890821 -0.023050949494227403 0 0.0012310246396219208 -0.023061769254523377 0 0.0012924474925890821 -0.023050949494227403 0 0.0012343745165834335 -0.022988431533933876 0 0.0012310246396219208 -0.023061769254523377 0 0.00066805040625172367 -0.024344352970924851 0 0.00057538845239083099 -0.023986227325146874 0 0.0013224587807229413 -0.022978417213117237 0 0.0013210694616017753 -0.022894473630655686 0 0.0012343745165834335 -0.022988431533933876 0 0.0014141483962831528 -0.022942443185735944 0 0.0013675843743584323 -0.023034265405068251 0 0.0013224587807229413 -0.022978417213117237 0 0.0014141483962831528 -0.022942443185735944 0 0.0013224587807229413 -0.022978417213117237 0 0.0013210694616017753 -0.022894473630655686 0 0.00090020263734566486 -0.024074206800777515 0 0.00066805040625172367 -0.024344352970924851 0 0.00080467612764726477 -0.024745450821763885 0 0.00056982336886804159 -0.024629178916510799 0 0.00075121936876135003 -0.024417331068251592 0 0.00066805040625172367 -0.024344352970924851 0 0.00062144121244850955 -0.024453535203475301 0 0.00066805040625172367 -0.024344352970924851 0 0.00030661930239420803 -0.024500880053946957 0 0.00011873796158898942 -0.024913976108146395 0 7.0551796898013109e-05 -0.024890959658551825 0 7.5346666845097472e-05 -0.024960042765039381 0 5.3850247442793361e-05 -0.02476364760868301 0 -4.0027847906678783e-05 -0.024816981720487814 0 -2.5547906546355803e-05 -0.024736442674495408 0 0.00010596204562532908 -0.024987989580260366 0 5.3850247442793361e-05 -0.02476364760868301 0 -4.0027847906678783e-05 -0.024816981720487814 0 0.00010596204562532908 -0.024987989580260366 0 5.3850247442793361e-05 -0.02476364760868301 0 0.00039996579203640126 -0.024804783974960047 0 5.3850247442793361e-05 -0.02476364760868301 0 0.00039996579203640126 -0.024804783974960047 0 0.00043063663024599003 -0.024436620535328975 0 0.00020955907861908588 -0.024548673322589597 0 0.00030661930239420803 -0.024500880053946957 0 7.4206844633409717e-07 -0.024852313014876108 0 7.0551796898013109e-05 -0.024890959658551825 0 3.8267934245325298e-05 -0.02492320524700193 0 7.4206844633409717e-07 -0.024852313014876108 0 -4.0027847906678783e-05 -0.024816981720487814 0 -2.5547906546355803e-05 -0.024736442674495408 0 7.0551796898013109e-05 -0.024890959658551825 0 3.8267934245325298e-05 -0.02492320524700193 0 7.5346666845097472e-05 -0.024960042765039381 0 7.4206844633409717e-07 -0.024852313014876108 0 3.8267934245325298e-05 -0.02492320524700193 0 6.8026503288293616e-06 -0.02493122285633655 0 3.8267934245325298e-05 -0.02492320524700193 0 2.9890806827656792e-05 -0.02495329218811675 0 6.8026503288293616e-06 -0.02493122285633655 0 2.9890806827656792e-05 -0.02495329218811675 0 1.6407547713458386e-05 -0.024966613800662833 0 9.002624946688208e-06 -0.024955049906538553 0 3.8267934245325298e-05 -0.02492320524700193 0 2.9890806827656792e-05 -0.02495329218811675 0 7.5346666845097472e-05 -0.024960042765039381 0 2.9890806827656792e-05 -0.02495329218811675 0 7.5346666845097472e-05 -0.024960042765039381 0 4.0055116951862923e-05 -0.024970214140241306 0 0.0011443468958415922 -0.023088745022826301 0 0.0012343745165834335 -0.022988431533933876 0 0.0012310246396219208 -0.023061769254523377 0 3.5592983867937087e-05 -0.024987451052129961 0 7.5346666845097472e-05 -0.024960042765039381 0 4.0055116951862923e-05 -0.024970214140241306 0 0.00033159959637724779 -0.023759512976263768 0 0.00057538845239083099 -0.023986227325146874 0 2.5069230011938434e-05 -0.024973137686533021 0 1.4406592160396083e-05 -0.024976744555620708 0 1.6407547713458386e-05 -0.024966613800662833 0 2.9890806827656792e-05 -0.02495329218811675 0 2.5069230011938434e-05 -0.024973137686533021 0 1.6407547713458386e-05 -0.024966613800662833 0 2.9890806827656792e-05 -0.02495329218811675 0 2.5069230011938434e-05 -0.024973137686533021 0 4.0055116951862923e-05 -0.024970214140241306 0 2.5069230011938434e-05 -0.024973137686533021 0 4.0055116951862923e-05 -0.024970214140241306 0 2.500899675750787e-05 -0.024982879976530797 0 3.5592983867937087e-05 -0.024987451052129961 0 4.0055116951862923e-05 -0.024970214140241306 0 2.500899675750787e-05 -0.024982879976530797 0 1.9060605625874148e-05 -0.024981045067621228 0 2.5069230011938434e-05 -0.024973137686533021 0 2.500899675750787e-05 -0.024982879976530797 0 1.9060605625874148e-05 -0.024981045067621228 0 2.5069230011938434e-05 -0.024973137686533021 0 1.4406592160396083e-05 -0.024976744555620708 0 1.9060605625874148e-05 -0.024981045067621228 0 1.4406592160396083e-05 -0.024976744555620708 0 1.366524862167958e-05 -0.024981793642307917 0 1.4406592160396083e-05 -0.024976744555620708 0 7.6876725004579711e-06 -0.024980886813177786 0 1.366524862167958e-05 -0.024981793642307917 0 1.4406592160396083e-05 -0.024976744555620708 0 7.6876725004579711e-06 -0.024980886813177786 0 7.3693363565867432e-06 -0.024970850488726319 0 1.4406592160396083e-05 -0.024976744555620708 0 7.3693363565867432e-06 -0.024970850488726319 0 1.6407547713458386e-05 -0.024966613800662833 0 7.6876725004579711e-06 -0.024980886813177786 0 -6.2372582645670337e-07 -0.024976029170877274 0 5.6693952709234507e-08 -0.024985321909286141 0 7.6876725004579711e-06 -0.024980886813177786 0 7.3693363565867432e-06 -0.024970850488726319 0 -6.2372582645670337e-07 -0.024976029170877274 0 -6.2372582645670337e-07 -0.024976029170877274 0 -2.055880003237949e-06 -0.024959422804639048 0 -4.3736472533682884e-06 -0.02498254590187109 0 7.3693363565867432e-06 -0.024970850488726319 0 -6.2372582645670337e-07 -0.024976029170877274 0 -2.055880003237949e-06 -0.024959422804639048 0 -2.055880003237949e-06 -0.024959422804639048 0 9.002624946688208e-06 -0.024955049906538553 0 6.8026503288293616e-06 -0.02493122285633655 0 7.3693363565867432e-06 -0.024970850488726319 0 1.6407547713458386e-05 -0.024966613800662833 0 9.002624946688208e-06 -0.024955049906538553 0 7.3693363565867432e-06 -0.024970850488726319 0 -2.055880003237949e-06 -0.024959422804639048 0 9.002624946688208e-06 -0.024955049906538553 0 2.9890806827656792e-05 -0.02495329218811675 0 9.002624946688208e-06 -0.024955049906538553 0 6.8026503288293616e-06 -0.02493122285633655 0 -2.055880003237949e-06 -0.024959422804639048 0 6.8026503288293616e-06 -0.02493122285633655 0 -3.7681666587358405e-06 -0.024930888873717631 0 7.4206844633409717e-07 -0.024852313014876108 0 6.8026503288293616e-06 -0.02493122285633655 0 -3.7681666587358405e-06 -0.024930888873717631 0 -2.055880003237949e-06 -0.024959422804639048 0 -3.7681666587358405e-06 -0.024930888873717631 0 -4.074652346082943e-06 -0.024968401411347561 0 -3.7681666587358405e-06 -0.024930888873717631 0 -3.3882176958229733e-06 -0.024938458776185102 0 1.7366910583545735e-06 -0.024895315107076221 0 -3.7681666587358405e-06 -0.024930888873717631 0 -3.3882176958229733e-06 -0.024938458776185102 0 -4.074652346082943e-06 -0.024968401411347561 0 7.4206844633409717e-07 -0.024852313014876108 0 -3.7681666587358405e-06 -0.024930888873717631 0 1.7366910583545735e-06 -0.024895315107076221 0 -3.3882176958229733e-06 -0.024938458776185102 0 -4.074652346082943e-06 -0.024968401411347561 0 2.9472593234318975e-07 -0.024958506009814911 0 -4.074652346082943e-06 -0.024968401411347561 0 -1.28999192368206e-08 -0.024999960632231779 0 2.9472593234318975e-07 -0.024958506009814911 0 -1.28999192368206e-08 -0.024999960632231779 0 2.9472593234318975e-07 -0.024958506009814911 0 2.5018541606871695e-09 -0.024999936196063693 0 -4.074652346082943e-06 -0.024968401411347561 0 -1.28999192368206e-08 -0.024999960632231779 0 -4.3736472533682884e-06 -0.02498254590187109 0 -1.28999192368206e-08 -0.024999960632231779 0 -4.3736472533682884e-06 -0.02498254590187109 0 -2.4076297567115382e-09 -0.024999982041010733 0 -2.055880003237949e-06 -0.024959422804639048 0 -4.074652346082943e-06 -0.024968401411347561 0 -4.3736472533682884e-06 -0.02498254590187109 0 -4.3736472533682884e-06 -0.02498254590187109 0 -2.393378274568451e-06 -0.024992889862824587 0 5.6693952709234507e-08 -0.024985321909286141 0 -6.2372582645670337e-07 -0.024976029170877274 0 -4.3736472533682884e-06 -0.02498254590187109 0 5.6693952709234507e-08 -0.024985321909286141 0 -4.3736472533682884e-06 -0.02498254590187109 0 -2.4076297567115382e-09 -0.024999982041010733 0 -2.393378274568451e-06 -0.024992889862824587 0 -2.4076297567115382e-09 -0.024999982041010733 0 -3.981498287157898e-09 -0.024999987429955413 0 -2.393378274568451e-06 -0.024992889862824587 0 -3.981498287157898e-09 -0.024999987429955413 0 -1.6876435993538385e-06 -0.024993172019194015 0 -2.393378274568451e-06 -0.024992889862824587 0 -6.3526878405019016e-10 -0.024999998654664859 0 -1.8199427400117009e-06 -0.024995880253107117 0 -1.0996719216853019e-06 -0.024997135854680178 0 -9.3889141235616041e-10 -0.024999994751069128 0 -7.8283824910472563e-08 -0.024997802079285515 0 -1.6876435993538385e-06 -0.024993172019194015 0 -2.9439788495390435e-07 -0.024990181564963118 0 -2.393378274568451e-06 -0.024992889862824587 0 -2.9439788495390435e-07 -0.024990181564963118 0 -2.393378274568451e-06 -0.024992889862824587 0 5.6693952709234507e-08 -0.024985321909286141 0 5.6693952709234507e-08 -0.024985321909286141 0 3.4249111771329077e-06 -0.024988204803541362 0 6.1955476218716978e-06 -0.024985196671195319 0 7.6876725004579711e-06 -0.024980886813177786 0 5.6693952709234507e-08 -0.024985321909286141 0 6.1955476218716978e-06 -0.024985196671195319 0 3.4249111771329077e-06 -0.024988204803541362 0 6.1955476218716978e-06 -0.024985196671195319 0 7.8490537754066492e-06 -0.024988808943952282 0 -2.9439788495390435e-07 -0.024990181564963118 0 5.6693952709234507e-08 -0.024985321909286141 0 3.4249111771329077e-06 -0.024988204803541362 0 -2.9439788495390435e-07 -0.024990181564963118 0 3.4249111771329077e-06 -0.024988204803541362 0 2.9199895502086848e-06 -0.024990943840498468 0 1.720210839424389e-05 -0.024982667569541463 0 1.366524862167958e-05 -0.024981793642307917 0 1.1281784978792716e-05 -0.024985039439267959 0 1.9060605625874148e-05 -0.024981045067621228 0 1.720210839424389e-05 -0.024982667569541463 0 1.366524862167958e-05 -0.024981793642307917 0 7.6876725004579711e-06 -0.024980886813177786 0 1.366524862167958e-05 -0.024981793642307917 0 1.1281784978792716e-05 -0.024985039439267959 0 7.6876725004579711e-06 -0.024980886813177786 0 6.1955476218716978e-06 -0.024985196671195319 0 1.1281784978792716e-05 -0.024985039439267959 0 6.1955476218716978e-06 -0.024985196671195319 0 1.1281784978792716e-05 -0.024985039439267959 0 7.8490537754066492e-06 -0.024988808943952282 0 1.1281784978792716e-05 -0.024985039439267959 0 1.1677432802659719e-05 -0.024986679195019759 0 7.8490537754066492e-06 -0.024988808943952282 0 1.5457064370177358e-05 -0.024984493272874442 0 1.720210839424389e-05 -0.024982667569541463 0 1.1281784978792716e-05 -0.024985039439267959 0 1.5457064370177358e-05 -0.024984493272874442 0 1.1281784978792716e-05 -0.024985039439267959 0 1.1677432802659719e-05 -0.024986679195019759 0 3.7662333433649741e-07 -0.02496932460277666 0 4.7765976811527731e-06 -0.024960681925693482 0 -5.230687468420626e-06 -0.024973490496554011 0 7.2008435998038749e-06 -0.024976569437468392 0 4.5881507978674639e-06 -0.024980641203524834 0 2.042682468210467e-05 -0.024983648654139042 0 1.2472961943599537e-05 -0.024988475001299883 0 6.2852375618982308e-06 -0.024995883466765175 0 1.2472961943599537e-05 -0.024988475001299883 0 1.1677432802659719e-05 -0.024986679195019759 0 7.8490537754066492e-06 -0.024988808943952282 0 1.5457064370177358e-05 -0.024984493272874442 0 1.2472961943599537e-05 -0.024988475001299883 0 1.1677432802659719e-05 -0.024986679195019759 0 1.2472961943599537e-05 -0.024988475001299883 0 7.8490537754066492e-06 -0.024988808943952282 0 7.9938659840847932e-06 -0.024991345110661888 0 7.8490537754066492e-06 -0.024988808943952282 0 6.5970510883712896e-06 -0.024990913260778177 0 7.9938659840847932e-06 -0.024991345110661888 0 1.2472961943599537e-05 -0.024988475001299883 0 7.9938659840847932e-06 -0.024991345110661888 0 6.2852375618982308e-06 -0.024995883466765175 0 6.5970510883712896e-06 -0.024990913260778177 0 7.9938659840847932e-06 -0.024991345110661888 0 4.8618212099279737e-06 -0.02499299643998025 0 7.9938659840847932e-06 -0.024991345110661888 0 4.8618212099279737e-06 -0.02499299643998025 0 6.2852375618982308e-06 -0.024995883466765175 0 -1.6876435993538385e-06 -0.024993172019194015 0 -2.9439788495390435e-07 -0.024990181564963118 0 2.9199895502086848e-06 -0.024990943840498468 0 -7.8283824910472563e-08 -0.024997802079285515 0 1.5248599654731606e-06 -0.024997167744440212 0 -1.8199427400117009e-06 -0.024995880253107117 0 4.8618212099279737e-06 -0.02499299643998025 0 9.544232381901277e-07 -0.024994360196055825 0 -1.6876435993538385e-06 -0.024993172019194015 0 2.9199895502086848e-06 -0.024990943840498468 0 4.8618212099279737e-06 -0.02499299643998025 0 7.8490537754066492e-06 -0.024988808943952282 0 6.5970510883712896e-06 -0.024990913260778177 0 2.9199895502086848e-06 -0.024990943840498468 0 3.4249111771329077e-06 -0.024988204803541362 0 7.8490537754066492e-06 -0.024988808943952282 0 2.9199895502086848e-06 -0.024990943840498468 0 4.8618212099279737e-06 -0.02499299643998025 0 9.544232381901277e-07 -0.024994360196055825 0 6.2852375618982308e-06 -0.024995883466765175 0 6.5970510883712896e-06 -0.024990913260778177 0 2.9199895502086848e-06 -0.024990943840498468 0 4.8618212099279737e-06 -0.02499299643998025 0 9.544232381901277e-07 -0.024994360196055825 0 6.2852375618982308e-06 -0.024995883466765175 0 -3.1685951189721286e-06 -0.024993364090489405 0 4.5881507978674639e-06 -0.024980641203524834 0 2.9994172859063133e-06 -0.024982926032525117 0 -5.0683159306041905e-06 -0.024983425423952609 0 -5.230687468420626e-06 -0.024973490496554011 0 -3.1685951189721286e-06 -0.024993364090489405 0 -2.6748753225865545e-07 -0.02497059858853614 0 -3.6089403321131992e-06 -0.024977617073213339 0 -1.7196867388216829e-06 -0.024973204563495811 0 3.7662333433649741e-07 -0.02496932460277666 0 -5.230687468420626e-06 -0.024973490496554011 0 -1.7196867388216829e-06 -0.024973204563495811 0 -5.0683159306041905e-06 -0.024983425423952609 0 -5.230687468420626e-06 -0.024973490496554011 0 -3.6089403321131992e-06 -0.024977617073213339 0 -5.230687468420626e-06 -0.024973490496554011 0 -3.6089403321131992e-06 -0.024977617073213339 0 -1.7196867388216829e-06 -0.024973204563495811 0 -2.6748753225865545e-07 -0.02497059858853614 0 -3.6089403321131992e-06 -0.024977617073213339 0 -3.8331669858897674e-06 -0.024978931526630454 0 -3.6089403321131992e-06 -0.024977617073213339 0 -3.8331669858897674e-06 -0.024978931526630454 0 -5.239485483655836e-06 -0.024983850087477426 0 -5.0683159306041905e-06 -0.024983425423952609 0 -4.6921361802202268e-06 -0.024989079297965979 0 -3.1685951189721286e-06 -0.024993364090489405 0 -5.0683159306041905e-06 -0.024983425423952609 0 -5.239485483655836e-06 -0.024983850087477426 0 -4.6921361802202268e-06 -0.024989079297965979 0 -5.0683159306041905e-06 -0.024983425423952609 0 -3.6089403321131992e-06 -0.024977617073213339 0 -5.239485483655836e-06 -0.024983850087477426 0 -5.5078187471008354e-06 -0.02498861481036755 0 -5.239485483655836e-06 -0.024983850087477426 0 -4.6921361802202268e-06 -0.024989079297965979 0 -3.7097530919642206e-06 -0.024992813355462641 0 -4.6921361802202268e-06 -0.024989079297965979 0 -1.9622269611503139e-06 -0.024995353137679095 0 -4.6921361802202268e-06 -0.024989079297965979 0 -1.9622269611503139e-06 -0.024995353137679095 0 -3.1685951189721286e-06 -0.024993364090489405 0 -2.8377182575917332e-09 -0.024999991905749665 0 -1.0503664226589046e-09 -0.024999990945653663 0 -1.9622269611503139e-06 -0.024995353137679095 0 -1.0503664226589046e-09 -0.024999990945653663 0 -1.9622269611503139e-06 -0.024995353137679095 0 -1.0996719216853019e-06 -0.024997135854680178 0 -6.3526878405019016e-10 -0.024999998654664859 0 -1.0503664226589046e-09 -0.024999990945653663 0 -1.0996719216853019e-06 -0.024997135854680178 0 -1.8199427400117009e-06 -0.024995880253107117 0 9.544232381901277e-07 -0.024994360196055825 0 -3.1685951189721286e-06 -0.024993364090489405 0 -1.8199427400117009e-06 -0.024995880253107117 0 -1.0996719216853019e-06 -0.024997135854680178 0 -3.1685951189721286e-06 -0.024993364090489405 0 -1.9622269611503139e-06 -0.024995353137679095 0 -1.0996719216853019e-06 -0.024997135854680178 0 -3.1685951189721286e-06 -0.024993364090489405 0 0.0031983432390414982 -0.0070738961595484271 0 0.0033469003092639299 -0.0063589475225891675 0 0.0038011256492769814 -0.0071369859574635626 0 0.0045797049000125753 -0.0075353291347682958 0 0.0038419076515202135 -0.0070949795203334694 0 0.0044430916511134086 -0.0084634054388518214 0 0.0037484760519972114 -0.0069164623478815595 0 0.004209913388045626 -0.0079667005590756193 0 0.0031983432390414982 -0.0070738961595484271 0 0.003041309432186974 -0.0066743129177755456 0 0.0033469003092639299 -0.0063589475225891675 0 0.0031983432390414982 -0.0070738961595484271 0 0.0026663768091499049 -0.0071715115053639037 0 0.003041309432186974 -0.0066743129177755456 0 0.003041309432186974 -0.0066743129177755456 0 0.003065109785306067 -0.0063095887565231181 0 0.0033469003092639299 -0.0063589475225891675 0 0.003041309432186974 -0.0066743129177755456 0 0.003065109785306067 -0.0063095887565231181 0 0.0026633806695280874 -0.0063158499734992067 0 0.003065109785306067 -0.0063095887565231181 0 0.0033469003092639299 -0.0063589475225891675 0 0.0032863812895525635 -0.0057465821791448614 0 0.003065109785306067 -0.0063095887565231181 0 0.0026633806695280874 -0.0063158499734992067 0 0.0029162127795927494 -0.0061241279296322532 0 0.0045797049000125753 -0.0075353291347682958 0 0.0038798341662279589 -0.0067215529904673535 0 0.0054592382068267224 -0.0072523029480025866 0 0.0045797049000125753 -0.0075353291347682958 0 0.0038798341662279589 -0.0067215529904673535 0 0.0038419076515202135 -0.0070949795203334694 0 0.0038798341662279589 -0.0067215529904673535 0 0.0054592382068267224 -0.0072523029480025866 0 0.0054913656633118436 -0.005924092494552155 0 0.0054592382068267224 -0.0072523029480025866 0 0.0065204723812943817 -0.0079836144487823481 0 0.0067757082281446075 -0.007081880891549994 0 0.0054592382068267224 -0.0072523029480025866 0 0.0054913656633118436 -0.005924092494552155 0 0.0067757082281446075 -0.007081880891549994 0 0.0065204723812943817 -0.0079836144487823481 0 0.005263053034483745 -0.0081361479097793697 0 0.0059949714314667139 -0.0086301918966967938 0 0.0054592382068267224 -0.0072523029480025866 0 0.0065204723812943817 -0.0079836144487823481 0 0.005263053034483745 -0.0081361479097793697 0 0.0045797049000125753 -0.0075353291347682958 0 0.0054592382068267224 -0.0072523029480025866 0 0.005263053034483745 -0.0081361479097793697 0 0.0045797049000125753 -0.0075353291347682958 0 0.005263053034483745 -0.0081361479097793697 0 0.0044430916511134086 -0.0084634054388518214 0 0.005263053034483745 -0.0081361479097793697 0 0.0050175143942351244 -0.0097856117392421966 0 0.0044430916511134086 -0.0084634054388518214 0 0.005263053034483745 -0.0081361479097793697 0 0.0059949714314667139 -0.0086301918966967938 0 0.0050175143942351244 -0.0097856117392421966 0 0.0047498336450049776 -0.0092019434860294569 0 0.004209913388045626 -0.0079667005590756193 0 0.0059949714314667139 -0.0086301918966967938 0 0.0059828072894570535 -0.0094745362255778259 0 0.0074649149280799501 -0.0085644758998068907 0 0.0059949714314667139 -0.0086301918966967938 0 0.0059828072894570535 -0.0094745362255778259 0 0.0050175143942351244 -0.0097856117392421966 0 0.0059828072894570535 -0.0094745362255778259 0 0.0059848546156924896 -0.010258311036248781 0 0.0065880504359942518 -0.010155685043823181 0 0.0059828072894570535 -0.0094745362255778259 0 0.0059848546156924896 -0.010258311036248781 0 0.0050175143942351244 -0.0097856117392421966 0 0.0047470274451282927 -0.0086318206249972433 0 0.0036881246084774916 -0.009218572509434907 0 0.0033677673144372673 -0.0080294406718025395 0 0.0036881246084774916 -0.009218572509434907 0 0.0033677673144372673 -0.0080294406718025395 0 0.0027216175145772367 -0.0088975470273407603 0 0.0031983432390414982 -0.0070738961595484271 0 0.0033677673144372673 -0.0080294406718025395 0 0.0038011256492769814 -0.0071369859574635626 0 0.0047470274451282927 -0.0086318206249972433 0 0.0033677673144372673 -0.0080294406718025395 0 0.0038011256492769814 -0.0071369859574635626 0 0.0031983432390414982 -0.0070738961595484271 0 0.0033677673144372673 -0.0080294406718025395 0 0.0028657677214135873 -0.0076267748720289085 0 0.0026663768091499049 -0.0071715115053639037 0 0.0028657677214135873 -0.0076267748720289085 0 0.0023872713501132421 -0.0075875456376565649 0 0.0031983432390414982 -0.0070738961595484271 0 0.0026663768091499049 -0.0071715115053639037 0 0.0028657677214135873 -0.0076267748720289085 0 0.0033677673144372673 -0.0080294406718025395 0 0.0028657677214135873 -0.0076267748720289085 0 0.0026494902600467727 -0.0081925721458750364 0 0.0028657677214135873 -0.0076267748720289085 0 0.0026494902600467727 -0.0081925721458750364 0 0.0023872713501132421 -0.0075875456376565649 0 0.0033677673144372673 -0.0080294406718025395 0 0.0026494902600467727 -0.0081925721458750364 0 0.0027216175145772367 -0.0088975470273407603 0 0.0026494902600467727 -0.0081925721458750364 0 0.0027216175145772367 -0.0088975470273407603 0 0.0025288211061712243 -0.0085630622660073132 0 0.0026494902600467727 -0.0081925721458750364 0 0.0025288211061712243 -0.0085630622660073132 0 0.0023031801480929539 -0.0081611383423930445 0 0.0023031801480929539 -0.0081611383423930445 0 0.0023396360941528162 -0.0085206961776820127 0 0.0021152819223971072 -0.0082854738381663313 0 0.0025288211061712243 -0.0085630622660073132 0 0.0023031801480929539 -0.0081611383423930445 0 0.0023396360941528162 -0.0085206961776820127 0 0.0026494902600467727 -0.0081925721458750364 0 0.0023031801480929539 -0.0081611383423930445 0 0.0023872713501132421 -0.0075875456376565649 0 0.0023031801480929539 -0.0081611383423930445 0 0.0018808914784247154 -0.0079647873288098987 0 0.0019857305019252871 -0.0076053797577310149 0 0.0023031801480929539 -0.0081611383423930445 0 0.0018808914784247154 -0.0079647873288098987 0 0.0021152819223971072 -0.0082854738381663313 0 0.0018808914784247154 -0.0079647873288098987 0 0.0016201951760888248 -0.0075150792053224873 0 0.0013725346854020647 -0.0079477437958427304 0 0.0018808914784247154 -0.0079647873288098987 0 0.0013725346854020647 -0.0079477437958427304 0 0.0018461180306790258 -0.0082870786739804025 0 0.0018808914784247154 -0.0079647873288098987 0 0.0018461180306790258 -0.0082870786739804025 0 0.0021152819223971072 -0.0082854738381663313 0 0.0018808914784247154 -0.0079647873288098987 0 0.0016201951760888248 -0.0075150792053224873 0 0.0019857305019252871 -0.0076053797577310149 0 0.0016201951760888248 -0.0075150792053224873 0 0.0013499853125938344 -0.0071670305772836484 0 0.0018614846562095243 -0.0069112451726415459 0 0.0016201951760888248 -0.0075150792053224873 0 0.0019857305019252871 -0.0076053797577310149 0 0.0018614846562095243 -0.0069112451726415459 0 0.0026663768091499049 -0.0071715115053639037 0 0.0023872713501132421 -0.0075875456376565649 0 0.0018614846562095243 -0.0069112451726415459 0 0.0023872713501132421 -0.0075875456376565649 0 0.0019857305019252871 -0.0076053797577310149 0 0.0018614846562095243 -0.0069112451726415459 0 0.0023031801480929539 -0.0081611383423930445 0 0.0023872713501132421 -0.0075875456376565649 0 0.0019857305019252871 -0.0076053797577310149 0 0.00095141067199679304 -0.0072771968345776272 0 0.0012031513543671302 -0.0075306491179784616 0 0.0013725346854020647 -0.0079477437958427304 0 0.00095141067199679304 -0.0072771968345776272 0 0.0010638329695264921 -0.0072757043560675739 0 0.0012031513543671302 -0.0075306491179784616 0 0.00097907391707341223 -0.0070276021046727826 0 0.0010638329695264921 -0.0072757043560675739 0 0.0011351467271916581 -0.0072730835892623209 0 0.00095141067199679304 -0.0072771968345776272 0 0.00097907391707341223 -0.0070276021046727826 0 0.0010638329695264921 -0.0072757043560675739 0 0.0010638329695264921 -0.0072757043560675739 0 0.0011351467271916581 -0.0072730835892623209 0 0.0012031513543671302 -0.0075306491179784616 0 0.0016201951760888248 -0.0075150792053224873 0 0.0013217827127487722 -0.0074241799599061046 0 0.0013725346854020647 -0.0079477437958427304 0 0.0011351467271916581 -0.0072730835892623209 0 0.0013217827127487722 -0.0074241799599061046 0 0.0012031513543671302 -0.0075306491179784616 0 0.0013217827127487722 -0.0074241799599061046 0 0.0012031513543671302 -0.0075306491179784616 0 0.0013725346854020647 -0.0079477437958427304 0 0.0016201951760888248 -0.0075150792053224873 0 0.0013217827127487722 -0.0074241799599061046 0 0.0013499853125938344 -0.0071670305772836484 0 0.0013499853125938344 -0.0071670305772836484 0 0.00120934006066906 -0.0070913719420984409 0 0.0011944901574132353 -0.0071769068962164624 0 0.0013499853125938344 -0.0071670305772836484 0 0.0011936983722554573 -0.0069827525247596603 0 0.0011922684795125525 -0.0070160161047291706 0 0.0013499853125938344 -0.0071670305772836484 0 0.00120934006066906 -0.0070913719420984409 0 0.0011922684795125525 -0.0070160161047291706 0 0.0011710634464209074 -0.0070316237546075681 0 0.00120934006066906 -0.0070913719420984409 0 0.0011922684795125525 -0.0070160161047291706 0 0.0011351467271916581 -0.0072730835892623209 0 0.0013217827127487722 -0.0074241799599061046 0 0.0011944901574132353 -0.0071769068962164624 0 0.0013217827127487722 -0.0074241799599061046 0 0.0013499853125938344 -0.0071670305772836484 0 0.0011944901574132353 -0.0071769068962164624 0 0.00095453135188197365 -0.0068256244791650676 0 0.00097907391707341223 -0.0070276021046727826 0 0.0010659448793030675 -0.0070593264801403609 0 0.0012782177513527147 -0.0063903782100021055 0 0.0017427413282284936 -0.0063308511641461179 0 0.00095453135188197365 -0.0068256244791650676 0 0.0011252401880828817 -0.0070257065865622992 0 0.0011963490174970125 -0.0070093405868195471 0 0.00095453135188197365 -0.0068256244791650676 0 0.0011252401880828817 -0.0070257065865622992 0 0.0010659448793030675 -0.0070593264801403609 0 0.0011351467271916581 -0.0072730835892623209 0 0.0011944901574132353 -0.0071769068962164624 0 0.0010659448793030675 -0.0070593264801403609 0 0.0011944901574132353 -0.0071769068962164624 0 0.0011252401880828817 -0.0070257065865622992 0 0.0010659448793030675 -0.0070593264801403609 0 0.00120934006066906 -0.0070913719420984409 0 0.0011944901574132353 -0.0071769068962164624 0 0.0011252401880828817 -0.0070257065865622992 0 0.0011710634464209074 -0.0070316237546075681 0 0.0011252401880828817 -0.0070257065865622992 0 0.0011963490174970125 -0.0070093405868195471 0 0.0011710634464209074 -0.0070316237546075681 0 0.00120934006066906 -0.0070913719420984409 0 0.0011252401880828817 -0.0070257065865622992 0 0.00097907391707341223 -0.0070276021046727826 0 0.0011351467271916581 -0.0072730835892623209 0 0.0010659448793030675 -0.0070593264801403609 0 0.0016441184451399266 -0.0059468782042816056 0 0.0018777828709027737 -0.0055369129589845452 0 0.0021553701278247714 -0.0058013330647081595 0 0.0018777828709027737 -0.0055369129589845452 0 0.0021553701278247714 -0.0058013330647081595 0 0.0021196676985243313 -0.0054092240761532823 0 0.0013937212992271159 -0.0070716277119383204 0 0.0017983627009561624 -0.0066556356974666131 0 0.0015271765196320009 -0.0062212837239200786 0 0.0013937212992271159 -0.0070716277119383204 0 0.0017983627009561624 -0.0066556356974666131 0 0.0022970601364212763 -0.0068762045329732726 0 0.0013499853125938344 -0.0071670305772836484 0 0.0011936983722554573 -0.0069827525247596603 0 0.0018614846562095243 -0.0069112451726415459 0 0.0017427413282284936 -0.0063308511641461179 0 0.0018593711954203421 -0.0055782625206484667 0 0.0011710634464209074 -0.0070316237546075681 0 0.0011963490174970125 -0.0070093405868195471 0 0.0011922684795125525 -0.0070160161047291706 0 0.0017427413282284936 -0.0063308511641461179 0 0.0017417725374166049 -0.0063337923161836968 0 0.0021553701278247714 -0.0058013330647081595 0 0.0022758033121252335 -0.0051073849952779802 0 0.0021196676985243313 -0.0054092240761532823 0 0.0017983627009561624 -0.0066556356974666131 0 0.0015271765196320009 -0.0062212837239200786 0 0.0020440539714732002 -0.0063101598044466717 0 0.0022758033121252335 -0.0051073849952779802 0 0.0021225168300489346 -0.0052434148850034222 0 0.0020291134212619536 -0.0050705459756321142 0 0.0022758033121252335 -0.0051073849952779802 0 0.0021196676985243313 -0.0054092240761532823 0 0.0021225168300489346 -0.0052434148850034222 0 0.0015811228234190204 -0.0052898542832377311 0 0.0018777828709027737 -0.0055369129589845452 0 0.0017637063814628557 -0.0049230645958916403 0 0.0017321514312942565 -0.0049763356154255145 0 0.0016112240252677185 -0.0044903522535478255 0 0.0018777828709027737 -0.0055369129589845452 0 0.0020291134212619536 -0.0050705459756321142 0 0.0016457989098648872 -0.0048659173480173103 0 0.0018777828709027737 -0.0055369129589845452 0 0.0021225168300489346 -0.0052434148850034222 0 0.0020291134212619536 -0.0050705459756321142 0 0.0018777828709027737 -0.0055369129589845452 0 0.0021196676985243313 -0.0054092240761532823 0 0.0021225168300489346 -0.0052434148850034222 0 0.003041309432186974 -0.0066743129177755456 0 0.0022970601364212763 -0.0068762045329732726 0 0.0026633806695280874 -0.0063158499734992067 0 0.0026663768091499049 -0.0071715115053639037 0 0.003041309432186974 -0.0066743129177755456 0 0.0018614846562095243 -0.0069112451726415459 0 0.0024702645162851446 -0.0065617273627614266 0 0.0020639460284458079 -0.0065635650268387287 0 0.0017427413282284936 -0.0063308511641461179 0 0.0020639460284458079 -0.0065635650268387287 0 0.0017983627009561624 -0.0066556356974666131 0 0.0022970601364212763 -0.0068762045329732726 0 0.0020440539714732002 -0.0063101598044466717 0 0.0020440539714732002 -0.0063101598044466717 0 0.0026633806695280874 -0.0063158499734992067 0 0.0023244190702426358 -0.0058653335201530989 0 0.0022970601364212763 -0.0068762045329732726 0 0.0020440539714732002 -0.0063101598044466717 0 0.0026633806695280874 -0.0063158499734992067 0 0.0015271765196320009 -0.0062212837239200786 0 0.0020440539714732002 -0.0063101598044466717 0 0.0019309199936334361 -0.0058318199478062192 0 0.0027981003089615959 -0.0058508484601005259 0 0.0026901159343031213 -0.0053515822855142274 0 0.0032863812895525635 -0.0057465821791448614 0 0.0026633806695280874 -0.0063158499734992067 0 0.0027981003089615959 -0.0058508484601005259 0 0.0029162127795927494 -0.0061241279296322532 0 0.0027981003089615959 -0.0058508484601005259 0 0.0023244190702426358 -0.0058653335201530989 0 0.0026901159343031213 -0.0053515822855142274 0 0.0026633806695280874 -0.0063158499734992067 0 0.0027981003089615959 -0.0058508484601005259 0 0.0023244190702426358 -0.0058653335201530989 0 0.0020440539714732002 -0.0063101598044466717 0 0.0023244190702426358 -0.0058653335201530989 0 0.0019309199936334361 -0.0058318199478062192 0 0.0023244190702426358 -0.0058653335201530989 0 0.0019309199936334361 -0.0058318199478062192 0 0.002153060197296653 -0.0054253720325689739 0 0.002153060197296653 -0.0054253720325689739 0 0.001608713604707754 -0.0052901310593623657 0 0.0022648127450621545 -0.0048293929041112902 0 0.0019309199936334361 -0.0058318199478062192 0 0.002153060197296653 -0.0054253720325689739 0 0.001608713604707754 -0.0052901310593623657 0 0.002153060197296653 -0.0054253720325689739 0 0.0026901159343031213 -0.0053515822855142274 0 0.0022648127450621545 -0.0048293929041112902 0 0.0026901159343031213 -0.0053515822855142274 0 0.0029041464308384849 -0.0045638702593613755 0 0.0034389990940033054 -0.0049639560870225717 0 0.0023244190702426358 -0.0058653335201530989 0 0.002153060197296653 -0.0054253720325689739 0 0.0026901159343031213 -0.0053515822855142274 0 0.0012243017179045276 -0.0040851894501793074 0 0.0019197364735541306 -0.0044336619046054567 0 0.0013880711530455403 -0.004747203318683205 0 0.0020291134212619536 -0.0050705459756321142 0 0.0019197364735541306 -0.0044336619046054567 0 0.0013880711530455403 -0.004747203318683205 0 0.001730800794530232 -0.0045915208918422476 0 0.0016112240252677185 -0.0044903522535478255 0 0.0018593711954203421 -0.0055782625206484667 0 0.0019761530730644863 -0.0046737340062324804 0 0.0022758033121252335 -0.0051073849952779802 0 0.0020291134212619536 -0.0050705459756321142 0 0.0019197364735541306 -0.0044336619046054567 0 0.0022758033121252335 -0.0051073849952779802 0 0.0019197364735541306 -0.0044336619046054567 0 0.0023663330241524808 -0.0040701731187896802 0 0.0015271765196320009 -0.0062212837239200786 0 0.0019309199936334361 -0.0058318199478062192 0 0.001608713604707754 -0.0052901310593623657 0 0.0019197364735541306 -0.0044336619046054567 0 0.0023663330241524808 -0.0040701731187896802 0 0.0016708253119588512 -0.0038670062799835577 0 0.0012243017179045276 -0.0040851894501793074 0 0.0019197364735541306 -0.0044336619046054567 0 0.0016708253119588512 -0.0038670062799835577 0 0.00107219884869525 -0.0034537468783296778 0 0.0016708253119588512 -0.0038670062799835577 0 0.0017620157623416215 -0.0033124587493938359 0 0.00130112299361365 -0.0033550610336751632 0 0.0014093375243898012 -0.0033393487243577494 0 0.0023663330241524808 -0.0040701731187896802 0 0.0016708253119588512 -0.0038670062799835577 0 0.0017620157623416215 -0.0033124587493938359 0 0.0019761530730644863 -0.0046737340062324804 0 0.0020920589874320506 -0.0037362458416908126 0 0.0023663330241524808 -0.0040701731187896802 0 0.0017620157623416215 -0.0033124587493938359 0 0.0023939951331685199 -0.0031588791604243507 0 0.0017620157623416215 -0.0033124587493938359 0 0.0020177681358037364 -0.0027826826408031799 0 0.0023939951331685199 -0.0031588791604243507 0 0.0023796918249824632 -0.0024278716593813389 0 0.0020177681358037364 -0.0027826826408031799 0 0.0023939951331685199 -0.0031588791604243507 0 0.0017620157623416215 -0.0033124587493938359 0 0.0020177681358037364 -0.0027826826408031799 0 0.0015544662111003919 -0.0028597764823473757 0 0.0012298729206124623 -0.00340883536132127 0 0.0017620157623416215 -0.0033124587493938359 0 0.0015544662111003919 -0.0028597764823473757 0 0.0026901159343031213 -0.0053515822855142274 0 0.0029041464308384849 -0.0045638702593613755 0 0.0022648127450621545 -0.0048293929041112902 0 0.0029041464308384849 -0.0045638702593613755 0 0.0022648127450621545 -0.0048293929041112902 0 0.0024495998184973201 -0.0040002975830374776 0 0.0022648127450621545 -0.0048293929041112902 0 0.0017470682316894335 -0.0041726248088432361 0 0.0024495998184973201 -0.0040002975830374776 0 0.001608713604707754 -0.0052901310593623657 0 0.0022648127450621545 -0.0048293929041112902 0 0.0017470682316894335 -0.0041726248088432361 0 0.0022064924581077974 -0.0029012874320246775 0 0.0020920589874320506 -0.0037362458416908126 0 0.0019858511036556386 -0.002977992450406679 0 0.0017470682316894335 -0.0041726248088432361 0 0.0024495998184973201 -0.0040002975830374776 0 0.0027576760380635564 -0.0034603965559616883 0 0.0024495998184973201 -0.0040002975830374776 0 0.0030177570056028656 -0.0039493691633948986 0 0.0029041464308384849 -0.0045638702593613755 0 0.0024495998184973201 -0.0040002975830374776 0 0.0030177570056028656 -0.0039493691633948986 0 0.0027576760380635564 -0.0034603965559616883 0 0.0030177570056028656 -0.0039493691633948986 0 0.0032343554150012087 -0.0035929449619942376 0 0.0029041464308384849 -0.0045638702593613755 0 0.0030177570056028656 -0.0039493691633948986 0 0.0036476409253464867 -0.0040478019955328898 0 0.0030177570056028656 -0.0039493691633948986 0 0.0032343554150012087 -0.0035929449619942376 0 0.0036476409253464867 -0.0040478019955328898 0 0.0036151908643833504 -0.0034924857690328791 0 0.0036476409253464867 -0.0040478019955328898 0 0.0039629080936219654 -0.0035794100905831199 0 0.0036151908643833504 -0.0034924857690328791 0 0.0032343554150012087 -0.0035929449619942376 0 0.0036476409253464867 -0.0040478019955328898 0 0.0036476409253464867 -0.0040478019955328898 0 0.0043562523554799334 -0.0038192721628890979 0 0.0040901630077930604 -0.0045521456900538514 0 0.0043031421844099164 -0.0033542411075368705 0 0.0043562523554799334 -0.0038192721628890979 0 0.0039629080936219654 -0.0035794100905831199 0 0.0036476409253464867 -0.0040478019955328898 0 0.0043562523554799334 -0.0038192721628890979 0 0.0039629080936219654 -0.0035794100905831199 0 0.0029041464308384849 -0.0045638702593613755 0 0.0036476409253464867 -0.0040478019955328898 0 0.0034389990940033054 -0.0049639560870225717 0 0.0036476409253464867 -0.0040478019955328898 0 0.0040901630077930604 -0.0045521456900538514 0 0.0034389990940033054 -0.0049639560870225717 0 0.0026901159343031213 -0.0053515822855142274 0 0.0034389990940033054 -0.0049639560870225717 0 0.0032863812895525635 -0.0057465821791448614 0 0.0034389990940033054 -0.0049639560870225717 0 0.0041174879975531473 -0.0055719063731415105 0 0.0032863812895525635 -0.0057465821791448614 0 0.0040901630077930604 -0.0045521456900538514 0 0.0034389990940033054 -0.0049639560870225717 0 0.0041174879975531473 -0.0055719063731415105 0 0.0040901630077930604 -0.0045521456900538514 0 0.0041174879975531473 -0.0055719063731415105 0 0.0048101209057161498 -0.0050528741439320631 0 0.0038798341662279589 -0.0067215529904673535 0 0.0041174879975531473 -0.0055719063731415105 0 0.0032863812895525635 -0.0057465821791448614 0 0.0038798341662279589 -0.0067215529904673535 0 0.0041174879975531473 -0.0055719063731415105 0 0.0051704916629246494 -0.0059205951842727757 0 0.0037484760519972114 -0.0069164623478815595 0 0.0035338043328916983 -0.0064044869855120253 0 0.0038798341662279589 -0.0067215529904673535 0 0.0038419076515202135 -0.0070949795203334694 0 0.0032863812895525635 -0.0057465821791448614 0 0.003065109785306067 -0.0063095887565231181 0 0.0029162127795927494 -0.0061241279296322532 0 0.0032863812895525635 -0.0057465821791448614 0 0.0027981003089615959 -0.0058508484601005259 0 0.0029162127795927494 -0.0061241279296322532 0 0.0032863812895525635 -0.0057465821791448614 0 0.0051704916629246494 -0.0059205951842727757 0 0.0048101209057161498 -0.0050528741439320631 0 0.0065903990004311198 -0.0052256375061125798 0 0.0054913656633118436 -0.005924092494552155 0 0.0066487434836786244 -0.0060834709734339633 0 0.0067757082281446075 -0.007081880891549994 0 0.0046305241332504285 -0.0063419345837466903 0 0.0054157091216443269 -0.0059087055226782923 0 0.0041174879975531473 -0.0055719063731415105 0 0.0051704916629246494 -0.0059205951842727757 0 0.0048101209057161498 -0.0050528741439320631 0 0.0054157091216443269 -0.0059087055226782923 0 0.0067030605650580354 -0.005206903523133302 0 0.0054913656633118436 -0.005924092494552155 0 0.0066487434836786244 -0.0060834709734339633 0 0.0069557563030929609 -0.0051733620776336737 0 0.0048101209057161498 -0.0050528741439320631 0 0.0051656321190144076 -0.0042225382261024775 0 0.0065903990004311198 -0.0052256375061125798 0 0.0043562523554799334 -0.0038192721628890979 0 0.0040901630077930604 -0.0045521456900538514 0 0.0051656321190144076 -0.0042225382261024775 0 0.0040901630077930604 -0.0045521456900538514 0 0.0048101209057161498 -0.0050528741439320631 0 0.0051656321190144076 -0.0042225382261024775 0 0.0049103921667524048 -0.0032861018841401153 0 0.0043562523554799334 -0.0038192721628890979 0 0.0051656321190144076 -0.0042225382261024775 0 0.0049103921667524048 -0.0032861018841401153 0 0.0051656321190144076 -0.0042225382261024775 0 0.0055857766344739219 -0.0035581487814711514 0 0.0051656321190144076 -0.0042225382261024775 0 0.0055857766344739219 -0.0035581487814711514 0 0.0061390638971326704 -0.0039336175770583112 0 0.0059983788576730077 -0.00528314608460086 0 0.0064196852994695937 -0.0056741949137751792 0 0.006173976752978527 -0.0033881355536783094 0 0.0055857766344739219 -0.0035581487814711514 0 0.0061390638971326704 -0.0039336175770583112 0 0.0051656321190144076 -0.0042225382261024775 0 0.0068508530339468016 -0.0037936739969606169 0 0.0065903990004311198 -0.0052256375061125798 0 0.0068508530339468016 -0.0037936739969606169 0 0.0082818967294568165 -0.0043746967262392675 0 0.0065903990004311198 -0.0052256375061125798 0 0.0075016800187901874 -0.0047667843039079262 0 0.0067030605650580354 -0.005206903523133302 0 0.0065410746615906226 -0.0034149162926844574 0 0.0061390638971326704 -0.0039336175770583112 0 0.0070037065147673843 -0.0037192452523449079 0 0.0068508530339468016 -0.0037936739969606169 0 0.0086547121922958149 -0.0034290413273336865 0 0.0082818967294568165 -0.0043746967262392675 0 0.0065410746615906226 -0.0034149162926844574 0 0.006173976752978527 -0.0033881355536783094 0 0.0061390638971326704 -0.0039336175770583112 0 0.0064196852994695937 -0.0056741949137751792 0 0.0049567285158527733 -0.007834929359204542 0 0.0046578955704005987 -0.011801258113467144 0 0.004229235924318361 -0.011543414209292899 0 0.0045347150724823915 -0.011236874694925066 0 0.0046578955704005987 -0.011801258113467144 0 0.0040504497585831349 -0.011942313819835928 0 0.004229235924318361 -0.011543414209292899 0 0.0049567285158527733 -0.007834929359204542 0 0.0034856911410883931 -0.010679606890145646 0 0.004229235924318361 -0.011543414209292899 0 0.0040934235325524419 -0.011138054802223584 0 0.0045347150724823915 -0.011236874694925066 0 0.0086547121922958149 -0.0034290413273336865 0 0.0088984451342715848 -0.0046874721988139209 0 0.0082818967294568165 -0.0043746967262392675 0 0.0088984451342715848 -0.0046874721988139209 0 0.0082818967294568165 -0.0043746967262392675 0 0.0081648069608177155 -0.0054256128100981524 0 0.0049567285158527733 -0.007834929359204542 0 0.0052321081199798863 -0.0090167691690402185 0 0.0088984451342715848 -0.0046874721988139209 0 0.0091567884018532372 -0.0058133852764126375 0 0.0081648069608177155 -0.0054256128100981524 0 0.0091567884018532372 -0.0058133852764126375 0 0.0081648069608177155 -0.0054256128100981524 0 0.008307265483702286 -0.0071467468017649425 0 0.0052321081199798863 -0.0090167691690402185 0 0.0051674187969270131 -0.011711585842524512 0 0.0040934235325524419 -0.011138054802223584 0 0.0045347150724823915 -0.011236874694925066 0 0.0044175612660455376 -0.010678075526043161 0 0.0034635669000106016 -0.014103707469816642 0 0.0051674187969270131 -0.011711585842524512 0 0.0028932002161015393 -0.019966520366589569 0 0.003356752278950317 -0.019358919188419858 0 0.0026951604388726603 -0.019480909967063205 0 0.0051674187969270131 -0.011711585842524512 0 0.0045402450187234889 -0.014349899497240548 0 0.003356752278950317 -0.019358919188419858 0 0.0026939665611843988 -0.018897219349675965 0 0.0031818870381744606 -0.018405801205604443 0 0.003356752278950317 -0.019358919188419858 0 0.0026951604388726603 -0.019480909967063205 0 0.0026939665611843988 -0.018897219349675965 0 0.0051674187969270131 -0.011711585842524512 0 0.0071680063560824814 -0.0090206157216105986 0 0.007359161005060416 -0.0061725887428048937 0 0.0081648069608177155 -0.0054256128100981524 0 0.008307265483702286 -0.0071467468017649425 0 0.0066487434836786244 -0.0060834709734339633 0 0.007359161005060416 -0.0061725887428048937 0 0.0067757082281446075 -0.007081880891549994 0 0.0066487434836786244 -0.0060834709734339633 0 0.007359161005060416 -0.0061725887428048937 0 0.0069557563030929609 -0.0051733620776336737 0 0.0082818967294568165 -0.0043746967262392675 0 0.0069557563030929609 -0.0051733620776336737 0 0.0081648069608177155 -0.0054256128100981524 0 0.007359161005060416 -0.0061725887428048937 0 0.0069557563030929609 -0.0051733620776336737 0 0.0081648069608177155 -0.0054256128100981524 0 0.0013308572593279534 -0.020394024204759265 0 0.0016864315161530202 -0.020050712537974264 0 0.0010638486828225238 -0.019911512323240971 0 0.00096613843411961923 -0.020290692898851839 0 0.0013308572593279534 -0.020394024204759265 0 0.0010638486828225238 -0.019911512323240971 0 0.0010439372748339512 -0.02058691601537577 0 0.00096613843411961923 -0.020290692898851839 0 0.0013308572593279534 -0.020394024204759265 0 0.0010439372748339512 -0.02058691601537577 0 0.0013308572593279534 -0.020394024204759265 0 0.0012705108932522713 -0.020696465613666334 0 0.0010494808651159606 -0.020891039895955053 0 0.0010439372748339512 -0.02058691601537577 0 0.0012705108932522713 -0.020696465613666334 0 0.0014535569323576645 -0.020782755251604227 0 0.0012705108932522713 -0.020696465613666334 0 0.0014703827301868492 -0.020639286479329614 0 0.0013308572593279534 -0.020394024204759265 0 0.0012705108932522713 -0.020696465613666334 0 0.0014703827301868492 -0.020639286479329614 0 0.0013308572593279534 -0.020394024204759265 0 0.0014703827301868492 -0.020639286479329614 0 0.001682956277524648 -0.02053777195264667 0 0.0014703827301868492 -0.020639286479329614 0 0.0016115460088161838 -0.020762369648352808 0 0.001682956277524648 -0.02053777195264667 0 0.0014535569323576645 -0.020782755251604227 0 0.0014703827301868492 -0.020639286479329614 0 0.0016115460088161838 -0.020762369648352808 0 0.0016115460088161838 -0.020762369648352808 0 0.0017742240856751044 -0.020751258358093327 0 0.001682956277524648 -0.02053777195264667 0 0.0017742240856751044 -0.020751258358093327 0 0.001682956277524648 -0.02053777195264667 0 0.0020014817677206378 -0.020622136138274256 0 0.001682956277524648 -0.02053777195264667 0 0.0016864315161530202 -0.020050712537974264 0 0.0019856659223946725 -0.020369855728085348 0 0.0013308572593279534 -0.020394024204759265 0 0.001682956277524648 -0.02053777195264667 0 0.0016864315161530202 -0.020050712537974264 0 0.001645257499342896 -0.019963284459458164 0 0.0024185125690340471 -0.020201670169110682 0 0.0022186342903090274 -0.019654310571784205 0 0.0016864315161530202 -0.020050712537974264 0 0.0019856659223946725 -0.020369855728085348 0 0.0024185125690340471 -0.020201670169110682 0 0.0016270295970137933 -0.020019593135640969 0 0.001978050752610973 -0.020115897631110179 0 0.0019856659223946725 -0.020369855728085348 0 0.0022190131090738981 -0.020408019468776996 0 0.0024185125690340471 -0.020201670169110682 0 0.0024480772573339574 -0.01356283526484617 0 0.0026742725161245191 -0.014617882197229693 0 0.001682956277524648 -0.02053777195264667 0 0.0019856659223946725 -0.020369855728085348 0 0.0020014817677206378 -0.020622136138274256 0 0.0020516939113866275 -0.02088507391415366 0 0.0020014817677206378 -0.020622136138274256 0 0.0024321011934819023 -0.020484073448938649 0 0.0018711814060624176 -0.02090146787676472 0 0.0017742240856751044 -0.020751258358093327 0 0.0020014817677206378 -0.020622136138274256 0 0.0020014817677206378 -0.020622136138274256 0 0.0022190131090738981 -0.020408019468776996 0 0.0024321011934819023 -0.020484073448938649 0 0.0019856659223946725 -0.020369855728085348 0 0.0020014817677206378 -0.020622136138274256 0 0.0022190131090738981 -0.020408019468776996 0 0.003429837998911165 -0.012081857790096772 0 0.0040504497585831349 -0.011942313819835928 0 0.0037623975991883042 -0.011604101420078842 0 0.0040504497585831349 -0.011942313819835928 0 0.004229235924318361 -0.011543414209292899 0 0.0037623975991883042 -0.011604101420078842 0 0.0034635669000106016 -0.014103707469816642 0 0.0026742725161245191 -0.014617882197229693 0 0.0028932002161015393 -0.019966520366589569 0 0.0024321011934819023 -0.020484073448938649 0 0.0024185125690340471 -0.020201670169110682 0 0.004229235924318361 -0.011543414209292899 0 0.0040934235325524419 -0.011138054802223584 0 0.0037623975991883042 -0.011604101420078842 0 0.0022190131090738981 -0.020408019468776996 0 0.0024321011934819023 -0.020484073448938649 0 0.0024185125690340471 -0.020201670169110682 0 0.0028932002161015393 -0.019966520366589569 0 0.0024185125690340471 -0.020201670169110682 0 0.0025543016934022954 -0.019828471384797468 0 0.0024185125690340471 -0.020201670169110682 0 0.0025543016934022954 -0.019828471384797468 0 0.0022186342903090274 -0.019654310571784205 0 0.0028932002161015393 -0.019966520366589569 0 0.0025543016934022954 -0.019828471384797468 0 0.0026951604388726603 -0.019480909967063205 0 0.0025543016934022954 -0.019828471384797468 0 0.0026951604388726603 -0.019480909967063205 0 0.0022186342903090274 -0.019654310571784205 0 0.0026951604388726603 -0.019480909967063205 0 0.0022883333157118746 -0.019237640253197245 0 0.0022186342903090274 -0.019654310571784205 0 0.0026951604388726603 -0.019480909967063205 0 0.0026939665611843988 -0.018897219349675965 0 0.0022883333157118746 -0.019237640253197245 0 0.0026939665611843988 -0.018897219349675965 0 0.0022883333157118746 -0.019237640253197245 0 0.0021253226257746433 -0.018783713152059719 0 0.0022883333157118746 -0.019237640253197245 0 0.0018175772354961505 -0.019280932277538822 0 0.0022186342903090274 -0.019654310571784205 0 0.0022883333157118746 -0.019237640253197245 0 0.0018175772354961505 -0.019280932277538822 0 0.0021253226257746433 -0.018783713152059719 0 0.0018175772354961505 -0.019280932277538822 0 0.0018264569657073096 -0.018805631111737532 0 0.0021253226257746433 -0.018783713152059719 0 0.001645257499342896 -0.019963284459458164 0 0.0018175772354961505 -0.019280932277538822 0 0.0022186342903090274 -0.019654310571784205 0 0.001645257499342896 -0.019963284459458164 0 0.0018175772354961505 -0.019280932277538822 0 0.0013362183059315992 -0.01951343230501314 0 0.0018175772354961505 -0.019280932277538822 0 0.0013594982400416853 -0.019057338564454233 0 0.0018264569657073096 -0.018805631111737532 0 0.0018175772354961505 -0.019280932277538822 0 0.0013362183059315992 -0.01951343230501314 0 0.0013594982400416853 -0.019057338564454233 0 0.0007605942453568509 -0.019366821177170021 0 0.0013362183059315992 -0.01951343230501314 0 0.0013594982400416853 -0.019057338564454233 0 0.0007605942453568509 -0.019366821177170021 0 0.0013362183059315992 -0.01951343230501314 0 0.0009658882544256943 -0.01980118568752914 0 0.0016270295970137933 -0.020019593135640969 0 0.0010649751547547003 -0.019872267193985705 0 0.001645257499342896 -0.019963284459458164 0 0.0013362183059315992 -0.01951343230501314 0 0.0009658882544256943 -0.01980118568752914 0 0.00058949608126538863 -0.018688394452205249 0 0.0013594982400416853 -0.019057338564454233 0 0.001493729555757627 -0.018469124492628532 0 0.00058949608126538863 -0.018688394452205249 0 0.00097076410150024922 -0.017984184375887554 0 0.001493729555757627 -0.018469124492628532 0 0.0014613414838507703 -0.018559473269985926 0 0.0015042680398152182 -0.018181734467170002 0 0.0013594982400416853 -0.019057338564454233 0 0.0018264569657073096 -0.018805631111737532 0 0.0014382495563343958 -0.018135733415595899 0 0.0014382495563343958 -0.018135733415595899 0 0.0020026045777289236 -0.018328714166801235 0 0.0020873195530858504 -0.01763788863504865 0 0.0018264569657073096 -0.018805631111737532 0 0.0014382495563343958 -0.018135733415595899 0 0.0020026045777289236 -0.018328714166801235 0 0.0020026045777289236 -0.018328714166801235 0 0.0025275677320904717 -0.018033931641341747 0 0.0020873195530858504 -0.01763788863504865 0 0.0020026045777289236 -0.018328714166801235 0 0.0021253226257746433 -0.018783713152059719 0 0.0025275677320904717 -0.018033931641341747 0 0.0018264569657073096 -0.018805631111737532 0 0.0020026045777289236 -0.018328714166801235 0 0.0021253226257746433 -0.018783713152059719 0 0.0021253226257746433 -0.018783713152059719 0 0.0027578114316532819 -0.017736039613156829 0 0.0023900144187146946 -0.016284784061913329 0 0.0026939665611843988 -0.018897219349675965 0 0.0021253226257746433 -0.018783713152059719 0 0.0027578114316532819 -0.017736039613156829 0 0.0026939665611843988 -0.018897219349675965 0 0.0027578114316532819 -0.017736039613156829 0 0.0037949876245147135 -0.017773973175845462 0 0.0027578114316532819 -0.017736039613156829 0 0.0029448759121535936 -0.016917002610254091 0 0.0037949876245147135 -0.017773973175845462 0 0.0023615218001209991 -0.017879697328008655 0 0.0025440165644285474 -0.017172209321945034 0 0.0027578114316532819 -0.017736039613156829 0 0.0029448759121535936 -0.016917002610254091 0 0.0023900144187146946 -0.016284784061913329 0 0.0029448759121535936 -0.016917002610254091 0 0.0023900144187146946 -0.016284784061913329 0 0.0031599820578814726 -0.016157577662779348 0 0.0023900144187146946 -0.016284784061913329 0 0.0028686994194307759 -0.015124115988883762 0 0.0031599820578814726 -0.016157577662779348 0 0.0025275677320904717 -0.018033931641341747 0 0.0028580278213485013 -0.017065331606449845 0 0.0020873195530858504 -0.01763788863504865 0 0.0025440165644285474 -0.017172209321945034 0 0.0028297639539094288 -0.016212775807995405 0 0.0028580278213485013 -0.017065331606449845 0 0.0020873195530858504 -0.01763788863504865 0 0.002100983968051715 -0.016940495356909765 0 0.0014382495563343958 -0.018135733415595899 0 0.0020873195530858504 -0.01763788863504865 0 0.0015601939761048377 -0.01729665969354377 0 0.0015042680398152182 -0.018181734467170002 0 0.0015825073050221754 -0.01751495374227104 0 0.0020873195530858504 -0.01763788863504865 0 0.0015601939761048377 -0.01729665969354377 0 0.002100983968051715 -0.016940495356909765 0 0.00097076410150024922 -0.017984184375887554 0 0.0016799913347726469 -0.01759390740260857 0 0.0011592631185339797 -0.017183414002433749 0 0.00097076410150024922 -0.017984184375887554 0 0.001493729555757627 -0.018469124492628532 0 0.0016799913347726469 -0.01759390740260857 0 0.0069647157666715403 -0.0098240828162062133 0 0.0069694900456964692 -0.0097867936127535981 0 0.0069233506848675368 -0.0097813107880684643 0 0.0067757082281446075 -0.007081880891549994 0 0.008307265483702286 -0.0071467468017649425 0 0.0074649149280799501 -0.0085644758998068907 0 0.0071680063560824814 -0.0090206157216105986 0 0.0070767871767011747 -0.0092657736573721634 0 0.0065204723812943817 -0.0079836144487823481 0 0.0059949714314667139 -0.0086301918966967938 0 0.0074649149280799501 -0.0085644758998068907 0 0.0065204723812943817 -0.0079836144487823481 0 0.0067757082281446075 -0.007081880891549994 0 0.0074649149280799501 -0.0085644758998068907 0 0.007359161005060416 -0.0061725887428048937 0 0.0067757082281446075 -0.007081880891549994 0 0.008307265483702286 -0.0071467468017649425 0 0.0068961857139908048 -0.0099299323615778968 0 0.0069647157666715403 -0.0098240828162062133 0 0.0068873590641976429 -0.0098277737487956641 0 0.0034217470236402444 -0.015844629258907457 0 0.0045402450187234889 -0.014349899497240548 0 0.0029448759121535936 -0.016917002610254091 0 0.0037949876245147135 -0.017773973175845462 0 0.0031599820578814726 -0.016157577662779348 0 0.0045402450187234889 -0.014349899497240548 0 0.0044843854657034884 -0.015229735290125402 0 0.0032498507987872276 -0.016524643901502302 0 0.0031599820578814726 -0.016157577662779348 0 0.0036619780342477758 -0.015995375674619519 0 0.0069647157666715403 -0.0098240828162062133 0 0.0068873590641976429 -0.0098277737487956641 0 0.0069694900456964692 -0.0097867936127535981 0 0.0045402450187234889 -0.014349899497240548 0 0.0052594439076430171 -0.013241635698117215 0 0.0036619780342477758 -0.015995375674619519 0 0.003383684668310509 -0.015577006627333826 0 0.0036432325613814961 -0.015410136158683089 0 0.0031599820578814726 -0.016157577662779348 0 0.0036619780342477758 -0.015995375674619519 0 0.003383684668310509 -0.015577006627333826 0 0.0028686994194307759 -0.015124115988883762 0 0.0031599820578814726 -0.016157577662779348 0 0.003383684668310509 -0.015577006627333826 0 0.0028686994194307759 -0.015124115988883762 0 0.003383684668310509 -0.015577006627333826 0 0.0034091507685453069 -0.01504588677843113 0 0.003383684668310509 -0.015577006627333826 0 0.0036432325613814961 -0.015410136158683089 0 0.0034091507685453069 -0.01504588677843113 0 0.0036432325613814961 -0.015410136158683089 0 0.0036803026606176742 -0.014999563185745001 0 0.0034091507685453069 -0.01504588677843113 0 0.0036432325613814961 -0.015410136158683089 0 0.0040278903538248081 -0.015356976212994615 0 0.0036803026606176742 -0.014999563185745001 0 0.0052594439076430171 -0.013241635698117215 0 0.005412284207225334 -0.012899632125501803 0 0.0069694900456964692 -0.0097867936127535981 0 0.0069247048376052415 -0.0099699047718501514 0 0.0069233506848675368 -0.0097813107880684643 0 0.0036619780342477758 -0.015995375674619519 0 0.0036432325613814961 -0.015410136158683089 0 0.0040278903538248081 -0.015356976212994615 0 0.0068172165981731448 -0.0096861376119693927 0 0.0070767871767011747 -0.0092657736573721634 0 0.0059828072894570535 -0.0094745362255778259 0 0.0065880504359942518 -0.010155685043823181 0 0.0074649149280799501 -0.0085644758998068907 0 0.005412284207225334 -0.012899632125501803 0 0.0052963130747331793 -0.012918370736422319 0 0.0065880504359942518 -0.010155685043823181 0 0.0069247048376052415 -0.0099699047718501514 0 0.006616623933198596 -0.010691883084608498 0 0.0065880504359942518 -0.010155685043823181 0 0.0069247048376052415 -0.0099699047718501514 0 0.0069233506848675368 -0.0097813107880684643 0 0.0040278903538248081 -0.015356976212994615 0 0.0042154684806458642 -0.014597991469503746 0 0.003856015118134111 -0.014637653883635384 0 0.0040278903538248081 -0.015356976212994615 0 0.0042154684806458642 -0.014597991469503746 0 0.0046227371340842776 -0.014633970987546834 0 0.0042154684806458642 -0.014597991469503746 0 0.004196805606688633 -0.014224565376794895 0 0.003856015118134111 -0.014637653883635384 0 0.0042154684806458642 -0.014597991469503746 0 0.004196805606688633 -0.014224565376794895 0 0.0044988400152314754 -0.014093791074615131 0 0.004196805606688633 -0.014224565376794895 0 0.0036639428145823112 -0.014255019503016334 0 0.0047759348657801567 -0.01352982680680173 0 0.004196805606688633 -0.014224565376794895 0 0.003856015118134111 -0.014637653883635384 0 0.0036639428145823112 -0.014255019503016334 0 0.003534035838041562 -0.014648091243050399 0 0.0034422802499230543 -0.01453656384312743 0 0.0036639428145823112 -0.014255019503016334 0 0.003856015118134111 -0.014637653883635384 0 0.003534035838041562 -0.014648091243050399 0 0.0036639428145823112 -0.014255019503016334 0 0.0040278903538248081 -0.015356976212994615 0 0.003856015118134111 -0.014637653883635384 0 0.0036803026606176742 -0.014999563185745001 0 0.003856015118134111 -0.014637653883635384 0 0.0036803026606176742 -0.014999563185745001 0 0.003534035838041562 -0.014648091243050399 0 0.0034091507685453069 -0.01504588677843113 0 0.0032170461940676559 -0.01458003391163065 0 0.003534035838041562 -0.014648091243050399 0 0.0036803026606176742 -0.014999563185745001 0 0.0034091507685453069 -0.01504588677843113 0 0.003534035838041562 -0.014648091243050399 0 0.0028686994194307759 -0.015124115988883762 0 0.0034091507685453069 -0.01504588677843113 0 0.0032170461940676559 -0.01458003391163065 0 0.0032170461940676559 -0.01458003391163065 0 0.003534035838041562 -0.014648091243050399 0 0.0034422802499230543 -0.01453656384312743 0 0.0034422802499230543 -0.01453656384312743 0 0.0032800202227715718 -0.014842761028202176 0 0.0034537001646169946 -0.01461519331952179 0 0.0032170461940676559 -0.01458003391163065 0 0.0034422802499230543 -0.01453656384312743 0 0.0032800202227715718 -0.014842761028202176 0 0.0030621888683579047 -0.015477520329001952 0 0.0031570883422593196 -0.01515844789668638 0 0.0032800202227715718 -0.014842761028202176 0 0.0034537001646169946 -0.01461519331952179 0 0.0033886846752755732 -0.014637153377295927 0 0.0034537001646169946 -0.01461519331952179 0 0.0034794937632529931 -0.014604421646639377 0 0.0033886846752755732 -0.014637153377295927 0 0.0034537001646169946 -0.01461519331952179 0 0.0034794937632529931 -0.014604421646639377 0 0.0035039078311829932 -0.014557932852145551 0 0.0034537001646169946 -0.01461519331952179 0 0.0035039078311829932 -0.014557932852145551 0 0.003537015521351914 -0.014483939174091806 0 0.0035039078311829932 -0.014557932852145551 0 0.0034667174078535615 -0.014615153862779305 0 0.003504965718323805 -0.014470977643577451 0 0.0034794937632529931 -0.014604421646639377 0 0.0035039078311829932 -0.014557932852145551 0 0.0034667174078535615 -0.014615153862779305 0 0.0034794937632529931 -0.014604421646639377 0 0.0034667174078535615 -0.014615153862779305 0 0.0034697960090091179 -0.014596877498499172 0 0.0012798077142298881 -0.015158351917749889 0 0.0017202474109925365 -0.015083810950483421 0 0.0033743699979579367 -0.014625036646885567 0 0.0033192545858344649 -0.014350204646432291 0 0.0032537469295880537 -0.014518514650518599 0 0.0033743699979579367 -0.014625036646885567 0 0.0033074621868741214 -0.014672148623151499 0 0.0032537469295880537 -0.014518514650518599 0 0.0033192545858344649 -0.014350204646432291 0 0.0036639428145823112 -0.014255019503016334 0 0.0031463928000478618 -0.014246178622058743 0 0.0034667174078535615 -0.014615153862779305 0 0.003504965718323805 -0.014470977643577451 0 0.0033192545858344649 -0.014350204646432291 0 0.0037741552449269337 -0.012483719448644588 0 0.0034730985732458687 -0.012041341293047875 0 0.003504965718323805 -0.014470977643577451 0 0.0033192545858344649 -0.014350204646432291 0 0.0036639428145823112 -0.014255019503016334 0 0.0034422802499230543 -0.01453656384312743 0 0.0036639428145823112 -0.014255019503016334 0 0.003537015521351914 -0.014483939174091806 0 0.0034422802499230543 -0.01453656384312743 0 0.0034537001646169946 -0.01461519331952179 0 0.003537015521351914 -0.014483939174091806 0 0.0035039078311829932 -0.014557932852145551 0 0.003504965718323805 -0.014470977643577451 0 0.003537015521351914 -0.014483939174091806 0 0.003504965718323805 -0.014470977643577451 0 0.0036639428145823112 -0.014255019503016334 0 0.003537015521351914 -0.014483939174091806 0 0.00093362587822984463 -0.016619039370811932 0 0.0017307517091025477 -0.016499052561045471 0 0.0015387946817454229 -0.015855648770075545 0 0.00093362587822984463 -0.016619039370811932 0 0.00072071247003124915 -0.015913386252335016 0 0.0015387946817454229 -0.015855648770075545 0 0.0016799913347726469 -0.01759390740260857 0 0.0011592631185339797 -0.017183414002433749 0 0.0017307517091025477 -0.016499052561045471 0 0.00093362587822984463 -0.016619039370811932 0 0.0011592631185339797 -0.017183414002433749 0 0.0017307517091025477 -0.016499052561045471 0 0.0015825073050221754 -0.01751495374227104 0 0.0016275221985881767 -0.01709896644100848 0 0.0015601939761048377 -0.01729665969354377 0 0.0017307517091025477 -0.016499052561045471 0 0.002100983968051715 -0.016940495356909765 0 0.0017307517091025477 -0.016499052561045471 0 0.002324445890452075 -0.016224720544752401 0 0.0015387946817454229 -0.015855648770075545 0 0.0017307517091025477 -0.016499052561045471 0 0.002324445890452075 -0.016224720544752401 0 0.002100983968051715 -0.016940495356909765 0 0.0028580278213485013 -0.017065331606449845 0 0.002324445890452075 -0.016224720544752401 0 0.002100983968051715 -0.016940495356909765 0 0.0028297639539094288 -0.016212775807995405 0 0.0030621888683579047 -0.015477520329001952 0 0.0028580278213485013 -0.017065331606449845 0 0.003123850481573767 -0.0160484847520986 0 0.002324445890452075 -0.016224720544752401 0 0.003123850481573767 -0.0160484847520986 0 0.0032800202227715718 -0.014842761028202176 0 0.0022986102284396084 -0.015360555259457512 0 0.0032800202227715718 -0.014842761028202176 0 0.0022986102284396084 -0.015360555259457512 0 0.0028132581830699918 -0.014711505120279911 0 0.003123850481573767 -0.0160484847520986 0 0.002324445890452075 -0.016224720544752401 0 0.0022986102284396084 -0.015360555259457512 0 0.0022986102284396084 -0.015360555259457512 0 0.0021415972119324324 -0.014787073081411948 0 0.0028132581830699918 -0.014711505120279911 0 0.002324445890452075 -0.016224720544752401 0 0.0022986102284396084 -0.015360555259457512 0 0.0015387946817454229 -0.015855648770075545 0 0.0022986102284396084 -0.015360555259457512 0 0.0012767199940133696 -0.015143565963847366 0 0.0015387946817454229 -0.015855648770075545 0 0.0022986102284396084 -0.015360555259457512 0 0.0012767199940133696 -0.015143565963847366 0 0.0021415972119324324 -0.014787073081411948 0 0.00072071247003124915 -0.015913386252335016 0 0.0012767199940133696 -0.015143565963847366 0 0.0015387946817454229 -0.015855648770075545 0 0.0017645141627777858 -0.014490602100994074 0 0.0017967392590064774 -0.014600016972803631 0 0.0018988822537368026 -0.014364590490844341 0 0.0016492737729829959 -0.014647968977754548 0 0.0017645141627777858 -0.014490602100994074 0 0.0017967392590064774 -0.014600016972803631 0 0.0016492737729829959 -0.014647968977754548 0 0.0017283340415630663 -0.014854687519929587 0 0.0017967392590064774 -0.014600016972803631 0 0.0014718899272139594 -0.0152123424091157 0 0.0016069487073182528 -0.014947215799428905 0 0.0012767199940133696 -0.015143565963847366 0 0.0017967392590064774 -0.014600016972803631 0 0.0021415972119324324 -0.014787073081411948 0 0.0017967392590064774 -0.014600016972803631 0 0.0021854565298035067 -0.01444603745269285 0 0.0018988822537368026 -0.014364590490844341 0 0.0017967392590064774 -0.014600016972803631 0 0.0021854565298035067 -0.01444603745269285 0 0.0021415972119324324 -0.014787073081411948 0 0.0021854565298035067 -0.01444603745269285 0 0.0021415972119324324 -0.014787073081411948 0 0.0025227507408897816 -0.01453045216989512 0 0.0021854565298035067 -0.01444603745269285 0 0.0025227507408897816 -0.01453045216989512 0 0.002558773868061416 -0.014332408118404699 0 0.0021415972119324324 -0.014787073081411948 0 0.0028132581830699918 -0.014711505120279911 0 0.0025227507408897816 -0.01453045216989512 0 0.0028132581830699918 -0.014711505120279911 0 0.0028584460511432673 -0.014439765483204499 0 0.0025227507408897816 -0.01453045216989512 0 0.0028584460511432673 -0.014439765483204499 0 0.002558773868061416 -0.014332408118404699 0 0.0029650644361698514 -0.014170297942341299 0 0.0028584460511432673 -0.014439765483204499 0 0.0025227507408897816 -0.01453045216989512 0 0.002558773868061416 -0.014332408118404699 0 0.00070005652358044366 -0.014722891924895991 0 5.3060084536431624e-05 -0.014778223064018374 0 0.002558773868061416 -0.014332408118404699 0 0.002273606426358394 -0.014128799496759674 0 0.0029650644361698514 -0.014170297942341299 0 -0.0016391240222620907 -0.014683714336299915 0 -0.00093338297290712093 -0.014507115337018792 0 -0.0021875628160399211 -0.014085454799689321 0 -0.0016391240222620907 -0.014683714336299915 0 -0.0015256558251821892 -0.015338722334877885 0 -0.0024517477776320545 -0.014441863393456308 0 -0.0016391240222620907 -0.014683714336299915 0 -0.0015256558251821892 -0.015338722334877885 0 -0.0010821179104963834 -0.015061602555356613 0 -0.0015256558251821892 -0.015338722334877885 0 -0.0010821179104963834 -0.015061602555356613 0 -0.0010148716938883783 -0.015630613421845463 0 -0.0016391240222620907 -0.014683714336299915 0 -0.0010821179104963834 -0.015061602555356613 0 -0.00093338297290712093 -0.014507115337018792 0 -0.00049349694933824685 -0.015154613913561555 0 -0.00093338297290712093 -0.014507115337018792 0 0.00055368410020836866 -0.014937699636738157 0 -0.0010821179104963834 -0.015061602555356613 0 -0.00049349694933824685 -0.015154613913561555 0 -0.00093338297290712093 -0.014507115337018792 0 -0.0010821179104963834 -0.015061602555356613 0 -0.00049349694933824685 -0.015154613913561555 0 -0.0010148716938883783 -0.015630613421845463 0 0.0021854565298035067 -0.01444603745269285 0 0.002273606426358394 -0.014128799496759674 0 0.0018988822537368026 -0.014364590490844341 0 0.0021854565298035067 -0.01444603745269285 0 0.002558773868061416 -0.014332408118404699 0 0.002273606426358394 -0.014128799496759674 0 0.002273606426358394 -0.014128799496759674 0 0.0018988822537368026 -0.014364590490844341 0 0.0017327585625878206 -0.014423725409262469 0 0.00070005652358044366 -0.014722891924895991 0 0.0013838781938714513 -0.01492885921962135 0 -0.00049349694933824685 -0.015154613913561555 0 0.00055368410020836866 -0.014937699636738157 0 3.396017808585797e-05 -0.015656888957020169 0 0.00055368410020836866 -0.014937699636738157 0 0.0016188280671779025 -0.015521732957917292 0 0.0024739329836818706 -0.015561019393441313 0 0.0013838781938714513 -0.01492885921962135 0 0.0019517779608855795 -0.015171026119879159 0 0.0022526671828589128 -0.014749727878102964 0 0.0017327585625878206 -0.014423725409262469 0 0.0018489926717039241 -0.014349191176439695 0 0.0022526671828589128 -0.014749727878102964 0 0.0017327585625878206 -0.014423725409262469 0 0.0024739329836818706 -0.015561019393441313 0 0.0018988822537368026 -0.014364590490844341 0 0.0017327585625878206 -0.014423725409262469 0 0.0018489926717039241 -0.014349191176439695 0 0.0016225007964846151 -0.01446875012190244 0 0.0017645141627777858 -0.014490602100994074 0 0.0018489926717039241 -0.014349191176439695 0 0.0017645141627777858 -0.014490602100994074 0 0.0018988822537368026 -0.014364590490844341 0 0.0018489926717039241 -0.014349191176439695 0 -0.005051632776555611 -0.017599709216322937 0 -0.0050443683392446337 -0.017977695142342431 0 -0.0053042036618655558 -0.018207020940643838 0 -0.005051632776555611 -0.017599709216322937 0 -0.0050443683392446337 -0.017977695142342431 0 -0.0048335070073470803 -0.018058341381085429 0 -0.0049750904730884431 -0.017773864769016167 0 -0.0048519725499459503 -0.017927244201339478 0 -0.0048080277553662837 -0.018179957655990304 0 0.000475027807640448 -0.011136216368363214 0 0.00038574804674569514 -0.011167365606077829 0 0.0003635328383497456 -0.011393748303491096 0 -0.00075548475543114988 -0.014696714152558228 0 -0.0017305358525335148 -0.016166696491705282 0 -0.00075548475543114988 -0.014696714152558228 0 -0.0011945051041120198 -0.013285534804784989 0 -0.00075548475543114988 -0.014696714152558228 0 -0.0011585178712363413 -0.0151157407020168 0 0.0035406920557107353 -0.014480224595371641 0 0.0034177080586445989 -0.014515217254361274 0 0.0034411371154569994 -0.014362473312398923 0 -0.0049750904730884431 -0.017773864769016167 0 -0.0048519725499459503 -0.017927244201339478 0 -0.004761931145575141 -0.017964874253097472 0 -0.0048519725499459503 -0.017927244201339478 0 -0.0047649226724493579 -0.017966042819098204 0 -0.0048080277553662837 -0.018179957655990304 0 -0.0012312656968742359 -0.015117653547763739 0 -0.0011585178712363413 -0.0151157407020168 0 0.00028822008171650254 -0.011208979605345212 0 0.00038574804674569514 -0.011167365606077829 0 0.0003635328383497456 -0.011393748303491096 0 0.00028822008171650254 -0.011208979605345212 0 0.00025857996806463734 -0.011308089131382223 0 0.00021047887136210121 -0.011237864126646317 0 0.00028822008171650254 -0.011208979605345212 0 0.00030865924357206814 -0.011097511122749463 0 0.0001684893997962056 -0.01110205321260798 0 0.00028822008171650254 -0.011208979605345212 0 0.00038574804674569514 -0.011167365606077829 0 0.00030865924357206814 -0.011097511122749463 0 0.000475027807640448 -0.011136216368363214 0 0.00038574804674569514 -0.011167365606077829 0 0.00030865924357206814 -0.011097511122749463 0 0.0033743699979579367 -0.014625036646885567 0 0.0034319378202257896 -0.014795103772466884 0 0.0033074621868741214 -0.014672148623151499 0 -0.00075548475543114988 -0.014696714152558228 0 0.00081418609359731702 -0.013455769445940643 0 0.000475027807640448 -0.011136216368363214 0 0.00030865924357206814 -0.011097511122749463 0 0.00026968615560621372 -0.01093693738681863 0 0.00030865924357206814 -0.011097511122749463 0 0.00026968615560621372 -0.01093693738681863 0 0.0001684893997962056 -0.01110205321260798 0 0.0034667174078535615 -0.014615153862779305 0 0.0034677790043211375 -0.014592333048811603 0 0.0034697960090091179 -0.014596877498499172 0 0.0012798077142298881 -0.015158351917749889 0 -0.00075548475543114988 -0.014696714152558228 0 -0.00075548475543114988 -0.014696714152558228 0 -0.00047347363246627469 -0.014488106801098874 0 0.0035406920557107353 -0.014480224595371641 0 0.0034697960090091179 -0.014596877498499172 0 0.0034177080586445989 -0.014515217254361274 0 0.0034794937632529931 -0.014604421646639377 0 0.0034697960090091179 -0.014596877498499172 0 0.0033886846752755732 -0.014637153377295927 0 0.0033886846752755732 -0.014637153377295927 0 0.0031279002305718323 -0.014578733941092088 0 0.0032941635930527954 -0.01449884424142941 0 0.0034697960090091179 -0.014596877498499172 0 0.0033886846752755732 -0.014637153377295927 0 0.0034177080586445989 -0.014515217254361274 0 0.0033886846752755732 -0.014637153377295927 0 0.0034177080586445989 -0.014515217254361274 0 0.0032941635930527954 -0.01449884424142941 0 0.0032800202227715718 -0.014842761028202176 0 0.0028132581830699918 -0.014711505120279911 0 0.0031279002305718323 -0.014578733941092088 0 0.0032800202227715718 -0.014842761028202176 0 0.0033886846752755732 -0.014637153377295927 0 0.0031279002305718323 -0.014578733941092088 0 0.0028132581830699918 -0.014711505120279911 0 0.0028584460511432673 -0.014439765483204499 0 0.0031279002305718323 -0.014578733941092088 0 0.0028584460511432673 -0.014439765483204499 0 0.0031279002305718323 -0.014578733941092088 0 0.003146647120745109 -0.014411761480324777 0 0.0031279002305718323 -0.014578733941092088 0 0.003146647120745109 -0.014411761480324777 0 0.0032941635930527954 -0.01449884424142941 0 0.0028584460511432673 -0.014439765483204499 0 0.003146647120745109 -0.014411761480324777 0 0.0029650644361698514 -0.014170297942341299 0 0.003146647120745109 -0.014411761480324777 0 0.0034411371154569994 -0.014362473312398923 0 0.0029650644361698514 -0.014170297942341299 0 -0.0011585178712363413 -0.0151157407020168 0 5.3060084536431624e-05 -0.014778223064018374 0 0.003146647120745109 -0.014411761480324777 0 0.0032941635930527954 -0.01449884424142941 0 0.0034411371154569994 -0.014362473312398923 0 0.0034177080586445989 -0.014515217254361274 0 0.0032941635930527954 -0.01449884424142941 0 0.0034411371154569994 -0.014362473312398923 0 -0.0043295215892069768 -0.018399187295966356 0 -0.0046417191007970451 -0.018582179163168844 0 -0.0048080277553662837 -0.018179957655990304 0 -0.0020153896817686695 -0.016642325304653857 0 -0.0017305358525335148 -0.016166696491705282 0 -0.0011585178712363413 -0.0151157407020168 0 -0.0023939262942468268 -0.015819203678685591 0 -0.0047649226724493579 -0.017966042819098204 0 -0.0043295215892069768 -0.018399187295966356 0 -0.0048080277553662837 -0.018179957655990304 0 -0.0016391240222620907 -0.014683714336299915 0 -0.0024517477776320545 -0.014441863393456308 0 -0.0021875628160399211 -0.014085454799689321 0 -0.0033011570657888551 -0.013669943024163788 0 -0.0024517477776320545 -0.014441863393456308 0 -0.0021875628160399211 -0.014085454799689321 0 -0.0043295215892069768 -0.018399187295966356 0 -0.0046417191007970451 -0.018582179163168844 0 -0.0043135556899122742 -0.018902217494087568 0 -0.0038776857028030016 -0.01887826431664423 0 -0.0043295215892069768 -0.018399187295966356 0 -0.0043135556899122742 -0.018902217494087568 0 -0.0023187321758323552 -0.016783112892441162 0 -0.0023939262942468268 -0.015819203678685591 0 -0.0046417191007970451 -0.018582179163168844 0 -0.0048422976483848881 -0.018913198452260627 0 -0.0043135556899122742 -0.018902217494087568 0 -0.0050096314272040409 -0.018427032253462435 0 -0.0054180376179783244 -0.018406235732011854 0 -0.0048422976483848881 -0.018913198452260627 0 0.00035250636482701977 -0.0086938077602521993 0 0.00058412487752042394 -0.008872583122205074 0 0.00042455708802475686 -0.0089829492898589065 0 -0.0046417191007970451 -0.018582179163168844 0 -0.0050096314272040409 -0.018427032253462435 0 -0.0048422976483848881 -0.018913198452260627 0 -0.00069134650801020532 -0.01258103439528801 0 -0.0014877726740581446 -0.013345265087865533 0 -0.0050096314272040409 -0.018427032253462435 0 -0.0050345248634201031 -0.018192895447395222 0 -0.0048335070073470803 -0.018058341381085429 0 -0.0046417191007970451 -0.018582179163168844 0 -0.0050096314272040409 -0.018427032253462435 0 -0.0048335070073470803 -0.018058341381085429 0 -0.0050096314272040409 -0.018427032253462435 0 -0.0050345248634201031 -0.018192895447395222 0 -0.0053513439620127617 -0.01824459583368734 0 -0.0050096314272040409 -0.018427032253462435 0 -0.0053513439620127617 -0.01824459583368734 0 -0.0054180376179783244 -0.018406235732011854 0 -0.0022919457644419864 -0.014332427755586642 0 -0.0011945051041120198 -0.013285534804784989 0 -0.0050345248634201031 -0.018192895447395222 0 -0.0050443683392446337 -0.017977695142342431 0 -0.0053513439620127617 -0.01824459583368734 0 -0.0050345248634201031 -0.018192895447395222 0 -0.0050443683392446337 -0.017977695142342431 0 -0.0048335070073470803 -0.018058341381085429 0 0.00025857996806463734 -0.011308089131382223 0 0.00031169808198159557 -0.011439212022023934 0 0.00011935824533031774 -0.011261653920849376 0 0.00028822008171650254 -0.011208979605345212 0 0.00025857996806463734 -0.011308089131382223 0 0.0003635328383497456 -0.011393748303491096 0 -0.00050214729257007232 -0.012111601197066819 0 -0.00077173694517603951 -0.01273087051578848 0 -0.00099743832863266688 -0.012540337770100315 0 -0.0011945051041120198 -0.013285534804784989 0 -0.00069134650801020532 -0.01258103439528801 0 -0.0011945051041120198 -0.013285534804784989 0 -0.00071687027285459101 -0.012425262227322879 0 -0.00069134650801020532 -0.01258103439528801 0 -0.00071687027285459101 -0.012425262227322879 0 0.00025857996806463734 -0.011308089131382223 0 0.0003635328383497456 -0.011393748303491096 0 0.00031169808198159557 -0.011439212022023934 0 -0.00019666380632662371 -0.010832178065759618 0 -0.00011361333343733086 -0.010902317491740863 0 0.000466932082346578 -0.010397952709889705 0 -0.00019666380632662371 -0.010832178065759618 0 0.000466932082346578 -0.010397952709889705 0 0.00023288510539626659 -0.0098525809041823294 0 -0.00071687027285459101 -0.012425262227322879 0 0.00028096787288546613 -0.0090822269461685382 0 -0.00069134650801020532 -0.01258103439528801 0 0.0002691462751264693 -0.0095083067355696844 0 -4.28946412329357e-05 -0.0044432783542564186 0 -0.00029729490286187985 -0.0044603077793709716 0 -0.00023653290783192063 -0.0040368860915011295 0 0.00027533993674357077 -0.011397401888321676 0 0.00014974688714612016 -0.011504946835537939 0 0.00015519100613762776 -0.01137910939290908 0 -0.00029729490286187985 -0.0044603077793709716 0 -0.00044565244995265575 -0.0042339229371936363 0 -0.00078348615750470601 -0.0046474355140229779 0 -4.28946412329357e-05 -0.0044432783542564186 0 -0.00029729490286187985 -0.0044603077793709716 0 -0.00035574784543812354 -0.0047277512528196676 0 -0.00029729490286187985 -0.0044603077793709716 0 -0.00044565244995265575 -0.0042339229371936363 0 -0.00023653290783192063 -0.0040368860915011295 0 -0.00044565244995265575 -0.0042339229371936363 0 -0.00046870768656263721 -0.0040408468669676833 0 -0.00023653290783192063 -0.0040368860915011295 0 0.00014974688714612016 -0.011504946835537939 0 5.3663055510733608e-05 -0.011304405192549239 0 0.00015519100613762776 -0.01137910939290908 0 0.00027533993674357077 -0.011397401888321676 0 0.00015519100613762776 -0.01137910939290908 0 0.00011935824533031774 -0.011261653920849376 0 5.3663055510733608e-05 -0.011304405192549239 0 0.00015519100613762776 -0.01137910939290908 0 0.00011935824533031774 -0.011261653920849376 0 0.00028096787288546613 -0.0090822269461685382 0 -0.00013064867695169647 -0.007970384654699356 0 -0.00071687027285459101 -0.012425262227322879 0 -0.0005630472406800422 -0.012217198988612777 0 -0.00083404435931060464 -0.0042877678947106793 0 -0.00068524350249640883 -0.0042597988412487464 0 -0.00084082240398029851 -0.0041650487681397065 0 -0.00083404435931060464 -0.0042877678947106793 0 -0.00068524350249640883 -0.0042597988412487464 0 -0.0007007401872900057 -0.0043518092011861952 0 -0.00044565244995265575 -0.0042339229371936363 0 -0.00068524350249640883 -0.0042597988412487464 0 -0.00070485945007409275 -0.0044889464789888058 0 -0.00020047534511269388 -0.0049390009053896945 0 -0.00033014180597552487 -0.005409690235155004 0 -0.00034791640183711033 -0.005055349950501724 0 -0.00033014180597552487 -0.005409690235155004 0 -0.00046870768656263721 -0.0040408468669676833 0 -0.00068524350249640883 -0.0042597988412487464 0 -0.000659404162481687 -0.0039709900382339184 0 -0.00044565244995265575 -0.0042339229371936363 0 -0.00046870768656263721 -0.0040408468669676833 0 -0.00068524350249640883 -0.0042597988412487464 0 -0.00084082240398029851 -0.0041650487681397065 0 -0.00085074848017930573 -0.0039901145459262334 0 -0.00094996057905705168 -0.0040939043201146203 0 -0.00084082240398029851 -0.0041650487681397065 0 -0.00085074848017930573 -0.0039901145459262334 0 -0.000659404162481687 -0.0039709900382339184 0 -0.00068524350249640883 -0.0042597988412487464 0 -0.00084082240398029851 -0.0041650487681397065 0 -0.000659404162481687 -0.0039709900382339184 0 -0.00096805682346364462 -0.0037332722905209625 0 -0.000659404162481687 -0.0039709900382339184 0 -0.00068887916306483289 -0.0035475254893270938 0 -0.00096805682346364462 -0.0037332722905209625 0 -0.00085074848017930573 -0.0039901145459262334 0 -0.00094996057905705168 -0.0040939043201146203 0 -0.00096805682346364462 -0.0037332722905209625 0 -0.00085074848017930573 -0.0039901145459262334 0 -0.000659404162481687 -0.0039709900382339184 0 -0.00046870768656263721 -0.0040408468669676833 0 -0.000659404162481687 -0.0039709900382339184 0 -0.00038705801936396493 -0.0036658504596756283 0 -0.000659404162481687 -0.0039709900382339184 0 -0.00068887916306483289 -0.0035475254893270938 0 -0.00038705801936396493 -0.0036658504596756283 0 -0.00068887916306483289 -0.0035475254893270938 0 -0.00038705801936396493 -0.0036658504596756283 0 -0.00055972578097189746 -0.0032311938347591913 0 -0.00096805682346364462 -0.0037332722905209625 0 -0.00068887916306483289 -0.0035475254893270938 0 -0.0010131081225870509 -0.0034013561812434412 0 0.00011935824533031774 -0.011261653920849376 0 -5.635292308238707e-05 -0.011063256607327616 0 0.0001684893997962056 -0.01110205321260798 0 0.00028822008171650254 -0.011208979605345212 0 0.00021047887136210121 -0.011237864126646317 0 0.0001684893997962056 -0.01110205321260798 0 0.00025857996806463734 -0.011308089131382223 0 0.00021047887136210121 -0.011237864126646317 0 0.00011935824533031774 -0.011261653920849376 0 0.00021047887136210121 -0.011237864126646317 0 0.00011935824533031774 -0.011261653920849376 0 0.0001684893997962056 -0.01110205321260798 0 -0.00046870768656263721 -0.0040408468669676833 0 -0.00023653290783192063 -0.0040368860915011295 0 -0.00038705801936396493 -0.0036658504596756283 0 -0.00013064867695169647 -0.007970384654699356 0 -0.00032901371195394547 -0.0075562362365894755 0 5.3663055510733608e-05 -0.011304405192549239 0 0.00011935824533031774 -0.011261653920849376 0 -5.635292308238707e-05 -0.011063256607327616 0 -0.00032901371195394547 -0.0075562362365894755 0 -0.00045199643205088446 -0.0075446915786446479 0 -5.635292308238707e-05 -0.011063256607327616 0 6.1868413019968688e-05 -0.010932058986299861 0 -0.00016443546476428196 -0.01081409769326511 0 0.00026968615560621372 -0.01093693738681863 0 6.1868413019968688e-05 -0.010932058986299861 0 0.0001684893997962056 -0.01110205321260798 0 -5.635292308238707e-05 -0.011063256607327616 0 6.1868413019968688e-05 -0.010932058986299861 0 0.0001684893997962056 -0.01110205321260798 0 0.00026968615560621372 -0.01093693738681863 0 6.1868413019968688e-05 -0.010932058986299861 0 7.2219775173348817e-05 -0.010753433249556417 0 0.00081418609359731702 -0.013455769445940643 0 0.0014345409730186784 -0.012313004198593153 0 0.0033074621868741214 -0.014672148623151499 0 0.0032537469295880537 -0.014518514650518599 0 0.003058575735843571 -0.014494175680680095 0 0.0033192545858344649 -0.014350204646432291 0 0.0032537469295880537 -0.014518514650518599 0 0.0031935226604727536 -0.014415233795037764 0 0.0031935226604727536 -0.014415233795037764 0 0.003058575735843571 -0.014494175680680095 0 0.0031463928000478618 -0.014246178622058743 0 0.0032537469295880537 -0.014518514650518599 0 0.0031935226604727536 -0.014415233795037764 0 0.003058575735843571 -0.014494175680680095 0 0.0033192545858344649 -0.014350204646432291 0 0.0031935226604727536 -0.014415233795037764 0 0.0031463928000478618 -0.014246178622058743 0 7.2219775173348817e-05 -0.010753433249556417 0 -0.00016443546476428196 -0.01081409769326511 0 -0.00012691696712678358 -0.01057127829016795 0 0.003058575735843571 -0.014494175680680095 0 0.0027607612442095003 -0.014228090756776111 0 0.0031463928000478618 -0.014246178622058743 0 0.0014345409730186784 -0.012313004198593153 0 0.0015114581394708891 -0.010582685367779638 0 6.1868413019968688e-05 -0.010932058986299861 0 7.2219775173348817e-05 -0.010753433249556417 0 -0.00016443546476428196 -0.01081409769326511 0 -0.00068887916306483289 -0.0035475254893270938 0 -0.00055972578097189746 -0.0032311938347591913 0 -0.0010131081225870509 -0.0034013561812434412 0 -0.00055972578097189746 -0.0032311938347591913 0 -0.0010131081225870509 -0.0034013561812434412 0 -0.00093631545293951679 -0.0030857098134583075 0 -0.0010131081225870509 -0.0034013561812434412 0 -0.00093631545293951679 -0.0030857098134583075 0 -0.001278463007113797 -0.0032094207057731233 0 -0.00093631545293951679 -0.0030857098134583075 0 -0.00075169381717136671 -0.0027997932940788148 0 -0.0010796225618192492 -0.0027909349854874834 0 -0.00055972578097189746 -0.0032311938347591913 0 -0.00093631545293951679 -0.0030857098134583075 0 -0.00075169381717136671 -0.0027997932940788148 0 -0.00016443546476428196 -0.01081409769326511 0 -0.00012691696712678358 -0.01057127829016795 0 -0.00027130816832505447 -0.010566463635794589 0 -0.00045199643205088446 -0.0075446915786446479 0 -0.00021875916688642952 -0.0087315681997950662 0 0.00052858053157795403 -0.0089270241869737026 0 0.00010784989922576873 -0.0086357526893715546 0 2.5525955706662559e-05 -0.0084753682038134527 0 0.00052858053157795403 -0.0089270241869737026 0 0.00023194112856278286 -0.0089199801959256187 0 0.00010784989922576873 -0.0086357526893715546 0 0.0015114581394708891 -0.010582685367779638 0 -0.00021875916688642952 -0.0087315681997950662 0 0.0045044736266702263 -0.012998967952648507 0 0.0018632871890486191 -0.01068872017430967 0 0.0041003124900564313 -0.011164580433516542 0 0.0015114581394708891 -0.010582685367779638 0 0.00072801314037857022 -0.0091847709283230418 0 -0.00021875916688642952 -0.0087315681997950662 0 0.00013735620485284033 -0.0070705521980194358 0 0.00022713180834887567 -0.0089129574475273043 0 -0.00015380265042191154 -0.0089042028651125579 0 0.00010784989922576873 -0.0086357526893715546 0 0.0024632049124035213 -0.0090990923427405456 0 0.002623528197144225 -0.0086658735351222912 0 0.0023853031847127812 -0.0087916639037565383 0 -0.00015380265042191154 -0.0089042028651125579 0 0.00010784989922576873 -0.0086357526893715546 0 2.5525955706662559e-05 -0.0084753682038134527 0 0.00013735620485284033 -0.0070705521980194358 0 0.00072801314037857022 -0.0091847709283230418 0 -0.00021875916688642952 -0.0087315681997950662 0 -0.00018288968935825672 -0.0087545336997123455 0 0.002453495273124317 -0.0086840253714476224 0 0.0025764628551242941 -0.0086450065799659036 0 0.002623528197144225 -0.0086658735351222912 0 0.002453495273124317 -0.0086840253714476224 0 0.002623528197144225 -0.0086658735351222912 0 0.0023853031847127812 -0.0087916639037565383 0 0.002453495273124317 -0.0086840253714476224 0 0.0025764628551242941 -0.0086450065799659036 0 0.0024798423140611216 -0.0085964062666814573 0 0.00074312013141657435 -0.0091904401061386927 0 0.00072801314037857022 -0.0091847709283230418 0 0.00091770010927238435 -0.0090422383065513826 0 0.00072801314037857022 -0.0091847709283230418 0 0.0027216175145772367 -0.0088975470273407603 0 0.0018632871890486191 -0.01068872017430967 0 0.0031537937924924963 -0.0099602037559386788 0 0.0027216175145772367 -0.0088975470273407603 0 0.0025764628551242941 -0.0086450065799659036 0 0.0025492802819323942 -0.0086221033730799045 0 0.0027216175145772367 -0.0088975470273407603 0 0.0025288211061712243 -0.0085630622660073132 0 0.0025764628551242941 -0.0086450065799659036 0 0.0025288211061712243 -0.0085630622660073132 0 0.0025764628551242941 -0.0086450065799659036 0 0.0024798423140611216 -0.0085964062666814573 0 0.0047470274451282927 -0.0086318206249972433 0 0.0036881246084774916 -0.009218572509434907 0 0.0041003124900564313 -0.011164580433516542 0 0.0018632871890486191 -0.01068872017430967 0 0.0041003124900564313 -0.011164580433516542 0 0.0031537937924924963 -0.0099602037559386788 0 0.0036881246084774916 -0.009218572509434907 0 0.0041003124900564313 -0.011164580433516542 0 0.0031537937924924963 -0.0099602037559386788 0 0.0036881246084774916 -0.009218572509434907 0 0.0027216175145772367 -0.0088975470273407603 0 0.0031537937924924963 -0.0099602037559386788 0 0.0059848546156924896 -0.010258311036248781 0 0.0050175143942351244 -0.0097856117392421966 0 0.0055445758671606466 -0.011360603597565811 0 0.0047470274451282927 -0.0086318206249972433 0 0.0041003124900564313 -0.011164580433516542 0 0.0055445758671606466 -0.011360603597565811 0 0.0047498336450049776 -0.0092019434860294569 0 0.0050782737542638479 -0.01000423680870283 0 0.0041003124900564313 -0.011164580433516542 0 0.0055445758671606466 -0.011360603597565811 0 0.004729929166292275 -0.011961898166003477 0 0.0059848546156924896 -0.010258311036248781 0 0.0055445758671606466 -0.011360603597565811 0 0.006616623933198596 -0.010691883084608498 0 0.0059848546156924896 -0.010258311036248781 0 0.0065880504359942518 -0.010155685043823181 0 0.006616623933198596 -0.010691883084608498 0 0.0042154684806458642 -0.014597991469503746 0 0.0046227371340842776 -0.014633970987546834 0 0.0044988400152314754 -0.014093791074615131 0 0.004671963426299078 -0.013791406288879279 0 0.0047759348657801567 -0.01352982680680173 0 0.0047813306308611501 -0.013001304865231624 0 0.0055445758671606466 -0.011360603597565811 0 0.006616623933198596 -0.010691883084608498 0 0.0047813306308611501 -0.013001304865231624 0 0.0046227371340842776 -0.014633970987546834 0 0.004671963426299078 -0.013791406288879279 0 0.0047813306308611501 -0.013001304865231624 0 0.0052963130747331793 -0.012918370736422319 0 0.0050396960258981072 -0.01310445934504457 0 0.0046227371340842776 -0.014633970987546834 0 0.004671963426299078 -0.013791406288879279 0 0.0044988400152314754 -0.014093791074615131 0 0.004196805606688633 -0.014224565376794895 0 0.0044988400152314754 -0.014093791074615131 0 0.0047759348657801567 -0.01352982680680173 0 0.004671963426299078 -0.013791406288879279 0 0.0044988400152314754 -0.014093791074615131 0 0.0047759348657801567 -0.01352982680680173 0 0.0045044736266702263 -0.012998967952648507 0 0.0041003124900564313 -0.011164580433516542 0 0.004729929166292275 -0.011961898166003477 0 0.0015114581394708891 -0.010582685367779638 0 0.0034730985732458687 -0.012041341293047875 0 0.0045044736266702263 -0.012998967952648507 0 0.0047759348657801567 -0.01352982680680173 0 0.0047813306308611501 -0.013001304865231624 0 0.0045044736266702263 -0.012998967952648507 0 0.0047813306308611501 -0.013001304865231624 0 0.004729929166292275 -0.011961898166003477 0 0.0055445758671606466 -0.011360603597565811 0 0.0047813306308611501 -0.013001304865231624 0 0.004729929166292275 -0.011961898166003477 0 -0.0021092592969512085 -0.0042919857822104526 0 -0.0019908357891635056 -0.0041875335222216611 0 -0.0021530496033174019 -0.0046080259961334561 0 -0.0021092592969512085 -0.0042919857822104526 0 -0.0021530496033174019 -0.0046080259961334561 0 -0.0021647115494897004 -0.0042543108361023756 0 0.00087499473021915091 -0.008489853730147769 0 0.0016548042330075635 -0.0084813078234875269 0 0.0015773246611871336 -0.0089662787737539665 0 -0.00014274288980859319 -0.006561090177359917 0 -0.00011993856904925303 -0.0064589947592230898 0 -0.0021092592969512085 -0.0042919857822104526 0 -0.0021647115494897004 -0.0042543108361023756 0 -0.0020860232830034885 -0.0041681319675969438 0 -0.0021092592969512085 -0.0042919857822104526 0 -0.0019908357891635056 -0.0041875335222216611 0 -0.0020860232830034885 -0.0041681319675969438 0 -0.0017618861716865318 -0.0042987889061901251 0 -0.0019908357891635056 -0.0041875335222216611 0 -0.001877751201719229 -0.0040724981577752624 0 -0.0017618861716865318 -0.0042987889061901251 0 -0.0019908357891635056 -0.0041875335222216611 0 -0.0021530496033174019 -0.0046080259961334561 0 0.00026230840371613978 -0.0068405620148137706 0 0.00091934777030246596 -0.0070936252996462446 0 8.496878115811564e-05 -0.0079410809505427848 0 0.00087499473021915091 -0.008489853730147769 0 0.0013725346854020647 -0.0079477437958427304 0 0.00026230840371613978 -0.0068405620148137706 0 -0.00014274288980859319 -0.006561090177359917 0 -0.0015857917756237499 -0.0054431408704358076 0 -0.0017618861716865318 -0.0042987889061901251 0 -0.0021530496033174019 -0.0046080259961334561 0 0.00087499473021915091 -0.008489853730147769 0 0.0013725346854020647 -0.0079477437958427304 0 0.0016548042330075635 -0.0084813078234875269 0 0.0013725346854020647 -0.0079477437958427304 0 0.0018461180306790258 -0.0082870786739804025 0 0.0016548042330075635 -0.0084813078234875269 0 0.0018461180306790258 -0.0082870786739804025 0 0.0021152819223971072 -0.0082854738381663313 0 0.0020714550867008182 -0.0085389967103860695 0 0.0016548042330075635 -0.0084813078234875269 0 0.0020714550867008182 -0.0085389967103860695 0 0.0018613020384768127 -0.0087851551540155878 0 0.0018461180306790258 -0.0082870786739804025 0 0.0016548042330075635 -0.0084813078234875269 0 0.0020714550867008182 -0.0085389967103860695 0 0.0025288211061712243 -0.0085630622660073132 0 0.0024798423140611216 -0.0085964062666814573 0 0.0023396360941528162 -0.0085206961776820127 0 0.0023396360941528162 -0.0085206961776820127 0 0.0021152819223971072 -0.0082854738381663313 0 0.0020714550867008182 -0.0085389967103860695 0 0.0020714550867008182 -0.0085389967103860695 0 0.0022618342617090788 -0.0086583414444595698 0 0.0021352363856290526 -0.0088431817311201127 0 0.0023396360941528162 -0.0085206961776820127 0 0.0020714550867008182 -0.0085389967103860695 0 0.0022618342617090788 -0.0086583414444595698 0 0.002453495273124317 -0.0086840253714476224 0 0.0023396360941528162 -0.0085206961776820127 0 0.0022618342617090788 -0.0086583414444595698 0 0.002453495273124317 -0.0086840253714476224 0 0.0022618342617090788 -0.0086583414444595698 0 0.0023853031847127812 -0.0087916639037565383 0 0.002453495273124317 -0.0086840253714476224 0 0.0024798423140611216 -0.0085964062666814573 0 0.0023396360941528162 -0.0085206961776820127 0 0.0024632049124035213 -0.0090990923427405456 0 0.0021352363856290526 -0.0088431817311201127 0 0.0018752686247890413 -0.0091309796402559811 0 0.00013735620485284033 -0.0070705521980194358 0 -6.7236009869292576e-05 -0.0063987932162476923 0 0.0022618342617090788 -0.0086583414444595698 0 0.0023853031847127812 -0.0087916639037565383 0 0.0021352363856290526 -0.0088431817311201127 0 0.0024632049124035213 -0.0090990923427405456 0 0.0023853031847127812 -0.0087916639037565383 0 0.0021352363856290526 -0.0088431817311201127 0 0.0016548042330075635 -0.0084813078234875269 0 0.0018613020384768127 -0.0087851551540155878 0 0.0015773246611871336 -0.0089662787737539665 0 0.0021352363856290526 -0.0088431817311201127 0 0.0018613020384768127 -0.0087851551540155878 0 0.0018752686247890413 -0.0091309796402559811 0 0.0020714550867008182 -0.0085389967103860695 0 0.0021352363856290526 -0.0088431817311201127 0 0.0018613020384768127 -0.0087851551540155878 0 -0.0021468630677638459 -0.0041893287690525846 0 -0.0021647115494897004 -0.0042543108361023756 0 -0.0021211466083769382 -0.0041501025346619763 0 0.0018613020384768127 -0.0087851551540155878 0 0.0018752686247890413 -0.0091309796402559811 0 0.0015773246611871336 -0.0089662787737539665 0 -6.7236009869292576e-05 -0.0063987932162476923 0 -0.00011993856904925303 -0.0064589947592230898 0 -0.0021647115494897004 -0.0042543108361023756 0 -0.0021211466083769382 -0.0041501025346619763 0 -0.0020860232830034885 -0.0041681319675969438 0 -0.0021211466083769382 -0.0041501025346619763 0 -0.0020759176297713662 -0.0040930777461832173 0 -0.0020860232830034885 -0.0041681319675969438 0 -0.0021211466083769382 -0.0041501025346619763 0 -0.0021198855395162751 -0.004094261410896213 0 -0.0021561074322561055 -0.0041576491890021909 0 -0.0021468630677638459 -0.0041893287690525846 0 -0.0021211466083769382 -0.0041501025346619763 0 -0.0021561074322561055 -0.0041576491890021909 0 -6.7236009869292576e-05 -0.0063987932162476923 0 -0.00040653599991174116 -0.0061327555026714116 0 -0.0021211466083769382 -0.0041501025346619763 0 -0.0021198855395162751 -0.004094261410896213 0 -0.0020759176297713662 -0.0040930777461832173 0 -0.0022401733608074037 -0.0041968923145831978 0 -0.0021561074322561055 -0.0041576491890021909 0 -0.0021660152305228268 -0.0040447495119488464 0 -0.0022401733608074037 -0.0041968923145831978 0 -0.0020982571885902182 -0.0041995480155499355 0 -0.0021561074322561055 -0.0041576491890021909 0 0.00013735620485284033 -0.0070705521980194358 0 -0.00050619341567438862 -0.0047675041855782347 0 -0.00093631545293951679 -0.0030857098134583075 0 -0.0010796225618192492 -0.0027909349854874834 0 -0.001278463007113797 -0.0032094207057731233 0 -0.0021198855395162751 -0.004094261410896213 0 -0.0021561074322561055 -0.0041576491890021909 0 -0.0021660152305228268 -0.0040447495119488464 0 -0.0021198855395162751 -0.004094261410896213 0 -0.0021660152305228268 -0.0040447495119488464 0 -0.0020431149590187251 -0.0039968389865780605 0 -0.0021660152305228268 -0.0040447495119488464 0 -0.0020431149590187251 -0.0039968389865780605 0 -0.0020109645797136383 -0.0039183444425958799 0 -0.0021198855395162751 -0.004094261410896213 0 -0.0020759176297713662 -0.0040930777461832173 0 -0.0020431149590187251 -0.0039968389865780605 0 -0.0020759176297713662 -0.0040930777461832173 0 -0.0020431149590187251 -0.0039968389865780605 0 -0.002005026202343262 -0.0040071539088160366 0 -0.002005026202343262 -0.0040071539088160366 0 -0.0019662078272470094 -0.0040232213450244738 0 -0.0019412344915092597 -0.003931756640559613 0 -0.0020431149590187251 -0.0039968389865780605 0 -0.002005026202343262 -0.0040071539088160366 0 -0.0019412344915092597 -0.003931756640559613 0 -0.0020759176297713662 -0.0040930777461832173 0 -0.002005026202343262 -0.0040071539088160366 0 -0.0019662078272470094 -0.0040232213450244738 0 -0.0020759176297713662 -0.0040930777461832173 0 -0.0020860232830034885 -0.0041681319675969438 0 -0.0019662078272470094 -0.0040232213450244738 0 -0.0019908357891635056 -0.0041875335222216611 0 -0.0020860232830034885 -0.0041681319675969438 0 -0.0019662078272470094 -0.0040232213450244738 0 -0.0019908357891635056 -0.0041875335222216611 0 -0.001877751201719229 -0.0040724981577752624 0 -0.0019662078272470094 -0.0040232213450244738 0 -0.0019662078272470094 -0.0040232213450244738 0 -0.0019077056937401888 -0.0039463712552696151 0 -0.0019412344915092597 -0.003931756640559613 0 -0.001877751201719229 -0.0040724981577752624 0 -0.0019662078272470094 -0.0040232213450244738 0 -0.0019077056937401888 -0.0039463712552696151 0 -0.0019076233142496519 -0.0038886009833126733 0 -0.0019077056937401888 -0.0039463712552696151 0 -0.0019412344915092597 -0.003931756640559613 0 -0.0019412344915092597 -0.003931756640559613 0 -0.0019056844041253223 -0.0039115269600491576 0 -0.0020109645797136383 -0.0039183444425958799 0 -0.0019412344915092597 -0.003931756640559613 0 -0.0018951286449091979 -0.0039087316872589827 0 -0.0019056844041253223 -0.0039115269600491576 0 -0.0018951286449091979 -0.0039087316872589827 0 -0.0019056844041253223 -0.0039115269600491576 0 -0.0017981248082946319 -0.0039365043072486314 0 -0.0019076233142496519 -0.0038886009833126733 0 -0.0019412344915092597 -0.003931756640559613 0 -0.0018951286449091979 -0.0039087316872589827 0 -0.0019076233142496519 -0.0038886009833126733 0 -0.0019132329520097325 -0.003892733166162835 0 -0.0018951286449091979 -0.0039087316872589827 0 -0.0010131081225870509 -0.0034013561812434412 0 -0.001278463007113797 -0.0032094207057731233 0 -0.0015277114738286566 -0.0036230259656665873 0 -0.00096805682346364462 -0.0037332722905209625 0 -0.0010131081225870509 -0.0034013561812434412 0 -0.0015277114738286566 -0.0036230259656665873 0 -0.00050619341567438862 -0.0047675041855782347 0 -0.0010081746978418077 -0.0042676893179243109 0 -0.0020431149590187251 -0.0039968389865780605 0 -0.0019412344915092597 -0.003931756640559613 0 -0.0020109645797136383 -0.0039183444425958799 0 -0.0010081746978418077 -0.0042676893179243109 0 -0.0011835952680539967 -0.0042133809373655221 0 -0.0019056844041253223 -0.0039115269600491576 0 -0.0020109645797136383 -0.0039183444425958799 0 -0.0017981248082946319 -0.0039365043072486314 0 -0.0015277114738286566 -0.0036230259656665873 0 -0.0014085359712287606 -0.0039710546831394876 0 -0.0017981248082946319 -0.0039365043072486314 0 -0.0010193059900516792 -0.0038438047118244294 0 -0.0011012654741595399 -0.0039528176872181417 0 -0.00096805682346364462 -0.0037332722905209625 0 -0.0015277114738286566 -0.0036230259656665873 0 -0.0014085359712287606 -0.0039710546831394876 0 -0.00094996057905705168 -0.0040939043201146203 0 -0.0008414051252167437 -0.0042234009098583341 0 -0.00086373392312490778 -0.0042277138136074628 0 -0.00084082240398029851 -0.0041650487681397065 0 -0.00094996057905705168 -0.0040939043201146203 0 -0.00086373392312490778 -0.0042277138136074628 0 -0.0011012654741595399 -0.0039528176872181417 0 -0.0012244067349292153 -0.004125498789565446 0 -0.0017981248082946319 -0.0039365043072486314 0 -0.0017486956978334763 -0.0040681560036054994 0 -0.0018519332817662684 -0.00396171668420348 0 -0.0014085359712287606 -0.0039710546831394876 0 -0.0017981248082946319 -0.0039365043072486314 0 -0.0017486956978334763 -0.0040681560036054994 0 -0.0012244067349292153 -0.004125498789565446 0 -0.0013462212874921712 -0.004329046164244647 0 -0.0008414051252167437 -0.0042234009098583341 0 -0.00083085123988013861 -0.0042594217317470278 0 -0.00078999956319137168 -0.0043091380176676786 0 -0.0008414051252167437 -0.0042234009098583341 0 -0.00083085123988013861 -0.0042594217317470278 0 -0.00086373392312490778 -0.0042277138136074628 0 -0.00083404435931060464 -0.0042877678947106793 0 -0.00084082240398029851 -0.0041650487681397065 0 -0.00086373392312490778 -0.0042277138136074628 0 -0.00083085123988013861 -0.0042594217317470278 0 -0.00086373392312490778 -0.0042277138136074628 0 -0.00083158825751083055 -0.0042783554426565297 0 -0.00083404435931060464 -0.0042877678947106793 0 -0.00086373392312490778 -0.0042277138136074628 0 -0.00083158825751083055 -0.0042783554426565297 0 -0.0019132329520097325 -0.003892733166162835 0 -0.0018951286449091979 -0.0039087316872589827 0 -0.0018821674573020384 -0.0039627294231170847 0 -0.0018951286449091979 -0.0039087316872589827 0 -0.0017981248082946319 -0.0039365043072486314 0 -0.0018519332817662684 -0.00396171668420348 0 -0.0018951286449091979 -0.0039087316872589827 0 -0.0018821674573020384 -0.0039627294231170847 0 -0.0018519332817662684 -0.00396171668420348 0 -0.0017486956978334763 -0.0040681560036054994 0 -0.0018519332817662684 -0.00396171668420348 0 -0.0018338856084329353 -0.0040235138170946491 0 -0.0018821674573020384 -0.0039627294231170847 0 -0.0018519332817662684 -0.00396171668420348 0 -0.0018338856084329353 -0.0040235138170946491 0 -0.0017486956978334763 -0.0040681560036054994 0 -0.0018338856084329353 -0.0040235138170946491 0 -0.0018299182413032591 -0.0040560234202069341 0 -0.0019077127824275333 -0.0039681200414506878 0 -0.0018821674573020384 -0.0039627294231170847 0 -0.0018711398836007698 -0.004026460720633375 0 -0.0019077127824275333 -0.0039681200414506878 0 -0.0018711398836007698 -0.004026460720633375 0 -0.0019180409806488369 -0.0040368265735490549 0 -0.0018821674573020384 -0.0039627294231170847 0 -0.0018338856084329353 -0.0040235138170946491 0 -0.0018711398836007698 -0.004026460720633375 0 -0.0018711398836007698 -0.004026460720633375 0 -0.0018299182413032591 -0.0040560234202069341 0 -0.0018712483350223871 -0.0041027296493582584 0 -0.0018711398836007698 -0.004026460720633375 0 -0.0018712483350223871 -0.0041027296493582584 0 -0.0019180409806488369 -0.0040368265735490549 0 -0.0018338856084329353 -0.0040235138170946491 0 -0.0018711398836007698 -0.004026460720633375 0 -0.0018299182413032591 -0.0040560234202069341 0 -0.00093984322146033281 -0.0043565879042317818 0 -0.00089684151140262077 -0.0047796263718459069 0 -0.00073714268317186954 -0.0045623873582499065 0 -0.00089684151140262077 -0.0047796263718459069 0 -0.0013198114369163737 -0.0048083901829514084 0 -0.0010535571422924676 -0.005141164960565426 0 -0.00093984322146033281 -0.0043565879042317818 0 -0.00089684151140262077 -0.0047796263718459069 0 -0.0013198114369163737 -0.0048083901829514084 0 -0.0013462212874921712 -0.004329046164244647 0 -0.0014966841399598615 -0.0046436577456922066 0 -0.0014966841399598615 -0.0046436577456922066 0 -0.0017435381633032403 -0.0042551293289007173 0 -0.00063005841814000544 -0.005529314414374523 0 -0.00081176280770617131 -0.005165581682846602 0 -0.00083404435931060464 -0.0042877678947106793 0 -0.00084692437131988747 -0.004255071754576502 0 -0.00083158825751083055 -0.0042783554426565297 0 -0.00084692437131988747 -0.004255071754576502 0 -0.00083158825751083055 -0.0042783554426565297 0 -0.00078999956319137168 -0.0043091380176676786 0 5.7882605105674454e-06 -0.0045259776373605043 0 -0.00078999956319137168 -0.0043091380176676786 0 -0.0004650407924624198 -0.0045937337382501624 0 -0.0008414051252167437 -0.0042234009098583341 0 -0.00093984322146033281 -0.0043565879042317818 0 -0.00078999956319137168 -0.0043091380176676786 0 -0.00083085123988013861 -0.0042594217317470278 0 -0.00083158825751083055 -0.0042783554426565297 0 -0.00078999956319137168 -0.0043091380176676786 0 -0.00078999956319137168 -0.0043091380176676786 0 -0.00073714268317186954 -0.0045623873582499065 0 -0.0004650407924624198 -0.0045937337382501624 0 -0.00093984322146033281 -0.0043565879042317818 0 -0.00078999956319137168 -0.0043091380176676786 0 -0.00073714268317186954 -0.0045623873582499065 0 -0.00089684151140262077 -0.0047796263718459069 0 -0.00073714268317186954 -0.0045623873582499065 0 -0.00058144237608094367 -0.0048254441879547316 0 -0.00089684151140262077 -0.0047796263718459069 0 -0.00058144237608094367 -0.0048254441879547316 0 -0.00063955632844722189 -0.0051428721230508852 0 -0.00073714268317186954 -0.0045623873582499065 0 -0.00058144237608094367 -0.0048254441879547316 0 -0.0004650407924624198 -0.0045937337382501624 0 -0.00058144237608094367 -0.0048254441879547316 0 -0.0004650407924624198 -0.0045937337382501624 0 -0.00020205551558299012 -0.0047270641389295437 0 5.7882605105674454e-06 -0.0045259776373605043 0 -0.0004650407924624198 -0.0045937337382501624 0 -0.00020205551558299012 -0.0047270641389295437 0 5.7882605105674454e-06 -0.0045259776373605043 0 -0.00020205551558299012 -0.0047270641389295437 0 -6.5085670926196915e-05 -0.0049546415067445327 0 -0.00063005841814000544 -0.005529314414374523 0 -0.00041340104364019799 -0.0059585753230682855 0 -0.00020205551558299012 -0.0047270641389295437 0 -6.5085670926196915e-05 -0.0049546415067445327 0 -0.00036885401578022723 -0.0050065737427617846 0 -0.00058144237608094367 -0.0048254441879547316 0 -0.00020205551558299012 -0.0047270641389295437 0 -0.00036885401578022723 -0.0050065737427617846 0 -6.5085670926196915e-05 -0.0049546415067445327 0 -0.00036885401578022723 -0.0050065737427617846 0 -0.00035412569226097619 -0.0053690116751206338 0 -0.00041340104364019799 -0.0059585753230682855 0 -0.00026918423316256288 -0.0068366978648571426 0 -0.0001658737622324605 -0.0067987580374241239 0 -0.00012386789125318169 -0.006485846541448596 0 -0.00033564397252733487 -0.0068495000886058506 0 -1.89894305929453e-05 -0.005664486327221367 0 -0.0003255020557741941 -0.0060358050549867426 0 -6.7857528312646314e-05 -0.0060534324244784551 0 -0.00041340104364019799 -0.0059585753230682855 0 -0.00042196697194711504 -0.0059282602464088389 0 -0.00063955632844722189 -0.0051428721230508852 0 -0.00035412569226097619 -0.0053690116751206338 0 -0.00071856527553566807 -0.0054863880303218145 0 -0.00036885401578022723 -0.0050065737427617846 0 -0.00063955632844722189 -0.0051428721230508852 0 -0.00035412569226097619 -0.0053690116751206338 0 -0.00058144237608094367 -0.0048254441879547316 0 -0.00036885401578022723 -0.0050065737427617846 0 -0.00063955632844722189 -0.0051428721230508852 0 -0.00044245099374715482 -0.0063816715078553162 0 -0.0003255020557741941 -0.0060358050549867426 0 -0.00065386318996074437 -0.0064155754975238882 0 -0.00042196697194711504 -0.0059282602464088389 0 -0.00064934623469553978 -0.0062081225565258288 0 -0.00035412569226097619 -0.0053690116751206338 0 -0.00071856527553566807 -0.0054863880303218145 0 -0.00058673748425304244 -0.0059139089975056014 0 -0.00019623308341646037 -0.0061474661857957979 0 0.00050214969459568676 -0.0055449750332215017 0 0.00037725539917587801 -0.0065645068019685292 0 -0.00026918423316256288 -0.0068366978648571426 0 -8.555442770530718e-05 -0.0073032929020273897 0 -0.00024951293467539781 -0.0065882325603997035 0 -0.00026918423316256288 -0.0068366978648571426 0 -0.00044245099374715482 -0.0063816715078553162 0 -0.0003255020557741941 -0.0060358050549867426 0 -6.7857528312646314e-05 -0.0060534324244784551 0 5.4190892643037023e-05 -0.0085953664129197836 0 0.00010535073467714773 -0.0083343999547709491 0 -3.7159303198518878e-05 -0.0084618968304014091 0 -0.0013494310218576016 -0.0050979048325227594 0 -0.0010220759590684296 -0.0050394240974911313 0 -0.0010955493061790902 -0.0054889271982117155 0 -0.0013494310218576016 -0.0050979048325227594 0 -0.0015676726113115736 -0.0052552815440061055 0 -0.0016426885543800399 -0.005063486554086118 0 -0.0014966841399598615 -0.0046436577456922066 0 -0.001546366542049151 -0.0047364742663423944 0 -0.0013276756194670369 -0.0046744947571783959 0 -0.0013494310218576016 -0.0050979048325227594 0 -0.0016426885543800399 -0.005063486554086118 0 -0.0013276756194670369 -0.0046744947571783959 0 -0.0013494310218576016 -0.0050979048325227594 0 -0.0010220759590684296 -0.0050394240974911313 0 -0.0014966841399598615 -0.0046436577456922066 0 -0.0012303810452106816 -0.0049453180836298103 0 -0.00089684151140262077 -0.0047796263718459069 0 -0.00063955632844722189 -0.0051428721230508852 0 -0.0010535571422924676 -0.005141164960565426 0 -0.0012303810452106816 -0.0049453180836298103 0 -0.0011145999705999491 -0.0050800614078183315 0 -0.00063955632844722189 -0.0051428721230508852 0 -0.0010535571422924676 -0.005141164960565426 0 -0.00071856527553566807 -0.0054863880303218145 0 -0.0010220759590684296 -0.0050394240974911313 0 -0.0010955493061790902 -0.0054889271982117155 0 -0.00071856527553566807 -0.0054863880303218145 0 -0.00071856527553566807 -0.0054863880303218145 0 -0.00090607449318686481 -0.0058649603193142129 0 -0.00058673748425304244 -0.0059139089975056014 0 -0.0010955493061790902 -0.0054889271982117155 0 -0.00090607449318686481 -0.0058649603193142129 0 -0.0011967183045508288 -0.0059853157459646743 0 -0.0010955493061790902 -0.0054889271982117155 0 -0.00071856527553566807 -0.0054863880303218145 0 -0.00090607449318686481 -0.0058649603193142129 0 -0.0014358215902069711 -0.0055879654267343816 0 -0.0016457488580156878 -0.0064797792271163238 0 -0.0018240312082215473 -0.0052873989747822415 0 -0.0010955493061790902 -0.0054889271982117155 0 -0.0014358215902069711 -0.0055879654267343816 0 -0.0011967183045508288 -0.0059853157459646743 0 -0.0013494310218576016 -0.0050979048325227594 0 -0.0010955493061790902 -0.0054889271982117155 0 -0.0014358215902069711 -0.0055879654267343816 0 -0.0015676726113115736 -0.0052552815440061055 0 -0.0014358215902069711 -0.0055879654267343816 0 -0.0018240312082215473 -0.0052873989747822415 0 -0.0013494310218576016 -0.0050979048325227594 0 -0.0015676726113115736 -0.0052552815440061055 0 -0.0014358215902069711 -0.0055879654267343816 0 -0.0016457488580156878 -0.0064797792271163238 0 -0.0011967183045508288 -0.0059853157459646743 0 -0.0010512589881525533 -0.0067817832772641235 0 -0.0014358215902069711 -0.0055879654267343816 0 -0.0016457488580156878 -0.0064797792271163238 0 -0.0011967183045508288 -0.0059853157459646743 0 -0.0014815544672128521 -0.0060757132825145039 0 -0.0011469346596884667 -0.0065558035093718995 0 -0.0016846462534678432 -0.0056069460251615905 0 -0.0015348610694257425 -0.0059473466072954822 0 -0.0018192274286333542 -0.00590875615153128 0 -0.0016457488580156878 -0.0064797792271163238 0 -0.0010512589881525533 -0.0067817832772641235 0 -0.0011437240430719941 -0.0077120834042278558 0 -0.00070857580655132586 -0.0071708042147368067 0 -0.0010512589881525533 -0.0067817832772641235 0 -0.0011437240430719941 -0.0077120834042278558 0 -0.00070857580655132586 -0.0071708042147368067 0 -0.0010512589881525533 -0.0067817832772641235 0 -0.00087409626056600366 -0.0067062193752808769 0 -0.00070857580655132586 -0.0071708042147368067 0 -0.00087409626056600366 -0.0067062193752808769 0 -0.0005331700131026094 -0.006969674597664139 0 -0.0010512589881525533 -0.0067817832772641235 0 -0.00087409626056600366 -0.0067062193752808769 0 -0.00065386318996074437 -0.0064155754975238882 0 -0.00090607449318686481 -0.0058649603193142129 0 -0.0011967183045508288 -0.0059853157459646743 0 -0.0010512589881525533 -0.0067817832772641235 0 -0.00081251371439251439 -0.0064152303798617897 0 -0.00064934623469553978 -0.0062081225565258288 0 -0.00090607449318686481 -0.0058649603193142129 0 -0.0010512589881525533 -0.0067817832772641235 0 -0.00058673748425304244 -0.0059139089975056014 0 -0.00024951293467539781 -0.0065882325603997035 0 -0.00040316483289376607 -0.0066511975262650742 0 -0.00019623308341646037 -0.0061474661857957979 0 -0.00087409626056600366 -0.0067062193752808769 0 -0.00029855761543906144 -0.0067294085374402261 0 -0.00044245099374715482 -0.0063816715078553162 0 -0.00087409626056600366 -0.0067062193752808769 0 -0.00065386318996074437 -0.0064155754975238882 0 -0.00019623308341646037 -0.0061474661857957979 0 -0.00029855761543906144 -0.0067294085374402261 0 0.00037725539917587801 -0.0065645068019685292 0 0.00037725539917587801 -0.0065645068019685292 0 -0.00024388353868650908 -0.0072626961050280712 0 0.0001600532920373289 -0.0077750870237984293 0 -8.555442770530718e-05 -0.0073032929020273897 0 -4.3931526225418468e-05 -0.0074956405352121615 0 0.00010535073467714773 -0.0083343999547709491 0 0.0001600532920373289 -0.0077750870237984293 0 -0.00011927368948293839 -0.0080710609495347561 0 -0.00029855761543906144 -0.0067294085374402261 0 0.00037725539917587801 -0.0065645068019685292 0 -0.00024388353868650908 -0.0072626961050280712 0 -0.00029855761543906144 -0.0067294085374402261 0 -0.0005331700131026094 -0.006969674597664139 0 -0.00024388353868650908 -0.0072626961050280712 0 -0.00087409626056600366 -0.0067062193752808769 0 -0.00029855761543906144 -0.0067294085374402261 0 -0.0005331700131026094 -0.006969674597664139 0 -0.00070857580655132586 -0.0071708042147368067 0 -0.00024388353868650908 -0.0072626961050280712 0 -0.00051030804133818147 -0.0076210296293376485 0 -0.00070857580655132586 -0.0071708042147368067 0 -0.0005331700131026094 -0.006969674597664139 0 -0.00024388353868650908 -0.0072626961050280712 0 -0.00051030804133818147 -0.0076210296293376485 0 -0.00016595868573814708 -0.0076970481523197807 0 -0.00027164254048007557 -0.007910408279204412 0 -0.00024388353868650908 -0.0072626961050280712 0 -0.00051030804133818147 -0.0076210296293376485 0 -0.00016595868573814708 -0.0076970481523197807 0 -0.00024388353868650908 -0.0072626961050280712 0 -0.00016595868573814708 -0.0076970481523197807 0 0.0001600532920373289 -0.0077750870237984293 0 -0.00016595868573814708 -0.0076970481523197807 0 -8.9427949383684646e-06 -0.0078455417728785001 0 0.0001600532920373289 -0.0077750870237984293 0 -8.9427949383684646e-06 -0.0078455417728785001 0 -5.2828334110030085e-05 -0.0079731286630686567 0 -0.00027164254048007557 -0.007910408279204412 0 -0.00016595868573814708 -0.0076970481523197807 0 -8.9427949383684646e-06 -0.0078455417728785001 0 -0.00027164254048007557 -0.007910408279204412 0 -0.00051030804133818147 -0.0076210296293376485 0 -0.00027164254048007557 -0.007910408279204412 0 -0.00062854312774527829 -0.0079657498839319964 0 -0.00027164254048007557 -0.007910408279204412 0 -0.00035586733308005068 -0.008157169882444068 0 -0.00062854312774527829 -0.0079657498839319964 0 9.4704317639295014e-05 -0.007843555868999659 0 8.3367632779896356e-05 -0.0078092925584366622 0 -0.00011927368948293839 -0.0080710609495347561 0 9.4704317639295014e-05 -0.007843555868999659 0 0.0001600532920373289 -0.0077750870237984293 0 -0.00011927368948293839 -0.0080710609495347561 0 9.4704317639295014e-05 -0.007843555868999659 0 0.0001600532920373289 -0.0077750870237984293 0 9.7848750843122325e-05 -0.0078417798600016117 0 -8.9427949383684646e-06 -0.0078455417728785001 0 0.0001600532920373289 -0.0077750870237984293 0 9.7848750843122325e-05 -0.0078417798600016117 0 -8.9427949383684646e-06 -0.0078455417728785001 0 3.0152067994436587e-05 -0.0079182439050760091 0 9.7848750843122325e-05 -0.0078417798600016117 0 -8.9427949383684646e-06 -0.0078455417728785001 0 -5.2828334110030085e-05 -0.0079731286630686567 0 3.0152067994436587e-05 -0.0079182439050760091 0 3.0152067994436587e-05 -0.0079182439050760091 0 9.7848750843122325e-05 -0.0078417798600016117 0 0.00011862621863332906 -0.0078371740109460276 0 9.4704317639295014e-05 -0.007843555868999659 0 9.7848750843122325e-05 -0.0078417798600016117 0 0.00011862621863332906 -0.0078371740109460276 0 9.4704317639295014e-05 -0.007843555868999659 0 0.00011862621863332906 -0.0078371740109460276 0 8.3367632779896356e-05 -0.0078092925584366622 0 -0.00036403313672724627 -0.0077591673218032984 0 -0.00039781228709395776 -0.0073927035043858556 0 0.00011862621863332906 -0.0078371740109460276 0 8.3367632779896356e-05 -0.0078092925584366622 0 0.00013590689718926915 -0.0077324469274448315 0 -0.00023624232020935256 -0.0081527425196645503 0 -0.00022828957154230666 -0.0081840341713747666 0 -0.0002645801157105891 -0.0081957252127704602 0 0.00011862621863332906 -0.0078371740109460276 0 0.00017673283131635091 -0.0077971715995992568 0 0.00013590689718926915 -0.0077324469274448315 0 -0.00061547856722459784 -0.0071679673906760348 0 -0.00067248922424269068 -0.0071322778625504089 0 3.0152067994436587e-05 -0.0079182439050760091 0 0.00011862621863332906 -0.0078371740109460276 0 -5.9828447618524566e-05 -0.0081663293514881857 0 -0.00067248922424269068 -0.0071322778625504089 0 -0.00039781228709395776 -0.0073927035043858556 0 -0.0004838207891016371 -0.0063387511053322725 0 -0.0007319936872542121 -0.0065039487164756989 0 -0.00054781468834693401 -0.0065574842561859905 0 -0.00035586733308005068 -0.008157169882444068 0 -6.1411662443307496e-05 -0.0082060809128964053 0 -0.00066468806303323507 -0.0086418806898821872 0 -0.00035586733308005068 -0.008157169882444068 0 -0.00062854312774527829 -0.0079657498839319964 0 -0.00066468806303323507 -0.0086418806898821872 0 -0.00067248922424269068 -0.0071322778625504089 0 -0.00089611803720050526 -0.0063805718103241002 0 -5.2828334110030085e-05 -0.0079731286630686567 0 -0.00027164254048007557 -0.007910408279204412 0 -0.00011564001725498771 -0.0081114905677796088 0 -0.00035586733308005068 -0.008157169882444068 0 -0.00011564001725498771 -0.0081114905677796088 0 -6.1411662443307496e-05 -0.0082060809128964053 0 -0.00027164254048007557 -0.007910408279204412 0 -0.00035586733308005068 -0.008157169882444068 0 -0.00011564001725498771 -0.0081114905677796088 0 -5.2828334110030085e-05 -0.0079731286630686567 0 3.0152067994436587e-05 -0.0079182439050760091 0 -5.9828447618524566e-05 -0.0081663293514881857 0 -5.2828334110030085e-05 -0.0079731286630686567 0 -0.00011564001725498771 -0.0081114905677796088 0 -5.9828447618524566e-05 -0.0081663293514881857 0 -0.00066562734327971023 -0.0071432618017861554 0 -0.00067248922424269068 -0.0071322778625504089 0 -0.0004838207891016371 -0.0063387511053322725 0 -0.00054781468834693401 -0.0065574842561859905 0 -0.00037326340054414032 -0.0065086322745384331 0 -0.0016589631006049804 -0.0061707491094618828 0 -0.0015348610694257425 -0.0059473466072954822 0 -0.00139127395733287 -0.0062675197769090484 0 -0.0011469346596884667 -0.0065558035093718995 0 -0.00089611803720050526 -0.0063805718103241002 0 -0.0011437240430719941 -0.0077120834042278558 0 -0.00062854312774527829 -0.0079657498839319964 0 -0.00066468806303323507 -0.0086418806898821872 0 -0.0016589631006049804 -0.0061707491094618828 0 -0.0015348610694257425 -0.0059473466072954822 0 -0.0018192274286333542 -0.00590875615153128 0 -0.00070857580655132586 -0.0071708042147368067 0 -0.00051030804133818147 -0.0076210296293376485 0 -0.0011437240430719941 -0.0077120834042278558 0 -0.00051030804133818147 -0.0076210296293376485 0 -0.0011437240430719941 -0.0077120834042278558 0 -0.00062854312774527829 -0.0079657498839319964 0 -0.00027927494655443914 -0.0082022105275122471 0 -0.00025641512505794178 -0.0082200373235708085 0 -0.00026999168187870495 -0.0081798672291960063 0 -0.00012099471993156589 -0.008925362716029157 0 -0.00034371332009484591 -0.0090754922923576842 0 -0.00053810878910685639 -0.0086023063120239801 0 -0.00032112003873360057 -0.0083238068150527089 0 -0.00053810878910685639 -0.0086023063120239801 0 -0.00039583914914524969 -0.0081323127117668322 0 -0.00012099471993156589 -0.008925362716029157 0 -0.00032112003873360057 -0.0083238068150527089 0 -0.00053810878910685639 -0.0086023063120239801 0 -0.00028153395418912608 -0.0085784132643867902 0 -0.00031302969172388329 -0.0084734081437820349 0 -0.00027927494655443914 -0.0082022105275122471 0 -0.00032112003873360057 -0.0083238068150527089 0 -0.00025641512505794178 -0.0082200373235708085 0 -0.00025641512505794178 -0.0082200373235708085 0 -0.00022244677525734769 -0.0081693056208410695 0 -0.00020488723694055442 -0.0081920658150052578 0 -0.00020813463272005293 -0.0081662793592903061 0 -0.00022244677525734769 -0.0081693056208410695 0 -0.00020488723694055442 -0.0081920658150052578 0 -0.00022828957154230666 -0.0081840341713747666 0 -0.00020813463272005293 -0.0081662793592903061 0 -0.00020488723694055442 -0.0081920658150052578 0 -0.00023624232020935256 -0.0081527425196645503 0 -0.00022828957154230666 -0.0081840341713747666 0 -0.00020813463272005293 -0.0081662793592903061 0 -0.00036403313672724627 -0.0077591673218032984 0 -0.00035382705003759356 -0.0078676182589569148 0 -0.00017871441595744943 -0.0081294368549772369 0 -0.00022244677525734769 -0.0081693056208410695 0 -0.00021789256137101201 -0.0081549992694237138 0 -0.00023624232020935256 -0.0081527425196645503 0 -0.00017871441595744943 -0.0081294368549772369 0 -0.00011927368948293839 -0.0080710609495347561 0 -0.00023624232020935256 -0.0081527425196645503 0 -0.00020813463272005293 -0.0081662793592903061 0 -0.00017871441595744943 -0.0081294368549772369 0 -0.00020813463272005293 -0.0081662793592903061 0 -0.00017871441595744943 -0.0081294368549772369 0 -0.00022244677525734769 -0.0081693056208410695 0 -0.00025641512505794178 -0.0082200373235708085 0 -0.00026999168187870495 -0.0081798672291960063 0 -0.00022244677525734769 -0.0081693056208410695 0 -0.00026999168187870495 -0.0081798672291960063 0 -0.00022244677525734769 -0.0081693056208410695 0 -0.00021789256137101201 -0.0081549992694237138 0 -0.00026999168187870495 -0.0081798672291960063 0 -0.00021789256137101201 -0.0081549992694237138 0 -0.00035846262125981978 -0.0082410140230504796 0 -0.00021789256137101201 -0.0081549992694237138 0 -0.00015044014891159074 -0.0083418943821263331 0 -0.00035846262125981978 -0.0082410140230504796 0 -0.00021789256137101201 -0.0081549992694237138 0 -0.00011927368948293839 -0.0080710609495347561 0 -0.00015044014891159074 -0.0083418943821263331 0 -0.00017871441595744943 -0.0081294368549772369 0 -0.00021789256137101201 -0.0081549992694237138 0 -0.00011927368948293839 -0.0080710609495347561 0 0.00010535073467714773 -0.0083343999547709491 0 -0.00011927368948293839 -0.0080710609495347561 0 -0.00015044014891159074 -0.0083418943821263331 0 0.00010535073467714773 -0.0083343999547709491 0 -0.00015044014891159074 -0.0083418943821263331 0 -3.7159303198518878e-05 -0.0084618968304014091 0 -0.00015044014891159074 -0.0083418943821263331 0 -0.00035846262125981978 -0.0082410140230504796 0 -0.00035311698296516158 -0.0085917635270052247 0 -0.00023239419125113147 -0.0093357707716264886 0 -0.00022848862121945199 -0.0093420339699463572 0 -0.00020420025431976534 -0.0093476565562279224 0 -0.00024580882473252351 -0.0087584684341074168 0 -0.00020895154832139068 -0.0089355829502069384 0 -0.00023239419125113147 -0.0093357707716264886 0 -0.0001480526410225142 -0.0092839825034656404 0 -0.00029982735689002785 -0.0092955486179309172 0 -0.00023239419125113147 -0.0093357707716264886 0 -0.0001480526410225142 -0.0092839825034656404 0 -0.00020420025431976534 -0.0093476565562279224 0 -0.00023239419125113147 -0.0093357707716264886 0 -0.00026194510502867377 -0.0093531344583451526 0 -0.00022848862121945199 -0.0093420339699463572 0 -0.00012099471993156589 -0.008925362716029157 0 -0.0001480526410225142 -0.0092839825034656404 0 -0.00029982735689002785 -0.0092955486179309172 0 -0.00028153395418912608 -0.0085784132643867902 0 -0.00024580882473252351 -0.0087584684341074168 0 -0.00027927494655443914 -0.0082022105275122471 0 -0.00026999168187870495 -0.0081798672291960063 0 -0.00035846262125981978 -0.0082410140230504796 0 -0.00012099471993156589 -0.008925362716029157 0 -0.00034371332009484591 -0.0090754922923576842 0 -0.00029982735689002785 -0.0092955486179309172 0 -0.00034371332009484591 -0.0090754922923576842 0 -0.00029982735689002785 -0.0092955486179309172 0 -0.00048630377364891272 -0.0093833711033330935 0 -0.00029982735689002785 -0.0092955486179309172 0 -0.00036233644514947083 -0.009339974884593049 0 -0.00048630377364891272 -0.0093833711033330935 0 -0.00029982735689002785 -0.0092955486179309172 0 -0.00036233644514947083 -0.009339974884593049 0 -0.00029736258601384375 -0.009345806553360805 0 -0.00023239419125113147 -0.0093357707716264886 0 -0.00029982735689002785 -0.0092955486179309172 0 -0.00029736258601384375 -0.009345806553360805 0 -0.00029736258601384375 -0.009345806553360805 0 -0.00026194510502867377 -0.0093531344583451526 0 -0.00029996147223518066 -0.0093816946296977136 0 -0.00023239419125113147 -0.0093357707716264886 0 -0.00029736258601384375 -0.009345806553360805 0 -0.00026194510502867377 -0.0093531344583451526 0 -0.00036233644514947083 -0.009339974884593049 0 -0.00029736258601384375 -0.009345806553360805 0 -0.00029996147223518066 -0.0093816946296977136 0 0.00010499352617969266 -0.0094689394947151222 0 -8.257827727899006e-05 -0.0093098197936482812 0 2.1226168883619146e-05 -0.0093093849567156654 0 2.7944730271278665e-05 -0.0093897461157789082 0 -2.4941582257914559e-05 -0.0094109183095903472 0 -0.00016771166881448973 -0.0092849923014734319 0 0.00010499352617969266 -0.0094689394947151222 0 0.00012410877961912316 -0.0093521710473849703 0 2.1226168883619146e-05 -0.0093093849567156654 0 0.00011970708131734298 -0.0094454241566299373 0 -2.3962350002236986e-05 -0.0093849403459333545 0 0.00010499352617969266 -0.0094689394947151222 0 -0.00016771166881448973 -0.0092849923014734319 0 -8.257827727899006e-05 -0.0093098197936482812 0 -0.00029996147223518066 -0.0093816946296977136 0 -0.00022848862121945199 -0.0093420339699463572 0 -0.00018154699603379357 -0.0092887479623841931 0 -0.00026194510502867377 -0.0093531344583451526 0 -0.00029996147223518066 -0.0093816946296977136 0 -0.00022848862121945199 -0.0093420339699463572 0 -2.4941582257914559e-05 -0.0094109183095903472 0 -0.00016771166881448973 -0.0092849923014734319 0 -0.00018154699603379357 -0.0092887479623841931 0 -0.00012051134025427866 -0.009390729487186375 0 -0.00017269503630206069 -0.0093561751947992423 0 -0.00022848862121945199 -0.0093420339699463572 0 -0.00020420025431976534 -0.0093476565562279224 0 -0.00018154699603379357 -0.0092887479623841931 0 -8.257827727899006e-05 -0.0093098197936482812 0 -8.2508782052779649e-05 -0.0091734274929703985 0 2.1226168883619146e-05 -0.0093093849567156654 0 -8.257827727899006e-05 -0.0093098197936482812 0 -0.00013362092426284935 -0.0092352082055795932 0 -8.2508782052779649e-05 -0.0091734274929703985 0 -0.00016771166881448973 -0.0092849923014734319 0 -8.257827727899006e-05 -0.0093098197936482812 0 -0.00013664101792856744 -0.0092698629505527045 0 -0.00016003094046746557 -0.0092532241369599859 0 -0.00013362092426284935 -0.0092352082055795932 0 -0.00018044473484129061 -0.0092241650344151733 0 -0.00016771166881448973 -0.0092849923014734319 0 -0.00016003094046746557 -0.0092532241369599859 0 -0.00017902538780688692 -0.0092397536886441155 0 -0.00016771166881448973 -0.0092849923014734319 0 -0.00016003094046746557 -0.0092532241369599859 0 -0.00013664101792856744 -0.0092698629505527045 0 -8.257827727899006e-05 -0.0093098197936482812 0 -0.00013664101792856744 -0.0092698629505527045 0 -0.00013362092426284935 -0.0092352082055795932 0 -0.00016003094046746557 -0.0092532241369599859 0 -0.00013664101792856744 -0.0092698629505527045 0 -0.00013362092426284935 -0.0092352082055795932 0 -0.00013362092426284935 -0.0092352082055795932 0 -0.00018044473484129061 -0.0092241650344151733 0 -0.00016950944227895381 -0.0092146290818331741 0 -0.00013362092426284935 -0.0092352082055795932 0 -8.2508782052779649e-05 -0.0091734274929703985 0 -0.00016950944227895381 -0.0092146290818331741 0 -8.2508782052779649e-05 -0.0091734274929703985 0 2.1226168883619146e-05 -0.0093093849567156654 0 0.00018738838012054965 -0.0092502504751975512 0 4.692908231233014e-05 -0.0091952501657115975 0 0.00018587928595691241 -0.0091488104601853294 0 0.00027671376198736989 -0.0092906990497789808 0 0.00021532655742934585 -0.0082972544978477236 0 0.00037235717660508616 -0.0087348566556508835 0 0.00012410877961912316 -0.0093521710473849703 0 2.1226168883619146e-05 -0.0093093849567156654 0 0.00018738838012054965 -0.0092502504751975512 0 -0.00015044014891159074 -0.0083418943821263331 0 -0.00015429080173430404 -0.0085669702565654201 0 -3.7159303198518878e-05 -0.0084618968304014091 0 -0.00024454982553015828 -0.0083783138744416407 0 -0.00025848596904538991 -0.0082860489392825726 0 5.4190892643037023e-05 -0.0085953664129197836 0 -0.00015429080173430404 -0.0085669702565654201 0 -3.7159303198518878e-05 -0.0084618968304014091 0 -0.00020420025431976534 -0.0093476565562279224 0 -0.00018154699603379357 -0.0092887479623841931 0 -0.00018230337784635561 -0.0091284878497141803 0 -0.00010748489654302311 -0.0088343348986377451 0 -0.00035311698296516158 -0.0085917635270052247 0 -0.00018230337784635561 -0.0091284878497141803 0 -0.00020895154832139068 -0.0089355829502069384 0 -0.00018190723642325882 -0.0090259470768732537 0 -0.00015044014891159074 -0.0083418943821263331 0 -0.00010748489654302311 -0.0088343348986377451 0 -0.00035311698296516158 -0.0085917635270052247 0 -0.00010748489654302311 -0.0088343348986377451 0 -0.00018230337784635561 -0.0091284878497141803 0 -0.00016631354636462695 -0.0093007169978105431 0 -0.00017902538780688692 -0.0092397536886441155 0 -0.00018044473484129061 -0.0092241650344151733 0 -0.00018230337784635561 -0.0091284878497141803 0 -0.00018154699603379357 -0.0092887479623841931 0 -0.00017902538780688692 -0.0092397536886441155 0 -0.00018230337784635561 -0.0091284878497141803 0 -0.00016771166881448973 -0.0092849923014734319 0 -0.00018154699603379357 -0.0092887479623841931 0 -0.00017902538780688692 -0.0092397536886441155 0 -0.00016003094046746557 -0.0092532241369599859 0 -0.00017902538780688692 -0.0092397536886441155 0 -0.00018044473484129061 -0.0092241650344151733 0 -0.00018044473484129061 -0.0092241650344151733 0 -0.00016950944227895381 -0.0092146290818331741 0 -0.0001968082022423769 -0.0091990706620376263 0 -0.00016950944227895381 -0.0092146290818331741 0 -0.0001968082022423769 -0.0091990706620376263 0 -0.00019356235090771542 -0.0092345739576650317 0 -0.00018044473484129061 -0.0092241650344151733 0 -0.0001968082022423769 -0.0091990706620376263 0 -0.00018230337784635561 -0.0091284878497141803 0 -0.0001968082022423769 -0.0091990706620376263 0 -0.00018230337784635561 -0.0091284878497141803 0 -0.00016631354636462695 -0.0093007169978105431 0 -0.0001968082022423769 -0.0091990706620376263 0 -0.00016631354636462695 -0.0093007169978105431 0 -0.00019356235090771542 -0.0092345739576650317 0 -0.00012386789125318169 -0.006485846541448596 0 -0.00033564397252733487 -0.0068495000886058506 0 -0.00050997828179204566 -0.0068180549787423021 0 5.4190892643037023e-05 -0.0085953664129197836 0 -0.00015429080173430404 -0.0085669702565654201 0 -0.00017041382818582535 -0.0087804545067548586 0 -0.00025848596904538991 -0.0082860489392825726 0 -0.00027296262449013893 -0.0074103307558977833 0 -0.00026918423316256288 -0.0068366978648571426 0 -0.00027296262449013893 -0.0074103307558977833 0 -0.00032394656553389107 -0.0061228480962646232 0 -0.00028286984453545203 -0.0058125093010785913 0 -0.00048717092979496827 -0.0060597595166131824 0 -0.00063005841814000544 -0.005529314414374523 0 -0.00050294541287557192 -0.0059816218409415832 0 -0.00041340104364019799 -0.0059585753230682855 0 -0.00050294541287557192 -0.0059816218409415832 0 -0.0001658737622324605 -0.0067987580374241239 0 -0.0003533504037228492 -0.0070251745157780699 0 -0.00033564397252733487 -0.0068495000886058506 0 -0.00033564397252733487 -0.0068495000886058506 0 -0.00052061784128825956 -0.0069609244715154919 0 -0.00050997828179204566 -0.0068180549787423021 0 -0.0003533504037228492 -0.0070251745157780699 0 -0.00033564397252733487 -0.0068495000886058506 0 -0.00052061784128825956 -0.0069609244715154919 0 -0.00050294541287557192 -0.0059816218409415832 0 -0.00033371182542982989 -0.0067103708439809799 0 -8.7402520253712263e-05 -0.0073616810018903942 0 0.00022712653319841234 -0.0078283087232042092 0 -0.00080718325072106647 -0.0049776709006466666 0 -0.0006871863382189818 -0.0050244897591872001 0 -0.00067879334753516646 -0.0048202024642579801 0 -0.00033371182542982989 -0.0067103708439809799 0 -8.7402520253712263e-05 -0.0073616810018903942 0 0.00035691462792971073 -0.0080579254367228598 0 0.00045095952020584288 -0.0067567334191304795 0 -0.00061619170171037403 -0.0076810084150370573 0 -0.00033371182542982989 -0.0067103708439809799 0 -0.00027296262449013893 -0.0074103307558977833 0 -0.00016631354636462695 -0.0093007169978105431 0 -0.00019356235090771542 -0.0092345739576650317 0 -0.00019942534619369612 -0.0092234465216478115 0 -0.00027296262449013893 -0.0074103307558977833 0 -8.7402520253712263e-05 -0.0073616810018903942 0 -0.00016950944227895381 -0.0092146290818331741 0 -0.00019356235090771542 -0.0092345739576650317 0 -0.00019942534619369612 -0.0092234465216478115 0 -0.0006871863382189818 -0.0050244897591872001 0 -0.00067879334753516646 -0.0048202024642579801 0 -0.00035574784543812354 -0.0047277512528196676 0 -0.00078348615750470601 -0.0046474355140229779 0 -0.00067879334753516646 -0.0048202024642579801 0 -0.00035574784543812354 -0.0047277512528196676 0 -0.00033371182542982989 -0.0067103708439809799 0 -0.00033014180597552487 -0.005409690235155004 0 -0.00080718325072106647 -0.0049776709006466666 0 -0.00078348615750470601 -0.0046474355140229779 0 -0.00067879334753516646 -0.0048202024642579801 0 -0.00061512736151277667 -0.0051460866582066387 0 -0.00063005841814000544 -0.005529314414374523 0 -0.00083404435931060464 -0.0042877678947106793 0 -0.00085478853089219098 -0.0044281950904124694 0 -0.00079126453296482014 -0.0043720034808165491 0 -0.00043553584872580911 -0.0057734792165011553 0 -0.00071958761547235694 -0.0056637086946025508 0 -0.0007556046731164313 -0.0061603694139021996 0 -0.00083404435931060464 -0.0042877678947106793 0 -0.0007007401872900057 -0.0043518092011861952 0 -0.00079126453296482014 -0.0043720034808165491 0 -0.00078400985728507334 -0.0044533640620853642 0 -0.0007007401872900057 -0.0043518092011861952 0 -0.00079126453296482014 -0.0043720034808165491 0 -0.00050294541287557192 -0.0059816218409415832 0 -0.00033014180597552487 -0.005409690235155004 0 -0.00085478853089219098 -0.0044281950904124694 0 -0.00078400985728507334 -0.0044533640620853642 0 -0.00079126453296482014 -0.0043720034808165491 0 9.144701885350683e-05 -0.0090612535062680865 0 0.00019653140659892923 -0.0090397348646374855 0 0.00018587928595691241 -0.0091488104601853294 0 0.00019653140659892923 -0.0090397348646374855 0 0.00018587928595691241 -0.0091488104601853294 0 0.00033398452384209904 -0.0091593544967039954 0 4.692908231233014e-05 -0.0091952501657115975 0 9.144701885350683e-05 -0.0090612535062680865 0 0.00018587928595691241 -0.0091488104601853294 0 -8.2508782052779649e-05 -0.0091734274929703985 0 -0.00016950944227895381 -0.0092146290818331741 0 -0.00019942534619369612 -0.0092234465216478115 0 -0.00017994588269822215 -0.0091023652696602848 0 -1.4673410575879943e-05 -0.0090768679442688009 0 -1.8678951728572448e-06 -0.0089504729988137723 0 0.00021532655742934585 -0.0082972544978477236 0 -8.7402520253712263e-05 -0.0073616810018903942 0 4.692908231233014e-05 -0.0091952501657115975 0 -0.00017994588269822215 -0.0091023652696602848 0 -1.4673410575879943e-05 -0.0090768679442688009 0 4.692908231233014e-05 -0.0091952501657115975 0 9.144701885350683e-05 -0.0090612535062680865 0 -1.4673410575879943e-05 -0.0090768679442688009 0 9.144701885350683e-05 -0.0090612535062680865 0 -1.4673410575879943e-05 -0.0090768679442688009 0 -1.8678951728572448e-06 -0.0089504729988137723 0 -0.00029729490286187985 -0.0044603077793709716 0 -0.00078348615750470601 -0.0046474355140229779 0 -0.00035574784543812354 -0.0047277512528196676 0 9.144701885350683e-05 -0.0090612535062680865 0 -1.8678951728572448e-06 -0.0089504729988137723 0 0.00013742245277008529 -0.0089570251649264635 0 0.00028096787288546613 -0.0090822269461685382 0 0.00022712653319841234 -0.0078283087232042092 0 0.00017698369250039082 -0.0087958803429161129 0 -1.8678951728572448e-06 -0.0089504729988137723 0 0.00013742245277008529 -0.0089570251649264635 0 9.144701885350683e-05 -0.0090612535062680865 0 0.00019653140659892923 -0.0090397348646374855 0 0.00013742245277008529 -0.0089570251649264635 0 0.00028545864303820606 -0.0094459002801555256 0 0.0002691462751264693 -0.0095083067355696844 0 0.00019653140659892923 -0.0090397348646374855 0 0.00013742245277008529 -0.0089570251649264635 0 0.00023966572377484804 -0.0089399425107854862 0 0.00017698369250039082 -0.0087958803429161129 0 0.00013742245277008529 -0.0089570251649264635 0 0.00023966572377484804 -0.0089399425107854862 0 0.00028096787288546613 -0.0090822269461685382 0 0.0002691462751264693 -0.0095083067355696844 0 0.00035250636482701977 -0.0086938077602521993 0 0.00024231565905161312 -0.0089449325084614163 0 0.00042455708802475686 -0.0089829492898589065 0 0.00019653140659892923 -0.0090397348646374855 0 0.00024065735538467907 -0.0089393702630239519 0 0.00033398452384209904 -0.0091593544967039954 0 0.0002691462751264693 -0.0095083067355696844 0 0.00022507620922144784 -0.0093222263780783823 0 0.00024231565905161312 -0.0089449325084614163 0 0.00033398452384209904 -0.0091593544967039954 0 0.00042455708802475686 -0.0089829492898589065 0 0.00033398452384209904 -0.0091593544967039954 0 0.00055235165124447845 -0.0091441935568880219 0 0.00041559594400045424 -0.0092466150507074518 0 0.00033398452384209904 -0.0091593544967039954 0 0.00055235165124447845 -0.0091441935568880219 0 0.00042455708802475686 -0.0089829492898589065 0 0.00055235165124447845 -0.0091441935568880219 0 0.00058412487752042394 -0.008872583122205074 0 0.00042455708802475686 -0.0089829492898589065 0 -0.0048422976483848881 -0.018913198452260627 0 -0.0043135556899122742 -0.018902217494087568 0 -0.0043542530089181099 -0.019381146930457078 0 -0.0014877726740581446 -0.013345265087865533 0 -0.0015356877694033297 -0.014023251044024418 0 -0.0043135556899122742 -0.018902217494087568 0 -0.0043542530089181099 -0.019381146930457078 0 -0.0038851725499585753 -0.019372410531958442 0 -0.0015356877694033297 -0.014023251044024418 0 -0.0013915053967374937 -0.014611195252618234 0 0.00055235165124447845 -0.0091441935568880219 0 0.00058412487752042394 -0.008872583122205074 0 0.00084046175617081176 -0.0090559156694091404 0 0.00055235165124447845 -0.0091441935568880219 0 0.00084046175617081176 -0.0090559156694091404 0 0.00078555054232275342 -0.0092808048047858804 0 0.00055235165124447845 -0.0091441935568880219 0 0.00078555054232275342 -0.0092808048047858804 0 0.00050300608836951284 -0.0093897980938824118 0 0.00084046175617081176 -0.0090559156694091404 0 0.00078555054232275342 -0.0092808048047858804 0 0.0011292857314729753 -0.0092592697026075907 0 0.00078555054232275342 -0.0092808048047858804 0 0.00092603568875708161 -0.009480230699220495 0 0.0011292857314729753 -0.0092592697026075907 0 0.00092603568875708161 -0.009480230699220495 0 0.00071759245459831892 -0.0095061491699063722 0 0.00084574562266023453 -0.0097660725976132685 0 0.00078555054232275342 -0.0092808048047858804 0 0.00092603568875708161 -0.009480230699220495 0 0.00071759245459831892 -0.0095061491699063722 0 0.00078555054232275342 -0.0092808048047858804 0 0.00071759245459831892 -0.0095061491699063722 0 0.00050300608836951284 -0.0093897980938824118 0 0.00050300608836951284 -0.0093897980938824118 0 0.00032871649394418211 -0.0094698648774090618 0 0.00049320697590459492 -0.0096297783054475356 0 0.00071759245459831892 -0.0095061491699063722 0 0.00050300608836951284 -0.0093897980938824118 0 0.00049320697590459492 -0.0096297783054475356 0 0.00050300608836951284 -0.0093897980938824118 0 0.00032871649394418211 -0.0094698648774090618 0 0.00022534851931406297 -0.0093880079588869927 0 2.7944730271278665e-05 -0.0093897461157789082 0 -2.4941582257914559e-05 -0.0094109183095903472 0 0.00017534378137834937 -0.0095412597722126045 0 0.00010499352617969266 -0.0094689394947151222 0 0.00032871649394418211 -0.0094698648774090618 0 0.00049320697590459492 -0.0096297783054475356 0 0.00011970708131734298 -0.0094454241566299373 0 0.00041266567187209972 -0.0095614869846916573 0 0.00010499352617969266 -0.0094689394947151222 0 0.00012410877961912316 -0.0093521710473849703 0 0.00022534851931406297 -0.0093880079588869927 0 0.00010499352617969266 -0.0094689394947151222 0 0.00032871649394418211 -0.0094698648774090618 0 0.00022534851931406297 -0.0093880079588869927 0 0.00046462021046019529 -0.0088805435953026451 0 0.00037235717660508616 -0.0087348566556508835 0 0.00050300608836951284 -0.0093897980938824118 0 0.00027671376198736989 -0.0092906990497789808 0 0.00041559594400045424 -0.0092466150507074518 0 0.00050300608836951284 -0.0093897980938824118 0 0.00022534851931406297 -0.0093880079588869927 0 0.00018738838012054965 -0.0092502504751975512 0 0.00012410877961912316 -0.0093521710473849703 0 0.00022534851931406297 -0.0093880079588869927 0 0.00018738838012054965 -0.0092502504751975512 0 0.00018587928595691241 -0.0091488104601853294 0 0.00033398452384209904 -0.0091593544967039954 0 0.00027671376198736989 -0.0092906990497789808 0 0.00033398452384209904 -0.0091593544967039954 0 0.00027671376198736989 -0.0092906990497789808 0 0.00041559594400045424 -0.0092466150507074518 0 0.00055235165124447845 -0.0091441935568880219 0 0.00050300608836951284 -0.0093897980938824118 0 0.00041559594400045424 -0.0092466150507074518 0 7.1152399647953226e-05 -0.016502629727197807 0 0.00035054897542338785 -0.017188483237702733 0 0.0011285758627142867 -0.017312175663137946 0 0.0013787883489647644 -0.016629004395469063 0 0.00036425855205880677 -0.016716780827899815 0 0.0018432816010606889 -0.017178179363675466 0 0.00036425855205880677 -0.016716780827899815 0 0.0018432816010606889 -0.017178179363675466 0 0.0018718187258254006 -0.01781079330705589 0 0.00022072689956674455 -0.016856484277116779 0 0.0012633293217759246 -0.01786332392897905 0 0.0013787883489647644 -0.016629004395469063 0 0.00082559657585415641 -0.015947427041263975 0 0.00036425855205880677 -0.016716780827899815 0 0.0013787883489647644 -0.016629004395469063 0 0.0015268331395750364 -0.01625524820018933 0 0.00082559657585415641 -0.015947427041263975 0 0.0015268331395750364 -0.01625524820018933 0 0.0016188280671779025 -0.015521732957917292 0 0.00082559657585415641 -0.015947427041263975 0 0.00055368410020836866 -0.014937699636738157 0 0.0016188280671779025 -0.015521732957917292 0 0.00082559657585415641 -0.015947427041263975 0 0.00082559657585415641 -0.015947427041263975 0 3.396017808585797e-05 -0.015656888957020169 0 0.00036425855205880677 -0.016716780827899815 0 3.396017808585797e-05 -0.015656888957020169 0 0.00036425855205880677 -0.016716780827899815 0 -0.0010148716938883783 -0.015630613421845463 0 0.00055368410020836866 -0.014937699636738157 0 0.00082559657585415641 -0.015947427041263975 0 3.396017808585797e-05 -0.015656888957020169 0 -0.0034442366384895232 -0.019367024843700443 0 -0.0034523534202797316 -0.019848840352961018 0 -0.0030412205831512988 -0.019860178470634815 0 7.1152399647953226e-05 -0.016502629727197807 0 -0.00058085843453110637 -0.016296121641493952 0 0.00035054897542338785 -0.017188483237702733 0 -0.0018740077522617043 -0.017666271755898345 0 -0.0013298971748903269 -0.018462424300041452 0 -0.0038851725499585753 -0.019372410531958442 0 -0.0038812235493521372 -0.019855438699954771 0 -0.0034523534202797316 -0.019848840352961018 0 -0.0034442366384895232 -0.019367024843700443 0 -0.0038851725499585753 -0.019372410531958442 0 -0.0034523534202797316 -0.019848840352961018 0 0.00022072689956674455 -0.016856484277116779 0 -0.0004015278221165737 -0.016329630220371521 0 -0.00049349694933824685 -0.015154613913561555 0 3.396017808585797e-05 -0.015656888957020169 0 -0.0010148716938883783 -0.015630613421845463 0 -0.0023187321758323552 -0.016783112892441162 0 -0.0018740077522617043 -0.017666271755898345 0 -0.0015256558251821892 -0.015338722334877885 0 -0.00058085843453110637 -0.016296121641493952 0 -0.0010148716938883783 -0.015630613421845463 0 7.1152399647953226e-05 -0.016502629727197807 0 -0.00058085843453110637 -0.016296121641493952 0 -0.0010148716938883783 -0.015630613421845463 0 -0.0038776857028030016 -0.01887826431664423 0 -0.0034442366384895232 -0.019367024843700443 0 -0.0038851725499585753 -0.019372410531958442 0 -0.0038776857028030016 -0.01887826431664423 0 -0.0043135556899122742 -0.018902217494087568 0 -0.0038851725499585753 -0.019372410531958442 0 -0.0043542530089181099 -0.019381146930457078 0 -0.0038851725499585753 -0.019372410531958442 0 -0.0038812235493521372 -0.019855438699954771 0 0.00092603568875708161 -0.009480230699220495 0 0.0011292857314729753 -0.0092592697026075907 0 0.0011561310208446501 -0.00960143910555529 0 0.0011292857314729753 -0.0092592697026075907 0 0.0014409055047112207 -0.0094855324660006943 0 0.0011561310208446501 -0.00960143910555529 0 -0.0013915053967374937 -0.014611195252618234 0 -0.0012622550362891211 -0.015230545340599278 0 -0.0038812235493521372 -0.019855438699954771 0 -0.0034235691704252542 -0.020314586197950988 0 -0.0034523534202797316 -0.019848840352961018 0 -0.0034235691704252542 -0.020314586197950988 0 -0.0034523534202797316 -0.019848840352961018 0 -0.0030412205831512988 -0.019860178470634815 0 -0.0034235691704252542 -0.020314586197950988 0 -0.0029834624784992 -0.020365486459245612 0 -0.0030412205831512988 -0.019860178470634815 0 -0.0034235691704252542 -0.020314586197950988 0 -0.0029834624784992 -0.020365486459245612 0 -0.0029945421427884159 -0.020727307666914618 0 -0.0029834624784992 -0.020365486459245612 0 -0.0030412205831512988 -0.019860178470634815 0 -0.0027098745011662588 -0.020330763273235825 0 -0.0029834624784992 -0.020365486459245612 0 -0.0027098745011662588 -0.020330763273235825 0 -0.0027861946509049398 -0.020568766055451059 0 0.00035054897542338785 -0.017188483237702733 0 0.0011285758627142867 -0.017312175663137946 0 0.0012599998974256817 -0.018028431254509199 0 -0.0013298971748903269 -0.018462424300041452 0 -0.00076162840291047048 -0.019233466442547587 0 0.0017740374758397619 -0.0097237927670474882 0 0.0016285470762543804 -0.010048123613330594 0 0.0021438302783967677 -0.010007284212074872 0 -0.0013431551948277786 -0.016042301784545326 0 -0.0019867728505172776 -0.017328172313696846 0 -0.0029834624784992 -0.020365486459245612 0 -0.0029945421427884159 -0.020727307666914618 0 -0.0027861946509049398 -0.020568766055451059 0 -0.0029945421427884159 -0.020727307666914618 0 -0.0027861946509049398 -0.020568766055451059 0 -0.0027633697594418526 -0.020770450194692616 0 -0.0012622550362891211 -0.015230545340599278 0 -0.0013431551948277786 -0.016042301784545326 0 0.0014409055047112207 -0.0094855324660006943 0 0.0017740374758397619 -0.0097237927670474882 0 0.0014848625549785152 -0.0097999575486531747 0 0.0017740374758397619 -0.0097237927670474882 0 0.0014848625549785152 -0.0097999575486531747 0 0.0016285470762543804 -0.010048123613330594 0 0.0011064251420880482 -0.0097813110165447647 0 0.0013606477016307043 -0.010151466306025527 0 0.0016285470762543804 -0.010048123613330594 0 0.0011326780375507607 -0.0098342931657116536 0 0.0013613823177075497 -0.0099212036651980355 0 0.0014848625549785152 -0.0097999575486531747 0 0.001221381653932484 -0.0099097209616210817 0 0.0016285470762543804 -0.010048123613330594 0 0.0014848625549785152 -0.0097999575486531747 0 0.0011561310208446501 -0.00960143910555529 0 0.001221381653932484 -0.0099097209616210817 0 0.0014409055047112207 -0.0094855324660006943 0 0.0014848625549785152 -0.0097999575486531747 0 0.0011561310208446501 -0.00960143910555529 0 0.0011561310208446501 -0.00960143910555529 0 0.001221381653932484 -0.0099097209616210817 0 0.00084574562266023453 -0.0097660725976132685 0 0.0011326780375507607 -0.0098342931657116536 0 0.00076144579058055786 -0.009694109671621487 0 0.0011064251420880482 -0.0097813110165447647 0 0.00092255525152462842 -0.01010595550841994 0 0.000751549403083257 -0.0098991286592460277 0 0.0011064251420880482 -0.0097813110165447647 0 0.00092255525152462842 -0.01010595550841994 0 0.0011352049884520415 -0.01015252681092395 0 0.00092255525152462842 -0.01010595550841994 0 0.0010517377900195939 -0.010309987007626215 0 0.0011352049884520415 -0.01015252681092395 0 0.00092255525152462842 -0.01010595550841994 0 0.00087331830785378792 -0.010346755360968428 0 0.0010517377900195939 -0.010309987007626215 0 0.00092255525152462842 -0.01010595550841994 0 0.00087331830785378792 -0.010346755360968428 0 0.0006766440154098893 -0.010157356458794009 0 0.00038395366606716245 -0.01331127932464928 0 0.00047869355691044954 -0.013614921751149643 0 0.00087331830785378792 -0.010346755360968428 0 0.00098126097247065724 -0.010520669296531691 0 0.00072201911395607891 -0.010482662179957131 0 0.00093977280352309893 -0.010535128487793317 0 0.0010997390046365693 -0.010508465016604483 0 0.0010472914799612263 -0.010788135583876274 0 0.00087331830785378792 -0.010346755360968428 0 0.00093977280352309893 -0.010535128487793317 0 0.0010997390046365693 -0.010508465016604483 0 0.00087331830785378792 -0.010346755360968428 0 0.0010997390046365693 -0.010508465016604483 0 0.0010517377900195939 -0.010309987007626215 0 0.0010997390046365693 -0.010508465016604483 0 0.0010517377900195939 -0.010309987007626215 0 0.001256764926783293 -0.010413830937029963 0 0.0010997390046365693 -0.010508465016604483 0 0.001256764926783293 -0.010413830937029963 0 0.0012775218711318288 -0.010677829945036384 0 0.001256764926783293 -0.010413830937029963 0 0.0015344195444484457 -0.010718291524656857 0 0.0012775218711318288 -0.010677829945036384 0 0.001256764926783293 -0.010413830937029963 0 0.0013606477016307043 -0.010151466306025527 0 0.0015960787805475885 -0.010377292504727166 0 0.0011064251420880482 -0.0097813110165447647 0 0.0011352049884520415 -0.01015252681092395 0 0.0013606477016307043 -0.010151466306025527 0 0.0010517377900195939 -0.010309987007626215 0 0.001256764926783293 -0.010413830937029963 0 0.0011352049884520415 -0.01015252681092395 0 0.001256764926783293 -0.010413830937029963 0 0.0011352049884520415 -0.01015252681092395 0 0.0013606477016307043 -0.010151466306025527 0 0.0013606477016307043 -0.010151466306025527 0 0.0016285470762543804 -0.010048123613330594 0 0.0015960787805475885 -0.010377292504727166 0 0.001256764926783293 -0.010413830937029963 0 0.0015960787805475885 -0.010377292504727166 0 0.0015344195444484457 -0.010718291524656857 0 0.0015960787805475885 -0.010377292504727166 0 0.0015344195444484457 -0.010718291524656857 0 0.0020357480917578253 -0.010471234029460276 0 0.0016285470762543804 -0.010048123613330594 0 0.0021438302783967677 -0.010007284212074872 0 0.0020357480917578253 -0.010471234029460276 0 0.0016285470762543804 -0.010048123613330594 0 0.0015960787805475885 -0.010377292504727166 0 0.0020357480917578253 -0.010471234029460276 0 -0.00017735574504233674 -0.0095474022572428902 0 -0.00035024514590482908 -0.0092797484426205001 0 0.00020081659746835594 -0.0094956016702662169 0 -0.00017735574504233674 -0.0095474022572428902 0 0.00020081659746835594 -0.0094956016702662169 0 1.948714471954885e-05 -0.0098875301963731056 0 -0.00017735574504233674 -0.0095474022572428902 0 -0.00048630377364891272 -0.0093833711033330935 0 -0.0002498384420912957 -0.0098452126120126306 0 -0.00017735574504233674 -0.0095474022572428902 0 -0.00048630377364891272 -0.0093833711033330935 0 -0.00035024514590482908 -0.0092797484426205001 0 -0.00036233644514947083 -0.009339974884593049 0 -0.00029996147223518066 -0.0093816946296977136 0 -0.00035024514590482908 -0.0092797484426205001 0 -0.00012051134025427866 -0.009390729487186375 0 2.607088256592163e-05 -0.0094690332133285891 0 2.7944730271278665e-05 -0.0093897461157789082 0 0.00017534378137834937 -0.0095412597722126045 0 0.00029008483647947295 -0.0094911026620377037 0 -0.00036233644514947083 -0.009339974884593049 0 -0.00048630377364891272 -0.0093833711033330935 0 -0.00035024514590482908 -0.0092797484426205001 0 2.607088256592163e-05 -0.0094690332133285891 0 0.00029294099985892634 -0.0096076398399524716 0 0.00017534378137834937 -0.0095412597722126045 0 0.00029008483647947295 -0.0094911026620377037 0 0.00043050574379666995 -0.0097012721884183421 0 0.00071759245459831892 -0.0095061491699063722 0 0.00049320697590459492 -0.0096297783054475356 0 0.00084574562266023453 -0.0097660725976132685 0 0.00029008483647947295 -0.0094911026620377037 0 0.0006397952353911357 -0.009606984899878452 0 0.00043050574379666995 -0.0097012721884183421 0 0.00041266567187209972 -0.0095614869846916573 0 0.00076144579058055786 -0.009694109671621487 0 0.00092603568875708161 -0.009480230699220495 0 0.0011561310208446501 -0.00960143910555529 0 0.00084574562266023453 -0.0097660725976132685 0 0.0006397952353911357 -0.009606984899878452 0 0.000751549403083257 -0.0098991286592460277 0 0.00043050574379666995 -0.0097012721884183421 0 0.0011064251420880482 -0.0097813110165447647 0 0.0006397952353911357 -0.009606984899878452 0 0.000751549403083257 -0.0098991286592460277 0 0.000751549403083257 -0.0098991286592460277 0 0.00020081659746835594 -0.0094956016702662169 0 0.00039056459406919096 -0.010036385095331999 0 0.0004772142812558366 -0.0097073913587018435 0 0.00029294099985892634 -0.0096076398399524716 0 0.00020081659746835594 -0.0094956016702662169 0 0.00039056459406919096 -0.010036385095331999 0 1.948714471954885e-05 -0.0098875301963731056 0 0.00039056459406919096 -0.010036385095331999 0 0.00012938996455042959 -0.010199866041943386 0 1.948714471954885e-05 -0.0098875301963731056 0 0.00092255525152462842 -0.01010595550841994 0 0.000751549403083257 -0.0098991286592460277 0 0.0006766440154098893 -0.010157356458794009 0 0.000751549403083257 -0.0098991286592460277 0 0.00039056459406919096 -0.010036385095331999 0 0.0006766440154098893 -0.010157356458794009 0 0.00039056459406919096 -0.010036385095331999 0 0.0006766440154098893 -0.010157356458794009 0 0.00055065187842051307 -0.01035193956283215 0 0.00087331830785378792 -0.010346755360968428 0 0.00070813961500263616 -0.010338147286618998 0 0.00072201911395607891 -0.010482662179957131 0 0.00087331830785378792 -0.010346755360968428 0 0.0006766440154098893 -0.010157356458794009 0 0.00070813961500263616 -0.010338147286618998 0 0.0006766440154098893 -0.010157356458794009 0 0.00070813961500263616 -0.010338147286618998 0 0.00055065187842051307 -0.01035193956283215 0 0.00070813961500263616 -0.010338147286618998 0 0.00055065187842051307 -0.01035193956283215 0 0.00072201911395607891 -0.010482662179957131 0 0.00055065187842051307 -0.01035193956283215 0 0.00052665892620706379 -0.010555229324095639 0 0.00072201911395607891 -0.010482662179957131 0 0.00052665892620706379 -0.010555229324095639 0 0.00072201911395607891 -0.010482662179957131 0 0.00065856206783663639 -0.010764253041446428 0 0.00098126097247065724 -0.010520669296531691 0 0.00072201911395607891 -0.010482662179957131 0 0.00065856206783663639 -0.010764253041446428 0 0.00039056459406919096 -0.010036385095331999 0 0.00055065187842051307 -0.01035193956283215 0 0.00029650980225276138 -0.010431806172499079 0 0.00039056459406919096 -0.010036385095331999 0 0.00012938996455042959 -0.010199866041943386 0 0.00029650980225276138 -0.010431806172499079 0 0.00012938996455042959 -0.010199866041943386 0 0.00029650980225276138 -0.010431806172499079 0 7.2528288226304552e-05 -0.01049668710209848 0 0.00055065187842051307 -0.01035193956283215 0 0.00052665892620706379 -0.010555229324095639 0 0.00029650980225276138 -0.010431806172499079 0 0.00052665892620706379 -0.010555229324095639 0 0.00029650980225276138 -0.010431806172499079 0 0.00033971875827982091 -0.010692198416200097 0 0.00029650980225276138 -0.010431806172499079 0 7.2528288226304552e-05 -0.01049668710209848 0 0.00033971875827982091 -0.010692198416200097 0 7.2528288226304552e-05 -0.01049668710209848 0 -0.0002255717901171871 -0.01055319475967665 0 -0.00014582289912064319 -0.010212503539129144 0 0.00012938996455042959 -0.010199866041943386 0 7.2528288226304552e-05 -0.01049668710209848 0 -0.00014582289912064319 -0.010212503539129144 0 0.00012938996455042959 -0.010199866041943386 0 -0.00014582289912064319 -0.010212503539129144 0 1.948714471954885e-05 -0.0098875301963731056 0 -0.00014582289912064319 -0.010212503539129144 0 -0.0002498384420912957 -0.0098452126120126306 0 1.948714471954885e-05 -0.0098875301963731056 0 -0.00017735574504233674 -0.0095474022572428902 0 -0.0002498384420912957 -0.0098452126120126306 0 1.948714471954885e-05 -0.0098875301963731056 0 -0.00030330489482958891 -0.0094647493586576762 0 -0.00023560108393920923 -0.0095874047399270163 0 -0.00034371332009484591 -0.0090754922923576842 0 -0.00048630377364891272 -0.0093833711033330935 0 -0.00053810878910685639 -0.0086023063120239801 0 -0.00048630377364891272 -0.0093833711033330935 0 -0.0002498384420912957 -0.0098452126120126306 0 -0.00064961887841564179 -0.010237683297422759 0 -0.00014582289912064319 -0.010212503539129144 0 -0.0002498384420912957 -0.0098452126120126306 0 -0.00064961887841564179 -0.010237683297422759 0 -0.0002255717901171871 -0.01055319475967665 0 -0.00014582289912064319 -0.010212503539129144 0 -0.00064961887841564179 -0.010237683297422759 0 -0.0002255717901171871 -0.01055319475967665 0 -0.00064961887841564179 -0.010237683297422759 0 -0.00038164220711629277 -0.010819942830621928 0 -0.00064961887841564179 -0.010237683297422759 0 -0.00038164220711629277 -0.010819942830621928 0 -0.00069779580986179229 -0.010965843874546731 0 -0.00023560108393920923 -0.0095874047399270163 0 2.9771619142852201e-05 -0.010217836561344727 0 -0.00038164220711629277 -0.010819942830621928 0 -0.00030309758918180529 -0.01117660686102614 0 -0.00069779580986179229 -0.010965843874546731 0 -0.00030309758918180529 -0.01117660686102614 0 -0.00069779580986179229 -0.010965843874546731 0 -0.00074713566627976065 -0.011675007353045323 0 -0.00030309758918180529 -0.01117660686102614 0 8.8821938762907873e-05 -0.01121469845076822 0 -0.00014581551061508592 -0.011567022210114311 0 -0.00030309758918180529 -0.01117660686102614 0 8.8821938762907873e-05 -0.01121469845076822 0 2.7862448025643554e-05 -0.010885355899844816 0 -0.0002255717901171871 -0.01055319475967665 0 -0.00038164220711629277 -0.010819942830621928 0 2.7862448025643554e-05 -0.010885355899844816 0 -0.00038164220711629277 -0.010819942830621928 0 -0.00030309758918180529 -0.01117660686102614 0 2.7862448025643554e-05 -0.010885355899844816 0 7.2528288226304552e-05 -0.01049668710209848 0 -0.0002255717901171871 -0.01055319475967665 0 2.7862448025643554e-05 -0.010885355899844816 0 7.2528288226304552e-05 -0.01049668710209848 0 2.7862448025643554e-05 -0.010885355899844816 0 0.00033971875827982091 -0.010692198416200097 0 2.7862448025643554e-05 -0.010885355899844816 0 0.00033971875827982091 -0.010692198416200097 0 0.00041317170743021461 -0.010984814735793972 0 0.00033971875827982091 -0.010692198416200097 0 0.00041317170743021461 -0.010984814735793972 0 0.00065856206783663639 -0.010764253041446428 0 0.00098126097247065724 -0.010520669296531691 0 0.00065856206783663639 -0.010764253041446428 0 0.0006999984024370859 -0.010999293214033786 0 0.00052665892620706379 -0.010555229324095639 0 0.00033971875827982091 -0.010692198416200097 0 0.00065856206783663639 -0.010764253041446428 0 0.00041317170743021461 -0.010984814735793972 0 0.00065856206783663639 -0.010764253041446428 0 0.00071115508704216296 -0.011024325838276779 0 0.00064839619796474451 -0.014818293523562554 0 0.00073830716185220428 -0.015521727218612875 0 0.00042064380252980265 -0.017725143454585091 0 0.00068311690486075067 -0.017316993613478795 0 0.00036004157739401597 -0.017371623137965277 0 0.00073830716185220428 -0.015521727218612875 0 0.0010626110836677396 -0.01772367991256649 0 0.00041317170743021461 -0.010984814735793972 0 0.00071115508704216296 -0.011024325838276779 0 0.00044717006813233608 -0.011461188453534771 0 0.00041347691200305714 -0.016559248311216562 0 0.0004442609510346327 -0.016743635147310729 0 0.00053479493327294721 -0.016629367614213082 0 0.00073830716185220428 -0.015521727218612875 0 0.00073351289159694446 -0.018291343612990021 0 8.8821938762907873e-05 -0.01121469845076822 0 0.00041317170743021461 -0.010984814735793972 0 0.00044717006813233608 -0.011461188453534771 0 8.8821938762907873e-05 -0.01121469845076822 0 2.7862448025643554e-05 -0.010885355899844816 0 0.00041317170743021461 -0.010984814735793972 0 8.8821938762907873e-05 -0.01121469845076822 0 0.00044717006813233608 -0.011461188453534771 0 -0.00014581551061508592 -0.011567022210114311 0 0.0020137651558353241 -0.021806060635765297 0 0.0022938597670615177 -0.021375232336202823 0 0.0024543510580801171 -0.021742963568843435 0 0.0010626110836677396 -0.01772367991256649 0 0.00093069509307681388 -0.015732454194114582 0 0.0010626110836677396 -0.01772367991256649 0 0.0011421880903027576 -0.02039307090931888 0 0.0014296607026237143 -0.022660867364302638 0 0.00096307775278147421 -0.022738243907793412 0 0.0013066737737971873 -0.022155672540016449 0 0.00073351289159694446 -0.018291343612990021 0 0.00092701837847462907 -0.020926372180290417 0 0.00096307775278147421 -0.022738243907793412 0 0.0013066737737971873 -0.022155672540016449 0 0.00083282211063425424 -0.022005074532666681 0 0.0010626110836677396 -0.01772367991256649 0 0.00073351289159694446 -0.018291343612990021 0 0.0013066737737971873 -0.022155672540016449 0 0.00083282211063425424 -0.022005074532666681 0 0.0013376298695140048 -0.021536767501106842 0 0.0014296607026237143 -0.022660867364302638 0 0.0013066737737971873 -0.022155672540016449 0 0.0019790903552294788 -0.021829082051452821 0 0.0013066737737971873 -0.022155672540016449 0 0.0019790903552294788 -0.021829082051452821 0 0.0013376298695140048 -0.021536767501106842 0 0.0022938597670615177 -0.021375232336202823 0 0.0026626036852303667 -0.021413129663444733 0 0.0024543510580801171 -0.021742963568843435 0 0.0026626036852303667 -0.021413129663444733 0 0.0029906547572218045 -0.021189101900647402 0 0.0029079037321436806 -0.021673071636800545 0 0.00093069509307681388 -0.015732454194114582 0 0.00054124659954766282 -0.01329816398124386 0 -0.00030309758918180529 -0.01117660686102614 0 -0.00014581551061508592 -0.011567022210114311 0 -0.00074713566627976065 -0.011675007353045323 0 0.0026626036852303667 -0.021413129663444733 0 0.0024543510580801171 -0.021742963568843435 0 0.0029079037321436806 -0.021673071636800545 0 -1.8965284281864168e-05 -0.016874300877494742 0 0.0003890191926871329 -0.01894456287349006 0 -1.8965284281864168e-05 -0.016874300877494742 0 -0.00065765187057696586 -0.016370611835013368 0 0.0019096277178712593 -0.011014637868992701 0 0.0015344195444484457 -0.010718291524656857 0 0.0020357480917578253 -0.010471234029460276 0 0.0019096277178712593 -0.011014637868992701 0 0.0015344195444484457 -0.010718291524656857 0 0.0014929825331231549 -0.011004568818681381 0 0.0015344195444484457 -0.010718291524656857 0 0.0014929825331231549 -0.011004568818681381 0 0.001270293901679977 -0.010934701364185936 0 0.0019096277178712593 -0.011014637868992701 0 0.0014929825331231549 -0.011004568818681381 0 0.0017473447022878673 -0.011590149697667619 0 0.0014929825331231549 -0.011004568818681381 0 0.001318942559901547 -0.011203662352753571 0 0.0017473447022878673 -0.011590149697667619 0 0.00027927839916783371 -0.017663136552214437 0 0.00029977728643438222 -0.014628774561772355 0 0.0012469431182099097 -0.0112144746936637 0 0.001270293901679977 -0.010934701364185936 0 0.0010472914799612263 -0.010788135583876274 0 0.001318942559901547 -0.011203662352753571 0 0.0012469431182099097 -0.0112144746936637 0 0.0013432198781191187 -0.011070595565947928 0 0.00031239431955525202 -0.017627259433185747 0 0.00027927839916783371 -0.017663136552214437 0 0.0012469431182099097 -0.0112144746936637 0 0.0013432198781191187 -0.011070595565947928 0 0.001270293901679977 -0.010934701364185936 0 0.0014929825331231549 -0.011004568818681381 0 0.001318942559901547 -0.011203662352753571 0 0.0013432198781191187 -0.011070595565947928 0 0.0014929825331231549 -0.011004568818681381 0 0.0013432198781191187 -0.011070595565947928 0 0.001270293901679977 -0.010934701364185936 0 0.0015344195444484457 -0.010718291524656857 0 0.001270293901679977 -0.010934701364185936 0 0.0012775218711318288 -0.010677829945036384 0 0.0010997390046365693 -0.010508465016604483 0 0.0012775218711318288 -0.010677829945036384 0 0.0010472914799612263 -0.010788135583876274 0 0.001270293901679977 -0.010934701364185936 0 0.0012775218711318288 -0.010677829945036384 0 0.0010472914799612263 -0.010788135583876274 0 0.00057229455560985206 -0.016305486034268964 0 0.00064459428112047029 -0.016445848859951834 0 0.00054069233131362438 -0.016514497416866628 0 0.00057229455560985206 -0.016305486034268964 0 0.00041347691200305714 -0.016559248311216562 0 0.00054069233131362438 -0.016514497416866628 0 0.00047869355691044954 -0.013614921751149643 0 0.00073830716185220428 -0.015521727218612875 0 0.00047869355691044954 -0.013614921751149643 0 0.00029977728643438222 -0.014628774561772355 0 0.0004442609510346327 -0.016743635147310729 0 0.00077838950601558641 -0.016687182505535119 0 0.00053479493327294721 -0.016629367614213082 0 0.00041347691200305714 -0.016559248311216562 0 0.00054069233131362438 -0.016514497416866628 0 0.00053479493327294721 -0.016629367614213082 0 0.00077838950601558641 -0.016687182505535119 0 0.00054069233131362438 -0.016514497416866628 0 0.00053479493327294721 -0.016629367614213082 0 0.00073351289159694446 -0.018291343612990021 0 0.00027927839916783371 -0.017663136552214437 0 0.00076321987694409426 -0.016680564752887324 0 0.00064459428112047029 -0.016445848859951834 0 0.00054069233131362438 -0.016514497416866628 0 0.00027927839916783371 -0.017663136552214437 0 0.00023913558012654903 -0.017373420387794068 0 0.00092141547431229601 -0.023213763901387522 0 0.0007789888654052931 -0.022358457620214833 0 6.4377509496194119e-05 -0.022654083142663081 0 0.00092141547431229601 -0.023213763901387522 0 -0.00018771542169859399 -0.023410100830855193 0 6.4377509496194119e-05 -0.022654083142663081 0 0.0007789888654052931 -0.022358457620214833 0 2.0048709969432682e-05 -0.021999791770621582 0 6.4377509496194119e-05 -0.022654083142663081 0 2.0048709969432682e-05 -0.021999791770621582 0 -0.0004128553517030283 -0.022227854548271583 0 6.4377509496194119e-05 -0.022654083142663081 0 -0.0004128553517030283 -0.022227854548271583 0 6.4377509496194119e-05 -0.022654083142663081 0 -0.00058071216042321447 -0.022701192477054426 0 0.00027927839916783371 -0.017663136552214437 0 0.00029732024797287125 -0.020455200210023426 0 -0.00018771542169859399 -0.023410100830855193 0 6.4377509496194119e-05 -0.022654083142663081 0 -0.00058071216042321447 -0.022701192477054426 0 0.00027927839916783371 -0.017663136552214437 0 0.0003890191926871329 -0.01894456287349006 0 -0.00071996111330836039 -0.022763247067504606 0 -0.00098466998839817784 -0.022306118742309724 0 -0.0013862181940906585 -0.022333202327205454 0 0.001318942559901547 -0.011203662352753571 0 0.0012460075355556917 -0.011215021708693665 0 0.0017473447022878673 -0.011590149697667619 0 -0.00098466998839817784 -0.022306118742309724 0 -0.0013554791577908979 -0.022222282979208662 0 -0.0013862181940906585 -0.022333202327205454 0 -0.0004128553517030283 -0.022227854548271583 0 -0.00058071216042321447 -0.022701192477054426 0 -0.00099592656029288593 -0.021997802848623339 0 -0.00098466998839817784 -0.022306118742309724 0 -0.0012469897484616037 -0.021790641357785905 0 -0.0013554791577908979 -0.022222282979208662 0 0.00029732024797287125 -0.020455200210023426 0 -0.00011619069401200745 -0.021030880263585586 0 0.0003890191926871329 -0.01894456287349006 0 -0.00042253151369644218 -0.019664888351278678 0 -0.0016120818393883893 -0.02193666382452427 0 -0.0013953476972486806 -0.022366407746905535 0 -0.002216479914961498 -0.021803703687008787 0 -0.0013554791577908979 -0.022222282979208662 0 -0.0016120818393883893 -0.02193666382452427 0 -0.0013953476972486806 -0.022366407746905535 0 -0.0012469897484616037 -0.021790641357785905 0 -0.0013554791577908979 -0.022222282979208662 0 -0.0016120818393883893 -0.02193666382452427 0 -0.0024098992983225577 -0.021833471218906671 0 -0.0023418492375292649 -0.021837961149511215 0 -0.00234439699555633 -0.021845059823124516 0 0.00035072198221406027 -0.019049496886901173 0 0.0003890191926871329 -0.01894456287349006 0 -0.0014713213110309434 -0.021256386166301711 0 -0.0010215297823570814 -0.020435804836822249 0 -0.0018923201436454216 -0.020889825283516059 0 -0.0014713213110309434 -0.021256386166301711 0 -0.0018451547250396413 -0.021275852839512402 0 -0.0018923201436454216 -0.020889825283516059 0 -0.0014713213110309434 -0.021256386166301711 0 -0.0018451547250396413 -0.021275852839512402 0 -0.0018315882407421563 -0.021552295401332598 0 -0.0012469897484616037 -0.021790641357785905 0 -0.0016120818393883893 -0.02193666382452427 0 -0.0018315882407421563 -0.021552295401332598 0 -0.00011619069401200745 -0.021030880263585586 0 -0.00033605928658762043 -0.021025394962127592 0 -0.0016120818393883893 -0.02193666382452427 0 -0.0018315882407421563 -0.021552295401332598 0 -0.002216479914961498 -0.021803703687008787 0 -0.0012469897484616037 -0.021790641357785905 0 -0.0014713213110309434 -0.021256386166301711 0 -0.0018315882407421563 -0.021552295401332598 0 -0.00099592656029288593 -0.021997802848623339 0 -0.0014713213110309434 -0.021256386166301711 0 -0.00088017427752839854 -0.021424751250306975 0 -0.0004128553517030283 -0.022227854548271583 0 -0.00099592656029288593 -0.021997802848623339 0 -0.00044107699723442003 -0.02170726307944347 0 -0.00099592656029288593 -0.021997802848623339 0 -0.00088017427752839854 -0.021424751250306975 0 -0.00044107699723442003 -0.02170726307944347 0 -0.00088017427752839854 -0.021424751250306975 0 -0.00046406670964247186 -0.021097795428583119 0 -0.00044107699723442003 -0.02170726307944347 0 -0.0014713213110309434 -0.021256386166301711 0 -0.0009099843621700128 -0.020981076164698655 0 -0.0010215297823570814 -0.020435804836822249 0 -0.00088017427752839854 -0.021424751250306975 0 -0.0009099843621700128 -0.020981076164698655 0 -0.00046406670964247186 -0.021097795428583119 0 -0.0014713213110309434 -0.021256386166301711 0 -0.00088017427752839854 -0.021424751250306975 0 -0.0009099843621700128 -0.020981076164698655 0 -0.0009099843621700128 -0.020981076164698655 0 -0.00046406670964247186 -0.021097795428583119 0 -0.00070317972385642029 -0.020561188040563231 0 8.109636139889956e-05 -0.020975727634963342 0 -0.00046406670964247186 -0.021097795428583119 0 -0.00026438839339919457 -0.020452893565795115 0 -0.00046406670964247186 -0.021097795428583119 0 -0.00026438839339919457 -0.020452893565795115 0 -0.00070317972385642029 -0.020561188040563231 0 8.109636139889956e-05 -0.020975727634963342 0 -0.00046406670964247186 -0.021097795428583119 0 3.7474940989563587e-05 -0.021462200349250869 0 -0.00046406670964247186 -0.021097795428583119 0 -0.00044107699723442003 -0.02170726307944347 0 3.7474940989563587e-05 -0.021462200349250869 0 2.0048709969432682e-05 -0.021999791770621582 0 -0.0004128553517030283 -0.022227854548271583 0 -0.00044107699723442003 -0.02170726307944347 0 2.0048709969432682e-05 -0.021999791770621582 0 -0.00044107699723442003 -0.02170726307944347 0 3.7474940989563587e-05 -0.021462200349250869 0 2.0048709969432682e-05 -0.021999791770621582 0 3.7474940989563587e-05 -0.021462200349250869 0 0.00064874190472027904 -0.021485520737090896 0 0.00092701837847462907 -0.020926372180290417 0 0.00084049146571264885 -0.021138791265165453 0 0.0007789888654052931 -0.022358457620214833 0 2.0048709969432682e-05 -0.021999791770621582 0 0.00064874190472027904 -0.021485520737090896 0 8.109636139889956e-05 -0.020975727634963342 0 0.00064874190472027904 -0.021485520737090896 0 0.00051808157417902701 -0.020558854730114436 0 0.00084049146571264885 -0.021138791265165453 0 0.00077344606965846531 -0.020961994934136266 0 8.109636139889956e-05 -0.020975727634963342 0 3.7474940989563587e-05 -0.021462200349250869 0 0.00064874190472027904 -0.021485520737090896 0 0.00051808157417902701 -0.020558854730114436 0 0.00058943256568495122 -0.019741208640827953 0 8.6162572756821889e-05 -0.020136803369832604 0 0.00051808157417902701 -0.020558854730114436 0 0.00058943256568495122 -0.019741208640827953 0 0.0011124051234757445 -0.020200878611356558 0 0.00065106053261650273 -0.01979888307107577 0 0.00016054792960240084 -0.01980713738324235 0 0.00051673316536402013 -0.019856714140888479 0 -0.00048916327668854993 -0.019808227853309449 0 0.00016815055909115466 -0.019367964955572373 0 0.00058943256568495122 -0.019741208640827953 0 -0.00048916327668854993 -0.019808227853309449 0 8.6162572756821889e-05 -0.020136803369832604 0 -0.00048916327668854993 -0.019808227853309449 0 -0.00037636409842001288 -0.019379473569065511 0 0.00016815055909115466 -0.019367964955572373 0 -0.00048916327668854993 -0.019808227853309449 0 -0.00026438839339919457 -0.020452893565795115 0 -0.00063473903249854525 -0.020216600203533747 0 8.109636139889956e-05 -0.020975727634963342 0 0.00051808157417902701 -0.020558854730114436 0 -0.00026438839339919457 -0.020452893565795115 0 0.00051808157417902701 -0.020558854730114436 0 8.6162572756821889e-05 -0.020136803369832604 0 -0.00026438839339919457 -0.020452893565795115 0 -0.00048916327668854993 -0.019808227853309449 0 8.6162572756821889e-05 -0.020136803369832604 0 -0.00026438839339919457 -0.020452893565795115 0 -0.00026438839339919457 -0.020452893565795115 0 -0.00070317972385642029 -0.020561188040563231 0 -0.00063473903249854525 -0.020216600203533747 0 -0.00070317972385642029 -0.020561188040563231 0 -0.0010215297823570814 -0.020435804836822249 0 -0.00092228178936908155 -0.020218853027092618 0 -0.0009099843621700128 -0.020981076164698655 0 -0.00070317972385642029 -0.020561188040563231 0 -0.0010215297823570814 -0.020435804836822249 0 -0.00092228178936908155 -0.020218853027092618 0 -0.0010989690889342675 -0.020060909803932863 0 -0.00070485016120203612 -0.01993041452558799 0 -0.00092228178936908155 -0.020218853027092618 0 -0.0010989690889342675 -0.020060909803932863 0 -0.0012082046594521865 -0.02038579349017363 0 -0.0010215297823570814 -0.020435804836822249 0 -0.00092228178936908155 -0.020218853027092618 0 -0.0012082046594521865 -0.02038579349017363 0 -0.00092228178936908155 -0.020218853027092618 0 -0.00063473903249854525 -0.020216600203533747 0 -0.00070485016120203612 -0.01993041452558799 0 -0.00070317972385642029 -0.020561188040563231 0 -0.00092228178936908155 -0.020218853027092618 0 -0.00063473903249854525 -0.020216600203533747 0 -0.00048916327668854993 -0.019808227853309449 0 -0.00063473903249854525 -0.020216600203533747 0 -0.00070485016120203612 -0.01993041452558799 0 -0.00048916327668854993 -0.019808227853309449 0 -0.00070485016120203612 -0.01993041452558799 0 -0.00037636409842001288 -0.019379473569065511 0 -0.00090617783371289438 -0.020436914987081434 0 -0.0008175803543973854 -0.019918151920838019 0 -0.00034786996377922472 -0.019715854114380156 0 -0.0010989690889342675 -0.020060909803932863 0 -0.00070485016120203612 -0.01993041452558799 0 -0.00037636409842001288 -0.019379473569065511 0 -0.001027671026131372 -0.020242082427695769 0 -0.00048433526366882692 -0.019637574005630591 0 -0.0008175803543973854 -0.019918151920838019 0 -0.0009680484942986272 -0.020261223556084902 0 -0.00098718823468638161 -0.019987520527746855 0 -0.00090617783371289438 -0.020436914987081434 0 -0.0008175803543973854 -0.019918151920838019 0 -0.0009680484942986272 -0.020261223556084902 0 -0.00090617783371289438 -0.020436914987081434 0 -0.00096830500808671503 -0.020383339477148679 0 -0.00096342299929087771 -0.020445235026205256 0 -0.00096830500808671503 -0.020383339477148679 0 -0.0011188477814210326 -0.020365291084551904 0 -0.00096342299929087771 -0.020445235026205256 0 -0.0011188477814210326 -0.020365291084551904 0 -0.0009680484942986272 -0.020261223556084902 0 -0.0011678444980797824 -0.020071030609157645 0 -0.00096830500808671503 -0.020383339477148679 0 -0.0011188477814210326 -0.020365291084551904 0 -0.0009680484942986272 -0.020261223556084902 0 -0.00090617783371289438 -0.020436914987081434 0 -0.00096830500808671503 -0.020383339477148679 0 -0.0009680484942986272 -0.020261223556084902 0 -0.0011678444980797824 -0.020071030609157645 0 -0.00098718823468638161 -0.019987520527746855 0 -0.0010616190396521442 -0.019723130148173222 0 -0.0009680484942986272 -0.020261223556084902 0 -0.0011678444980797824 -0.020071030609157645 0 -0.00098718823468638161 -0.019987520527746855 0 -0.0011678444980797824 -0.020071030609157645 0 -0.0013847442758118085 -0.020275444769907634 0 -0.0014791494091124246 -0.019796604628732915 0 -0.0011188477814210326 -0.020365291084551904 0 -0.0011678444980797824 -0.020071030609157645 0 -0.0013847442758118085 -0.020275444769907634 0 -0.0011188477814210326 -0.020365291084551904 0 -0.0014593853674132924 -0.020548944195633009 0 -0.0013847442758118085 -0.020275444769907634 0 -0.00096342299929087771 -0.020445235026205256 0 -0.0015896191383682474 -0.020875011138570876 0 -0.0013514821462388968 -0.020937668390657943 0 -0.00090617783371289438 -0.020436914987081434 0 -0.00096342299929087771 -0.020445235026205256 0 -0.0013514821462388968 -0.020937668390657943 0 -0.001027671026131372 -0.020242082427695769 0 -0.0016034100117143836 -0.020860828774390099 0 -0.0014298522948460648 -0.020750649653860309 0 -0.0016034100117143836 -0.020860828774390099 0 -0.0010989690889342675 -0.020060909803932863 0 -0.0012082046594521865 -0.02038579349017363 0 -0.0017802624263332963 -0.020828865608813602 0 -0.00096342299929087771 -0.020445235026205256 0 -0.0015792165890316564 -0.021000437143180391 0 -0.0014593853674132924 -0.020548944195633009 0 -0.0011188477814210326 -0.020365291084551904 0 -0.00096342299929087771 -0.020445235026205256 0 -0.0014593853674132924 -0.020548944195633009 0 -0.0013021006723267978 -0.020736617815132169 0 -0.001624682703523644 -0.020973376104938782 0 -0.0010215297823570814 -0.020435804836822249 0 -0.0012082046594521865 -0.02038579349017363 0 -0.0017802624263332963 -0.020828865608813602 0 0.0025487773290974402 -0.020912936653424367 0 0.0018915844290675657 -0.021092388239632241 0 0.0020895975469493655 -0.020257314365041204 0 0.0025487773290974402 -0.020912936653424367 0 0.0027485714998087634 -0.020262559300602161 0 0.0031451207639001917 -0.020520476872094323 0 0.0025487773290974402 -0.020912936653424367 0 0.0031451207639001917 -0.020520476872094323 0 0.0029906547572218045 -0.021189101900647402 0 0.0026626036852303667 -0.021413129663444733 0 0.0025487773290974402 -0.020912936653424367 0 0.0029906547572218045 -0.021189101900647402 0 0.0011421880903027576 -0.02039307090931888 0 0.0014971834787119737 -0.020576182478560315 0 0.0022938597670615177 -0.021375232336202823 0 0.0026626036852303667 -0.021413129663444733 0 0.0025487773290974402 -0.020912936653424367 0 0.0019790903552294788 -0.021829082051452821 0 0.0025487773290974402 -0.020912936653424367 0 0.0018915844290675657 -0.021092388239632241 0 0.0019790903552294788 -0.021829082051452821 0 0.0013376298695140048 -0.021536767501106842 0 0.0018915844290675657 -0.021092388239632241 0 0.0013376298695140048 -0.021536767501106842 0 0.0014084686862324159 -0.020787605895997929 0 0.0018915844290675657 -0.021092388239632241 0 0.00069016802226812442 -0.021273996767623902 0 0.0013376298695140048 -0.021536767501106842 0 0.0014084686862324159 -0.020787605895997929 0 0.00083282211063425424 -0.022005074532666681 0 0.00069016802226812442 -0.021273996767623902 0 0.0013376298695140048 -0.021536767501106842 0 0.00069016802226812442 -0.021273996767623902 0 0.00051808157417902701 -0.020558854730114436 0 0.0014084686862324159 -0.020787605895997929 0 0.0014084686862324159 -0.020787605895997929 0 0.0018915844290675657 -0.021092388239632241 0 0.0020895975469493655 -0.020257314365041204 0 0.0011124051234757445 -0.020200878611356558 0 0.0015995076816500502 -0.019737687359251639 0 0.0020895975469493655 -0.020257314365041204 0 0.0014084686862324159 -0.020787605895997929 0 0.0011124051234757445 -0.020200878611356558 0 0.0020895975469493655 -0.020257314365041204 0 0.00051808157417902701 -0.020558854730114436 0 0.0014084686862324159 -0.020787605895997929 0 0.0011124051234757445 -0.020200878611356558 0 0.00065106053261650273 -0.01979888307107577 0 0.0014603345219703274 -0.019785120897055475 0 0.00051673316536402013 -0.019856714140888479 0 0.0015544677245253337 -0.019836522364176854 0 0.0008524035231051028 -0.019170070928028762 0 0.00058943256568495122 -0.019741208640827953 0 0.0011124051234757445 -0.020200878611356558 0 0.0015995076816500502 -0.019737687359251639 0 0.0014603345219703274 -0.019785120897055475 0 0.0019342549696471946 -0.019776544032243635 0 0.0015544677245253337 -0.019836522364176854 0 0.0025466151478874539 -0.019771328993294073 0 0.002083451669147363 -0.019344943764221613 0 0.0020895975469493655 -0.020257314365041204 0 0.0026898361016658517 -0.019987064828020616 0 0.0025466151478874539 -0.019771328993294073 0 0.0015995076816500502 -0.019737687359251639 0 0.0020895975469493655 -0.020257314365041204 0 0.0025466151478874539 -0.019771328993294073 0 0.0025487773290974402 -0.020912936653424367 0 0.0020895975469493655 -0.020257314365041204 0 0.0027485714998087634 -0.020262559300602161 0 0.0027485714998087634 -0.020262559300602161 0 0.0028947808923254462 -0.019733183287306739 0 0.0031451207639001917 -0.020520476872094323 0 0.0020895975469493655 -0.020257314365041204 0 0.0027485714998087634 -0.020262559300602161 0 0.0026898361016658517 -0.019987064828020616 0 0.0027485714998087634 -0.020262559300602161 0 0.0026898361016658517 -0.019987064828020616 0 0.0028947808923254462 -0.019733183287306739 0 0.0026898361016658517 -0.019987064828020616 0 0.0025466151478874539 -0.019771328993294073 0 0.0028947808923254462 -0.019733183287306739 0 0.0021382329737220387 -0.014325973090870371 0 0.0021476202148746691 -0.014308484610805694 0 0.0021497971400726802 -0.014344859971871666 0 0.0030241357740483665 -0.019506302965741622 0 0.0033085088810717767 -0.019642497389764459 0 0.0033590753270824024 -0.019212354136844478 0 0.0026136547063267679 -0.016425804752044401 0 0.0029796869084562343 -0.015314589776622624 0 0.0021476202148746691 -0.014308484610805694 0 0.0021342229107570439 -0.014313395908377866 0 0.0021279862876881048 -0.014302018717745141 0 0.0021382329737220387 -0.014325973090870371 0 0.0021476202148746691 -0.014308484610805694 0 0.0021342229107570439 -0.014313395908377866 0 0.0015472845511794149 -0.012068340047752665 0 0.0017446690468310841 -0.012565719649986432 0 0.0020279408862300054 -0.011861531173750337 0 0.001593536677133386 -0.012042661913234045 0 0.0017528999594775072 -0.011204146812052819 0 0.0015472845511794149 -0.012068340047752665 0 0.0020279408862300054 -0.011861531173750337 0 0.0018136626284990958 -0.01159678305753347 0 0.002108391630429504 -0.013087331681918812 0 0.0022391448503550041 -0.012497019466627648 0 0.0021382329737220387 -0.014325973090870371 0 0.0021220514357211079 -0.014315180453372097 0 0.0021366441569264315 -0.014347391727973002 0 0.002108391630429504 -0.013087331681918812 0 0.0028035965093430944 -0.01470802621006603 0 0.0021382329737220387 -0.014325973090870371 0 0.0021342229107570439 -0.014313395908377866 0 0.0021220514357211079 -0.014315180453372097 0 0.0021279862876881048 -0.014302018717745141 0 0.0021231927050946371 -0.014310344150963774 0 0.0021121846174410952 -0.014288911460644219 0 0.0021342229107570439 -0.014313395908377866 0 0.0021279862876881048 -0.014302018717745141 0 0.0021220514357211079 -0.014315180453372097 0 0.0020780980343353024 -0.013167519722318265 0 0.002108391630429504 -0.013087331681918812 0 0.002108391630429504 -0.013087331681918812 0 0.001593536677133386 -0.012042661913234045 0 0.0021279862876881048 -0.014302018717745141 0 0.0021121846174410952 -0.014288911460644219 0 0.002130391289113567 -0.014284449297179834 0 0.0026136547063267679 -0.016425804752044401 0 0.0022562558012921277 -0.016907550993156266 0 0.0021476202148746691 -0.014308484610805694 0 0.0021432699960383292 -0.014279146123148574 0 0.002130391289113567 -0.014284449297179834 0 0.0030241357740483665 -0.019506302965741622 0 0.0033085088810717767 -0.019642497389764459 0 0.0032775657522688888 -0.020015777855761065 0 0.0029267974416645791 -0.018908784710257844 0 0.0022562558012921277 -0.016907550993156266 0 0.0021476202148746691 -0.014308484610805694 0 0.0021279862876881048 -0.014302018717745141 0 0.002130391289113567 -0.014284449297179834 0 0.0013623421101526928 -0.015768353219369719 0 0.0010223344704470472 -0.015046757657915757 0 0.0014247032087734727 -0.014808205967347918 0 0.0022562558012921277 -0.016907550993156266 0 0.0012245750558218394 -0.013308827988231317 0 0.0022562558012921277 -0.016907550993156266 0 0.0015040530758468832 -0.016919193481200745 0 0.0021432699960383292 -0.014279146123148574 0 0.002130391289113567 -0.014284449297179834 0 0.0021225098722139771 -0.014244573706488284 0 0.0021121846174410952 -0.014288911460644219 0 0.002130391289113567 -0.014284449297179834 0 0.0021225098722139771 -0.014244573706488284 0 0.0011095986683655726 -0.012324609383896146 0 0.0015807577489110574 -0.011132493412953562 0 0.0006495844336297052 -0.011184687586213963 0 0.001593536677133386 -0.012042661913234045 0 0.0012245750558218394 -0.013308827988231317 0 0.0010886340114977053 -0.012258814866395578 0 0.0010940707914819277 -0.012238081857500175 0 0.0010792323845016101 -0.012239118586427844 0 0.0015807577489110574 -0.011132493412953562 0 0.0006495844336297052 -0.011184687586213963 0 0.001296457911548427 -0.010516812180262073 0 0.0012245750558218394 -0.013308827988231317 0 0.00073202288407034789 -0.01174115871584727 0 0.0010223344704470472 -0.015046757657915757 0 0.0014247032087734727 -0.014808205967347918 0 0.0012465932794729461 -0.014465777788168311 0 0.0012245750558218394 -0.013308827988231317 0 0.0009329584148769053 -0.013292115052604046 0 0.00070496613648685037 -0.0084579936476821341 0 0.0014530138971203723 -0.0088554694542097735 0 0.00083642069385272098 -0.0098588309845211199 0 0.00070496613648685037 -0.0084579936476821341 0 0.00083642069385272098 -0.0098588309845211199 0 9.4027510679026911e-05 -0.0089383203074638682 0 0.00070496613648685037 -0.0084579936476821341 0 0.0014530138971203723 -0.0088554694542097735 0 0.0010056393507861373 -0.0077417077272700372 0 0.00087992652738232938 -0.010183761015495504 0 0.00016906751950203076 -0.0087665449608019062 0 0.0006495844336297052 -0.011184687586213963 0 0.001296457911548427 -0.010516812180262073 0 0.00058875512363076334 -0.01023391033806142 0 0.0019018338106360285 -0.0099733560890721707 0 0.0014530138971203723 -0.0088554694542097735 0 0.00083642069385272098 -0.0098588309845211199 0 0.001593536677133386 -0.012042661913234045 0 0.00087992652738232938 -0.010183761015495504 0 0.00094368166482990557 -0.0090711558283677017 0 0.00046089325639099246 -0.0076634071023282697 0 0.0019018338106360285 -0.0099733560890721707 0 0.00083642069385272098 -0.0098588309845211199 0 0.0015823413522835265 -0.0107802733089806 0 0.00094368166482990557 -0.0090711558283677017 0 0.0017528999594775072 -0.011204146812052819 0 0.0012767803831688269 -0.0076479015980154925 0 0.0019529433366425703 -0.0084872027199939335 0 0.0012443343924488713 -0.0085358550215807669 0 0.0012767803831688269 -0.0076479015980154925 0 0.0012443343924488713 -0.0085358550215807669 0 0.00052201744866667071 -0.0084390436407590676 0 0.00088635404996131374 -0.0063807344474757499 0 0.00055353438256231142 -0.0058186626011276455 0 0.0009846111920524044 -0.0039005467146383541 0 0.00094117673280222011 -0.0039066260644279004 0 0.00094140303969495462 -0.003841234761364221 0 0.0004071369881472873 -0.0046357175456510401 0 0.00052863526238050693 -0.0041309159608149014 0 0.00094117673280222011 -0.0039066260644279004 0 0.00094140303969495462 -0.003841234761364221 0 0.00092019769418873556 -0.0038244203212804699 0 0.00094140303969495462 -0.003841234761364221 0 0.00092019769418873556 -0.0038244203212804699 0 0.00093510381302160583 -0.0038543763487721514 0 0.0012767803831688269 -0.0076479015980154925 0 0.00052201744866667071 -0.0084390436407590676 0 0.00019047301336556663 -0.0076375885684872111 0 0.0011115288272543738 -0.003308437019471019 0 0.001230993033022207 -0.0029752835422861106 0 0.0015682214990931399 -0.0031181753565437008 0 0.0011115288272543738 -0.003308437019471019 0 0.00094800462989097251 -0.002952308899088386 0 0.001230993033022207 -0.0029752835422861106 0 0.00041490556355243055 -0.0030665276107800354 0 0.0007346735833919472 -0.0030883809767614841 0 0.00075413409390797748 -0.0034694588073910767 0 0.0011115288272543738 -0.003308437019471019 0 0.0007346735833919472 -0.0030883809767614841 0 0.00094800462989097251 -0.002952308899088386 0 0.0011115288272543738 -0.003308437019471019 0 0.0007346735833919472 -0.0030883809767614841 0 0.00075413409390797748 -0.0034694588073910767 0 0.00092019769418873556 -0.0038244203212804699 0 0.00094684281253377034 -0.0038825804056049225 0 0.00093510381302160583 -0.0038543763487721514 0 0.00052863526238050693 -0.0041309159608149014 0 0.00066232171114531625 -0.0040953288385131674 0 0.00075413409390797748 -0.0034694588073910767 0 0.0011597929974037464 -0.0035859941530061667 0 0.0011300971976718065 -0.0038772787924546909 0 0.0011115288272543738 -0.003308437019471019 0 0.0011597929974037464 -0.0035859941530061667 0 0.0014605334234168148 -0.0034741311891194416 0 0.0011115288272543738 -0.003308437019471019 0 0.00075413409390797748 -0.0034694588073910767 0 0.0011597929974037464 -0.0035859941530061667 0 0.0011300971976718065 -0.0038772787924546909 0 0.00094684281253377034 -0.0038825804056049225 0 0.0014093528753345982 -0.0039777218653479539 0 0.00094684281253377034 -0.0038825804056049225 0 0.0008964336772989465 -0.0038427629890703217 0 0.00083021612554925463 -0.0038647783980044477 0 0.0011625936546715984 -0.0028838512049775308 0 0.0011231738145207051 -0.0024909549108538395 0 0.0011597929974037464 -0.0035859941530061667 0 0.0011300971976718065 -0.0038772787924546909 0 0.001381063662809865 -0.0037231237009692037 0 0.00092019769418873556 -0.0038244203212804699 0 0.0011300971976718065 -0.0038772787924546909 0 0.00094684281253377034 -0.0038825804056049225 0 0.00094684281253377034 -0.0038825804056049225 0 0.00093737087496990673 -0.0038492117381062861 0 0.0008964336772989465 -0.0038427629890703217 0 0.00094684281253377034 -0.0038825804056049225 0 0.00093510381302160583 -0.0038543763487721514 0 0.00094702440647242221 -0.0038631047081887989 0 0.00094684281253377034 -0.0038825804056049225 0 0.00093737087496990673 -0.0038492117381062861 0 0.00094702440647242221 -0.0038631047081887989 0 0.00093737087496990673 -0.0038492117381062861 0 0.00094702440647242221 -0.0038631047081887989 0 0.00094715386125794393 -0.0038049673027726015 0 0.00093737087496990673 -0.0038492117381062861 0 0.0008964336772989465 -0.0038427629890703217 0 0.00094715386125794393 -0.0038049673027726015 0 0.0008964336772989465 -0.0038427629890703217 0 0.00083021612554925463 -0.0038647783980044477 0 0.00084947881049043743 -0.0037962377898200649 0 0.0008964336772989465 -0.0038427629890703217 0 0.00094715386125794393 -0.0038049673027726015 0 0.00084947881049043743 -0.0037962377898200649 0 0.0012767803831688269 -0.0076479015980154925 0 0.00019047301336556663 -0.0076375885684872111 0 0.00059751321613692534 -0.0068052201722098703 0 0.00055353438256231142 -0.0058186626011276455 0 0.0002532710190460917 -0.005385047086415508 0 0.00094140303969495462 -0.003841234761364221 0 0.00093510381302160583 -0.0038543763487721514 0 0.00094702440647242221 -0.0038631047081887989 0 0.00019047301336556663 -0.0076375885684872111 0 0.00059751321613692534 -0.0068052201722098703 0 -0.00014142955324408617 -0.006833417193636014 0 -0.00014142955324408617 -0.006833417193636014 0 -8.3805752490357841e-05 -0.0059615853242389206 0 -0.00047257303445623637 -0.0060276470989005897 0 0.00059751321613692534 -0.0068052201722098703 0 -0.00014142955324408617 -0.006833417193636014 0 -8.3805752490357841e-05 -0.0059615853242389206 0 0.00046089325639099246 -0.0076634071023282697 0 -0.00014749497938952607 -0.0058534765073897828 0 0.0002532710190460917 -0.005385047086415508 0 -0.0001212533803147967 -0.0049487305559404665 0 9.4027510679026911e-05 -0.0089383203074638682 0 0.00018015504787756924 -0.0078815381452921225 0 -0.00064531606460678102 -0.0080200168139945276 0 0.00070496613648685037 -0.0084579936476821341 0 9.4027510679026911e-05 -0.0089383203074638682 0 0.00018015504787756924 -0.0078815381452921225 0 -3.9757516125120926e-05 -0.0073568500443022596 0 -0.00014749497938952607 -0.0058534765073897828 0 -0.00032226782586123069 -0.0072909049642111735 0 -0.00059888980953301107 -0.0073382938851265971 0 -0.0006035128013524532 -0.0070756525731549853 0 -0.00014749497938952607 -0.0058534765073897828 0 -0.0001212533803147967 -0.0049487305559404665 0 -0.00059888980953301107 -0.0073382938851265971 0 -0.0006035128013524532 -0.0070756525731549853 0 -0.00084306904655247011 -0.0070469591215561065 0 -0.00032226782586123069 -0.0072909049642111735 0 -0.0006035128013524532 -0.0070756525731549853 0 -0.00037692019004404332 -0.0070271839286995845 0 -0.00032226782586123069 -0.0072909049642111735 0 -0.00037692019004404332 -0.0070271839286995845 0 -0.00020353481978414666 -0.0071255432011971646 0 -0.00037692019004404332 -0.0070271839286995845 0 -0.0001837260311731481 -0.0069038236581964113 0 -0.00020353481978414666 -0.0071255432011971646 0 -0.00076717993080585275 -0.0024835423475291821 0 -0.0010093396292151701 -0.0025348743630651239 0 -0.0010059718383382203 -0.0027705212519653307 0 -0.0001212533803147967 -0.0049487305559404665 0 -0.00016993825783859725 -0.0030319353671561054 0 -0.00049710814403592252 -0.0027002885626657086 0 -0.00076717993080585275 -0.0024835423475291821 0 -0.0010059718383382203 -0.0027705212519653307 0 -0.00030053990709426201 -0.0026869638407565656 0 -0.00057294596522120109 -0.0025158960055213227 0 -0.0006045559370038481 -0.0023128798873303753 0 -0.00014749497938952607 -0.0058534765073897828 0 -0.00074598323702239604 -0.0048955898757825234 0 -0.00057294596522120109 -0.0025158960055213227 0 -0.00049710814403592252 -0.0027002885626657086 0 -0.00076717993080585275 -0.0024835423475291821 0 -0.00026174607146583714 -0.0045398647106628838 0 -0.0001212533803147967 -0.0049487305559404665 0 -0.00030053990709426201 -0.0026869638407565656 0 -0.00057294596522120109 -0.0025158960055213227 0 -0.00049147983005793457 -0.0027203735938236499 0 -0.0006035128013524532 -0.0070756525731549853 0 -0.00084306904655247011 -0.0070469591215561065 0 -0.00068928722549701257 -0.0068657489573694342 0 -0.00057294596522120109 -0.0025158960055213227 0 -0.0006045559370038481 -0.0023128798873303753 0 -0.00076717993080585275 -0.0024835423475291821 0 -0.0006045559370038481 -0.0023128798873303753 0 -0.00076717993080585275 -0.0024835423475291821 0 -0.00079118833309251024 -0.0022548059475812352 0 -0.00076717993080585275 -0.0024835423475291821 0 -0.00079118833309251024 -0.0022548059475812352 0 -0.00094640486513842322 -0.0023238275153553449 0 -0.00079118833309251024 -0.0022548059475812352 0 -0.00094640486513842322 -0.0023238275153553449 0 -0.00091735677216116436 -0.002181610161607673 0 -0.00076717993080585275 -0.0024835423475291821 0 -0.00094640486513842322 -0.0023238275153553449 0 -0.0010093396292151701 -0.0025348743630651239 0 -0.00074598323702239604 -0.0048955898757825234 0 -0.0011036440766347406 -0.004373990455140489 0 -0.00079118833309251024 -0.0022548059475812352 0 -0.00088859528217867501 -0.0019702667756479192 0 -0.00091735677216116436 -0.002181610161607673 0 -0.00088859528217867501 -0.0019702667756479192 0 -0.00091735677216116436 -0.002181610161607673 0 -0.0010782532411277516 -0.0022472863830319718 0 -0.0006045559370038481 -0.0023128798873303753 0 -0.00079118833309251024 -0.0022548059475812352 0 -0.00088859528217867501 -0.0019702667756479192 0 -0.00084306904655247011 -0.0070469591215561065 0 -0.0010974551768676984 -0.0067337447032604098 0 -0.00082418718930844185 -0.0067540128504777067 0 -0.00084306904655247011 -0.0070469591215561065 0 -0.00082418718930844185 -0.0067540128504777067 0 -0.00068928722549701257 -0.0068657489573694342 0 -0.00082418718930844185 -0.0067540128504777067 0 -0.00068928722549701257 -0.0068657489573694342 0 -0.00066318460779807287 -0.006653442634874213 0 -0.00082418718930844185 -0.0067540128504777067 0 -0.00073573256635069812 -0.0064948250110773648 0 -0.00066318460779807287 -0.006653442634874213 0 -0.0010974551768676984 -0.0067337447032604098 0 -0.00082418718930844185 -0.0067540128504777067 0 -0.00073573256635069812 -0.0064948250110773648 0 -0.0016737859439765693 -0.0064490262140744214 0 -0.00139127395733287 -0.0062675197769090484 0 -0.0015527456754376335 -0.0063344843216440764 0 -0.0011036440766347406 -0.004373990455140489 0 -0.00089611803720050526 -0.0063805718103241002 0 -0.0016589631006049804 -0.0061707491094618828 0 -0.00139127395733287 -0.0062675197769090484 0 -0.0015527456754376335 -0.0063344843216440764 0 -0.00089611803720050526 -0.0063805718103241002 0 -0.00087090418439757396 -0.006424094227910653 0 -0.0016589631006049804 -0.0061707491094618828 0 -0.0015527456754376335 -0.0063344843216440764 0 -0.0017286357617471791 -0.0063997851554834168 0 -0.0015464691588951242 -0.0042722356954233683 0 -0.0013204465776644962 -0.0040060870428318424 0 -0.0016737859439765693 -0.0064490262140744214 0 -0.0015527456754376335 -0.0063344843216440764 0 -0.0017202438074007623 -0.0063900962860602185 0 -0.0011036440766347406 -0.004373990455140489 0 -0.0013204465776644962 -0.0040060870428318424 0 -0.00037692019004404332 -0.0070271839286995845 0 -0.00049534726843807151 -0.0068325530506765002 0 -0.0001837260311731481 -0.0069038236581964113 0 -0.00049534726843807151 -0.0068325530506765002 0 -0.00039229730901803485 -0.0065855111493950879 0 -0.0001837260311731481 -0.0069038236581964113 0 -0.0006035128013524532 -0.0070756525731549853 0 -0.00068928722549701257 -0.0068657489573694342 0 -0.00048482001614187214 -0.0067864128593005139 0 -0.0006035128013524532 -0.0070756525731549853 0 -0.00037692019004404332 -0.0070271839286995845 0 -0.00049534726843807151 -0.0068325530506765002 0 -0.00040027454055336286 -0.0070576238932293697 0 -0.00037231431550628993 -0.0070689072872799647 0 -0.00068928722549701257 -0.0068657489573694342 0 -0.00048482001614187214 -0.0067864128593005139 0 -0.00066318460779807287 -0.006653442634874213 0 -0.00048482001614187214 -0.0067864128593005139 0 -0.00054781468834693401 -0.0065574842561859905 0 -0.00037326340054414032 -0.0065086322745384331 0 -0.00048482001614187214 -0.0067864128593005139 0 -0.00066318460779807287 -0.006653442634874213 0 -0.00054781468834693401 -0.0065574842561859905 0 -0.0007319936872542121 -0.0065039487164756989 0 -0.00066318460779807287 -0.006653442634874213 0 -0.00054781468834693401 -0.0065574842561859905 0 -0.0002645801157105891 -0.0081957252127704602 0 -0.00023101787507407061 -0.0082102757033067388 0 -0.00022747251035804995 -0.0082753325025926496 0 -0.00037231431550628993 -0.0070689072872799647 0 -0.00039781228709395776 -0.0073927035043858556 0 -0.00039781228709395776 -0.0073927035043858556 0 -0.00025823038050804952 -0.007850506691610297 0 -0.00022828957154230666 -0.0081840341713747666 0 -0.0002645801157105891 -0.0081957252127704602 0 -0.00023101787507407061 -0.0082102757033067388 0 -0.00023101787507407061 -0.0082102757033067388 0 -0.00020488723694055442 -0.0081920658150052578 0 -0.00022747251035804995 -0.0082753325025926496 0 -0.00022828957154230666 -0.0081840341713747666 0 -0.00023101787507407061 -0.0082102757033067388 0 -0.00020488723694055442 -0.0081920658150052578 0 -0.00020488723694055442 -0.0081920658150052578 0 -0.00022747251035804995 -0.0082753325025926496 0 -0.00015777851894766047 -0.0082740722364161596 0 -0.00025641512505794178 -0.0082200373235708085 0 -0.00020488723694055442 -0.0081920658150052578 0 -0.00023900518466836074 -0.0081807483322843353 0 -0.00022100185970219121 -0.0081328927979452282 0 -0.00023900518466836074 -0.0081807483322843353 0 -0.00027270720441406745 -0.0081747839874765915 0 -0.00034219107299510637 -0.0084732679686662111 0 -0.00028413500879334228 -0.0087556447070385266 0 -0.00020488723694055442 -0.0081920658150052578 0 -0.00022100185970219121 -0.0081328927979452282 0 -0.00023900518466836074 -0.0081807483322843353 0 -0.00032112003873360057 -0.0083238068150527089 0 -0.00025641512505794178 -0.0082200373235708085 0 -0.00027270720441406745 -0.0081747839874765915 0 -0.00025641512505794178 -0.0082200373235708085 0 -0.00023900518466836074 -0.0081807483322843353 0 -0.00027270720441406745 -0.0081747839874765915 0 -0.00032112003873360057 -0.0083238068150527089 0 -0.00027270720441406745 -0.0081747839874765915 0 -0.00039583914914524969 -0.0081323127117668322 0 -0.00039583914914524969 -0.0081323127117668322 0 -0.0003292369930913237 -0.0081119871989368941 0 -0.00035903779911291179 -0.0080619238104951627 0 2.9771619142852201e-05 -0.010217836561344727 0 0.00054124659954766282 -0.01329816398124386 0 -0.00027270720441406745 -0.0081747839874765915 0 -0.00039583914914524969 -0.0081323127117668322 0 -0.0003292369930913237 -0.0081119871989368941 0 -0.00022100185970219121 -0.0081328927979452282 0 -0.00027270720441406745 -0.0081747839874765915 0 -0.00027695637351416965 -0.0081013999193228613 0 -0.00027270720441406745 -0.0081747839874765915 0 -0.0003292369930913237 -0.0081119871989368941 0 -0.00027695637351416965 -0.0081013999193228613 0 -0.00027695637351416965 -0.0081013999193228613 0 -0.00025688287420716212 -0.0080450857656389381 0 -0.00035903779911291179 -0.0080619238104951627 0 0.00018719952866281481 -0.010336907459022673 0 0.00054124659954766282 -0.01329816398124386 0 -0.00022100185970219121 -0.0081328927979452282 0 -0.00027695637351416965 -0.0081013999193228613 0 -0.00025688287420716212 -0.0080450857656389381 0 -0.0003292369930913237 -0.0081119871989368941 0 -0.00027695637351416965 -0.0081013999193228613 0 -0.00035903779911291179 -0.0080619238104951627 0 0.00054124659954766282 -0.01329816398124386 0 0.0009329584148769053 -0.013292115052604046 0 0.0010709714121960119 -0.01222084268255425 0 0.0011002374915954484 -0.012219688278189166 0 0.0010940707914819277 -0.012238081857500175 0 0.0015040530758468832 -0.016919193481200745 0 0.00054124659954766282 -0.01329816398124386 0 0.0014247032087734727 -0.014808205967347918 0 0.0014834528760360815 -0.013851001998887856 0 0.0012465932794729461 -0.014465777788168311 0 0.0010709714121960119 -0.01222084268255425 0 0.0010940707914819277 -0.012238081857500175 0 0.0010792323845016101 -0.012239118586427844 0 0.0010118504514274455 -0.0099009555255988573 0 0.001296457911548427 -0.010516812180262073 0 0.00058875512363076334 -0.01023391033806142 0 0.00018719952866281481 -0.010336907459022673 0 0.00073202288407034789 -0.01174115871584727 0 0.0006495844336297052 -0.011184687586213963 0 0.00058875512363076334 -0.01023391033806142 0 0.00018937068004015275 -0.010039555023527019 0 0.00018719952866281481 -0.010336907459022673 0 0.00020609885262826806 -0.0090548005694070649 0 0.0010118504514274455 -0.0099009555255988573 0 0.00058875512363076334 -0.01023391033806142 0 0.00043725762490232377 -0.0099987087959323567 0 0.00058875512363076334 -0.01023391033806142 0 0.00043704213333269255 -0.0099969073229799164 0 0.00018937068004015275 -0.010039555023527019 0 0.00020609885262826806 -0.0090548005694070649 0 0.00016906751950203076 -0.0087665449608019062 0 0.00024037899803442745 -0.0091178259221569528 0 0.00020609885262826806 -0.0090548005694070649 0 -3.9757516125120926e-05 -0.0073568500443022596 0 0.00016906751950203076 -0.0087665449608019062 0 0.00070496613648685037 -0.0084579936476821341 0 0.00018015504787756924 -0.0078815381452921225 0 0.0010056393507861373 -0.0077417077272700372 0 -0.00032226782586123069 -0.0072909049642111735 0 -4.9528909557456991e-05 -0.0072481708961888176 0 -0.00020353481978414666 -0.0071255432011971646 0 3.2213732078515022e-05 -0.0072368022253502511 0 -4.9090188626072131e-05 -0.0072512979990474831 0 -8.6263395040841738e-05 -0.0071565552709070045 0 -0.0001837260311731481 -0.0069038236581964113 0 -8.6263395040841738e-05 -0.0071565552709070045 0 -0.00020353481978414666 -0.0071255432011971646 0 -4.9528909557456991e-05 -0.0072481708961888176 0 -8.6263395040841738e-05 -0.0071565552709070045 0 -0.00020353481978414666 -0.0071255432011971646 0 -0.0001837260311731481 -0.0069038236581964113 0 3.2213732078515022e-05 -0.0072368022253502511 0 -8.6263395040841738e-05 -0.0071565552709070045 0 0.00016906751950203076 -0.0087665449608019062 0 0.00013137293979911197 -0.0086529328454185341 0 -0.00025823038050804952 -0.007850506691610297 0 0.00020609885262826806 -0.0090548005694070649 0 -0.00028413500879334228 -0.0087556447070385266 0 0.00018719952866281481 -0.010336907459022673 0 -0.00015777851894766047 -0.0082740722364161596 0 -0.00011206838325949541 -0.0083722952072712402 0 -0.00016850616414445366 -0.0083798452770080228 0 -0.00022747251035804995 -0.0082753325025926496 0 -0.00015777851894766047 -0.0082740722364161596 0 -0.00016850616414445366 -0.0083798452770080228 0 5.9297784329135996e-06 -0.024983182107845441 0 3.4258705420240491e-09 -0.024999984954511882 0 4.2207528890000246e-06 -0.02499142918502717 0 3.4258705420240491e-09 -0.024999984954511882 0 4.2207528890000246e-06 -0.02499142918502717 0 1.6176334249507778e-09 -0.024999990841046142 0 8.3941036024866238e-05 -0.024555391831126528 0 0.00013539931193445285 -0.024146056691579453 0 5.9297784329135996e-06 -0.024983182107845441 0 4.2207528890000246e-06 -0.02499142918502717 0 1.1475446639144662e-06 -0.024984191190373047 0 8.3941036024866238e-05 -0.024555391831126528 0 7.0398890489092291e-06 -0.023919584354030781 0 0.00033849413912282784 -0.023739403241541637 0 0.00014552928060503398 -0.023649976364615913 0 8.6605771313151791e-05 -0.023694822910392859 0 0.00013539931193445285 -0.024146056691579453 0 0.0001961109750220862 -0.02364672370117632 0 0.00014552928060503398 -0.023649976364615913 0 8.6605771313151791e-05 -0.023694822910392859 0 -4.7948465185126539e-05 -0.023562104441589436 0 1.1475446639144662e-06 -0.024984191190373047 0 -5.6745363826175723e-08 -0.024974041882490434 0 -9.5659238611714914e-06 -0.024974923764649937 0 5.9297784329135996e-06 -0.024983182107845441 0 1.1475446639144662e-06 -0.024984191190373047 0 -5.6745363826175723e-08 -0.024974041882490434 0 5.9297784329135996e-06 -0.024983182107845441 0 3.8548652743959788e-06 -0.024958165801211352 0 7.0083762609432461e-06 -0.024967597841596547 0 5.9297784329135996e-06 -0.024983182107845441 0 -5.6745363826175723e-08 -0.024974041882490434 0 3.8548652743959788e-06 -0.024958165801211352 0 -5.6745363826175723e-08 -0.024974041882490434 0 3.8548652743959788e-06 -0.024958165801211352 0 -1.3295674578218716e-05 -0.024960824748806083 0 -0.00012597109885910865 -0.024201715357814391 0 -2.5057802233621815e-05 -0.023944064056915335 0 3.8548652743959788e-06 -0.024958165801211352 0 2.7632241133414273e-06 -0.024921422742378092 0 -1.1348976063698206e-05 -0.024925924922564534 0 3.8548652743959788e-06 -0.024958165801211352 0 7.0083762609432461e-06 -0.024967597841596547 0 7.8857190784129164e-06 -0.024936178876922472 0 5.9297784329135996e-06 -0.024983182107845441 0 7.0083762609432461e-06 -0.024967597841596547 0 1.3309605502724584e-08 -0.024999965387530045 0 5.9297784329135996e-06 -0.024983182107845441 0 3.4258705420240491e-09 -0.024999984954511882 0 1.3309605502724584e-08 -0.024999965387530045 0 1.3309605502724584e-08 -0.024999965387530045 0 7.0835056595860777e-06 -0.02496050676135058 0 4.051058929283446e-09 -0.024999953700406041 0 7.0083762609432461e-06 -0.024967597841596547 0 1.3309605502724584e-08 -0.024999965387530045 0 7.0835056595860777e-06 -0.02496050676135058 0 4.051058929283446e-09 -0.024999953700406041 0 2.9472593234318975e-07 -0.024958506009814911 0 2.5018541606871695e-09 -0.024999936196063693 0 7.0835056595860777e-06 -0.02496050676135058 0 4.051058929283446e-09 -0.024999953700406041 0 2.9472593234318975e-07 -0.024958506009814911 0 7.0835056595860777e-06 -0.02496050676135058 0 2.9472593234318975e-07 -0.024958506009814911 0 7.2990374404831325e-06 -0.024914988039833611 0 7.4206844633409717e-07 -0.024852313014876108 0 1.7366910583545735e-06 -0.024895315107076221 0 2.095227122173642e-06 -0.024831852969090264 0 1.7366910583545735e-06 -0.024895315107076221 0 5.8965411744322365e-06 -0.024872246679052374 0 2.095227122173642e-06 -0.024831852969090264 0 -3.3882176958229733e-06 -0.024938458776185102 0 2.9472593234318975e-07 -0.024958506009814911 0 1.7366910583545735e-06 -0.024895315107076221 0 2.9472593234318975e-07 -0.024958506009814911 0 1.7366910583545735e-06 -0.024895315107076221 0 7.2990374404831325e-06 -0.024914988039833611 0 7.2990374404831325e-06 -0.024914988039833611 0 5.8965411744322365e-06 -0.024872246679052374 0 6.6902944921437797e-06 -0.024896293693421515 0 1.7366910583545735e-06 -0.024895315107076221 0 7.2990374404831325e-06 -0.024914988039833611 0 5.8965411744322365e-06 -0.024872246679052374 0 7.2990374404831325e-06 -0.024914988039833611 0 6.6902944921437797e-06 -0.024896293693421515 0 7.8857190784129164e-06 -0.024936178876922472 0 7.0835056595860777e-06 -0.02496050676135058 0 7.2990374404831325e-06 -0.024914988039833611 0 7.8857190784129164e-06 -0.024936178876922472 0 7.0083762609432461e-06 -0.024967597841596547 0 7.0835056595860777e-06 -0.02496050676135058 0 7.8857190784129164e-06 -0.024936178876922472 0 6.6902944921437797e-06 -0.024896293693421515 0 7.8857190784129164e-06 -0.024936178876922472 0 2.7632241133414273e-06 -0.024921422742378092 0 3.8548652743959788e-06 -0.024958165801211352 0 7.8857190784129164e-06 -0.024936178876922472 0 2.7632241133414273e-06 -0.024921422742378092 0 2.7632241133414273e-06 -0.024921422742378092 0 -3.6232454831865817e-06 -0.024880890472859636 0 -1.1348976063698206e-05 -0.024925924922564534 0 -2.6593904900589977e-05 -0.024894220697230476 0 -4.2412515061069919e-05 -0.024917492275016939 0 -1.1348976063698206e-05 -0.024925924922564534 0 -2.6593904900589977e-05 -0.024894220697230476 0 -3.6232454831865817e-06 -0.024880890472859636 0 -3.3415914792796904e-05 -0.024855918305887018 0 -2.6593904900589977e-05 -0.024894220697230476 0 -3.6232454831865817e-06 -0.024880890472859636 0 -1.1348976063698206e-05 -0.024925924922564534 0 -2.6593904900589977e-05 -0.024894220697230476 0 -4.8946447252089654e-05 -0.024885571766630688 0 -4.2412515061069919e-05 -0.024917492275016939 0 -2.6593904900589977e-05 -0.024894220697230476 0 -3.3415914792796904e-05 -0.024855918305887018 0 -4.8946447252089654e-05 -0.024885571766630688 0 -9.4127862650161524e-06 -0.024818627478832522 0 -3.6232454831865817e-06 -0.024880890472859636 0 -3.3415914792796904e-05 -0.024855918305887018 0 -9.4127862650161524e-06 -0.024818627478832522 0 -3.6232454831865817e-06 -0.024880890472859636 0 1.2243748348282657e-06 -0.024846368336860561 0 6.6902944921437797e-06 -0.024896293693421515 0 2.7632241133414273e-06 -0.024921422742378092 0 -3.6232454831865817e-06 -0.024880890472859636 0 6.6902944921437797e-06 -0.024896293693421515 0 -3.6232454831865817e-06 -0.024880890472859636 0 1.2243748348282657e-06 -0.024846368336860561 0 5.8965411744322365e-06 -0.024872246679052374 0 6.6902944921437797e-06 -0.024896293693421515 0 1.2243748348282657e-06 -0.024846368336860561 0 5.8965411744322365e-06 -0.024872246679052374 0 1.2243748348282657e-06 -0.024846368336860561 0 2.095227122173642e-06 -0.024831852969090264 0 1.2243748348282657e-06 -0.024846368336860561 0 -8.148310186688752e-06 -0.024792947714422239 0 2.095227122173642e-06 -0.024831852969090264 0 -9.4127862650161524e-06 -0.024818627478832522 0 1.2243748348282657e-06 -0.024846368336860561 0 -8.148310186688752e-06 -0.024792947714422239 0 -9.4127862650161524e-06 -0.024818627478832522 0 -8.148310186688752e-06 -0.024792947714422239 0 -9.8681555397219944e-06 -0.024739669071524188 0 -8.148310186688752e-06 -0.024792947714422239 0 -2.5547906546355803e-05 -0.024736442674495408 0 -9.8681555397219944e-06 -0.024739669071524188 0 -8.148310186688752e-06 -0.024792947714422239 0 -2.5547906546355803e-05 -0.024736442674495408 0 2.095227122173642e-06 -0.024831852969090264 0 7.4206844633409717e-07 -0.024852313014876108 0 -2.5547906546355803e-05 -0.024736442674495408 0 2.095227122173642e-06 -0.024831852969090264 0 5.3850247442793361e-05 -0.02476364760868301 0 0.00043063663024599003 -0.024436620535328975 0 -3.1235117827221892e-06 -0.024559851657053898 0 0.00043063663024599003 -0.024436620535328975 0 -3.1235117827221892e-06 -0.024559851657053898 0 0.0004008840080605274 -0.024101576306570654 0 0.00043063663024599003 -0.024436620535328975 0 0.0004008840080605274 -0.024101576306570654 0 0.00066666525536309773 -0.024101570820219478 0 5.3850247442793361e-05 -0.02476364760868301 0 -2.5547906546355803e-05 -0.024736442674495408 0 -3.1235117827221892e-06 -0.024559851657053898 0 -2.5547906546355803e-05 -0.024736442674495408 0 -3.1235117827221892e-06 -0.024559851657053898 0 -9.8681555397219944e-06 -0.024739669071524188 0 -3.1235117827221892e-06 -0.024559851657053898 0 -9.8681555397219944e-06 -0.024739669071524188 0 -6.1627215482518518e-05 -0.024765481855132703 0 -9.4127862650161524e-06 -0.024818627478832522 0 -9.8681555397219944e-06 -0.024739669071524188 0 -5.1481027580988157e-05 -0.024819197351798494 0 -9.8681555397219944e-06 -0.024739669071524188 0 -6.1627215482518518e-05 -0.024765481855132703 0 -5.1481027580988157e-05 -0.024819197351798494 0 -3.1235117827221892e-06 -0.024559851657053898 0 -6.1627215482518518e-05 -0.024765481855132703 0 -0.00014916128510988655 -0.024824253953671837 0 0.0004008840080605274 -0.024101576306570654 0 0.00016383743232676649 -0.023495633485332623 0 0.00064313707434792333 -0.023828529227985614 0 -3.1235117827221892e-06 -0.024559851657053898 0 0.0004008840080605274 -0.024101576306570654 0 0.00016383743232676649 -0.023495633485332623 0 0.00053951816233670474 -0.02437332910961126 0 0.00085914283250871097 -0.024039928470615642 0 -6.1627215482518518e-05 -0.024765481855132703 0 -0.00012122426195876982 -0.024817765830778351 0 -0.00014916128510988655 -0.024824253953671837 0 -6.1627215482518518e-05 -0.024765481855132703 0 -0.00012122426195876982 -0.024817765830778351 0 -7.9465861942009763e-05 -0.024809385388578114 0 -0.00012142643009372417 -0.024820000845181642 0 -9.6330587014559934e-05 -0.02484502477257642 0 -0.00012193568133044844 -0.024887194208866283 0 0.00085914283250871097 -0.024039928470615642 0 0.0012095916011497546 -0.023759258064943334 0 0.0008473361669261557 -0.024044066073744506 0 0.00085914283250871097 -0.024039928470615642 0 -0.00012122426195876982 -0.024817765830778351 0 -9.6330587014559934e-05 -0.02484502477257642 0 -7.9465861942009763e-05 -0.024809385388578114 0 -0.00012122426195876982 -0.024817765830778351 0 -0.00012142643009372417 -0.024820000845181642 0 -9.6330587014559934e-05 -0.02484502477257642 0 -9.4127862650161524e-06 -0.024818627478832522 0 -5.1481027580988157e-05 -0.024819197351798494 0 -3.3415914792796904e-05 -0.024855918305887018 0 -9.6330587014559934e-05 -0.02484502477257642 0 -5.1481027580988157e-05 -0.024819197351798494 0 -7.9465861942009763e-05 -0.024809385388578114 0 -6.1627215482518518e-05 -0.024765481855132703 0 -5.1481027580988157e-05 -0.024819197351798494 0 -7.9465861942009763e-05 -0.024809385388578114 0 -9.6330587014559934e-05 -0.02484502477257642 0 -5.1481027580988157e-05 -0.024819197351798494 0 -6.1741894239327068e-05 -0.024859346290004421 0 -9.6330587014559934e-05 -0.02484502477257642 0 -6.1741894239327068e-05 -0.024859346290004421 0 -8.3788079920512135e-05 -0.024879107294620027 0 -6.1741894239327068e-05 -0.024859346290004421 0 -3.3415914792796904e-05 -0.024855918305887018 0 -4.8946447252089654e-05 -0.024885571766630688 0 -5.1481027580988157e-05 -0.024819197351798494 0 -6.1741894239327068e-05 -0.024859346290004421 0 -3.3415914792796904e-05 -0.024855918305887018 0 -4.8946447252089654e-05 -0.024885571766630688 0 -8.401093310593081e-05 -0.024913816880926223 0 -4.2412515061069919e-05 -0.024917492275016939 0 -6.1741894239327068e-05 -0.024859346290004421 0 -4.8946447252089654e-05 -0.024885571766630688 0 -8.3788079920512135e-05 -0.024879107294620027 0 -4.8946447252089654e-05 -0.024885571766630688 0 -8.3788079920512135e-05 -0.024879107294620027 0 -8.401093310593081e-05 -0.024913816880926223 0 -8.3788079920512135e-05 -0.024879107294620027 0 -8.401093310593081e-05 -0.024913816880926223 0 -0.00012193568133044844 -0.024887194208866283 0 -9.6330587014559934e-05 -0.02484502477257642 0 -8.3788079920512135e-05 -0.024879107294620027 0 -0.00012193568133044844 -0.024887194208866283 0 -8.401093310593081e-05 -0.024913816880926223 0 -0.00010813556477244445 -0.024921922488995638 0 -0.00012193568133044844 -0.024887194208866283 0 -8.401093310593081e-05 -0.024913816880926223 0 -0.00010813556477244445 -0.024921922488995638 0 -9.3172062045095673e-05 -0.02495249316338604 0 -8.401093310593081e-05 -0.024913816880926223 0 -9.3172062045095673e-05 -0.02495249316338604 0 -6.1796616329033371e-05 -0.024940209261020866 0 0.0023201501585803173 -0.020973086603456814 0 0.0017347056338037393 -0.020724676532248503 0 0.0025882356497795504 -0.020447016126363592 0 0.0023201501585803173 -0.020973086603456814 0 0.0025882356497795504 -0.020447016126363592 0 0.0027302416602848238 -0.020809974936624988 0 0.0013287786385436065 -0.022769252844763267 0 0.00080796579387147236 -0.022875269632795805 0 -9.3172062045095673e-05 -0.02495249316338604 0 -5.0747814833788361e-05 -0.024967854707339691 0 -6.1796616329033371e-05 -0.024940209261020866 0 -5.0747814833788361e-05 -0.024967854707339691 0 -6.1796616329033371e-05 -0.024940209261020866 0 -3.4320897557724979e-05 -0.024940848583718811 0 -8.401093310593081e-05 -0.024913816880926223 0 -6.1796616329033371e-05 -0.024940209261020866 0 -4.2412515061069919e-05 -0.024917492275016939 0 -6.1796616329033371e-05 -0.024940209261020866 0 -4.2412515061069919e-05 -0.024917492275016939 0 -3.4320897557724979e-05 -0.024940848583718811 0 -4.2412515061069919e-05 -0.024917492275016939 0 -3.4320897557724979e-05 -0.024940848583718811 0 -1.1348976063698206e-05 -0.024925924922564534 0 -3.4320897557724979e-05 -0.024940848583718811 0 -1.1348976063698206e-05 -0.024925924922564534 0 -1.0757993208866602e-05 -0.024951779502134935 0 3.8548652743959788e-06 -0.024958165801211352 0 -1.1348976063698206e-05 -0.024925924922564534 0 -1.0757993208866602e-05 -0.024951779502134935 0 0.00080796579387147236 -0.022875269632795805 0 -2.5057802233621815e-05 -0.023944064056915335 0 -5.0747814833788361e-05 -0.024967854707339691 0 -3.4320897557724979e-05 -0.024940848583718811 0 -1.0757993208866602e-05 -0.024951779502134935 0 -2.4462332886539355e-05 -0.024959199651798318 0 -1.3295674578218716e-05 -0.024960824748806083 0 -2.0757335582517264e-05 -0.024963250504367686 0 0.00027326479505013213 -0.022814175078268127 0 0.0001961109750220862 -0.02364672370117632 0 -2.2732300428137793e-05 -0.022353222794932265 0 -6.7788522087655059e-05 -0.02224920026458457 0 4.4535946697549549e-05 -0.022265259140800697 0 -0.0002410245803462264 -0.023474552919731086 0 -4.7948465185126539e-05 -0.023562104441589436 0 -0.00016625581484888485 -0.023652610331893868 0 0.00027326479505013213 -0.022814175078268127 0 -0.00035158231501475627 -0.02298732966845644 0 -1.3295674578218716e-05 -0.024960824748806083 0 -2.0757335582517264e-05 -0.024963250504367686 0 -9.5659238611714914e-06 -0.024974923764649937 0 -5.6745363826175723e-08 -0.024974041882490434 0 -1.3295674578218716e-05 -0.024960824748806083 0 -9.5659238611714914e-06 -0.024974923764649937 0 7.0398890489092291e-06 -0.023919584354030781 0 -0.00035158231501475627 -0.02298732966845644 0 8.6605771313151791e-05 -0.023694822910392859 0 -4.7948465185126539e-05 -0.023562104441589436 0 -0.00016625581484888485 -0.023652610331893868 0 -0.00035158231501475627 -0.02298732966845644 0 -0.00066992634978897529 -0.022338549000032307 0 -0.0018152938660897565 -0.021379675065959568 0 -0.0021570796101553318 -0.021641468713496183 0 -0.0018512736212750916 -0.021656105299588276 0 -0.0013113457919149126 -0.021372180284813257 0 -0.0018152938660897565 -0.021379675065959568 0 -0.0018512736212750916 -0.021656105299588276 0 -0.00066992634978897529 -0.022338549000032307 0 -0.00054821586095642118 -0.02194156516751505 0 -0.0018152938660897565 -0.021379675065959568 0 -0.0022182933204028766 -0.02146840028301631 0 -0.0021570796101553318 -0.021641468713496183 0 0.0017170544677454654 -0.020726311116959727 0 0.0023238976761106424 -0.020447933249165814 0 0.0025882356497795504 -0.020447016126363592 0 4.4535946697549549e-05 -0.022265259140800697 0 0.00015806790133975491 -0.022282067598948418 0 0.00012473543781706115 -0.022325986303227741 0 0.00080796579387147236 -0.022875269632795805 0 0.0020825103701546158 -0.021968487555573565 0 0.0017170544677454654 -0.020726311116959727 0 0.0014388883385341115 -0.020611758077163998 0 0.0023238976761106424 -0.020447933249165814 0 0.00027326479505013213 -0.022814175078268127 0 0.00098531333901995602 -0.021942692709214593 0 -2.2732300428137793e-05 -0.022353222794932265 0 4.4535946697549549e-05 -0.022265259140800697 0 0.00012473543781706115 -0.022325986303227741 0 0.00080796579387147236 -0.022875269632795805 0 0.00027326479505013213 -0.022814175078268127 0 0.00038833617235480391 -0.021666795276868246 0 0.00082849023612470971 -0.021573205006491309 0 0.0031848402636565271 -0.020313573985524015 0 0.0033649782765676406 -0.020606187787678917 0 0.0031106269799708996 -0.020766168149378116 0 0.00035359797544708805 -0.021567546170134424 0 0.00040731223660544976 -0.021558847371437151 0 0.00045499657832535076 -0.021585044684204514 0 0.0031848402636565271 -0.020313573985524015 0 0.0033649782765676406 -0.020606187787678917 0 0.0036007609396713539 -0.020416772922202196 0 0.00038833617235480391 -0.021666795276868246 0 0.00018268761272798923 -0.021532027995901905 0 0.00018268761272798923 -0.021532027995901905 0 9.0030012046238007e-05 -0.021499511588601198 0 -0.0024718369633707025 -0.021575158995715271 0 -0.002565174459330054 -0.021615610243396404 0 -0.0025113200143056752 -0.021642920652628139 0 0.0031848402636565271 -0.020313573985524015 0 0.0029058417040724537 -0.020581869548598513 0 0.0031106269799708996 -0.020766168149378116 0 -0.00054821586095642118 -0.02194156516751505 0 0.00038833617235480391 -0.021666795276868246 0 0.00015806790133975491 -0.022282067598948418 0 0.00012473543781706115 -0.022325986303227741 0 0.0002725564944806819 -0.022300304236224339 0 0.0031848402636565271 -0.020313573985524015 0 0.0029058417040724537 -0.020581869548598513 0 0.0025882356497795504 -0.020447016126363592 0 0.00098531333901995602 -0.021942692709214593 0 0.00038833617235480391 -0.021666795276868246 0 0.0023238976761106424 -0.020447933249165814 0 0.0031848402636565271 -0.020313573985524015 0 0.0025882356497795504 -0.020447016126363592 0 0.0029058417040724537 -0.020581869548598513 0 0.0025882356497795504 -0.020447016126363592 0 0.0027302416602848238 -0.020809974936624988 0 -0.0021570796101553318 -0.021641468713496183 0 -0.0024020969509477631 -0.021647703811132086 0 -0.0023991529107313808 -0.0218111732746595 0 -0.0022182933204028766 -0.02146840028301631 0 -0.0024718369633707025 -0.021575158995715271 0 -0.0024020969509477631 -0.021647703811132086 0 -0.0022182933204028766 -0.02146840028301631 0 -0.0021570796101553318 -0.021641468713496183 0 -0.0024020969509477631 -0.021647703811132086 0 -0.0024020969509477631 -0.021647703811132086 0 -0.0025064208588186252 -0.021747135784123416 0 -0.0023991529107313808 -0.0218111732746595 0 -0.0024718369633707025 -0.021575158995715271 0 -0.0024020969509477631 -0.021647703811132086 0 -0.0025113200143056752 -0.021642920652628139 0 -0.0024020969509477631 -0.021647703811132086 0 -0.0025064208588186252 -0.021747135784123416 0 -0.0025113200143056752 -0.021642920652628139 0 -0.0025364421114097715 -0.021671699001508213 0 -0.0025113200143056752 -0.021642920652628139 0 -0.0025428851680963987 -0.021727233602813475 0 -0.0025064208588186252 -0.021747135784123416 0 -0.0025113200143056752 -0.021642920652628139 0 -0.0025428851680963987 -0.021727233602813475 0 -0.0025064208588186252 -0.021747135784123416 0 -0.0025428851680963987 -0.021727233602813475 0 -0.0025685326646432763 -0.0218037887857493 0 -0.0025364421114097715 -0.021671699001508213 0 -0.0025646534884089535 -0.021771005223551104 0 -0.002573598159803426 -0.021810763816702061 0 0.00018268761272798923 -0.021532027995901905 0 -0.00046410614538794229 -0.021610966544041772 0 -0.0025428851680963987 -0.021727233602813475 0 -0.0025646534884089535 -0.021771005223551104 0 -0.0025685326646432763 -0.0218037887857493 0 -0.0025646534884089535 -0.021771005223551104 0 -0.0025684009048811706 -0.021821332653824868 0 -0.0025685326646432763 -0.0218037887857493 0 -0.0025646534884089535 -0.021771005223551104 0 -0.0025684009048811706 -0.021821332653824868 0 -0.002573598159803426 -0.021810763816702061 0 -0.0025364421114097715 -0.021671699001508213 0 -0.0025428851680963987 -0.021727233602813475 0 -0.0025646534884089535 -0.021771005223551104 0 -0.00046410614538794229 -0.021610966544041772 0 -0.00039067672181403569 -0.021642236529581898 0 0.00061362375994327442 -0.021117565146250395 0 0.00059688654850347488 -0.021114559519263922 0 0.00056920254086956083 -0.021129435315829267 0 -0.0025113756022752888 -0.021838412073799336 0 -0.002573598159803426 -0.021810763816702061 0 -0.0024636133487961108 -0.021875835646788196 0 -0.0025113756022752888 -0.021838412073799336 0 -0.0025684009048811706 -0.021821332653824868 0 -0.0025335942670646691 -0.021842622189845479 0 -0.0025113756022752888 -0.021838412073799336 0 -0.0025684009048811706 -0.021821332653824868 0 -0.002573598159803426 -0.021810763816702061 0 0.00082849023612470971 -0.021573205006491309 0 0.0018439705131798199 -0.021280857589859821 0 0.0006260160902501618 -0.021107485954122322 0 0.00061462738025452673 -0.021106740008255267 0 0.00059627319415141134 -0.021095508255426481 0 0.00060314125656057765 -0.0211066470896016 0 0.00061462738025452673 -0.021106740008255267 0 0.00059627319415141134 -0.021095508255426481 0 0.00059688654850347488 -0.021114559519263922 0 0.00060314125656057765 -0.0211066470896016 0 0.00059729994302820894 -0.021103824970577698 0 0.00059688654850347488 -0.021114559519263922 0 0.00059729994302820894 -0.021103824970577698 0 0.00059188380247406395 -0.021099855475132042 0 0.00061362375994327442 -0.021117565146250395 0 0.00059688654850347488 -0.021114559519263922 0 0.00060314125656057765 -0.0211066470896016 0 0.00061362375994327442 -0.021117565146250395 0 0.00060314125656057765 -0.0211066470896016 0 0.00061462738025452673 -0.021106740008255267 0 0.00060314125656057765 -0.0211066470896016 0 0.00059729994302820894 -0.021103824970577698 0 0.00059627319415141134 -0.021095508255426481 0 0.0033649782765676406 -0.020606187787678917 0 0.0036007609396713539 -0.020416772922202196 0 0.0035672852399455256 -0.020856842677483056 0 0.00063059443776450526 -0.021111311977803231 0 0.00061362375994327442 -0.021117565146250395 0 0.00062433336306219275 -0.021108598967244631 0 0.00018268761272798923 -0.021532027995901905 0 0.00082849023612470971 -0.021573205006491309 0 0.00061362375994327442 -0.021117565146250395 0 0.00062433336306219275 -0.021108598967244631 0 0.00061462738025452673 -0.021106740008255267 0 0.00082849023612470971 -0.021573205006491309 0 0.00079110518755268124 -0.021550576530106502 0 0.0036007609396713539 -0.020416772922202196 0 0.0035672852399455256 -0.020856842677483056 0 0.0042133702822369588 -0.020788086134578696 0 0.0035672852399455256 -0.020856842677483056 0 0.0042133702822369588 -0.020788086134578696 0 0.0039106968467113598 -0.021111096288643747 0 0.0039106968467113598 -0.021111096288643747 0 0.0039518309138449961 -0.021424781654073313 0 0.0043048293794118626 -0.021227637370060018 0 0.0042133702822369588 -0.020788086134578696 0 0.0039106968467113598 -0.021111096288643747 0 0.0043048293794118626 -0.021227637370060018 0 0.0026870554107526904 -0.022502985038804071 0 0.0032048861164579636 -0.022536799067750555 0 0.0035672852399455256 -0.020856842677483056 0 0.0039106968467113598 -0.021111096288643747 0 0.0034809889135845014 -0.021271325794671777 0 0.0039106968467113598 -0.021111096288643747 0 0.0034809889135845014 -0.021271325794671777 0 0.0039518309138449961 -0.021424781654073313 0 0.0034809889135845014 -0.021271325794671777 0 0.0032941518442634685 -0.020966241649377437 0 0.0029888638511981524 -0.021087523433069948 0 0.0026870554107526904 -0.022502985038804071 0 0.0020739405478023653 -0.022660173440812535 0 0.0023433849874522584 -0.022793795035567655 0 0.0018850463228480289 -0.022595027409925944 0 0.002042433701873291 -0.023003226851582213 0 0.0035672852399455256 -0.020856842677483056 0 0.0034809889135845014 -0.021271325794671777 0 0.0032941518442634685 -0.020966241649377437 0 0.0032941518442634685 -0.020966241649377437 0 0.0031106269799708996 -0.020766168149378116 0 0.0029888638511981524 -0.021087523433069948 0 0.0033649782765676406 -0.020606187787678917 0 0.0032941518442634685 -0.020966241649377437 0 0.0031106269799708996 -0.020766168149378116 0 0.0033649782765676406 -0.020606187787678917 0 0.0035672852399455256 -0.020856842677483056 0 0.0032941518442634685 -0.020966241649377437 0 0.0023201501585803173 -0.020973086603456814 0 0.0027302416602848238 -0.020809974936624988 0 0.0029137446452424569 -0.02123185082003038 0 0.0013287786385436065 -0.022769252844763267 0 0.0020739405478023653 -0.022660173440812535 0 0.0029058417040724537 -0.020581869548598513 0 0.0031106269799708996 -0.020766168149378116 0 0.0027302416602848238 -0.020809974936624988 0 0.0031106269799708996 -0.020766168149378116 0 0.0027302416602848238 -0.020809974936624988 0 0.0029137446452424569 -0.02123185082003038 0 0.0023253472224411429 -0.022120498436578172 0 0.0020739405478023653 -0.022660173440812535 0 0.0018850463228480289 -0.022595027409925944 0 0.0016701894492630316 -0.023091182116559552 0 0.002042433701873291 -0.023003226851582213 0 -0.00010813556477244445 -0.024921922488995638 0 -9.3172062045095673e-05 -0.02495249316338604 0 -0.0001333048373412595 -0.024932440155440293 0 -0.00010813556477244445 -0.024921922488995638 0 -0.0001333048373412595 -0.024932440155440293 0 -0.00012193568133044844 -0.024887194208866283 0 0.0020739405478023653 -0.022660173440812535 0 0.0012095916011497546 -0.023759258064943334 0 0.0016701894492630316 -0.023091182116559552 0 0.002042433701873291 -0.023003226851582213 0 0.0020582288333830731 -0.023456114079184173 0 0.0023433849874522584 -0.022793795035567655 0 0.002042433701873291 -0.023003226851582213 0 0.0023121608612743172 -0.023171957013545883 0 0.002042433701873291 -0.023003226851582213 0 0.0023121608612743172 -0.023171957013545883 0 0.0020582288333830731 -0.023456114079184173 0 0.0012366512180937816 -0.023078599359014511 0 0.00091250194835423165 -0.023521159984275161 0 0.0023354550521184751 -0.023531344806392851 0 0.0023121608612743172 -0.023171957013545883 0 0.0020582288333830731 -0.023456114079184173 0 0.0026607783994791268 -0.023323324817769383 0 0.00016383743232676649 -0.023495633485332623 0 0.0012366512180937816 -0.023078599359014511 0 0.00091250194835423165 -0.023521159984275161 0 0.0014545425875623081 -0.023588958224773814 0 0.0016701894492630316 -0.023091182116559552 0 0.0020582288333830731 -0.023456114079184173 0 0.00085914283250871097 -0.024039928470615642 0 0.0017708820440745744 -0.02346323838320551 0 0.00016383743232676649 -0.023495633485332623 0 0.00091250194835423165 -0.023521159984275161 0 0.00064313707434792333 -0.023828529227985614 0 0.0004008840080605274 -0.024101576306570654 0 0.00064313707434792333 -0.023828529227985614 0 0.00066666525536309773 -0.024101570820219478 0 0.00064313707434792333 -0.023828529227985614 0 0.00087371870637548393 -0.023942805043629094 0 0.00066666525536309773 -0.024101570820219478 0 0.00091250194835423165 -0.023521159984275161 0 0.00087371870637548393 -0.023942805043629094 0 0.0010820167418075298 -0.023934700304092334 0 0.00091250194835423165 -0.023521159984275161 0 0.00064313707434792333 -0.023828529227985614 0 0.00087371870637548393 -0.023942805043629094 0 0.0013574546950940181 -0.023350703949621202 0 0.0019428592988659931 -0.023363176431315823 0 0.00091250194835423165 -0.023521159984275161 0 0.0010820167418075298 -0.023934700304092334 0 0.0012692668177404249 -0.023916675102564344 0 0.00087371870637548393 -0.023942805043629094 0 0.0010820167418075298 -0.023934700304092334 0 0.0010326431658086404 -0.024098853602747793 0 0.0010326431658086404 -0.024098853602747793 0 0.0010505413898837437 -0.024227538740790366 0 0.00089562997631257224 -0.024244118565971133 0 0.001150545224514916 -0.024168343727988414 0 0.0011546627029881803 -0.024115856092968371 0 0.0010505413898837437 -0.024227538740790366 0 0.0010326431658086404 -0.024098853602747793 0 0.0011546627029881803 -0.024115856092968371 0 0.0010505413898837437 -0.024227538740790366 0 0.0010820167418075298 -0.023934700304092334 0 0.0010326431658086404 -0.024098853602747793 0 0.0011546627029881803 -0.024115856092968371 0 0.00088938293448698549 -0.024368078644877438 0 0.0010505413898837437 -0.024227538740790366 0 0.00089562997631257224 -0.024244118565971133 0 0.00039996579203640126 -0.024804783974960047 0 0.00043063663024599003 -0.024436620535328975 0 0.00089562997631257224 -0.024244118565971133 0 0.00043063663024599003 -0.024436620535328975 0 0.00089562997631257224 -0.024244118565971133 0 0.00066666525536309773 -0.024101570820219478 0 0.00087371870637548393 -0.023942805043629094 0 0.00089562997631257224 -0.024244118565971133 0 0.00066666525536309773 -0.024101570820219478 0 0.00087371870637548393 -0.023942805043629094 0 0.0010326431658086404 -0.024098853602747793 0 0.00089562997631257224 -0.024244118565971133 0 0.0014423941948563603 -0.02422049393607071 0 0.0013024267356489905 -0.024056559717694378 0 0.0014455962244185176 -0.023971576594562564 0 0.0011364064674607016 -0.024180043270398983 0 0.0011546627029881803 -0.024115856092968371 0 0.0013024267356489905 -0.024056559717694378 0 0.0011546627029881803 -0.024115856092968371 0 0.0013024267356489905 -0.024056559717694378 0 0.0012692668177404249 -0.023916675102564344 0 0.0010820167418075298 -0.023934700304092334 0 0.0011546627029881803 -0.024115856092968371 0 0.0012692668177404249 -0.023916675102564344 0 0.0019428592988659931 -0.023363176431315823 0 0.003327836873553416 -0.02324148399228252 0 0.0023354550521184751 -0.023531344806392851 0 0.0034049917312890805 -0.02292975062653076 0 0.0039471681129190873 -0.023723357192252929 0 0.0013024267356489905 -0.024056559717694378 0 0.0012692668177404249 -0.023916675102564344 0 0.0014455962244185176 -0.023971576594562564 0 0.0034049917312890805 -0.02292975062653076 0 0.0025831619315565815 -0.02247623854182796 0 0.0040386964405472641 -0.021972131065422243 0 0.0023354550521184751 -0.023531344806392851 0 0.0034049917312890805 -0.02292975062653076 0 0.0025831619315565815 -0.02247623854182796 0 0.0012366512180937816 -0.023078599359014511 0 0.0023354550521184751 -0.023531344806392851 0 0.0025831619315565815 -0.02247623854182796 0 0.0017708820440745744 -0.02346323838320551 0 0.002705328665532337 -0.023030261106296839 0 0.0023433849874522584 -0.022793795035567655 0 0.0023121608612743172 -0.023171957013545883 0 0.0028033059986060098 -0.022992054265299891 0 0.0023121608612743172 -0.023171957013545883 0 0.0026607783994791268 -0.023323324817769383 0 0.0028033059986060098 -0.022992054265299891 0 0.002705328665532337 -0.023030261106296839 0 0.0036229234371149086 -0.022689188418043529 0 0.0026607783994791268 -0.023323324817769383 0 0.0028033059986060098 -0.022992054265299891 0 0.0032638657530321895 -0.023190491631895377 0 0.0032048861164579636 -0.022536799067750555 0 0.0036229234371149086 -0.022689188418043529 0 0.0039518309138449961 -0.021424781654073313 0 0.0043727862375153451 -0.02162934946393693 0 0.0043048293794118626 -0.021227637370060018 0 0.0044439359167907852 -0.021382753724833465 0 0.0043727862375153451 -0.02162934946393693 0 0.0043048293794118626 -0.021227637370060018 0 0.0044078269254965649 -0.022081684747411887 0 0.003933520052821428 -0.021876091878874557 0 0.004594261764827039 -0.021724922238097164 0 0.0044439359167907852 -0.021382753724833465 0 0.0043727862375153451 -0.02162934946393693 0 0.004594261764827039 -0.021724922238097164 0 0.0036229234371149086 -0.022689188418043529 0 0.0037601205209854397 -0.022631866421335679 0 0.0036564031537985515 -0.02268453557934259 0 0.0036229234371149086 -0.022689188418043529 0 0.004594261764827039 -0.021724922238097164 0 0.0052221456158936998 -0.022729417548095578 0 0.0046877144677496697 -0.021117103296066878 0 0.0045772356651749843 -0.019027866080007248 0 0.0041961833816602625 -0.019980746509324954 0 0.0046877144677496697 -0.021117103296066878 0 0.0043403104230893379 -0.020699788616306128 0 0.0044786549327718696 -0.020867991459257551 0 0.0041961833816602625 -0.019980746509324954 0 0.0040136599525240034 -0.020546176066457256 0 0.0046877144677496697 -0.021117103296066878 0 0.0044439359167907852 -0.021382753724833465 0 0.004594261764827039 -0.021724922238097164 0 0.0046877144677496697 -0.021117103296066878 0 0.0044078269254965649 -0.022081684747411887 0 0.0045077242849237602 -0.022772560329217022 0 0.0052221456158936998 -0.022729417548095578 0 0.0044078269254965649 -0.022081684747411887 0 0.004594261764827039 -0.021724922238097164 0 0.0052221456158936998 -0.022729417548095578 0 0.0045077242849237602 -0.022772560329217022 0 0.0052221456158936998 -0.022729417548095578 0 0.0044851677786970478 -0.023220884560827267 0 0.0034049917312890805 -0.02292975062653076 0 0.0040386964405472641 -0.021972131065422243 0 0.004046398072745783 -0.022592643419654172 0 0.0044078269254965649 -0.022081684747411887 0 0.0040386964405472641 -0.021972131065422243 0 0.004046398072745783 -0.022592643419654172 0 0.0044078269254965649 -0.022081684747411887 0 0.0045077242849237602 -0.022772560329217022 0 0.004046398072745783 -0.022592643419654172 0 0.0045077242849237602 -0.022772560329217022 0 0.004046398072745783 -0.022592643419654172 0 0.003988227655015949 -0.023216153371542012 0 0.0034049917312890805 -0.02292975062653076 0 0.004046398072745783 -0.022592643419654172 0 0.003988227655015949 -0.023216153371542012 0 0.0034049917312890805 -0.02292975062653076 0 0.003988227655015949 -0.023216153371542012 0 0.0039471681129190873 -0.023723357192252929 0 0.0033472832810389152 -0.023250696150480341 0 0.003327836873553416 -0.02324148399228252 0 0.0039765758646189047 -0.023631130571671679 0 0.0044851677786970478 -0.023220884560827267 0 0.0047557659443367263 -0.023732698876230255 0 0.003327836873553416 -0.02324148399228252 0 0.0042233056797651011 -0.02345974111252817 0 0.0045077242849237602 -0.022772560329217022 0 0.003988227655015949 -0.023216153371542012 0 0.0044851677786970478 -0.023220884560827267 0 0.003988227655015949 -0.023216153371542012 0 0.0039765758646189047 -0.023631130571671679 0 0.0044851677786970478 -0.023220884560827267 0 0.0052221456158936998 -0.022729417548095578 0 0.0047557659443367263 -0.023732698876230255 0 0.0054518517127135884 -0.023815306722457998 0 0.0052221456158936998 -0.022729417548095578 0 0.0044851677786970478 -0.023220884560827267 0 0.0047557659443367263 -0.023732698876230255 0 0.0050421376926857641 -0.023744923915438008 0 0.0053576018228994552 -0.024012080804380321 0 0.0054518517127135884 -0.023815306722457998 0 0.0042233056797651011 -0.02345974111252817 0 0.0045383990793575902 -0.023533715432047863 0 0.0050421376926857641 -0.023744923915438008 0 0.0051883440908335882 -0.024142342160985465 0 0.0053576018228994552 -0.024012080804380321 0 0.0050421376926857641 -0.023744923915438008 0 0.0051883440908335882 -0.024142342160985465 0 0.0048911471892442351 -0.024098857300687549 0 0.0046345639829854747 -0.023661814271356902 0 0.0050421376926857641 -0.023744923915438008 0 0.0048911471892442351 -0.024098857300687549 0 0.0029020867277035093 -0.021619977733498254 0 0.003327836873553416 -0.02324148399228252 0 0.0045851391700833157 -0.024447348576020114 0 0.0046345639829854747 -0.023661814271356902 0 0.0048911471892442351 -0.024098857300687549 0 0.0015268331395750364 -0.01625524820018933 0 0.0016188280671779025 -0.015521732957917292 0 0.0024705510574926839 -0.017210759171938626 0 0.0016188280671779025 -0.015521732957917292 0 0.0027041009389305653 -0.016493021338160763 0 0.0025392357820921952 -0.017944869575337342 0 0.0017602749999534111 -0.016855956727108039 0 0.0021060493790599692 -0.017858897012895038 0 0.0027041009389305653 -0.016493021338160763 0 0.0029626261840549175 -0.015951904872956325 0 0.0032070254143477103 -0.016568767222999194 0 0.0016188280671779025 -0.015521732957917292 0 0.0027041009389305653 -0.016493021338160763 0 0.0024739329836818706 -0.015561019393441313 0 0.0027041009389305653 -0.016493021338160763 0 0.0024739329836818706 -0.015561019393441313 0 0.0029626261840549175 -0.015951904872956325 0 0.0027962633232218046 -0.015357085742654224 0 0.0024739329836818706 -0.015561019393441313 0 0.0029626261840549175 -0.015951904872956325 0 0.0027962633232218046 -0.015357085742654224 0 0.0029626261840549175 -0.015951904872956325 0 0.0037263069407483832 -0.016303619922487932 0 0.0054166469999643325 -0.024242438503211332 0 0.0053576018228994552 -0.024012080804380321 0 0.0055592906474124645 -0.023945543450316888 0 0.0054166469999643325 -0.024242438503211332 0 0.0051883440908335882 -0.024142342160985465 0 0.0053576018228994552 -0.024012080804380321 0 0.0053576018228994552 -0.024012080804380321 0 0.0054518517127135884 -0.023815306722457998 0 0.0055592906474124645 -0.023945543450316888 0 0.0037263069407483832 -0.016303619922487932 0 0.0032070254143477103 -0.016568767222999194 0 0.0033569157879485174 -0.01747304778748883 0 0.0029626261840549175 -0.015951904872956325 0 0.0037263069407483832 -0.016303619922487932 0 0.0032070254143477103 -0.016568767222999194 0 0.0045772356651749843 -0.019027866080007248 0 0.0037263069407483832 -0.016303619922487932 0 0.0033569157879485174 -0.01747304778748883 0 0.0027041009389305653 -0.016493021338160763 0 0.0032070254143477103 -0.016568767222999194 0 0.0033569157879485174 -0.01747304778748883 0 0.0052221456158936998 -0.022729417548095578 0 0.0054518517127135884 -0.023815306722457998 0 0.0055592906474124645 -0.023945543450316888 0 0.0043403104230893379 -0.020699788616306128 0 0.0037147741090704017 -0.020060917782803188 0 0.0045772356651749843 -0.019027866080007248 0 0.0033569157879485174 -0.01747304778748883 0 0.0035703861485822433 -0.018486092966505982 0 0.0033569157879485174 -0.01747304778748883 0 0.0025392357820921952 -0.017944869575337342 0 0.0035703861485822433 -0.018486092966505982 0 0.0013787883489647644 -0.016629004395469063 0 0.0015268331395750364 -0.01625524820018933 0 0.0024705510574926839 -0.017210759171938626 0 0.0013787883489647644 -0.016629004395469063 0 0.0024705510574926839 -0.017210759171938626 0 0.0018432816010606889 -0.017178179363675466 0 0.0027041009389305653 -0.016493021338160763 0 0.0033569157879485174 -0.01747304778748883 0 0.0025392357820921952 -0.017944869575337342 0 0.0024705510574926839 -0.017210759171938626 0 0.0018432816010606889 -0.017178179363675466 0 0.0018718187258254006 -0.01781079330705589 0 0.0024705510574926839 -0.017210759171938626 0 0.0018718187258254006 -0.01781079330705589 0 0.0033443448885158069 -0.018873086401582185 0 0.0012633293217759246 -0.01786332392897905 0 0.0021392933757083941 -0.019080380467635091 0 0.0025392357820921952 -0.017944869575337342 0 0.0037350227939044905 -0.019173994683169052 0 0.003753419043665049 -0.020405315416529388 0 0.0021060493790599692 -0.017858897012895038 0 0.0021392933757083941 -0.019080380467635091 0 0.0045772356651749843 -0.019027866080007248 0 0.0035703861485822433 -0.018486092966505982 0 0.0037350227939044905 -0.019173994683169052 0 0.0025392357820921952 -0.017944869575337342 0 0.0035703861485822433 -0.018486092966505982 0 0.0037350227939044905 -0.019173994683169052 0 0.0037350227939044905 -0.019173994683169052 0 0.0041961833816602625 -0.019980746509324954 0 0.003753419043665049 -0.020405315416529388 0 0.0045772356651749843 -0.019027866080007248 0 0.0037350227939044905 -0.019173994683169052 0 0.0041961833816602625 -0.019980746509324954 0 0.0021633565087919395 -0.018079910482028033 0 0.0012599998974256817 -0.018028431254509199 0 0.0021527051712544325 -0.018844028652917375 0 0.003877825369146869 -0.020490466363531155 0 0.0040136599525240034 -0.020546176066457256 0 0.0046510704010009991 -0.021191859586796261 0 0.0041961833816602625 -0.019980746509324954 0 0.003753419043665049 -0.020405315416529388 0 0.0040136599525240034 -0.020546176066457256 0 0.0021392933757083941 -0.019080380467635091 0 0.0021726250489062598 -0.019104974373453539 0 -0.00076162840291047048 -0.019233466442547587 0 -0.00010933594897391492 -0.020135229669271747 0 0.0011285758627142867 -0.017312175663137946 0 0.0021633565087919395 -0.018079910482028033 0 0.0012599998974256817 -0.018028431254509199 0 -0.0027098745011662588 -0.020330763273235825 0 -0.0026322797555639846 -0.020577834966783153 0 -0.0024141688531868436 -0.020750033607606407 0 -0.0027098745011662588 -0.020330763273235825 0 -0.0026322797555639846 -0.020577834966783153 0 -0.0027861946509049398 -0.020568766055451059 0 -0.0026710848399819215 -0.02073916904793727 0 -0.0026518684597641152 -0.020982770246419747 0 -0.0025640288090021885 -0.020723939285215747 0 -0.0027861946509049398 -0.020568766055451059 0 -0.0026710848399819215 -0.02073916904793727 0 -0.0027633697594418526 -0.020770450194692616 0 -0.0026322797555639846 -0.020577834966783153 0 -0.0027861946509049398 -0.020568766055451059 0 -0.0026710848399819215 -0.02073916904793727 0 -0.0026322797555639846 -0.020577834966783153 0 -0.0026710848399819215 -0.02073916904793727 0 -0.0025640288090021885 -0.020723939285215747 0 -0.0026710848399819215 -0.02073916904793727 0 -0.0027633697594418526 -0.020770450194692616 0 -0.0026518684597641152 -0.020982770246419747 0 -0.0029945421427884159 -0.020727307666914618 0 -0.0027633697594418526 -0.020770450194692616 0 -0.0026518684597641152 -0.020982770246419747 0 -0.0019867728505172776 -0.017328172313696846 0 -0.0025104867074782146 -0.019303017077973439 0 -0.0028413974004615431 -0.021379975595381427 0 -0.002477414447557788 -0.02126150050173202 0 -0.0025640288090021885 -0.020723939285215747 0 -0.002477414447557788 -0.02126150050173202 0 -0.0024477955558757864 -0.020842231794746566 0 -0.0021988903826734314 -0.02133373881421774 0 -0.002477414447557788 -0.02126150050173202 0 -0.0023420232735685705 -0.021537629340289955 0 -0.0025042791946586142 -0.021630892458734854 0 -0.0028413974004615431 -0.021379975595381427 0 -0.002477414447557788 -0.02126150050173202 0 -0.0025042791946586142 -0.021630892458734854 0 -0.002477414447557788 -0.02126150050173202 0 -0.0025640288090021885 -0.020723939285215747 0 -0.0024477955558757864 -0.020842231794746566 0 0.0021633565087919395 -0.018079910482028033 0 0.0021527051712544325 -0.018844028652917375 0 0.0027220174054403599 -0.019150655519474136 0 0.0021392933757083941 -0.019080380467635091 0 0.0011937403763959342 -0.020607275825640939 0 -0.00010933594897391492 -0.020135229669271747 0 0.0011937403763959342 -0.020607275825640939 0 -0.00067126989857885743 -0.019989059847859057 0 -0.00010933594897391492 -0.020135229669271747 0 -0.0026322797555639846 -0.020577834966783153 0 -0.0025640288090021885 -0.020723939285215747 0 -0.0024477955558757864 -0.020842231794746566 0 -0.00010933594897391492 -0.020135229669271747 0 0.00047461928030505598 -0.020652796708510935 0 0.00020861829978341268 -0.020458530993580758 0 0.00049054658825404206 -0.020605512943938038 0 0.00059811839950420405 -0.020804055610805717 0 0.0046877144677496697 -0.021117103296066878 0 0.0046510704010009991 -0.021191859586796261 0 0.0043048293794118626 -0.021227637370060018 0 0.0040136599525240034 -0.020546176066457256 0 0.0046877144677496697 -0.021117103296066878 0 0.0046510704010009991 -0.021191859586796261 0 0.0042133702822369588 -0.020788086134578696 0 0.0046510704010009991 -0.021191859586796261 0 0.0043048293794118626 -0.021227637370060018 0 0.0044439359167907852 -0.021382753724833465 0 0.0046877144677496697 -0.021117103296066878 0 0.0043048293794118626 -0.021227637370060018 0 0.00059627319415141134 -0.021095508255426481 0 0.00058534543677592763 -0.02109057660628252 0 0.00058705929295711833 -0.021093846589817621 0 0.0018439705131798199 -0.021280857589859821 0 0.0011937403763959342 -0.020607275825640939 0 0.00059627319415141134 -0.021095508255426481 0 0.00058705929295711833 -0.021093846589817621 0 0.00059188380247406395 -0.021099855475132042 0 0.00047461928030505598 -0.020652796708510935 0 0.00059892782757834729 -0.020864265671611908 0 -0.002477414447557788 -0.02126150050173202 0 -0.0021988903826734314 -0.02133373881421774 0 -0.0023420232735685705 -0.021537629340289955 0 0.0011937403763959342 -0.020607275825640939 0 0.00047461928030505598 -0.020652796708510935 0 -0.0021988903826734314 -0.02133373881421774 0 -0.0023420232735685705 -0.021537629340289955 0 -0.0022348311586213765 -0.021619527235833075 0 0.00047461928030505598 -0.020652796708510935 0 -9.1566181481524047e-05 -0.02109875886361685 0 -0.0023420232735685705 -0.021537629340289955 0 -0.0023832621381725061 -0.021710779115314764 0 -0.0022348311586213765 -0.021619527235833075 0 -0.0023832621381725061 -0.021710779115314764 0 -0.0022348311586213765 -0.021619527235833075 0 -0.0023137947653929158 -0.021732421621911434 0 0.00059729994302820894 -0.021103824970577698 0 0.00059627319415141134 -0.021095508255426481 0 0.00059188380247406395 -0.021099855475132042 0 0.0005109807753486803 -0.021029580070131657 0 0.00056021748494252874 -0.021075706538978393 0 0.00054089789907378074 -0.021085437953138709 0 0.00056021748494252874 -0.021075706538978393 0 0.00054089789907378074 -0.021085437953138709 0 0.00056742662761797777 -0.021101446122194719 0 -0.0022348311586213765 -0.021619527235833075 0 -0.0022700133261660152 -0.021805927805599951 0 -0.0023137947653929158 -0.021732421621911434 0 -9.1566181481524047e-05 -0.02109875886361685 0 -0.00039067672181403569 -0.021642236529581898 0 0.00059688654850347488 -0.021114559519263922 0 0.00056021748494252874 -0.021075706538978393 0 0.00056742662761797777 -0.021101446122194719 0 0.00054089789907378074 -0.021085437953138709 0 0.00056742662761797777 -0.021101446122194719 0 0.00056920254086956083 -0.021129435315829267 0 0.00062937481824858102 -0.020922367707577313 0 0.00059892782757834729 -0.020864265671611908 0 0.00059688654850347488 -0.021114559519263922 0 0.00056742662761797777 -0.021101446122194719 0 0.00056920254086956083 -0.021129435315829267 0 -0.0024636133487961108 -0.021875835646788196 0 -0.0023454920698204847 -0.021822620176671734 0 -0.0024372653510337395 -0.021843103923601857 0 -0.0022700133261660152 -0.021805927805599951 0 -0.0023137947653929158 -0.021732421621911434 0 -0.0023454920698204847 -0.021822620176671734 0 -0.0023137947653929158 -0.021732421621911434 0 -0.0023454920698204847 -0.021822620176671734 0 -0.002375741134451703 -0.021790974789232434 0 -0.00039067672181403569 -0.021642236529581898 0 -0.00050322807509155579 -0.021660164222240954 0 -0.0023454920698204847 -0.021822620176671734 0 -0.0023940347113931572 -0.021829230174569059 0 -0.002375741134451703 -0.021790974789232434 0 -0.0023940347113931572 -0.021829230174569059 0 -0.0024116559780620779 -0.021829409740289546 0 -0.002441214195337518 -0.021834288838720971 0 -0.0023454920698204847 -0.021822620176671734 0 -0.0023940347113931572 -0.021829230174569059 0 -0.0024116559780620779 -0.021829409740289546 0 -0.0023454920698204847 -0.021822620176671734 0 -0.0024116559780620779 -0.021829409740289546 0 -0.0024372653510337395 -0.021843103923601857 0 -0.0024116559780620779 -0.021829409740289546 0 -0.0024372653510337395 -0.021843103923601857 0 -0.0024600236972686985 -0.021838251963431803 0 -0.0024636133487961108 -0.021875835646788196 0 -0.0024372653510337395 -0.021843103923601857 0 -0.0024707622775037587 -0.021847026567612397 0 -0.0024372653510337395 -0.021843103923601857 0 -0.0024600236972686985 -0.021838251963431803 0 -0.0024707622775037587 -0.021847026567612397 0 -0.002441214195337518 -0.021834288838720971 0 -0.0024600236972686985 -0.021838251963431803 0 -0.0024755029848113749 -0.021838355102506906 0 -0.0024116559780620779 -0.021829409740289546 0 -0.002441214195337518 -0.021834288838720971 0 -0.0024600236972686985 -0.021838251963431803 0 -0.0025113756022752888 -0.021838412073799336 0 -0.0024755029848113749 -0.021838355102506906 0 -0.0024898835763818672 -0.021842008358605017 0 -0.0025113756022752888 -0.021838412073799336 0 -0.0024600236972686985 -0.021838251963431803 0 -0.0024755029848113749 -0.021838355102506906 0 -0.0025113756022752888 -0.021838412073799336 0 -0.0024636133487961108 -0.021875835646788196 0 -0.0024707622775037587 -0.021847026567612397 0 -0.0025113756022752888 -0.021838412073799336 0 -0.0024600236972686985 -0.021838251963431803 0 -0.0024707622775037587 -0.021847026567612397 0 -0.0023832621381725061 -0.021710779115314764 0 -0.002375741134451703 -0.021790974789232434 0 -0.0024259259780095906 -0.021799648257682123 0 -0.0023832621381725061 -0.021710779115314764 0 -0.0023137947653929158 -0.021732421621911434 0 -0.002375741134451703 -0.021790974789232434 0 -0.0023940347113931572 -0.021829230174569059 0 -0.002375741134451703 -0.021790974789232434 0 -0.0024138578202500651 -0.021830463299951898 0 -0.002375741134451703 -0.021790974789232434 0 -0.0024259259780095906 -0.021799648257682123 0 -0.0024138578202500651 -0.021830463299951898 0 -0.0023832621381725061 -0.021710779115314764 0 -0.0024259259780095906 -0.021799648257682123 0 -0.0024695920999055379 -0.02174943889986438 0 -0.0024259259780095906 -0.021799648257682123 0 -0.0024695920999055379 -0.02174943889986438 0 -0.0024551021652740104 -0.021812712139109663 0 -0.0024695920999055379 -0.02174943889986438 0 -0.0025147725080087216 -0.02175424658172008 0 -0.0025042791946586142 -0.021630892458734854 0 -0.0024695920999055379 -0.02174943889986438 0 -0.0025147725080087216 -0.02175424658172008 0 -0.0024551021652740104 -0.021812712139109663 0 -0.0019867728505172776 -0.017328172313696846 0 -0.00065765187057696586 -0.016370611835013368 0 -0.002540809103127793 -0.02159304919088129 0 -0.0025147725080087216 -0.02175424658172008 0 -0.0025042791946586142 -0.021630892458734854 0 -0.0019867728505172776 -0.017328172313696846 0 -0.0016548441446686613 -0.018050950236793761 0 -0.0023420232735685705 -0.021537629340289955 0 -0.0023832621381725061 -0.021710779115314764 0 -0.0025042791946586142 -0.021630892458734854 0 -0.0023832621381725061 -0.021710779115314764 0 -0.0024695920999055379 -0.02174943889986438 0 -0.0025042791946586142 -0.021630892458734854 0 -0.0024148293111158087 -0.0218556240432193 0 -0.0024338104873364223 -0.021859565137370741 0 -0.0024324453060121948 -0.021841747118432123 0 -0.0024148293111158087 -0.0218556240432193 0 -0.0024338104873364223 -0.021859565137370741 0 -0.0024301054429883362 -0.021867320616449405 0 -0.0024148293111158087 -0.0218556240432193 0 -0.0024301054429883362 -0.021867320616449405 0 -0.0023946951805354807 -0.021855651472339421 0 -0.0024098992983225577 -0.021833471218906671 0 -0.0024148293111158087 -0.0218556240432193 0 -0.00234439699555633 -0.021845059823124516 0 -0.0024098992983225577 -0.021833471218906671 0 -0.0025147725080087216 -0.02175424658172008 0 -0.0024551021652740104 -0.021812712139109663 0 -0.0024098992983225577 -0.021833471218906671 0 -0.0024148293111158087 -0.0218556240432193 0 -0.0024551021652740104 -0.021812712139109663 0 -0.0024148293111158087 -0.0218556240432193 0 -0.0024551021652740104 -0.021812712139109663 0 -0.0024324453060121948 -0.021841747118432123 0 -0.0024259259780095906 -0.021799648257682123 0 -0.0024551021652740104 -0.021812712139109663 0 -0.0024324453060121948 -0.021841747118432123 0 -0.0024324453060121948 -0.021841747118432123 0 -0.0024138578202500651 -0.021830463299951898 0 -0.0024349253769387425 -0.021852637990704426 0 -0.0024259259780095906 -0.021799648257682123 0 -0.0024324453060121948 -0.021841747118432123 0 -0.0024138578202500651 -0.021830463299951898 0 -0.0023940347113931572 -0.021829230174569059 0 -0.0024138578202500651 -0.021830463299951898 0 -0.0024266685861805441 -0.021842805597392018 0 -0.0024138578202500651 -0.021830463299951898 0 -0.0024266685861805441 -0.021842805597392018 0 -0.0024349253769387425 -0.021852637990704426 0 -0.0024349253769387425 -0.021852637990704426 0 -0.0024553220703081549 -0.021855739517671793 0 -0.0024626535435863148 -0.021866918106506667 0 -0.0024266685861805441 -0.021842805597392018 0 -0.0024349253769387425 -0.021852637990704426 0 -0.0024553220703081549 -0.021855739517671793 0 -0.0024338104873364223 -0.021859565137370741 0 -0.0024324453060121948 -0.021841747118432123 0 -0.0024349253769387425 -0.021852637990704426 0 -0.002441214195337518 -0.021834288838720971 0 -0.0024755029848113749 -0.021838355102506906 0 -0.0024898835763818672 -0.021842008358605017 0 -0.002441214195337518 -0.021834288838720971 0 -0.0024898835763818672 -0.021842008358605017 0 -0.0024453789185854297 -0.021841852646359135 0 -0.0024898835763818672 -0.021842008358605017 0 -0.0024453789185854297 -0.021841852646359135 0 -0.0024760515501695314 -0.021853042451245867 0 -0.0023940347113931572 -0.021829230174569059 0 -0.002441214195337518 -0.021834288838720971 0 -0.0024453789185854297 -0.021841852646359135 0 -0.0023940347113931572 -0.021829230174569059 0 -0.0024266685861805441 -0.021842805597392018 0 -0.0024453789185854297 -0.021841852646359135 0 -0.0024266685861805441 -0.021842805597392018 0 -0.0024453789185854297 -0.021841852646359135 0 -0.0024553220703081549 -0.021855739517671793 0 -0.0024553220703081549 -0.021855739517671793 0 -0.0024926631314721066 -0.02187152596484946 0 -0.0024626535435863148 -0.021866918106506667 0 -0.0024553220703081549 -0.021855739517671793 0 -0.0024760515501695314 -0.021853042451245867 0 -0.0024926631314721066 -0.02187152596484946 0 -0.0024453789185854297 -0.021841852646359135 0 -0.0024553220703081549 -0.021855739517671793 0 -0.0024760515501695314 -0.021853042451245867 0 -0.0025070664914506567 -0.02185987886630578 0 -0.002526143438750792 -0.02187674295666571 0 -0.0024926631314721066 -0.02187152596484946 0 -0.0024898835763818672 -0.021842008358605017 0 -0.0024760515501695314 -0.021853042451245867 0 -0.0025070664914506567 -0.02185987886630578 0 -0.0024760515501695314 -0.021853042451245867 0 -0.0025070664914506567 -0.02185987886630578 0 -0.0024926631314721066 -0.02187152596484946 0 -0.0025070664914506567 -0.02185987886630578 0 -0.002526143438750792 -0.02187674295666571 0 -0.0025344856245671839 -0.021860090986571542 0 -0.0024898835763818672 -0.021842008358605017 0 -0.0025070664914506567 -0.02185987886630578 0 -0.0025344856245671839 -0.021860090986571542 0 -0.0025384043636919322 -0.021896045750124798 0 -0.002526143438750792 -0.02187674295666571 0 -0.0024926631314721066 -0.02187152596484946 0 -0.0025384043636919322 -0.021896045750124798 0 -0.0024926631314721066 -0.02187152596484946 0 -0.0025141404513913828 -0.021891263671181611 0 -0.0024926631314721066 -0.02187152596484946 0 -0.0024828397005323454 -0.021879984542805479 0 -0.0025141404513913828 -0.021891263671181611 0 -0.0024926631314721066 -0.02187152596484946 0 -0.0024828397005323454 -0.021879984542805479 0 -0.0024626535435863148 -0.021866918106506667 0 -0.0025141404513913828 -0.021891263671181611 0 -0.0025442793532491378 -0.02191132203567173 0 -0.0025054214440650619 -0.021890226408095865 0 -0.0024828397005323454 -0.021879984542805479 0 -0.0025141404513913828 -0.021891263671181611 0 -0.0025054214440650619 -0.021890226408095865 0 -0.0025384043636919322 -0.021896045750124798 0 -0.0025141404513913828 -0.021891263671181611 0 -0.0025442793532491378 -0.02191132203567173 0 -0.0025384043636919322 -0.021896045750124798 0 -0.0025442793532491378 -0.02191132203567173 0 -0.0025707837784716982 -0.021920892254587022 0 -0.0024338104873364223 -0.021859565137370741 0 -0.0024301054429883362 -0.021867320616449405 0 -0.00245360247666657 -0.021871363826782984 0 -0.0024338104873364223 -0.021859565137370741 0 -0.0024349253769387425 -0.021852637990704426 0 -0.00245360247666657 -0.021871363826782984 0 -0.0024828397005323454 -0.021879984542805479 0 -0.00245360247666657 -0.021871363826782984 0 -0.0024626535435863148 -0.021866918106506667 0 -0.0024349253769387425 -0.021852637990704426 0 -0.00245360247666657 -0.021871363826782984 0 -0.0024626535435863148 -0.021866918106506667 0 -0.0024828397005323454 -0.021879984542805479 0 -0.0024716290253866168 -0.021877251360644948 0 -0.0025054214440650619 -0.021890226408095865 0 -0.0024828397005323454 -0.021879984542805479 0 -0.00245360247666657 -0.021871363826782984 0 -0.0024716290253866168 -0.021877251360644948 0 -0.0024301054429883362 -0.021867320616449405 0 -0.00245360247666657 -0.021871363826782984 0 -0.0024716290253866168 -0.021877251360644948 0 -0.0024301054429883362 -0.021867320616449405 0 -0.0024716290253866168 -0.021877251360644948 0 -0.0024311736273438713 -0.021858154791298021 0 -0.0024716290253866168 -0.021877251360644948 0 -0.0024735128169008315 -0.021857499884699982 0 -0.0024311736273438713 -0.021858154791298021 0 -0.0024716290253866168 -0.021877251360644948 0 -0.0024735128169008315 -0.021857499884699982 0 -0.0025138968630316351 -0.02188196140887675 0 -0.0024735128169008315 -0.021857499884699982 0 -0.0025138968630316351 -0.02188196140887675 0 -0.0024963916148779681 -0.02182347129254129 0 -0.0024735128169008315 -0.021857499884699982 0 -0.002445901626768247 -0.021828450066032346 0 -0.0024311736273438713 -0.021858154791298021 0 -0.0024716290253866168 -0.021877251360644948 0 -0.0025054214440650619 -0.021890226408095865 0 -0.0025138968630316351 -0.02188196140887675 0 -0.0025442793532491378 -0.02191132203567173 0 -0.0025054214440650619 -0.021890226408095865 0 -0.0025138968630316351 -0.02188196140887675 0 -0.0025138968630316351 -0.02188196140887675 0 -0.0025238598580574682 -0.021859410244865127 0 -0.0025664305795563619 -0.021923058063579786 0 -0.0025442793532491378 -0.02191132203567173 0 -0.0025138968630316351 -0.02188196140887675 0 -0.0025664305795563619 -0.021923058063579786 0 -0.0025238598580574682 -0.021859410244865127 0 -0.0025247815914387055 -0.021864792100216524 0 -0.0025664305795563619 -0.021923058063579786 0 -0.0025138968630316351 -0.02188196140887675 0 -0.0025238598580574682 -0.021859410244865127 0 -0.0024963916148779681 -0.02182347129254129 0 -0.0025238598580574682 -0.021859410244865127 0 -0.0025247815914387055 -0.021864792100216524 0 -0.0025435411328199563 -0.021784838932719465 0 -0.0023525228728228909 -0.021497546840857765 0 -0.0023146755107972565 -0.021460124076718066 0 -0.0025238598580574682 -0.021859410244865127 0 -0.0024963916148779681 -0.02182347129254129 0 -0.0025435411328199563 -0.021784838932719465 0 -0.002445901626768247 -0.021828450066032346 0 -0.0024963916148779681 -0.02182347129254129 0 -0.0024415403570337956 -0.021754698524892889 0 -0.0024735128169008315 -0.021857499884699982 0 -0.002445901626768247 -0.021828450066032346 0 -0.0024963916148779681 -0.02182347129254129 0 -0.0024963916148779681 -0.02182347129254129 0 -0.0024824475968169752 -0.02175522053766538 0 -0.0025435411328199563 -0.021784838932719465 0 -0.0024963916148779681 -0.02182347129254129 0 -0.0024824475968169752 -0.02175522053766538 0 -0.0024415403570337956 -0.021754698524892889 0 -0.0024415403570337956 -0.021754698524892889 0 -0.0023676131653677024 -0.021831536791848984 0 -0.0023638901528889276 -0.021689442097218223 0 -0.0023676131653677024 -0.021831536791848984 0 -0.002216479914961498 -0.021803703687008787 0 -0.0023638901528889276 -0.021689442097218223 0 -0.002445901626768247 -0.021828450066032346 0 -0.0024415403570337956 -0.021754698524892889 0 -0.0023676131653677024 -0.021831536791848984 0 -0.0023676131653677024 -0.021831536791848984 0 -0.0024311736273438713 -0.021858154791298021 0 -0.0023946951805354807 -0.021855651472339421 0 -0.002445901626768247 -0.021828450066032346 0 -0.0023676131653677024 -0.021831536791848984 0 -0.0024311736273438713 -0.021858154791298021 0 -0.0023676131653677024 -0.021831536791848984 0 -0.0023946951805354807 -0.021855651472339421 0 -0.00234439699555633 -0.021845059823124516 0 -0.0024301054429883362 -0.021867320616449405 0 -0.0024311736273438713 -0.021858154791298021 0 -0.0023946951805354807 -0.021855651472339421 0 -0.0024148293111158087 -0.0218556240432193 0 -0.0023946951805354807 -0.021855651472339421 0 -0.00234439699555633 -0.021845059823124516 0 -0.0023418492375292649 -0.021837961149511215 0 -0.00234439699555633 -0.021845059823124516 0 -0.002216479914961498 -0.021803703687008787 0 -0.0023676131653677024 -0.021831536791848984 0 -0.00234439699555633 -0.021845059823124516 0 -0.002216479914961498 -0.021803703687008787 0 -0.0018315882407421563 -0.021552295401332598 0 -0.002216479914961498 -0.021803703687008787 0 -0.0021601008272555946 -0.02135121698534493 0 -0.002216479914961498 -0.021803703687008787 0 -0.0023638901528889276 -0.021689442097218223 0 -0.0021601008272555946 -0.02135121698534493 0 -0.0018451547250396413 -0.021275852839512402 0 -0.0018315882407421563 -0.021552295401332598 0 -0.0021601008272555946 -0.02135121698534493 0 -0.0023638901528889276 -0.021689442097218223 0 -0.0024237391192948104 -0.021497780843479464 0 -0.002451890090168391 -0.021678848799028198 0 -0.0024415403570337956 -0.021754698524892889 0 -0.0023638901528889276 -0.021689442097218223 0 -0.002451890090168391 -0.021678848799028198 0 -0.0023638901528889276 -0.021689442097218223 0 -0.0024237391192948104 -0.021497780843479464 0 -0.0021601008272555946 -0.02135121698534493 0 -0.0019409475140094719 -0.021092985731314594 0 -0.0015792165890316564 -0.021000437143180391 0 -0.0017858633845778727 -0.020877145216266997 0 -0.0019682932045407553 -0.021252925983495749 0 -0.0015896191383682474 -0.020875011138570876 0 -0.0022005331623119514 -0.021297315424631799 0 -0.001624682703523644 -0.020973376104938782 0 -0.0021077846237757564 -0.021324260143571708 0 -0.0019409475140094719 -0.021092985731314594 0 -0.0015792165890316564 -0.021000437143180391 0 -0.0020734597017458096 -0.021511470276557639 0 -0.0024237391192948104 -0.021497780843479464 0 -0.0021601008272555946 -0.02135121698534493 0 -0.0020148726660929482 -0.02110789696426511 0 -0.0019682932045407553 -0.021252925983495749 0 -0.0015896191383682474 -0.020875011138570876 0 -0.0013514821462388968 -0.020937668390657943 0 -0.0020909405984839723 -0.021252734192275712 0 -0.0016034100117143836 -0.020860828774390099 0 -0.0018451547250396413 -0.021275852839512402 0 -0.0021601008272555946 -0.02135121698534493 0 -0.0018923201436454216 -0.020889825283516059 0 -0.0016981823110307367 -0.02095740506333146 0 -0.0016034100117143836 -0.020860828774390099 0 -0.0014593853674132924 -0.020548944195633009 0 -0.0017763859079337916 -0.020666819560885168 0 -0.0017049870164117221 -0.020291429860035157 0 -0.0014593853674132924 -0.020548944195633009 0 -0.0016478074329155956 -0.020780538055605237 0 -0.0017763859079337916 -0.020666819560885168 0 -0.0015792165890316564 -0.021000437143180391 0 -0.0016478074329155956 -0.020780538055605237 0 -0.0017858633845778727 -0.020877145216266997 0 -0.0015792165890316564 -0.021000437143180391 0 -0.0014593853674132924 -0.020548944195633009 0 -0.0016478074329155956 -0.020780538055605237 0 -0.0017858633845778727 -0.020877145216266997 0 -0.0019843147191602514 -0.020825846178402808 0 -0.0017763859079337916 -0.020666819560885168 0 -0.0016478074329155956 -0.020780538055605237 0 -0.0017858633845778727 -0.020877145216266997 0 -0.0017763859079337916 -0.020666819560885168 0 -0.0019409475140094719 -0.021092985731314594 0 -0.0019843147191602514 -0.020825846178402808 0 -0.0022034734679698283 -0.021041823051624414 0 -0.0019409475140094719 -0.021092985731314594 0 -0.0017858633845778727 -0.020877145216266997 0 -0.0019843147191602514 -0.020825846178402808 0 -0.0019843147191602514 -0.020825846178402808 0 -0.0020153786418412641 -0.020509762805801909 0 -0.0021996955975337527 -0.020726528361485853 0 -0.0019843147191602514 -0.020825846178402808 0 -0.0017763859079337916 -0.020666819560885168 0 -0.0020153786418412641 -0.020509762805801909 0 -0.0020153786418412641 -0.020509762805801909 0 -0.0020140647742345505 -0.020113774221547472 0 -0.0017049870164117221 -0.020291429860035157 0 -0.0017763859079337916 -0.020666819560885168 0 -0.0020153786418412641 -0.020509762805801909 0 -0.0017049870164117221 -0.020291429860035157 0 -0.0020140647742345505 -0.020113774221547472 0 -0.0017049870164117221 -0.020291429860035157 0 -0.0018487714963159297 -0.019818094064081547 0 -0.0013847442758118085 -0.020275444769907634 0 -0.0017049870164117221 -0.020291429860035157 0 -0.0014791494091124246 -0.019796604628732915 0 -0.0014593853674132924 -0.020548944195633009 0 -0.0013847442758118085 -0.020275444769907634 0 -0.0017049870164117221 -0.020291429860035157 0 -0.0025731020704182197 -0.020700580430830499 0 -0.0023482106331484303 -0.020329767754284897 0 -0.0026244515009760474 -0.020328377368381598 0 -0.0025731020704182197 -0.020700580430830499 0 -0.0023482106331484303 -0.020329767754284897 0 -0.0024249892965115551 -0.020893731442437034 0 -0.0023482106331484303 -0.020329767754284897 0 -0.0021996955975337527 -0.020726528361485853 0 -0.0024249892965115551 -0.020893731442437034 0 -0.0020153786418412641 -0.020509762805801909 0 -0.0020140647742345505 -0.020113774221547472 0 -0.0023482106331484303 -0.020329767754284897 0 -0.0020153786418412641 -0.020509762805801909 0 -0.0023482106331484303 -0.020329767754284897 0 -0.0021996955975337527 -0.020726528361485853 0 -0.0019843147191602514 -0.020825846178402808 0 -0.0021996955975337527 -0.020726528361485853 0 -0.0022034734679698283 -0.021041823051624414 0 -0.0021996955975337527 -0.020726528361485853 0 -0.0022034734679698283 -0.021041823051624414 0 -0.0024249892965115551 -0.020893731442437034 0 -0.0024249892965115551 -0.020893731442437034 0 -0.0025324527689822929 -0.021238234293021213 0 -0.0026601253671754105 -0.021048373183896494 0 -0.0022034734679698283 -0.021041823051624414 0 -0.0024249892965115551 -0.020893731442437034 0 -0.0023999921210153307 -0.021202667338290699 0 -0.0025731020704182197 -0.020700580430830499 0 -0.0024249892965115551 -0.020893731442437034 0 -0.0026601253671754105 -0.021048373183896494 0 -0.0024249892965115551 -0.020893731442437034 0 -0.0025324527689822929 -0.021238234293021213 0 -0.0023999921210153307 -0.021202667338290699 0 -0.0025324527689822929 -0.021238234293021213 0 -0.0023999921210153307 -0.021202667338290699 0 -0.0024575445685907343 -0.02147763210524169 0 -0.0023999921210153307 -0.021202667338290699 0 -0.0024575445685907343 -0.02147763210524169 0 -0.0022692153346709032 -0.021284097326879293 0 -0.0024575445685907343 -0.02147763210524169 0 -0.0022692153346709032 -0.021284097326879293 0 -0.0022510926263737633 -0.02145045769300272 0 -0.0019409475140094719 -0.021092985731314594 0 -0.0022034734679698283 -0.021041823051624414 0 -0.0021348731527273267 -0.021270791179903645 0 -0.0022034734679698283 -0.021041823051624414 0 -0.0022692153346709032 -0.021284097326879293 0 -0.0021348731527273267 -0.021270791179903645 0 -0.0022034734679698283 -0.021041823051624414 0 -0.0023999921210153307 -0.021202667338290699 0 -0.0022692153346709032 -0.021284097326879293 0 -0.0022692153346709032 -0.021284097326879293 0 -0.0022510926263737633 -0.02145045769300272 0 -0.0021348731527273267 -0.021270791179903645 0 -0.0022510926263737633 -0.02145045769300272 0 -0.0021348731527273267 -0.021270791179903645 0 -0.0020734597017458096 -0.021511470276557639 0 -0.0019409475140094719 -0.021092985731314594 0 -0.0021348731527273267 -0.021270791179903645 0 -0.0020734597017458096 -0.021511470276557639 0 -0.0019682932045407553 -0.021252925983495749 0 -0.0022005331623119514 -0.021297315424631799 0 -0.0025837749154426237 -0.021562227188936269 0 -0.0024824475968169752 -0.02175522053766538 0 -0.002451890090168391 -0.021678848799028198 0 -0.0025435411328199563 -0.021784838932719465 0 -0.0020734597017458096 -0.021511470276557639 0 -0.0023650707990531981 -0.021622200058321064 0 -0.0023518230491739707 -0.021762022165523469 0 -0.0022510926263737633 -0.02145045769300272 0 -0.0020734597017458096 -0.021511470276557639 0 -0.0023650707990531981 -0.021622200058321064 0 -0.0020909405984839723 -0.021252734192275712 0 -0.0023146755107972565 -0.021460124076718066 0 -0.0024237391192948104 -0.021497780843479464 0 -0.002451890090168391 -0.021678848799028198 0 -0.0025435411328199563 -0.021784838932719465 0 -0.0021077846237757564 -0.021324260143571708 0 -0.0023146755107972565 -0.021460124076718066 0 -0.0024824475968169752 -0.02175522053766538 0 -0.0024415403570337956 -0.021754698524892889 0 -0.002451890090168391 -0.021678848799028198 0 -0.0024575445685907343 -0.02147763210524169 0 -0.0024992014361073013 -0.021725962278709786 0 -0.0026018844420647117 -0.021768619831264123 0 -0.0024575445685907343 -0.02147763210524169 0 -0.0023650707990531981 -0.021622200058321064 0 -0.0024992014361073013 -0.021725962278709786 0 -0.0024575445685907343 -0.02147763210524169 0 -0.0022510926263737633 -0.02145045769300272 0 -0.0023650707990531981 -0.021622200058321064 0 -0.0025247815914387055 -0.021864792100216524 0 -0.0023650707990531981 -0.021622200058321064 0 -0.0023518230491739707 -0.021762022165523469 0 -0.0025247815914387055 -0.021864792100216524 0 -0.0024992014361073013 -0.021725962278709786 0 -0.0026018844420647117 -0.021768619831264123 0 -0.0025247815914387055 -0.021864792100216524 0 -0.0023650707990531981 -0.021622200058321064 0 -0.0024992014361073013 -0.021725962278709786 0 -0.0026018844420647117 -0.021768619831264123 0 -0.002723921452365339 -0.021958776231782641 0 -0.002668885898060185 -0.021537610572575326 0 -0.0026018844420647117 -0.021768619831264123 0 -0.002723921452365339 -0.021958776231782641 0 -0.0026332355199532895 -0.02195270404404346 0 -0.002723921452365339 -0.021958776231782641 0 -0.0028466047503706844 -0.021893830352860428 0 -0.0028285022947578163 -0.022269744240578059 0 -0.002723921452365339 -0.021958776231782641 0 -0.002668885898060185 -0.021537610572575326 0 -0.0028466047503706844 -0.021893830352860428 0 -0.002668885898060185 -0.021537610572575326 0 -0.0028539778816529578 -0.021213123577703632 0 -0.0028466047503706844 -0.021893830352860428 0 -0.0024575445685907343 -0.02147763210524169 0 -0.0026018844420647117 -0.021768619831264123 0 -0.002668885898060185 -0.021537610572575326 0 -0.0025324527689822929 -0.021238234293021213 0 -0.0024575445685907343 -0.02147763210524169 0 -0.002668885898060185 -0.021537610572575326 0 -0.002668885898060185 -0.021537610572575326 0 -0.0026601253671754105 -0.021048373183896494 0 -0.0028539778816529578 -0.021213123577703632 0 -0.0025324527689822929 -0.021238234293021213 0 -0.002668885898060185 -0.021537610572575326 0 -0.0026601253671754105 -0.021048373183896494 0 -0.0026601253671754105 -0.021048373183896494 0 -0.0028539778816529578 -0.021213123577703632 0 -0.002808502537555799 -0.020636416955184162 0 -0.0028539778816529578 -0.021213123577703632 0 -0.002808502537555799 -0.020636416955184162 0 -0.0031352756205845571 -0.020733641383621292 0 -0.0025731020704182197 -0.020700580430830499 0 -0.0026601253671754105 -0.021048373183896494 0 -0.002808502537555799 -0.020636416955184162 0 -0.0025731020704182197 -0.020700580430830499 0 -0.002808502537555799 -0.020636416955184162 0 -0.0026244515009760474 -0.020328377368381598 0 -0.0035395990676548848 -0.020822885811674737 0 -0.0031352756205845571 -0.020733641383621292 0 -0.0031452684959037388 -0.021382694505758675 0 -0.0028539778816529578 -0.021213123577703632 0 -0.0031352756205845571 -0.020733641383621292 0 -0.0031452684959037388 -0.021382694505758675 0 -0.0028539778816529578 -0.021213123577703632 0 -0.0031452684959037388 -0.021382694505758675 0 -0.0028466047503706844 -0.021893830352860428 0 -0.0031452684959037388 -0.021382694505758675 0 -0.0030030523768092331 -0.022553616479330234 0 -0.0039238053713939423 -0.021300385277498661 0 -0.0035395990676548848 -0.020822885811674737 0 -0.0031452684959037388 -0.021382694505758675 0 -0.0039238053713939423 -0.021300385277498661 0 -0.0027459221756476406 -0.02252474366149311 0 -0.002580211557550398 -0.022562040173317442 0 -0.0031452684959037388 -0.021382694505758675 0 -0.0028466047503706844 -0.021893830352860428 0 -0.0030030523768092331 -0.022553616479330234 0 -0.0028466047503706844 -0.021893830352860428 0 -0.0028285022947578163 -0.022269744240578059 0 -0.0030030523768092331 -0.022553616479330234 0 -0.0028285022947578163 -0.022269744240578059 0 -0.0030030523768092331 -0.022553616479330234 0 -0.0024520582565467721 -0.022403403416866266 0 -0.0028285022947578163 -0.022269744240578059 0 -0.0024520582565467721 -0.022403403416866266 0 -0.002648477011673468 -0.02216691521187034 0 -0.0024282077699545762 -0.022148344731120716 0 -0.002648477011673468 -0.02216691521187034 0 -0.0024936277061418663 -0.022005077468427801 0 -0.0024520582565467721 -0.022403403416866266 0 -0.0024282077699545762 -0.022148344731120716 0 -0.002648477011673468 -0.02216691521187034 0 -0.002648477011673468 -0.02216691521187034 0 -0.0027157408655359002 -0.022092934779952507 0 -0.0026487389870384665 -0.022040340299757745 0 -0.002648477011673468 -0.02216691521187034 0 -0.0024936277061418663 -0.022005077468427801 0 -0.0025964886087988946 -0.022016543988847458 0 -0.002648477011673468 -0.02216691521187034 0 -0.0026487389870384665 -0.022040340299757745 0 -0.0025964886087988946 -0.022016543988847458 0 -0.0028285022947578163 -0.022269744240578059 0 -0.002648477011673468 -0.02216691521187034 0 -0.0027157408655359002 -0.022092934779952507 0 -0.002723921452365339 -0.021958776231782641 0 -0.0027157408655359002 -0.022092934779952507 0 -0.0026332355199532895 -0.02195270404404346 0 -0.002723921452365339 -0.021958776231782641 0 -0.0028285022947578163 -0.022269744240578059 0 -0.0027157408655359002 -0.022092934779952507 0 -0.0027157408655359002 -0.022092934779952507 0 -0.0026332355199532895 -0.02195270404404346 0 -0.0026314011795884416 -0.021990517075220012 0 -0.0026332355199532895 -0.02195270404404346 0 -0.0025664305795563619 -0.021923058063579786 0 -0.0026314011795884416 -0.021990517075220012 0 -0.0025247815914387055 -0.021864792100216524 0 -0.0026018844420647117 -0.021768619831264123 0 -0.0026332355199532895 -0.02195270404404346 0 -0.0025247815914387055 -0.021864792100216524 0 -0.0026332355199532895 -0.02195270404404346 0 -0.0025664305795563619 -0.021923058063579786 0 -0.0025664305795563619 -0.021923058063579786 0 -0.0026314011795884416 -0.021990517075220012 0 -0.0025847476101952208 -0.021942299406631574 0 -0.0026314011795884416 -0.021990517075220012 0 -0.0025995221665768408 -0.021947767095125529 0 -0.0025847476101952208 -0.021942299406631574 0 -0.0026314011795884416 -0.021990517075220012 0 -0.0025995221665768408 -0.021947767095125529 0 -0.0026153764456016979 -0.021961144242430144 0 -0.0025442793532491378 -0.02191132203567173 0 -0.0025664305795563619 -0.021923058063579786 0 -0.0025847476101952208 -0.021942299406631574 0 -0.0025442793532491378 -0.02191132203567173 0 -0.0025847476101952208 -0.021942299406631574 0 -0.0025707837784716982 -0.021920892254587022 0 -0.0025995221665768408 -0.021947767095125529 0 -0.0025847476101952208 -0.021942299406631574 0 -0.0025707837784716982 -0.021920892254587022 0 -0.0027157408655359002 -0.022092934779952507 0 -0.0026314011795884416 -0.021990517075220012 0 -0.0026487389870384665 -0.022040340299757745 0 -0.0026314011795884416 -0.021990517075220012 0 -0.0026487389870384665 -0.022040340299757745 0 -0.0026153764456016979 -0.021961144242430144 0 -0.0026487389870384665 -0.022040340299757745 0 -0.0025955846563422151 -0.021933521100565241 0 -0.0025964886087988946 -0.022016543988847458 0 -0.0026487389870384665 -0.022040340299757745 0 -0.0026153764456016979 -0.021961144242430144 0 -0.0025955846563422151 -0.021933521100565241 0 -0.0026153764456016979 -0.021961144242430144 0 -0.0025925932831171402 -0.021904020315808317 0 -0.002587491674450897 -0.021919673873038642 0 -0.0026153764456016979 -0.021961144242430144 0 -0.0025925932831171402 -0.021904020315808317 0 -0.0025955846563422151 -0.021933521100565241 0 -0.0025925932831171402 -0.021904020315808317 0 -0.0025955846563422151 -0.021933521100565241 0 -0.0025805650460449551 -0.021871600854173948 0 -0.0025384043636919322 -0.021896045750124798 0 -0.0025707837784716982 -0.021920892254587022 0 -0.0025562459383514998 -0.021894270245658987 0 -0.0025707837784716982 -0.021920892254587022 0 -0.002587491674450897 -0.021919673873038642 0 -0.0025562459383514998 -0.021894270245658987 0 -0.0025995221665768408 -0.021947767095125529 0 -0.0026153764456016979 -0.021961144242430144 0 -0.002587491674450897 -0.021919673873038642 0 -0.0025995221665768408 -0.021947767095125529 0 -0.0025707837784716982 -0.021920892254587022 0 -0.002587491674450897 -0.021919673873038642 0 -0.0025925932831171402 -0.021904020315808317 0 -0.002587491674450897 -0.021919673873038642 0 -0.0025704236674284442 -0.021883461860998436 0 -0.002587491674450897 -0.021919673873038642 0 -0.0025562459383514998 -0.021894270245658987 0 -0.0025704236674284442 -0.021883461860998436 0 -0.0025384043636919322 -0.021896045750124798 0 -0.002526143438750792 -0.02187674295666571 0 -0.0025562459383514998 -0.021894270245658987 0 -0.002526143438750792 -0.02187674295666571 0 -0.0025562459383514998 -0.021894270245658987 0 -0.0025344856245671839 -0.021860090986571542 0 -0.0025562459383514998 -0.021894270245658987 0 -0.0025344856245671839 -0.021860090986571542 0 -0.0025704236674284442 -0.021883461860998436 0 -0.0025344856245671839 -0.021860090986571542 0 -0.0025594515049094549 -0.021855097608941606 0 -0.0025704236674284442 -0.021883461860998436 0 -0.0025594515049094549 -0.021855097608941606 0 -0.0025704236674284442 -0.021883461860998436 0 -0.0025787361243020334 -0.021854459599158809 0 -0.0025684009048811706 -0.021821332653824868 0 -0.0025594515049094549 -0.021855097608941606 0 -0.0025787361243020334 -0.021854459599158809 0 -0.0025684009048811706 -0.021821332653824868 0 -0.0025594515049094549 -0.021855097608941606 0 -0.0025335942670646691 -0.021842622189845479 0 -0.0025344856245671839 -0.021860090986571542 0 -0.0025594515049094549 -0.021855097608941606 0 -0.0025335942670646691 -0.021842622189845479 0 -0.0025113756022752888 -0.021838412073799336 0 -0.0024898835763818672 -0.021842008358605017 0 -0.0025335942670646691 -0.021842622189845479 0 -0.0024898835763818672 -0.021842008358605017 0 -0.0025344856245671839 -0.021860090986571542 0 -0.0025335942670646691 -0.021842622189845479 0 -0.0025955846563422151 -0.021933521100565241 0 -0.0025805650460449551 -0.021871600854173948 0 -0.0025445742642081315 -0.021869621213015764 0 -0.0025805650460449551 -0.021871600854173948 0 -0.0025685326646432763 -0.0218037887857493 0 -0.0025445742642081315 -0.021869621213015764 0 -0.0025925932831171402 -0.021904020315808317 0 -0.0025805650460449551 -0.021871600854173948 0 -0.0025787361243020334 -0.021854459599158809 0 -0.0025925932831171402 -0.021904020315808317 0 -0.0025704236674284442 -0.021883461860998436 0 -0.0025787361243020334 -0.021854459599158809 0 -0.0025684009048811706 -0.021821332653824868 0 -0.0025787361243020334 -0.021854459599158809 0 -0.0025685326646432763 -0.0218037887857493 0 -0.0025805650460449551 -0.021871600854173948 0 -0.0025787361243020334 -0.021854459599158809 0 -0.0025685326646432763 -0.0218037887857493 0 -0.0025064208588186252 -0.021747135784123416 0 -0.0025445742642081315 -0.021869621213015764 0 -0.0023991529107313808 -0.0218111732746595 0 -0.0025064208588186252 -0.021747135784123416 0 -0.0025685326646432763 -0.0218037887857493 0 -0.0025445742642081315 -0.021869621213015764 0 -0.0025445742642081315 -0.021869621213015764 0 -0.0023991529107313808 -0.0218111732746595 0 -0.0024936277061418663 -0.022005077468427801 0 -0.0023991529107313808 -0.0218111732746595 0 -0.0023164771879520072 -0.021993344602446206 0 -0.002092585496595373 -0.021866648713636364 0 -0.0023991529107313808 -0.0218111732746595 0 -0.0023164771879520072 -0.021993344602446206 0 -0.0024936277061418663 -0.022005077468427801 0 -0.0024282077699545762 -0.022148344731120716 0 -0.0023164771879520072 -0.021993344602446206 0 -0.0024936277061418663 -0.022005077468427801 0 -0.0025955846563422151 -0.021933521100565241 0 -0.0025445742642081315 -0.021869621213015764 0 -0.0025964886087988946 -0.022016543988847458 0 -0.0025445742642081315 -0.021869621213015764 0 -0.0024936277061418663 -0.022005077468427801 0 -0.0025964886087988946 -0.022016543988847458 0 -0.0018513051246870495 -0.022135067584039287 0 -0.0015999770412297709 -0.021903338902991384 0 -0.0015721815452450663 -0.022396922930122024 0 -0.0018513051246870495 -0.022135067584039287 0 -0.002092585496595373 -0.021866648713636364 0 -0.0015999770412297709 -0.021903338902991384 0 -0.0018513051246870495 -0.022135067584039287 0 -0.0021446481430562629 -0.022160743085661946 0 -0.002092585496595373 -0.021866648713636364 0 -0.0023164771879520072 -0.021993344602446206 0 -0.0021446481430562629 -0.022160743085661946 0 -0.002092585496595373 -0.021866648713636364 0 -0.0024282077699545762 -0.022148344731120716 0 -0.0023164771879520072 -0.021993344602446206 0 -0.0021446481430562629 -0.022160743085661946 0 -0.0021570796101553318 -0.021641468713496183 0 -0.0023991529107313808 -0.0218111732746595 0 -0.002092585496595373 -0.021866648713636364 0 -0.0021570796101553318 -0.021641468713496183 0 -0.002092585496595373 -0.021866648713636364 0 -0.0018512736212750916 -0.021656105299588276 0 -0.002092585496595373 -0.021866648713636364 0 -0.0018512736212750916 -0.021656105299588276 0 -0.0015999770412297709 -0.021903338902991384 0 -0.0013113457919149126 -0.021372180284813257 0 -0.0018512736212750916 -0.021656105299588276 0 -0.0015999770412297709 -0.021903338902991384 0 -0.0013113457919149126 -0.021372180284813257 0 -0.0015999770412297709 -0.021903338902991384 0 -0.00090544473570296343 -0.021982192336347565 0 -0.00035158231501475627 -0.02298732966845644 0 -0.0003519751721304454 -0.023456744618823175 0 -3.6810821807785331e-05 -0.024852764898884005 0 -0.00018229790970306968 -0.024829466897663233 0 -9.6233407151113197e-05 -0.024950648993435055 0 -0.00018229790970306968 -0.024829466897663233 0 -9.6233407151113197e-05 -0.024950648993435055 0 -0.00011289857241020797 -0.024969099726787753 0 -0.0015999770412297709 -0.021903338902991384 0 -0.0015721815452450663 -0.022396922930122024 0 -0.0011132265162055227 -0.022393266655531492 0 -0.0015999770412297709 -0.021903338902991384 0 -0.00090544473570296343 -0.021982192336347565 0 -0.0011132265162055227 -0.022393266655531492 0 -0.0015721815452450663 -0.022396922930122024 0 -0.00097782007626385863 -0.023001365249960184 0 -0.0015358257107721421 -0.02281701220840833 0 -0.0015721815452450663 -0.022396922930122024 0 -0.0011132265162055227 -0.022393266655531492 0 -0.00097782007626385863 -0.023001365249960184 0 -0.0011132265162055227 -0.022393266655531492 0 -0.00097782007626385863 -0.023001365249960184 0 -0.00041257407973995826 -0.022844609331876341 0 -0.0003519751721304454 -0.023456744618823175 0 -0.00021811417797749236 -0.023918502752580395 0 -0.00090544473570296343 -0.021982192336347565 0 -0.0011132265162055227 -0.022393266655531492 0 -0.00041257407973995826 -0.022844609331876341 0 -0.00097782007626385863 -0.023001365249960184 0 -0.00050702670920808261 -0.023595772949052869 0 -0.00029101434780878229 -0.023189668311772035 0 -0.00042649806782377029 -0.02383774566161509 0 -0.00021811417797749236 -0.023918502752580395 0 -0.00097782007626385863 -0.023001365249960184 0 -0.0012623359340586018 -0.023302774005138256 0 -0.00072815398206188217 -0.023653598150805071 0 -0.00097782007626385863 -0.023001365249960184 0 -0.00050702670920808261 -0.023595772949052869 0 -0.00072815398206188217 -0.023653598150805071 0 -0.00097782007626385863 -0.023001365249960184 0 -0.0015358257107721421 -0.02281701220840833 0 -0.0012623359340586018 -0.023302774005138256 0 -0.0015358257107721421 -0.02281701220840833 0 -0.0019342575090139427 -0.022482092968299033 0 -0.0018824933284451938 -0.022911297310402836 0 -0.0015358257107721421 -0.02281701220840833 0 -0.0018824933284451938 -0.022911297310402836 0 -0.0012623359340586018 -0.023302774005138256 0 -0.0018513051246870495 -0.022135067584039287 0 -0.0021446481430562629 -0.022160743085661946 0 -0.0019342575090139427 -0.022482092968299033 0 -0.0018513051246870495 -0.022135067584039287 0 -0.0015721815452450663 -0.022396922930122024 0 -0.0019342575090139427 -0.022482092968299033 0 -0.0015721815452450663 -0.022396922930122024 0 -0.0015358257107721421 -0.02281701220840833 0 -0.0019342575090139427 -0.022482092968299033 0 -0.0024520582565467721 -0.022403403416866266 0 -0.0024282077699545762 -0.022148344731120716 0 -0.0021446481430562629 -0.022160743085661946 0 -0.0024520582565467721 -0.022403403416866266 0 -0.0021446481430562629 -0.022160743085661946 0 -0.0019342575090139427 -0.022482092968299033 0 -0.0024520582565467721 -0.022403403416866266 0 -0.0019342575090139427 -0.022482092968299033 0 -0.0018824933284451938 -0.022911297310402836 0 -0.0030030523768092331 -0.022553616479330234 0 -0.0018824933284451938 -0.022911297310402836 0 -0.0019212133402739492 -0.0235168498288605 0 -0.0030030523768092331 -0.022553616479330234 0 -0.0024520582565467721 -0.022403403416866266 0 -0.0018824933284451938 -0.022911297310402836 0 -0.0018824933284451938 -0.022911297310402836 0 -0.0019212133402739492 -0.0235168498288605 0 -0.001388787195873814 -0.02362787521042042 0 -0.0018824933284451938 -0.022911297310402836 0 -0.001388787195873814 -0.02362787521042042 0 -0.0012623359340586018 -0.023302774005138256 0 -0.0019212133402739492 -0.0235168498288605 0 -0.0013099667815275203 -0.02424230626585783 0 -0.001388787195873814 -0.02362787521042042 0 -0.0030030523768092331 -0.022553616479330234 0 -0.0019212133402739492 -0.0235168498288605 0 -0.0023863425910741402 -0.024316900427948814 0 -0.0019212133402739492 -0.0235168498288605 0 -0.0023863425910741402 -0.024316900427948814 0 -0.0013099667815275203 -0.02424230626585783 0 -0.0013099667815275203 -0.02424230626585783 0 -0.00081979862839631312 -0.024944918193187803 0 -0.0017524255756858399 -0.025260793697977801 0 -0.0023863425910741402 -0.024316900427948814 0 -0.0013099667815275203 -0.02424230626585783 0 -0.0017524255756858399 -0.025260793697977801 0 -0.002580211557550398 -0.022562040173317442 0 -0.0018653481275560521 -0.02267435863544795 0 -0.0035395990676548848 -0.020822885811674737 0 -0.0039238053713939423 -0.021300385277498661 0 -0.0042937102124952506 -0.020479337214795963 0 -0.00081979862839631312 -0.024944918193187803 0 -0.00071259074630521167 -0.024528517943283333 0 -0.00042698908046610943 -0.024823191777747087 0 -0.0013099667815275203 -0.02424230626585783 0 -0.00081979862839631312 -0.024944918193187803 0 -0.00071259074630521167 -0.024528517943283333 0 -0.0013099667815275203 -0.02424230626585783 0 -0.00071259074630521167 -0.024528517943283333 0 -0.00074059267225424976 -0.024035012388854537 0 -0.00071259074630521167 -0.024528517943283333 0 -0.00074059267225424976 -0.024035012388854537 0 -0.0004402863570791872 -0.024486860347007706 0 -0.00071259074630521167 -0.024528517943283333 0 -0.0004402863570791872 -0.024486860347007706 0 -0.00042698908046610943 -0.024823191777747087 0 -0.0013099667815275203 -0.02424230626585783 0 -0.00074059267225424976 -0.024035012388854537 0 -0.001388787195873814 -0.02362787521042042 0 -0.00074059267225424976 -0.024035012388854537 0 -0.001388787195873814 -0.02362787521042042 0 -0.0012623359340586018 -0.023302774005138256 0 -0.00074059267225424976 -0.024035012388854537 0 -0.00072815398206188217 -0.023653598150805071 0 -0.00034299950556227214 -0.024028758385416214 0 -0.00074059267225424976 -0.024035012388854537 0 -0.0012623359340586018 -0.023302774005138256 0 -0.00072815398206188217 -0.023653598150805071 0 -0.00050702670920808261 -0.023595772949052869 0 -0.00072815398206188217 -0.023653598150805071 0 -0.00034299950556227214 -0.024028758385416214 0 -0.00034299950556227214 -0.024028758385416214 0 -0.00015634471430291407 -0.024261980204099646 0 -0.00015809109735436983 -0.023957265917669779 0 -0.00034299950556227214 -0.024028758385416214 0 -0.00015634471430291407 -0.024261980204099646 0 -0.00026112335574868245 -0.024350070367179295 0 -0.00015634471430291407 -0.024261980204099646 0 -0.00026112335574868245 -0.024350070367179295 0 -6.0843642953374501e-05 -0.024601590768582936 0 -0.00015634471430291407 -0.024261980204099646 0 -6.0843642953374501e-05 -0.024601590768582936 0 -9.6364697912255942e-05 -0.024455284405970876 0 -0.00015634471430291407 -0.024261980204099646 0 -9.6364697912255942e-05 -0.024455284405970876 0 -0.00015809109735436983 -0.023957265917669779 0 -0.00026112335574868245 -0.024350070367179295 0 -0.00018636256060680032 -0.024685319318128604 0 -6.0843642953374501e-05 -0.024601590768582936 0 -0.00074059267225424976 -0.024035012388854537 0 -0.00034299950556227214 -0.024028758385416214 0 -0.00026112335574868245 -0.024350070367179295 0 -0.00074059267225424976 -0.024035012388854537 0 -0.00026112335574868245 -0.024350070367179295 0 -0.0004402863570791872 -0.024486860347007706 0 -0.0004402863570791872 -0.024486860347007706 0 -0.00018636256060680032 -0.024685319318128604 0 -0.00042698908046610943 -0.024823191777747087 0 -0.00026112335574868245 -0.024350070367179295 0 -0.0004402863570791872 -0.024486860347007706 0 -0.00018636256060680032 -0.024685319318128604 0 -0.00018636256060680032 -0.024685319318128604 0 -0.00024091274337523938 -0.024864695893385597 0 -9.3709196560182417e-05 -0.02491722809734136 0 -0.00018636256060680032 -0.024685319318128604 0 -0.00024091274337523938 -0.024864695893385597 0 -0.00042698908046610943 -0.024823191777747087 0 8.0450878315128071e-10 -0.024999900443869495 0 -4.6525066289961875e-05 -0.024831190919577268 0 -9.3709196560182417e-05 -0.02491722809734136 0 -0.00018636256060680032 -0.024685319318128604 0 -4.6525066289961875e-05 -0.024831190919577268 0 -9.3709196560182417e-05 -0.02491722809734136 0 -0.00018636256060680032 -0.024685319318128604 0 -4.6525066289961875e-05 -0.024831190919577268 0 -6.0843642953374501e-05 -0.024601590768582936 0 8.0450878315128071e-10 -0.024999900443869495 0 -4.6525066289961875e-05 -0.024831190919577268 0 1.9824098507426907e-08 -0.024999699739717982 0 -6.0843642953374501e-05 -0.024601590768582936 0 -4.225186972958379e-08 -0.024999487959341093 0 -9.6364697912255942e-05 -0.024455284405970876 0 1.9824098507426907e-08 -0.024999699739717982 0 -6.0843642953374501e-05 -0.024601590768582936 0 -4.225186972958379e-08 -0.024999487959341093 0 -4.6525066289961875e-05 -0.024831190919577268 0 1.9824098507426907e-08 -0.024999699739717982 0 -6.0843642953374501e-05 -0.024601590768582936 0 -4.225186972958379e-08 -0.024999487959341093 0 -0.00011922872044834228 -0.024559521684485733 0 -9.6364697912255942e-05 -0.024455284405970876 0 -4.225186972958379e-08 -0.024999487959341093 0 -5.1541741839929821e-08 -0.024999630786002119 0 -0.00011922872044834228 -0.024559521684485733 0 -3.0630954849477031e-07 -0.024999303001631126 0 -0.00016990516686865711 -0.024564027833252965 0 4.4313785988629633e-09 -0.025000037146484293 0 -2.4794887037761355e-05 -0.025012537505007683 0 -1.7085799611369217e-05 -0.024992180648286354 0 -0.00011922872044834228 -0.024559521684485733 0 -9.6364697912255942e-05 -0.024455284405970876 0 -0.00015809109735436983 -0.023957265917669779 0 -0.00011922872044834228 -0.024559521684485733 0 -0.00015809109735436983 -0.023957265917669779 0 -7.914337766762635e-05 -0.02411537945712048 0 -0.00050702670920808261 -0.023595772949052869 0 -0.00034299950556227214 -0.024028758385416214 0 -0.00015809109735436983 -0.023957265917669779 0 -0.00022488589995557577 -0.023892712423250556 0 -0.00021811417797749236 -0.023918502752580395 0 -0.00050702670920808261 -0.023595772949052869 0 -0.00015809109735436983 -0.023957265917669779 0 -0.00029101434780878229 -0.023189668311772035 0 -0.00016990516686865711 -0.024564027833252965 0 -0.00021811417797749236 -0.023918502752580395 0 -2.4794887037761355e-05 -0.025012537505007683 0 -7.8257092791417772e-05 -0.025027343524471217 0 -6.036627771682182e-05 -0.024987502276759079 0 -2.4794887037761355e-05 -0.025012537505007683 0 -3.4413027492105384e-05 -0.024990204576588321 0 -6.036627771682182e-05 -0.024987502276759079 0 -3.4413027492105384e-05 -0.024990204576588321 0 -6.036627771682182e-05 -0.024987502276759079 0 -3.7393016142877792e-05 -0.024967505577550998 0 -9.6233407151113197e-05 -0.024950648993435055 0 -0.00011289857241020797 -0.024969099726787753 0 -6.036627771682182e-05 -0.024987502276759079 0 -0.00011289857241020797 -0.024969099726787753 0 -7.8257092791417772e-05 -0.025027343524471217 0 -6.036627771682182e-05 -0.024987502276759079 0 -9.6233407151113197e-05 -0.024950648993435055 0 -6.036627771682182e-05 -0.024987502276759079 0 -3.7393016142877792e-05 -0.024967505577550998 0 -4.949145093234833e-05 -0.024939169080860208 0 -6.4861476647448449e-06 -0.024930270280405516 0 -3.6810821807785331e-05 -0.024852764898884005 0 -9.6233407151113197e-05 -0.024950648993435055 0 4.4776665689273141e-05 -0.024928655080976591 0 0.00010508515675876379 -0.024875180795353318 0 -3.6810821807785331e-05 -0.024852764898884005 0 4.4776665689273141e-05 -0.024928655080976591 0 -6.4861476647448449e-06 -0.024930270280405516 0 3.692889967807257e-05 -0.024908154090282922 0 0.00010508515675876379 -0.024875180795353318 0 4.4776665689273141e-05 -0.024928655080976591 0 0.00018263330240501457 -0.024908907030424983 0 -3.7393016142877792e-05 -0.024967505577550998 0 -5.473120245381916e-06 -0.024985513016683867 0 -1.7085799611369217e-05 -0.024992180648286354 0 8.3941036024866238e-05 -0.024555391831126528 0 3.692889967807257e-05 -0.024908154090282922 0 8.3941036024866238e-05 -0.024555391831126528 0 1.3457090278604381e-07 -0.024999203166686794 0 2.9896500314049064e-06 -0.024996665183184785 0 1.1339332898526147e-06 -0.024998405385168884 0 -6.6558002645649608e-11 -0.02500000100713716 0 3.692889967807257e-05 -0.024908154090282922 0 5.9220536372363322e-08 -0.024999557368499601 0 9.2678775673267271e-08 -0.024999819829110141 0 3.7033193535026025e-11 -0.024999999899557424 0 1.1710759400217896e-13 -0.024999999919992907 0 1.1339332898526147e-06 -0.024998405385168884 0 -6.6558002645649608e-11 -0.02500000100713716 0 3.0506302796117731e-10 -0.024999998003713234 0 -5.473120245381916e-06 -0.024985513016683867 0 -8.6012941032512763e-09 -0.024999942526095706 0 -5.67740469520554e-06 -0.024995173976270543 0 3.692889967807257e-05 -0.024908154090282922 0 1.7400490619518591e-07 -0.024999576449749813 0 4.4313785988629633e-09 -0.025000037146484293 0 -8.6012941032512763e-09 -0.024999942526095706 0 -5.67740469520554e-06 -0.024995173976270543 0 4.4313785988629633e-09 -0.025000037146484293 0 -5.67740469520554e-06 -0.024995173976270543 0 -1.7085799611369217e-05 -0.024992180648286354 0 -5.473120245381916e-06 -0.024985513016683867 0 -5.67740469520554e-06 -0.024995173976270543 0 -1.7085799611369217e-05 -0.024992180648286354 0 -2.4794887037761355e-05 -0.025012537505007683 0 -3.4413027492105384e-05 -0.024990204576588321 0 -1.7085799611369217e-05 -0.024992180648286354 0 -3.4413027492105384e-05 -0.024990204576588321 0 -3.7393016142877792e-05 -0.024967505577550998 0 -1.7085799611369217e-05 -0.024992180648286354 0 -1.9285866971312719e-05 -0.025002555352534553 0 -4.0761257130011847e-05 -0.02491697592438015 0 4.379125560055592e-05 -0.02488662707957455 0 -1.9285866971312719e-05 -0.025002555352534553 0 -3.1380459693856644e-05 -0.024996203087257411 0 -4.0761257130011847e-05 -0.02491697592438015 0 -3.1380459693856644e-05 -0.024996203087257411 0 3.0273024742397528e-08 -0.025000039938752383 0 -4.0761257130011847e-05 -0.02491697592438015 0 -3.1380459693856644e-05 -0.024996203087257411 0 3.0273024742397528e-08 -0.025000039938752383 0 -7.1512428018004178e-08 -0.025000031132546365 0 3.0273024742397528e-08 -0.025000039938752383 0 -4.0761257130011847e-05 -0.02491697592438015 0 -6.834098021278949e-05 -0.02484568767400213 0 -4.0761257130011847e-05 -0.02491697592438015 0 3.3727748618917032e-06 -0.024741324319948872 0 -6.834098021278949e-05 -0.02484568767400213 0 -4.0761257130011847e-05 -0.02491697592438015 0 4.379125560055592e-05 -0.02488662707957455 0 3.3727748618917032e-06 -0.024741324319948872 0 4.379125560055592e-05 -0.02488662707957455 0 0.00021578371431019313 -0.024622191812757356 0 3.3727748618917032e-06 -0.024741324319948872 0 4.379125560055592e-05 -0.02488662707957455 0 0.00020463445196783195 -0.024964724175219194 0 0.00021578371431019313 -0.024622191812757356 0 0.00020463445196783195 -0.024964724175219194 0 0.00046941176167277724 -0.024803608819797384 0 0.00021578371431019313 -0.024622191812757356 0 0.00016973207639250324 -0.02458139942722757 0 5.1351809160761883e-05 -0.024291079987623327 0 0.00020463445196783195 -0.024964724175219194 0 7.6596554954500332e-05 -0.025062880382456337 0 0.00017563961358778955 -0.025077180995796922 0 4.379125560055592e-05 -0.02488662707957455 0 0.00020463445196783195 -0.024964724175219194 0 5.7434356618665126e-05 -0.025001919388389644 0 0.00020463445196783195 -0.024964724175219194 0 5.7434356618665126e-05 -0.025001919388389644 0 7.6596554954500332e-05 -0.025062880382456337 0 -1.9285866971312719e-05 -0.025002555352534553 0 4.379125560055592e-05 -0.02488662707957455 0 5.7434356618665126e-05 -0.025001919388389644 0 -1.9285866971312719e-05 -0.025002555352534553 0 5.7434356618665126e-05 -0.025001919388389644 0 -8.5967268213302658e-06 -0.025069309546712215 0 -8.5967268213302658e-06 -0.025069309546712215 0 -6.1057574842634737e-05 -0.02515441033172984 0 -4.5411983887879666e-05 -0.025077308582440862 0 -1.9285866971312719e-05 -0.025002555352534553 0 -8.5967268213302658e-06 -0.025069309546712215 0 -4.5411983887879666e-05 -0.025077308582440862 0 7.6596554954500332e-05 -0.025062880382456337 0 -6.1057574842634737e-05 -0.02515441033172984 0 0.00017163253147495285 -0.025100060529080301 0 -0.00011192371132042398 -0.024448976476712299 0 -7.376431547316983e-06 -0.024280615188739703 0 7.6596554954500332e-05 -0.025062880382456337 0 0.00017163253147495285 -0.025100060529080301 0 0.00017563961358778955 -0.025077180995796922 0 5.7434356618665126e-05 -0.025001919388389644 0 -8.5967268213302658e-06 -0.025069309546712215 0 7.6596554954500332e-05 -0.025062880382456337 0 -8.5967268213302658e-06 -0.025069309546712215 0 7.6596554954500332e-05 -0.025062880382456337 0 -6.1057574842634737e-05 -0.02515441033172984 0 -6.1057574842634737e-05 -0.02515441033172984 0 -0.00025351354562415092 -0.025162584158604399 0 -0.00012706747748294771 -0.025191879030888528 0 -6.1057574842634737e-05 -0.02515441033172984 0 -0.00012193456331265758 -0.025128505298475688 0 -0.00025351354562415092 -0.025162584158604399 0 -6.1057574842634737e-05 -0.02515441033172984 0 -4.5411983887879666e-05 -0.025077308582440862 0 -0.00012193456331265758 -0.025128505298475688 0 -4.5411983887879666e-05 -0.025077308582440862 0 -8.1512541369955038e-05 -0.025075484736749223 0 -3.5243724614481002e-05 -0.02504668143602665 0 -1.9285866971312719e-05 -0.025002555352534553 0 -3.1380459693856644e-05 -0.024996203087257411 0 -4.5411983887879666e-05 -0.025077308582440862 0 -3.1380459693856644e-05 -0.024996203087257411 0 -4.5411983887879666e-05 -0.025077308582440862 0 -7.1512428018004178e-08 -0.025000031132546365 0 -4.5411983887879666e-05 -0.025077308582440862 0 -7.1512428018004178e-08 -0.025000031132546365 0 -3.5243724614481002e-05 -0.02504668143602665 0 -7.1512428018004178e-08 -0.025000031132546365 0 -1.862487638754888e-08 -0.025000095672612924 0 -3.5243724614481002e-05 -0.02504668143602665 0 -1.862487638754888e-08 -0.025000095672612924 0 -3.5243724614481002e-05 -0.02504668143602665 0 -3.4671829572212845e-05 -0.025027080355904216 0 -8.1512541369955038e-05 -0.025075484736749223 0 -3.5243724614481002e-05 -0.02504668143602665 0 -3.4671829572212845e-05 -0.025027080355904216 0 -8.1512541369955038e-05 -0.025075484736749223 0 -3.4671829572212845e-05 -0.025027080355904216 0 -8.2730449337214506e-05 -0.025016255109282876 0 -1.862487638754888e-08 -0.025000095672612924 0 -3.4671829572212845e-05 -0.025027080355904216 0 -2.9405344102894467e-08 -0.025000014067894542 0 -2.9405344102894467e-08 -0.025000014067894542 0 -8.2730449337214506e-05 -0.025016255109282876 0 -3.479421035549531e-05 -0.024981753294083257 0 -3.4671829572212845e-05 -0.025027080355904216 0 -2.9405344102894467e-08 -0.025000014067894542 0 -8.2730449337214506e-05 -0.025016255109282876 0 -8.2730449337214506e-05 -0.025016255109282876 0 -9.3709196560182417e-05 -0.02491722809734136 0 -3.479421035549531e-05 -0.024981753294083257 0 8.0450878315128071e-10 -0.024999900443869495 0 -9.3709196560182417e-05 -0.02491722809734136 0 -3.479421035549531e-05 -0.024981753294083257 0 8.0450878315128071e-10 -0.024999900443869495 0 -2.9405344102894467e-08 -0.025000014067894542 0 -3.479421035549531e-05 -0.024981753294083257 0 -0.00024091274337523938 -0.024864695893385597 0 -0.00042698908046610943 -0.024823191777747087 0 -0.00026403209268576058 -0.024994532572208124 0 -0.00042698908046610943 -0.024823191777747087 0 -0.00026403209268576058 -0.024994532572208124 0 -0.00053786626732057466 -0.025005013769109068 0 -0.00024091274337523938 -0.024864695893385597 0 -9.3709196560182417e-05 -0.02491722809734136 0 -0.00026403209268576058 -0.024994532572208124 0 -8.2730449337214506e-05 -0.025016255109282876 0 -9.3709196560182417e-05 -0.02491722809734136 0 -0.00026403209268576058 -0.024994532572208124 0 -8.2730449337214506e-05 -0.025016255109282876 0 -0.00026403209268576058 -0.024994532572208124 0 -0.0002034871827670783 -0.025078787915510985 0 -0.00026403209268576058 -0.024994532572208124 0 -0.0002034871827670783 -0.025078787915510985 0 -0.00040902766314228567 -0.025077923989201344 0 -0.0002034871827670783 -0.025078787915510985 0 -0.00025351354562415092 -0.025162584158604399 0 -0.00040902766314228567 -0.025077923989201344 0 -8.1512541369955038e-05 -0.025075484736749223 0 -8.2730449337214506e-05 -0.025016255109282876 0 -0.0002034871827670783 -0.025078787915510985 0 -4.5411983887879666e-05 -0.025077308582440862 0 -8.1512541369955038e-05 -0.025075484736749223 0 -0.00012193456331265758 -0.025128505298475688 0 -8.1512541369955038e-05 -0.025075484736749223 0 -0.0002034871827670783 -0.025078787915510985 0 -0.00012193456331265758 -0.025128505298475688 0 -0.0002034871827670783 -0.025078787915510985 0 -0.00012193456331265758 -0.025128505298475688 0 -0.00025351354562415092 -0.025162584158604399 0 -0.00025351354562415092 -0.025162584158604399 0 -0.00048419366266630768 -0.025213098114531502 0 -0.00040902766314228567 -0.025077923989201344 0 -0.0010902698417343286 -0.021553777327162939 0 -0.00093649042764944884 -0.021575069364631386 0 -0.0011312958731907535 -0.021482911309247146 0 -0.0010396445383091752 -0.021601922570059315 0 -0.0010902698417343286 -0.021553777327162939 0 -0.0011617459660981393 -0.021590251881198882 0 -0.0010396445383091752 -0.021601922570059315 0 -0.0010902698417343286 -0.021553777327162939 0 -0.00093649042764944884 -0.021575069364631386 0 -0.00093649042764944884 -0.021575069364631386 0 -0.0011211677880645912 -0.021393502038252479 0 -0.0011312958731907535 -0.021482911309247146 0 -0.00066342291319686979 -0.023452036467409364 0 -0.0011221072870347703 -0.023155354942682897 0 -0.00093649042764944884 -0.021575069364631386 0 -0.0011231395249845923 -0.021188102126033996 0 -0.0011211677880645912 -0.021393502038252479 0 -0.00048419366266630768 -0.025213098114531502 0 -0.00040902766314228567 -0.025077923989201344 0 -0.00068711525306850113 -0.02506099159874697 0 -0.00081979862839631312 -0.024944918193187803 0 -0.00053786626732057466 -0.025005013769109068 0 -0.00068711525306850113 -0.02506099159874697 0 -0.00026403209268576058 -0.024994532572208124 0 -0.00040902766314228567 -0.025077923989201344 0 -0.00053786626732057466 -0.025005013769109068 0 -0.00040902766314228567 -0.025077923989201344 0 -0.00053786626732057466 -0.025005013769109068 0 -0.00068711525306850113 -0.02506099159874697 0 -0.00081979862839631312 -0.024944918193187803 0 -0.00042698908046610943 -0.024823191777747087 0 -0.00053786626732057466 -0.025005013769109068 0 -0.00081979862839631312 -0.024944918193187803 0 -0.00082074279071136017 -0.024968617281425066 0 -0.00068711525306850113 -0.02506099159874697 0 -0.0018653481275560521 -0.02267435863544795 0 -0.002349481515208821 -0.02151740950795562 0 -0.0013340174067692071 -0.020768760128436009 0 -0.0014532760109880723 -0.021060462260524517 0 -0.0017201653959827248 -0.02086653865108198 0 -0.0035395990676548848 -0.020822885811674737 0 -0.0042937102124952506 -0.020479337214795963 0 -0.0035714782962010354 -0.020307885635316814 0 -0.0016113202691501558 -0.023099364499339997 0 -0.0018653481275560521 -0.02267435863544795 0 -0.0014532760109880723 -0.021060462260524517 0 -0.0011231395249845923 -0.021188102126033996 0 -0.0013395380832340077 -0.021269974879476333 0 -0.0018653481275560521 -0.02267435863544795 0 -0.0011221072870347703 -0.023155354942682897 0 -0.0013340174067692071 -0.020768760128436009 0 -0.0014532760109880723 -0.021060462260524517 0 -0.0011231395249845923 -0.021188102126033996 0 -0.0014532760109880723 -0.021060462260524517 0 -0.0015899375693638441 -0.021214063564378358 0 -0.001623674590687324 -0.021053551629497132 0 -0.0014532760109880723 -0.021060462260524517 0 -0.0015899375693638441 -0.021214063564378358 0 -0.0013395380832340077 -0.021269974879476333 0 -0.0015408602074884338 -0.021370057481833585 0 -0.0013395380832340077 -0.021269974879476333 0 -0.0012211147689014257 -0.021461849233124528 0 -0.0015899375693638441 -0.021214063564378358 0 -0.0015408602074884338 -0.021370057481833585 0 -0.0013395380832340077 -0.021269974879476333 0 -0.0011231395249845923 -0.021188102126033996 0 -0.0013395380832340077 -0.021269974879476333 0 -0.0012004643139327737 -0.021352166934532821 0 -0.0013395380832340077 -0.021269974879476333 0 -0.0012004643139327737 -0.021352166934532821 0 -0.0012211147689014257 -0.021461849233124528 0 -0.0011231395249845923 -0.021188102126033996 0 -0.0012004643139327737 -0.021352166934532821 0 -0.0011211677880645912 -0.021393502038252479 0 -0.0012004643139327737 -0.021352166934532821 0 -0.0011211677880645912 -0.021393502038252479 0 -0.0011953521546817659 -0.021459270490184392 0 -0.0011211677880645912 -0.021393502038252479 0 -0.0011312958731907535 -0.021482911309247146 0 -0.0011953521546817659 -0.021459270490184392 0 -0.0012004643139327737 -0.021352166934532821 0 -0.0011953521546817659 -0.021459270490184392 0 -0.0012211147689014257 -0.021461849233124528 0 -0.0014498078083545949 -0.020953292564055911 0 -0.0014508130718117269 -0.020952769177183445 0 -0.0014296430677593042 -0.0209657014016396 0 -0.0014508130718117269 -0.020952769177183445 0 -0.0011312958731907535 -0.021482911309247146 0 -0.0012079436321856402 -0.021456251535965237 0 -0.0011884547850041238 -0.021509000196871107 0 -0.0011312958731907535 -0.021482911309247146 0 -0.0011953521546817659 -0.021459270490184392 0 -0.0012209149630364158 -0.021461923522697688 0 -0.0014508130718117269 -0.020952769177183445 0 -0.0015235070283468241 -0.020902218001110376 0 -0.0012079436321856402 -0.021456251535965237 0 -0.0011884547850041238 -0.021509000196871107 0 -0.0013561755382528156 -0.021462066450325303 0 -0.0012827609620163975 -0.021468965857130814 0 -0.0013129137269025687 -0.021470127505099287 0 -0.0011659062095752295 -0.02161160301689026 0 -0.0012254236791807735 -0.021206236602268443 0 -0.0015235070283468241 -0.020902218001110376 0 -0.0015709404574964687 -0.020840597992601545 0 -0.0012606682971851662 -0.02123074263641378 0 -0.0011884547850041238 -0.021509000196871107 0 -0.0011617459660981393 -0.021590251881198882 0 -0.0013561755382528156 -0.021462066450325303 0 -0.0011175131669316002 -0.021583363994184725 0 -0.0012827609620163975 -0.021468965857130814 0 -0.0011659062095752295 -0.02161160301689026 0 -0.0010902698417343286 -0.021553777327162939 0 -0.0011312958731907535 -0.021482911309247146 0 -0.0011884547850041238 -0.021509000196871107 0 -0.0010902698417343286 -0.021553777327162939 0 -0.0011884547850041238 -0.021509000196871107 0 -0.0011617459660981393 -0.021590251881198882 0 -0.0016292653261078746 -0.020904317057270555 0 -0.0014508130718117269 -0.020952769177183445 0 -0.0015838491524205671 -0.020919397443421372 0 -0.0014972808337491564 -0.020946668933252005 0 -0.0015419809219959235 -0.02094867414749213 0 -0.0015709404574964687 -0.020840597992601545 0 -0.0020701585346693781 -0.020095047453872153 0 -0.0013225499775889394 -0.021435628431023698 0 -0.0013205490907242333 -0.021568399158540332 0 -0.0015328255346499361 -0.02144217892377252 0 -0.0019138269028796146 -0.020490922796597758 0 -0.0017758694427432358 -0.020621577033811331 0 -0.0020480294600635604 -0.020634010794367399 0 -0.0016292653261078746 -0.020904317057270555 0 -0.0015709404574964687 -0.020840597992601545 0 -0.0016117612922984441 -0.020924790760847006 0 -0.0016313760108861159 -0.020910583744512774 0 -0.0016264310203637775 -0.020910387219083771 0 -0.0016292653261078746 -0.020904317057270555 0 -0.0015235070283468241 -0.020902218001110376 0 -0.0015235070283468241 -0.020902218001110376 0 -0.0015709404574964687 -0.020840597992601545 0 -0.0013225499775889394 -0.021435628431023698 0 -0.0013205490907242333 -0.021568399158540332 0 -0.0011583584430300154 -0.021599852134114826 0 -0.0014962386502444798 -0.020218373194093371 0 -0.0020701585346693781 -0.020095047453872153 0 -0.00062943177696034042 -0.018049789212217723 0 -0.00095198558768476405 -0.018192176180709316 0 -0.00094678688593895547 -0.017855426955482829 0 -0.0014962386502444798 -0.020218373194093371 0 -0.00079818584429333628 -0.020502353001764596 0 -0.00062943177696034042 -0.018049789212217723 0 -0.00084216399095315953 -0.018634267491346657 0 -0.00095198558768476405 -0.018192176180709316 0 -0.0012700588263966975 -0.021594019475401717 0 -0.0013572630503353121 -0.021867692965050856 0 -0.0011527187924158851 -0.021845432284902482 0 -0.0013572630503353121 -0.021867692965050856 0 -0.0011527187924158851 -0.021845432284902482 0 -0.0012446135824332378 -0.021977660856936716 0 -0.0011527187924158851 -0.021845432284902482 0 -0.0010133033746486388 -0.021863310591865168 0 -0.0010465684516867602 -0.021993562821986244 0 -0.0011527187924158851 -0.021845432284902482 0 -0.0010274554376856898 -0.021739135182162975 0 -0.0010133033746486388 -0.021863310591865168 0 -0.0011527187924158851 -0.021845432284902482 0 -0.001127602778174647 -0.02168036997969465 0 -0.0010274554376856898 -0.021739135182162975 0 -0.0012700588263966975 -0.021594019475401717 0 -0.0011527187924158851 -0.021845432284902482 0 -0.001127602778174647 -0.02168036997969465 0 -0.0014962386502444798 -0.020218373194093371 0 -0.0012533038649196534 -0.020494568827862266 0 -0.0013205490907242333 -0.021568399158540332 0 -0.0011583584430300154 -0.021599852134114826 0 -0.001127602778174647 -0.02168036997969465 0 -0.0012606682971851662 -0.02123074263641378 0 -0.0011628424823493652 -0.021353437730996273 0 -0.0011175131669316002 -0.021583363994184725 0 -0.0011659062095752295 -0.02161160301689026 0 -0.0010274554376856898 -0.021739135182162975 0 -0.0011583584430300154 -0.021599852134114826 0 -0.001127602778174647 -0.02168036997969465 0 -0.0010274554376856898 -0.021739135182162975 0 -0.0011175131669316002 -0.021583363994184725 0 -0.00096998413174627103 -0.021690216740685865 0 -0.0010274554376856898 -0.021739135182162975 0 -0.0010396445383091752 -0.021601922570059315 0 -0.0011617459660981393 -0.021590251881198882 0 -0.00096998413174627103 -0.021690216740685865 0 -0.00093649042764944884 -0.021575069364631386 0 -0.00096998413174627103 -0.021690216740685865 0 -0.00092522884359697911 -0.021791257925359572 0 -0.0012254236791807735 -0.021206236602268443 0 -0.0011265300487851902 -0.021304467670183558 0 -0.0010396445383091752 -0.021601922570059315 0 -0.00093649042764944884 -0.021575069364631386 0 -0.00096998413174627103 -0.021690216740685865 0 -0.00096998413174627103 -0.021690216740685865 0 -0.0010274554376856898 -0.021739135182162975 0 -0.00092522884359697911 -0.021791257925359572 0 -0.00048419366266630768 -0.025213098114531502 0 -0.0003030151510443506 -0.025502825335040405 0 -0.00031941036405035492 -0.025512418876428619 0 -0.00066342291319686979 -0.023452036467409364 0 2.8996336504677254e-05 -0.024168956707329832 0 -0.00025351354562415092 -0.025162584158604399 0 -0.00048419366266630768 -0.025213098114531502 0 -0.0003030151510443506 -0.025502825335040405 0 -0.00093649042764944884 -0.021575069364631386 0 -0.00079967212274379199 -0.021859928433111214 0 -0.00092522884359697911 -0.021791257925359572 0 -0.00012861601783101823 -0.024930805867399781 0 -7.376431547316983e-06 -0.024280615188739703 0 0.00019938470206750294 -0.023953112146722761 0 0.0001599514320923102 -0.023976658257707242 0 0.00018797110037111994 -0.024032107997584071 0 -7.376431547316983e-06 -0.024280615188739703 0 2.8996336504677254e-05 -0.024168956707329832 0 0.00057757265928151137 -0.024575738242385486 0 0.00056831756302616165 -0.024557365092962871 0 0.00065845086357060878 -0.024443902562604342 0 2.8996336504677254e-05 -0.024168956707329832 0 5.1351809160761883e-05 -0.024291079987623327 0 -7.376431547316983e-06 -0.024280615188739703 0 5.1351809160761883e-05 -0.024291079987623327 0 -0.00079967212274379199 -0.021859928433111214 0 -0.0010133033746486388 -0.021863310591865168 0 -0.0010465684516867602 -0.021993562821986244 0 -0.00079967212274379199 -0.021859928433111214 0 -0.00092522884359697911 -0.021791257925359572 0 -0.0010133033746486388 -0.021863310591865168 0 2.8996336504677254e-05 -0.024168956707329832 0 4.3200989837557708e-06 -0.023375593580386603 0 -0.0010274554376856898 -0.021739135182162975 0 -0.00092522884359697911 -0.021791257925359572 0 -0.0010133033746486388 -0.021863310591865168 0 0.00057757265928151137 -0.024575738242385486 0 0.0008029052026525032 -0.024449889589086352 0 0.00065845086357060878 -0.024443902562604342 0 0.0008029052026525032 -0.024449889589086352 0 0.00073063106648786809 -0.024339925264790344 0 0.00091590801822060493 -0.024317728252832609 0 0.0008029052026525032 -0.024449889589086352 0 0.00065845086357060878 -0.024443902562604342 0 0.00073063106648786809 -0.024339925264790344 0 0.00020463445196783195 -0.024964724175219194 0 0.00035649301736664658 -0.025271553420775951 0 0.00046941176167277724 -0.024803608819797384 0 0.00056831756302616165 -0.024557365092962871 0 0.00065845086357060878 -0.024443902562604342 0 0.00061560198561857484 -0.024301769586772118 0 5.1351809160761883e-05 -0.024291079987623327 0 0.00029020988051063059 -0.024444385077154886 0 0.00065845086357060878 -0.024443902562604342 0 0.00061560198561857484 -0.024301769586772118 0 0.00073063106648786809 -0.024339925264790344 0 0.00061560198561857484 -0.024301769586772118 0 0.00073063106648786809 -0.024339925264790344 0 0.00073812242388825763 -0.024207332074289243 0 0.00073063106648786809 -0.024339925264790344 0 0.00091590801822060493 -0.024317728252832609 0 0.00073812242388825763 -0.024207332074289243 0 0.00091590801822060493 -0.024317728252832609 0 0.0010154364885995102 -0.024087032203403184 0 0.00073812242388825763 -0.024207332074289243 0 0.0008029052026525032 -0.024449889589086352 0 0.00091590801822060493 -0.024317728252832609 0 0.0010441340817127355 -0.024315045505935797 0 0.0011124217113743543 -0.024312234032422258 0 0.0012523733102044376 -0.02408337567695891 0 0.0010154364885995102 -0.024087032203403184 0 0.0011124217113743543 -0.024312234032422258 0 0.0014176740176377854 -0.024311692798920703 0 0.0012523733102044376 -0.02408337567695891 0 0.00091590801822060493 -0.024317728252832609 0 0.0011124217113743543 -0.024312234032422258 0 0.0010154364885995102 -0.024087032203403184 0 0.00014018756360727181 -0.022649264780023076 0 -6.8266065635212068e-05 -0.021516961910469281 0 0.00033153846409814564 -0.022758783100296599 0 0.00014018756360727181 -0.022649264780023076 0 -0.0013572630503353121 -0.021867692965050856 0 -0.0012446135824332378 -0.021977660856936716 0 -0.0014425520463685389 -0.022128648501281829 0 -0.0012799951441949881 -0.022125913647272823 0 -0.0012446135824332378 -0.021977660856936716 0 -0.0014425520463685389 -0.022128648501281829 0 -0.0011527187924158851 -0.021845432284902482 0 -0.0010465684516867602 -0.021993562821986244 0 -0.0012446135824332378 -0.021977660856936716 0 4.3200989837557708e-06 -0.023375593580386603 0 0.00014018756360727181 -0.022649264780023076 0 -0.0010465684516867602 -0.021993562821986244 0 -0.0012799951441949881 -0.022125913647272823 0 -0.0012446135824332378 -0.021977660856936716 0 -0.0012740722697474284 -0.018827679234891932 0 -0.0010461224627942144 -0.019188159425204101 0 -0.0014697866568683566 -0.019186289865001083 0 -0.0012740722697474284 -0.018827679234891932 0 -0.0014697866568683566 -0.019186289865001083 0 -0.0015617495933921378 -0.018848870764199319 0 -0.00084216399095315953 -0.018634267491346657 0 -0.0012740722697474284 -0.018827679234891932 0 -0.0010461224627942144 -0.019188159425204101 0 -0.00079818584429333628 -0.020502353001764596 0 -6.8266065635212068e-05 -0.021516961910469281 0 -6.8266065635212068e-05 -0.021516961910469281 0 -0.0003732977700918021 -0.02057312959669989 0 0.0028192404086494296 -0.019295620030273984 0 0.0010335250514917646 -0.019334227167257034 0 0.0022285803798007312 -0.021009562987723891 0 -0.0003732977700918021 -0.02057312959669989 0 -0.0010677999962203904 -0.020147177805789927 0 -0.0014697866568683566 -0.019186289865001083 0 -0.0018302399610805843 -0.019218330173399197 0 -0.0015617495933921378 -0.018848870764199319 0 0.0010335250514917646 -0.019334227167257034 0 -0.00062078128026774157 -0.019429619016875045 0 -0.00029385188048767846 -0.020600614183781594 0 -0.00062078128026774157 -0.019429619016875045 0 -0.0021081735509322734 -0.019466203293540686 0 -0.0012722933348694994 -0.020620258905955154 0 -0.0010677999962203904 -0.020147177805789927 0 -0.0014649115469343808 -0.020033532438716542 0 -0.0018302399610805843 -0.019218330173399197 0 -0.0018819547236132975 -0.018717151394913003 0 -0.0020528178522914377 -0.018941482617739813 0 -0.0018302399610805843 -0.019218330173399197 0 -0.0015617495933921378 -0.018848870764199319 0 -0.0018819547236132975 -0.018717151394913003 0 -0.0015617495933921378 -0.018848870764199319 0 -0.0015623092819301177 -0.018489836164974845 0 -0.0018819547236132975 -0.018717151394913003 0 -0.0015623092819301177 -0.018489836164974845 0 -0.0018819547236132975 -0.018717151394913003 0 -0.0020935962826764379 -0.018266654864983748 0 -0.0018819547236132975 -0.018717151394913003 0 -0.0021990982741891076 -0.018506063884852438 0 -0.0020528178522914377 -0.018941482617739813 0 -0.0018819547236132975 -0.018717151394913003 0 -0.0020935962826764379 -0.018266654864983748 0 -0.0021990982741891076 -0.018506063884852438 0 -0.0020935962826764379 -0.018266654864983748 0 -0.0016790879305813096 -0.018121951145230953 0 -0.0019364324724743234 -0.017876097937943616 0 -0.0015623092819301177 -0.018489836164974845 0 -0.0020935962826764379 -0.018266654864983748 0 -0.0016790879305813096 -0.018121951145230953 0 -0.0015623092819301177 -0.018489836164974845 0 -0.0016790879305813096 -0.018121951145230953 0 -0.0013970841090697181 -0.018160871096488906 0 -0.0015623092819301177 -0.018489836164974845 0 -0.0013970841090697181 -0.018160871096488906 0 -0.0011802789819405871 -0.018350484637037954 0 -0.0013970841090697181 -0.018160871096488906 0 -0.0011802789819405871 -0.018350484637037954 0 -0.0011653100222669707 -0.018065488195088124 0 -0.0012740722697474284 -0.018827679234891932 0 -0.0015617495933921378 -0.018848870764199319 0 -0.0015623092819301177 -0.018489836164974845 0 -0.0012740722697474284 -0.018827679234891932 0 -0.0015623092819301177 -0.018489836164974845 0 -0.0011802789819405871 -0.018350484637037954 0 -0.00084216399095315953 -0.018634267491346657 0 -0.0012740722697474284 -0.018827679234891932 0 -0.0011802789819405871 -0.018350484637037954 0 -0.00084216399095315953 -0.018634267491346657 0 -0.0011802789819405871 -0.018350484637037954 0 -0.00095198558768476405 -0.018192176180709316 0 -0.0011802789819405871 -0.018350484637037954 0 -0.00095198558768476405 -0.018192176180709316 0 -0.0011653100222669707 -0.018065488195088124 0 -0.0020701585346693781 -0.020095047453872153 0 -0.0025380652884064007 -0.019225153835911148 0 -0.00095198558768476405 -0.018192176180709316 0 -0.0011653100222669707 -0.018065488195088124 0 -0.00094678688593895547 -0.017855426955482829 0 -0.0011653100222669707 -0.018065488195088124 0 -0.00094678688593895547 -0.017855426955482829 0 -0.0014136445191682569 -0.017858498668637871 0 -0.0047696023101522871 -0.018221895565248003 0 -0.0041729335084776577 -0.018182788254194237 0 -0.0042616130879133997 -0.018527017150492708 0 -0.0016790879305813096 -0.018121951145230953 0 -0.0013970841090697181 -0.018160871096488906 0 -0.0014136445191682569 -0.017858498668637871 0 -0.0013970841090697181 -0.018160871096488906 0 -0.0011653100222669707 -0.018065488195088124 0 -0.0014136445191682569 -0.017858498668637871 0 -0.0023857126995022473 -0.020436447841775545 0 -0.0023278400494369808 -0.020361982779480037 0 -0.0027230540170208473 -0.020241474462493483 0 -0.0021202491916986455 -0.020628251592506544 0 -0.002674216611737161 -0.020267914938374727 0 -0.001901901816436496 -0.021223174316131174 0 -0.002109297813914291 -0.021073795047506314 0 -0.0022117932648716317 -0.021130214071007774 0 -0.0028462353252591429 -0.01987977407513988 0 -0.002674216611737161 -0.020267914938374727 0 -0.0041729335084776577 -0.018182788254194237 0 -0.0042616130879133997 -0.018527017150492708 0 -0.0038463193940926244 -0.01844856799810499 0 -0.001901901816436496 -0.021223174316131174 0 -0.0017981121581854638 -0.021188025312000609 0 -0.0019907605433057587 -0.021059464120123664 0 -0.0015948158093707086 -0.021313885516463498 0 -0.001901901816436496 -0.021223174316131174 0 -0.0017981121581854638 -0.021188025312000609 0 -0.0016292653261078746 -0.020904317057270555 0 -0.0021202491916986455 -0.020628251592506544 0 -0.0020701585346693781 -0.020095047453872153 0 -0.0028462353252591429 -0.01987977407513988 0 -0.0019138269028796146 -0.020490922796597758 0 -0.0020480294600635604 -0.020634010794367399 0 -0.0023278400494369808 -0.020361982779480037 0 -0.0020480294600635604 -0.020634010794367399 0 -0.0023857126995022473 -0.020436447841775545 0 -0.0023278400494369808 -0.020361982779480037 0 -0.0016292653261078746 -0.020904317057270555 0 -0.0016887477904058523 -0.020968138826479771 0 -0.0015899375693638441 -0.021214063564378358 0 -0.0017512466208853927 -0.021174812164931514 0 -0.0016678915755525883 -0.021134820652629931 0 -0.0016292653261078746 -0.020904317057270555 0 -0.001668408371328173 -0.020975936996984485 0 -0.0015899375693638441 -0.021214063564378358 0 -0.0015408602074884338 -0.021370057481833585 0 -0.0017512466208853927 -0.021174812164931514 0 -0.0016079766993617745 -0.021303522656963576 0 -0.0018012426709413246 -0.021181941535195491 0 -0.0017807202438007304 -0.021140908005785199 0 -0.0015899375693638441 -0.021214063564378358 0 -0.0016678915755525883 -0.021134820652629931 0 -0.001623674590687324 -0.021053551629497132 0 -0.001707466637713039 -0.021097479155805714 0 -0.001623674590687324 -0.021053551629497132 0 -0.0017957503632483986 -0.021010552156626883 0 -0.0014532760109880723 -0.021060462260524517 0 -0.001623674590687324 -0.021053551629497132 0 -0.0017201653959827248 -0.02086653865108198 0 -0.0017512466208853927 -0.021174812164931514 0 -0.0016678915755525883 -0.021134820652629931 0 -0.001707466637713039 -0.021097479155805714 0 -0.0016678915755525883 -0.021134820652629931 0 -0.001707466637713039 -0.021097479155805714 0 -0.001623674590687324 -0.021053551629497132 0 -0.001623674590687324 -0.021053551629497132 0 -0.0017957503632483986 -0.021010552156626883 0 -0.0017201653959827248 -0.02086653865108198 0 -0.0017957503632483986 -0.021010552156626883 0 -0.0019583507866325445 -0.020969322841786653 0 -0.0017201653959827248 -0.02086653865108198 0 -0.0017512466208853927 -0.021174812164931514 0 -0.0017957503632483986 -0.021010552156626883 0 -0.0019583507866325445 -0.020969322841786653 0 -0.0017512466208853927 -0.021174812164931514 0 -0.001707466637713039 -0.021097479155805714 0 -0.0017957503632483986 -0.021010552156626883 0 -0.0018012426709413246 -0.021181941535195491 0 -0.0017807202438007304 -0.021140908005785199 0 -0.0019907605433057587 -0.021059464120123664 0 -0.001668408371328173 -0.020975936996984485 0 -0.0017199398117677361 -0.020959943864746245 0 -0.0016887477904058523 -0.020968138826479771 0 -0.0017378001471224586 -0.020965129235492021 0 -0.0019583507866325445 -0.020969322841786653 0 -0.0017201653959827248 -0.02086653865108198 0 -0.0020997596794258542 -0.020958215593923236 0 -0.0017807202438007304 -0.021140908005785199 0 -0.0019907605433057587 -0.021059464120123664 0 -0.0019583507866325445 -0.020969322841786653 0 -0.001901901816436496 -0.021223174316131174 0 -0.0019907605433057587 -0.021059464120123664 0 -0.002109297813914291 -0.021073795047506314 0 -0.0019907605433057587 -0.021059464120123664 0 -0.0020997596794258542 -0.020958215593923236 0 -0.002109297813914291 -0.021073795047506314 0 -0.0019907605433057587 -0.021059464120123664 0 -0.0019583507866325445 -0.020969322841786653 0 -0.0020997596794258542 -0.020958215593923236 0 -0.002349481515208821 -0.02151740950795562 0 -0.0025052096132973305 -0.020845799308415784 0 -0.0031352756205845571 -0.020733641383621292 0 -0.0035714782962010354 -0.020307885635316814 0 -0.0030262812035512184 -0.020144732473943359 0 -0.0035395990676548848 -0.020822885811674737 0 -0.0031352756205845571 -0.020733641383621292 0 -0.0035714782962010354 -0.020307885635316814 0 -0.002808502537555799 -0.020636416955184162 0 -0.0027589770710338747 -0.0202181306310328 0 -0.0026244515009760474 -0.020328377368381598 0 -0.0027589770710338747 -0.0202181306310328 0 -0.0026244515009760474 -0.020328377368381598 0 -0.0026445154567033618 -0.020021699333308773 0 -0.002808502537555799 -0.020636416955184162 0 -0.0027589770710338747 -0.0202181306310328 0 -0.0030262812035512184 -0.020144732473943359 0 -0.002808502537555799 -0.020636416955184162 0 -0.0031352756205845571 -0.020733641383621292 0 -0.0030262812035512184 -0.020144732473943359 0 -0.0027589770710338747 -0.0202181306310328 0 -0.0030262812035512184 -0.020144732473943359 0 -0.0026977353884887483 -0.019980586814371509 0 -0.0025052096132973305 -0.020845799308415784 0 -0.0026603304148482532 -0.020351954501862588 0 -0.0020997596794258542 -0.020958215593923236 0 -0.0022740905905574592 -0.021092967559515351 0 -0.0024564301067091371 -0.021051201049976036 0 -0.0020997596794258542 -0.020958215593923236 0 -0.002109297813914291 -0.021073795047506314 0 -0.0022740905905574592 -0.021092967559515351 0 -0.002109297813914291 -0.021073795047506314 0 -0.0022117932648716317 -0.021130214071007774 0 -0.0022740905905574592 -0.021092967559515351 0 -0.002674216611737161 -0.020267914938374727 0 -0.0026513746136780174 -0.020287004132806749 0 -0.0022130290461612975 -0.021129379847742803 0 -0.0022740905905574592 -0.021092967559515351 0 -0.0024564301067091371 -0.021051201049976036 0 -0.002674216611737161 -0.020267914938374727 0 -0.0026603304148482532 -0.020351954501862588 0 -0.0027589770710338747 -0.0202181306310328 0 -0.0026977353884887483 -0.019980586814371509 0 -0.0026445154567033618 -0.020021699333308773 0 -0.0031462770616099782 -0.019019918939385611 0 -0.0032142239238592261 -0.019043341571696494 0 -0.0030468664304173017 -0.018772304388307955 0 -0.0026642787178277187 -0.020348016964793235 0 -0.0026603304148482532 -0.020351954501862588 0 -0.0037055780713138517 -0.018876000525281444 0 -0.0032142239238592261 -0.019043341571696494 0 -0.0033708028596214929 -0.018619290935398432 0 -0.0032142239238592261 -0.019043341571696494 0 -0.0030468664304173017 -0.018772304388307955 0 -0.0033708028596214929 -0.018619290935398432 0 -0.0030468664304173017 -0.018772304388307955 0 -0.0033708028596214929 -0.018619290935398432 0 -0.0030417976576856487 -0.018435975366680915 0 -0.0033708028596214929 -0.018619290935398432 0 -0.0030417976576856487 -0.018435975366680915 0 -0.0035311133823655669 -0.018108738809396591 0 -0.0042616130879133997 -0.018527017150492708 0 -0.0037055780713138517 -0.018876000525281444 0 -0.0038463193940926244 -0.01844856799810499 0 -0.0037055780713138517 -0.018876000525281444 0 -0.0033708028596214929 -0.018619290935398432 0 -0.0038463193940926244 -0.01844856799810499 0 -0.0033708028596214929 -0.018619290935398432 0 -0.0038463193940926244 -0.01844856799810499 0 -0.0035311133823655669 -0.018108738809396591 0 -0.0041729335084776577 -0.018182788254194237 0 -0.0038463193940926244 -0.01844856799810499 0 -0.0035311133823655669 -0.018108738809396591 0 -0.0016790879305813096 -0.018121951145230953 0 -0.0014136445191682569 -0.017858498668637871 0 -0.0019364324724743234 -0.017876097937943616 0 -0.0025380652884064007 -0.019225153835911148 0 -0.002617358068260339 -0.018800659695800748 0 -0.0030417976576856487 -0.018435975366680915 0 -0.0035311133823655669 -0.018108738809396591 0 -0.0026230959932498784 -0.018044626200534267 0 -0.0020935962826764379 -0.018266654864983748 0 -0.0019364324724743234 -0.017876097937943616 0 -0.0026230959932498784 -0.018044626200534267 0 -0.002617358068260339 -0.018800659695800748 0 -0.0026036950497512899 -0.01867611877244757 0 -0.0026230959932498784 -0.018044626200534267 0 -0.0025736496282891346 -0.018244233133583164 0 -0.0025840956914161385 -0.01799429072541241 0 -0.0026230959932498784 -0.018044626200534267 0 -0.0025736496282891346 -0.018244233133583164 0 -0.0027539750879303961 -0.018528396246700909 0 -0.0025736496282891346 -0.018244233133583164 0 -0.0024546692258929814 -0.018229575678710551 0 -0.0025840956914161385 -0.01799429072541241 0 -0.0025736496282891346 -0.018244233133583164 0 -0.0024644486485808563 -0.018870794231435638 0 -0.0024546692258929814 -0.018229575678710551 0 -0.0025736496282891346 -0.018244233133583164 0 -0.0024644486485808563 -0.018870794231435638 0 -0.0027539750879303961 -0.018528396246700909 0 -0.0030417976576856487 -0.018435975366680915 0 -0.0026230959932498784 -0.018044626200534267 0 -0.0027539750879303961 -0.018528396246700909 0 -0.0030468664304173017 -0.018772304388307955 0 -0.0030417976576856487 -0.018435975366680915 0 -0.0027539750879303961 -0.018528396246700909 0 -0.0024644486485808563 -0.018870794231435638 0 -0.0027539750879303961 -0.018528396246700909 0 -0.0027916935384318629 -0.018929388140551052 0 -0.0030468664304173017 -0.018772304388307955 0 -0.0027539750879303961 -0.018528396246700909 0 -0.0027916935384318629 -0.018929388140551052 0 -0.0031462770616099782 -0.019019918939385611 0 -0.0030468664304173017 -0.018772304388307955 0 -0.0027916935384318629 -0.018929388140551052 0 -0.0031462770616099782 -0.019019918939385611 0 -0.0027916935384318629 -0.018929388140551052 0 -0.0024790837215925778 -0.019589286134956186 0 -0.0026603304148482532 -0.020351954501862588 0 -0.0026323838993005024 -0.020165483993569697 0 -0.0026977353884887483 -0.019980586814371509 0 -0.0024790837215925778 -0.019589286134956186 0 -0.0026445154567033618 -0.020021699333308773 0 -0.0031462770616099782 -0.019019918939385611 0 -0.0032311303325756992 -0.019019817267483526 0 -0.0024790837215925778 -0.019589286134956186 0 -0.0024644486485808563 -0.018870794231435638 0 -0.0024790837215925778 -0.019589286134956186 0 -0.0021507284784595244 -0.01966566883579695 0 -0.0024644486485808563 -0.018870794231435638 0 -0.0027916935384318629 -0.018929388140551052 0 -0.0024790837215925778 -0.019589286134956186 0 -0.0023482106331484303 -0.020329767754284897 0 -0.0024790837215925778 -0.019589286134956186 0 -0.0021507284784595244 -0.01966566883579695 0 -0.0020140647742345505 -0.020113774221547472 0 -0.0023482106331484303 -0.020329767754284897 0 -0.0021507284784595244 -0.01966566883579695 0 -0.0024790837215925778 -0.019589286134956186 0 -0.0026244515009760474 -0.020328377368381598 0 -0.0026445154567033618 -0.020021699333308773 0 -0.0023482106331484303 -0.020329767754284897 0 -0.0024790837215925778 -0.019589286134956186 0 -0.0026244515009760474 -0.020328377368381598 0 -0.0014791494091124246 -0.019796604628732915 0 -0.0018487714963159297 -0.019818094064081547 0 -0.0018861176743651712 -0.019214096696550911 0 -0.0017049870164117221 -0.020291429860035157 0 -0.0014791494091124246 -0.019796604628732915 0 -0.0018487714963159297 -0.019818094064081547 0 -0.0018487714963159297 -0.019818094064081547 0 -0.0021507284784595244 -0.01966566883579695 0 -0.0018861176743651712 -0.019214096696550911 0 -0.0020140647742345505 -0.020113774221547472 0 -0.0018487714963159297 -0.019818094064081547 0 -0.0021507284784595244 -0.01966566883579695 0 -0.0024644486485808563 -0.018870794231435638 0 -0.0021507284784595244 -0.01966566883579695 0 -0.0018861176743651712 -0.019214096696550911 0 -0.0014791494091124246 -0.019796604628732915 0 -0.0018861176743651712 -0.019214096696550911 0 -0.0013419591148371561 -0.019033689468798382 0 -0.0018861176743651712 -0.019214096696550911 0 -0.0019036554656585601 -0.018216262541949073 0 -0.0013419591148371561 -0.019033689468798382 0 -0.0018861176743651712 -0.019214096696550911 0 -0.0024546692258929814 -0.018229575678710551 0 -0.0019036554656585601 -0.018216262541949073 0 -0.0024644486485808563 -0.018870794231435638 0 -0.0018861176743651712 -0.019214096696550911 0 -0.0024546692258929814 -0.018229575678710551 0 -0.0024546692258929814 -0.018229575678710551 0 -0.0019036554656585601 -0.018216262541949073 0 -0.0027928462420447652 -0.017545956921922925 0 -0.0019036554656585601 -0.018216262541949073 0 -0.0027928462420447652 -0.017545956921922925 0 -0.0016255924125177694 -0.016953656173664001 0 -0.0028104078926096108 -0.015585981809396647 0 -0.0016255924125177694 -0.016953656173664001 0 -0.0016871312462921344 -0.01536712056260797 0 -0.0027928462420447652 -0.017545956921922925 0 -0.0028104078926096108 -0.015585981809396647 0 -0.0016255924125177694 -0.016953656173664001 0 -0.0027928462420447652 -0.017545956921922925 0 -0.0025606980666101446 -0.018633325214410315 0 -0.0035041495415705903 -0.018736202677598197 0 -0.00297525336475065 -0.017416579307104468 0 -0.0029797935310853793 -0.017304687301820703 0 -0.0024546692258929814 -0.018229575678710551 0 -0.0027928462420447652 -0.017545956921922925 0 -0.0025840956914161385 -0.01799429072541241 0 -0.0020935962826764379 -0.018266654864983748 0 -0.0026230959932498784 -0.018044626200534267 0 -0.0025840956914161385 -0.01799429072541241 0 -0.0020935962826764379 -0.018266654864983748 0 -0.0025840956914161385 -0.01799429072541241 0 -0.0021990982741891076 -0.018506063884852438 0 -0.0025840956914161385 -0.01799429072541241 0 -0.0021990982741891076 -0.018506063884852438 0 -0.0025606980666101446 -0.018633325214410315 0 -0.0027928462420447652 -0.017545956921922925 0 -0.0025840956914161385 -0.01799429072541241 0 -0.0025606980666101446 -0.018633325214410315 0 -0.0025606980666101446 -0.018633325214410315 0 -0.0020528178522914377 -0.018941482617739813 0 -0.0021081735509322734 -0.019466203293540686 0 -0.0021990982741891076 -0.018506063884852438 0 -0.0025606980666101446 -0.018633325214410315 0 -0.0020528178522914377 -0.018941482617739813 0 -0.0018302399610805843 -0.019218330173399197 0 -0.0020528178522914377 -0.018941482617739813 0 -0.0021081735509322734 -0.019466203293540686 0 -0.0021081735509322734 -0.019466203293540686 0 -0.0029193487158948096 -0.019917067096602938 0 -0.0021479748604045223 -0.020571614529194607 0 -0.0025606980666101446 -0.018633325214410315 0 -0.0021081735509322734 -0.019466203293540686 0 -0.0029193487158948096 -0.019917067096602938 0 -0.0029193487158948096 -0.019917067096602938 0 -0.0039311006801790302 -0.02005552146044037 0 -0.0035041495415705903 -0.018736202677598197 0 -0.0028987154215521825 -0.017216539968467958 0 -0.0029797935310853793 -0.017304687301820703 0 -0.0025720742356014435 -0.014117204091545559 0 -0.0028104078926096108 -0.015585981809396647 0 -0.0016871312462921344 -0.01536712056260797 0 -0.0025606980666101446 -0.018633325214410315 0 -0.0029193487158948096 -0.019917067096602938 0 -0.0035041495415705903 -0.018736202677598197 0 -0.0032367028869997949 -0.021613600137938095 0 -0.0041335511690277493 -0.021534747444430635 0 -0.0033303708969226911 -0.020804433696004727 0 -0.0032367028869997949 -0.021613600137938095 0 -0.0033303708969226911 -0.020804433696004727 0 -0.0026488161873665498 -0.021091667982254418 0 -0.0028987154215521825 -0.017216539968467958 0 -0.0026119868921715438 -0.017175097274260073 0 -0.0039311006801790302 -0.02005552146044037 0 -0.0041335511690277493 -0.021534747444430635 0 -0.0033303708969226911 -0.020804433696004727 0 -0.0025720742356014435 -0.014117204091545559 0 -0.0023013609555528332 -0.01285704146025413 0 -0.0014665760864846198 -0.013223616459867197 0 -0.0029193487158948096 -0.019917067096602938 0 -0.0039311006801790302 -0.02005552146044037 0 -0.0033303708969226911 -0.020804433696004727 0 -0.0029193487158948096 -0.019917067096602938 0 -0.0033303708969226911 -0.020804433696004727 0 -0.0026488161873665498 -0.021091667982254418 0 -0.0029193487158948096 -0.019917067096602938 0 -0.0021479748604045223 -0.020571614529194607 0 -0.0026488161873665498 -0.021091667982254418 0 -0.0021479748604045223 -0.020571614529194607 0 -0.0016433381165357744 -0.021771978702591049 0 -0.0012722933348694994 -0.020620258905955154 0 -0.0021081735509322734 -0.019466203293540686 0 -0.0021479748604045223 -0.020571614529194607 0 -0.0012722933348694994 -0.020620258905955154 0 -0.0021479748604045223 -0.020571614529194607 0 -0.0016433381165357744 -0.021771978702591049 0 -0.0026488161873665498 -0.021091667982254418 0 -0.0016433381165357744 -0.021771978702591049 0 -0.0026488161873665498 -0.021091667982254418 0 -0.0024617516425321519 -0.021994847881839912 0 -0.0032367028869997949 -0.021613600137938095 0 -0.0026488161873665498 -0.021091667982254418 0 -0.0024617516425321519 -0.021994847881839912 0 -0.0024617516425321519 -0.021994847881839912 0 -0.0020215652518195152 -0.022763747573089427 0 -0.0034016710841880933 -0.022380770390421079 0 -0.0020547409191154159 -0.022589400733062651 0 -0.0026122026543991886 -0.022518805278711921 0 -0.0020215652518195152 -0.022763747573089427 0 -0.0013360947025052537 -0.022451696078623039 0 -0.00063569174063978699 -0.022984257040215058 0 -0.0016433381165357744 -0.021771978702591049 0 -0.001838767847584134 -0.022264623392238597 0 -0.0013360947025052537 -0.022451696078623039 0 -0.0024617516425321519 -0.021994847881839912 0 -0.001838767847584134 -0.022264623392238597 0 -0.0020215652518195152 -0.022763747573089427 0 -0.0016433381165357744 -0.021771978702591049 0 -0.0024617516425321519 -0.021994847881839912 0 -0.001838767847584134 -0.022264623392238597 0 -0.001838767847584134 -0.022264623392238597 0 -0.0020215652518195152 -0.022763747573089427 0 -0.0013360947025052537 -0.022451696078623039 0 -0.0020547409191154159 -0.022589400733062651 0 -0.0010406212705826104 -0.022692948918203493 0 -0.0024277590508148075 -0.02247377839853465 0 -0.0023714803688427337 -0.022779678878755951 0 -0.0019660466548969591 -0.022816643141870343 0 -0.0010630849561002625 -0.020193654431748503 0 -0.0012492892157155734 -0.019465943648531138 0 -0.0023714803688427337 -0.022779678878755951 0 -0.0020678680058333347 -0.023178947986766726 0 -0.0019660466548969591 -0.022816643141870343 0 -0.0024277590508148075 -0.02247377839853465 0 -0.0029575727803249764 -0.022739618574715518 0 -0.0034016710841880933 -0.022380770390421079 0 -0.0023714803688427337 -0.022779678878755951 0 -0.0029575727803249764 -0.022739618574715518 0 -0.0031464568573838264 -0.023504927336981458 0 -0.0024277590508148075 -0.02247377839853465 0 -0.0023714803688427337 -0.022779678878755951 0 -0.0029575727803249764 -0.022739618574715518 0 -0.0035868460707188894 -0.023014994285878391 0 -0.0034016710841880933 -0.022380770390421079 0 -0.0041640608737699052 -0.022724238990072376 0 -0.0029575727803249764 -0.022739618574715518 0 -0.0035868460707188894 -0.023014994285878391 0 -0.0031464568573838264 -0.023504927336981458 0 -0.0029575727803249764 -0.022739618574715518 0 -0.0035868460707188894 -0.023014994285878391 0 -0.0034016710841880933 -0.022380770390421079 0 -0.0032367028869997949 -0.021613600137938095 0 -0.0024617516425321519 -0.021994847881839912 0 -0.0034016710841880933 -0.022380770390421079 0 -0.0032367028869997949 -0.021613600137938095 0 -0.0041335511690277493 -0.021534747444430635 0 -0.0034016710841880933 -0.022380770390421079 0 -0.0026119868921715438 -0.017175097274260073 0 -0.001933706367204176 -0.016852257890995734 0 -0.0041335511690277493 -0.021534747444430635 0 -0.0034016710841880933 -0.022380770390421079 0 -0.0041640608737699052 -0.022724238990072376 0 -0.0023013609555528332 -0.01285704146025413 0 -0.0018613381524004101 -0.011491596659202567 0 -0.0016506177451325378 -0.01225046224029205 0 -0.001933706367204176 -0.016852257890995734 0 -0.00042805318443652011 -0.015057406217210063 0 -0.0018613381524004101 -0.011491596659202567 0 -0.0012831224148088681 -0.010215112943267273 0 -0.001241260342814042 -0.010729252752296871 0 -0.0035868460707188894 -0.023014994285878391 0 -0.0041640608737699052 -0.022724238990072376 0 -0.0042521314805220181 -0.023704262478489415 0 -0.0014181442994525336 -0.01761009183580298 0 -0.00042805318443652011 -0.015057406217210063 0 -0.0035868460707188894 -0.023014994285878391 0 -0.0031464568573838264 -0.023504927336981458 0 -0.0042521314805220181 -0.023704262478489415 0 -0.00019294626633698951 -0.013046146496514517 0 -0.00015135694517275636 -0.012915100518452132 0 -0.0001537223656115429 -0.013209059167717922 0 -0.00019294626633698951 -0.013046146496514517 0 3.1909691374045927e-05 -0.013221379304151341 0 -0.00015135694517275636 -0.012915100518452132 0 3.1909691374045927e-05 -0.013221379304151341 0 -0.00015135694517275636 -0.012915100518452132 0 6.0205870375096306e-05 -0.012157892496383394 0 -0.00042805318443652011 -0.015057406217210063 0 -0.0001167216095302271 -0.012920063243026971 0 -0.00015135694517275636 -0.012915100518452132 0 -9.5665987133758211e-05 -0.012834188419440416 0 6.0205870375096306e-05 -0.012157892496383394 0 -0.00015135694517275636 -0.012915100518452132 0 -9.5665987133758211e-05 -0.012834188419440416 0 -0.0001537223656115429 -0.013209059167717922 0 -9.5665987133758211e-05 -0.012834188419440416 0 -0.0001537223656115429 -0.013209059167717922 0 -9.5348465198224407e-05 -0.013474644289197405 0 -9.5348465198224407e-05 -0.013474644289197405 0 -3.007670148882352e-08 -0.012894136725462168 0 -9.4448132004552937e-08 -0.014391376790932192 0 -9.5665987133758211e-05 -0.012834188419440416 0 -3.007670148882352e-08 -0.012894136725462168 0 6.0205870375096306e-05 -0.012157892496383394 0 -9.5665987133758211e-05 -0.012834188419440416 0 -9.5348465198224407e-05 -0.013474644289197405 0 -3.007670148882352e-08 -0.012894136725462168 0 8.2760849012649166e-05 -0.01513233509412215 0 -9.4448132004552937e-08 -0.014391376790932192 0 3.5764489006245859e-07 -0.015890332630899371 0 0.00043748684573513585 -0.014184791997820105 0 8.2760849012649166e-05 -0.01513233509412215 0 -7.986734369926121e-06 -0.013993416115079647 0 0.00043748684573513585 -0.014184791997820105 0 8.2760849012649166e-05 -0.01513233509412215 0 0.0010578727083931359 -0.014411359800905316 0 -9.5348465198224407e-05 -0.013474644289197405 0 -9.4448132004552937e-08 -0.014391376790932192 0 -7.986734369926121e-06 -0.013993416115079647 0 8.2760849012649166e-05 -0.01513233509412215 0 -9.4448132004552937e-08 -0.014391376790932192 0 -7.986734369926121e-06 -0.013993416115079647 0 -0.0001537223656115429 -0.013209059167717922 0 -9.5348465198224407e-05 -0.013474644289197405 0 -7.986734369926121e-06 -0.013993416115079647 0 -0.0001537223656115429 -0.013209059167717922 0 -7.986734369926121e-06 -0.013993416115079647 0 -7.8987838479787763e-06 -0.013339180910257153 0 -7.986734369926121e-06 -0.013993416115079647 0 0.00037061269390196376 -0.013601106815017579 0 -7.8987838479787763e-06 -0.013339180910257153 0 0.00043748684573513585 -0.014184791997820105 0 -7.986734369926121e-06 -0.013993416115079647 0 0.00037061269390196376 -0.013601106815017579 0 0.00043748684573513585 -0.014184791997820105 0 0.00037061269390196376 -0.013601106815017579 0 0.00091092514762554453 -0.013819176783960977 0 0.00037061269390196376 -0.013601106815017579 0 0.0002680901079664528 -0.013178269632232601 0 0.001013617116788673 -0.013258804608181168 0 0.0002680901079664528 -0.013178269632232601 0 0.00050284356628929312 -0.01274413819644254 0 0.001013617116788673 -0.013258804608181168 0 0.00037061269390196376 -0.013601106815017579 0 0.0002680901079664528 -0.013178269632232601 0 -7.8987838479787763e-06 -0.013339180910257153 0 -0.00019294626633698951 -0.013046146496514517 0 0.0002680901079664528 -0.013178269632232601 0 -7.8987838479787763e-06 -0.013339180910257153 0 -0.00019294626633698951 -0.013046146496514517 0 -0.0001537223656115429 -0.013209059167717922 0 -7.8987838479787763e-06 -0.013339180910257153 0 -0.0014181442994525336 -0.01761009183580298 0 -0.0012492892157155734 -0.019465943648531138 0 -0.0023714803688427337 -0.022779678878755951 0 -0.0031464568573838264 -0.023504927336981458 0 -0.0020280025804421853 -0.023278478146212624 0 -0.00019294626633698951 -0.013046146496514517 0 0.0002680901079664528 -0.013178269632232601 0 0.00050284356628929312 -0.01274413819644254 0 -0.0012492892157155734 -0.019465943648531138 0 -0.00076898554210120293 -0.017671198881580585 0 -0.00070845207993805643 -0.019461657500063404 0 -0.0008342782502580049 -0.019486599452562703 0 -0.00079134804548413869 -0.019334521716557793 0 -0.0012492892157155734 -0.019465943648531138 0 -0.0012889397108020633 -0.020283720258878368 0 -0.0020678680058333347 -0.023178947986766726 0 -0.0014373845670817766 -0.02303346316696504 0 -0.0019660466548969591 -0.022816643141870343 0 -0.0008342782502580049 -0.019486599452562703 0 -0.00087663774577669419 -0.019401422973512602 0 -0.00096258073220553859 -0.019513042874355822 0 -0.0008342782502580049 -0.019486599452562703 0 -0.00087663774577669419 -0.019401422973512602 0 -0.00079134804548413869 -0.019334521716557793 0 -0.00087663774577669419 -0.019401422973512602 0 -0.0008889105131065744 -0.019313876426962938 0 -0.000959027461112449 -0.019381484554342954 0 -0.00087663774577669419 -0.019401422973512602 0 -0.0008889105131065744 -0.019313876426962938 0 -0.00079134804548413869 -0.019334521716557793 0 0.00091092514762554453 -0.013819176783960977 0 0.0016490727501169472 -0.014025742708313369 0 0.0010578727083931359 -0.014411359800905316 0 0.001013617116788673 -0.013258804608181168 0 0.00091092514762554453 -0.013819176783960977 0 0.0016490727501169472 -0.014025742708313369 0 0.00037061269390196376 -0.013601106815017579 0 0.001013617116788673 -0.013258804608181168 0 0.00091092514762554453 -0.013819176783960977 0 0.00043748684573513585 -0.014184791997820105 0 0.00091092514762554453 -0.013819176783960977 0 0.0010578727083931359 -0.014411359800905316 0 -0.00076898554210120293 -0.017671198881580585 0 -6.2570872807583293e-05 -0.017447916044969793 0 -0.0008889105131065744 -0.019313876426962938 0 -0.00087397584426062065 -0.019206326032973738 0 -0.00095489427815585531 -0.019249925351901613 0 -0.0008889105131065744 -0.019313876426962938 0 -0.00079134804548413869 -0.019334521716557793 0 -0.00087397584426062065 -0.019206326032973738 0 -6.2570872807583293e-05 -0.017447916044969793 0 -0.00026795401891659018 -0.018990351480353114 0 -6.2570872807583293e-05 -0.017447916044969793 0 0.00033824494070448373 -0.016729475585766533 0 -6.2570872807583293e-05 -0.017447916044969793 0 -1.5933848914298108e-05 -0.017466719602661888 0 3.5764489006245859e-07 -0.015890332630899371 0 -4.2292973291180182e-05 -0.016213308997442617 0 1.9903161882346443e-06 -0.017296945902445952 0 3.5764489006245859e-07 -0.015890332630899371 0 1.9903161882346443e-06 -0.017296945902445952 0 -4.9991700969254639e-08 -0.017386053307968555 0 3.4263997745961359e-05 -0.016488083021696524 0 -4.2292973291180182e-05 -0.016213308997442617 0 1.9903161882346443e-06 -0.017296945902445952 0 0.00033521631932525769 -0.01655769102452961 0 0.00033824494070448373 -0.016729475585766533 0 8.2760849012649166e-05 -0.01513233509412215 0 3.5764489006245859e-07 -0.015890332630899371 0 -4.2292973291180182e-05 -0.016213308997442617 0 -6.0137350952707294e-07 -0.018587639324791867 0 -6.3298008621494729e-05 -0.018391806836899706 0 1.0083907621393735e-06 -0.017389743993727596 0 -6.0137350952707294e-07 -0.018587639324791867 0 -6.3298008621494729e-05 -0.018391806836899706 0 -0.00015255887757529695 -0.018882196817850541 0 0.00010763129910520046 -0.017709423342511389 0 0.00021363402347499214 -0.017863636392470648 0 0.00021598699346980017 -0.017653602798412688 0 -6.3298008621494729e-05 -0.018391806836899706 0 6.8188554463599618e-05 -0.017528472411888624 0 0.00030806943288350824 -0.018755197773260641 0 -6.3298008621494729e-05 -0.018391806836899706 0 6.8188554463599618e-05 -0.017528472411888624 0 1.0083907621393735e-06 -0.017389743993727596 0 -1.5933848914298108e-05 -0.017466719602661888 0 -0.00026795401891659018 -0.018990351480353114 0 -1.5933848914298108e-05 -0.017466719602661888 0 -4.9069060395738718e-07 -0.017389007918974658 0 -6.3298008621494729e-05 -0.018391806836899706 0 0.00030806943288350824 -0.018755197773260641 0 -0.00010419911348178782 -0.018890098491593565 0 -0.00026795401891659018 -0.018990351480353114 0 -0.00024329443363739226 -0.020422513261373614 0 -0.00010419911348178782 -0.018890098491593565 0 -0.00012200765890854521 -0.018853572208249056 0 -0.00015255887757529695 -0.018882196817850541 0 -6.3298008621494729e-05 -0.018391806836899706 0 -0.00010419911348178782 -0.018890098491593565 0 -0.00015255887757529695 -0.018882196817850541 0 -0.00024329443363739226 -0.020422513261373614 0 8.2029419480367512e-05 -0.021625257795163725 0 -0.00081668707133891023 -0.022737534597325061 0 -0.00081444662399360877 -0.022752726922784076 0 -0.0008305462000996436 -0.022746410134986794 0 -0.0008889105131065744 -0.019313876426962938 0 -0.00095489427815585531 -0.019249925351901613 0 -0.000959027461112449 -0.019381484554342954 0 -0.00026795401891659018 -0.018990351480353114 0 -0.0008128020662425407 -0.020395899291331038 0 -0.00080105812643819943 -0.022721892137393764 0 -0.00081668707133891023 -0.022737534597325061 0 -0.00080736269128256466 -0.022751668450857018 0 -0.00081668707133891023 -0.022737534597325061 0 -0.00081444662399360877 -0.022752726922784076 0 -0.00080736269128256466 -0.022751668450857018 0 -0.00087663774577669419 -0.019401422973512602 0 -0.000959027461112449 -0.019381484554342954 0 -0.00096258073220553859 -0.019513042874355822 0 -0.00080736269128256466 -0.022751668450857018 0 -0.00081839499231884153 -0.022758582177788821 0 -0.00083234879158267333 -0.022754310382840384 0 -0.0008128020662425407 -0.020395899291331038 0 -0.0013205890431933953 -0.020767322078175735 0 -0.00081444662399360877 -0.022752726922784076 0 -0.00080736269128256466 -0.022751668450857018 0 -0.00081839499231884153 -0.022758582177788821 0 -0.00081839499231884153 -0.022758582177788821 0 -0.00081012790411662792 -0.022767023340870687 0 -0.0008333385087692227 -0.022753506860786511 0 -0.00081839499231884153 -0.022758582177788821 0 -0.00083234879158267333 -0.022754310382840384 0 -0.0008333385087692227 -0.022753506860786511 0 -0.00081444662399360877 -0.022752726922784076 0 -0.00081012790411662792 -0.022767023340870687 0 -0.0008305462000996436 -0.022746410134986794 0 0.00032634345929177908 -0.022488807354167341 0 8.2029419480367512e-05 -0.021625257795163725 0 -0.00081444662399360877 -0.022752726922784076 0 -0.00081839499231884153 -0.022758582177788821 0 -0.00081012790411662792 -0.022767023340870687 0 0.0014516006550023166 -0.023441038980269689 0 0.0013340167760015503 -0.023466911158262549 0 0.001284246601347948 -0.023321435026471486 0 0.001457010266850151 -0.023247299077976725 0 0.0014516006550023166 -0.023441038980269689 0 0.001284246601347948 -0.023321435026471486 0 0.001457010266850151 -0.023247299077976725 0 0.0014516006550023166 -0.023441038980269689 0 0.0016285275400917676 -0.023462536836047633 0 0.0014516006550023166 -0.023441038980269689 0 0.0014628704389124498 -0.023391147185957563 0 0.0013340167760015503 -0.023466911158262549 0 0.0014628704389124498 -0.023391147185957563 0 0.0013282774163838986 -0.023526401640542875 0 0.0013340167760015503 -0.023466911158262549 0 0.0014628704389124498 -0.023391147185957563 0 0.0013282774163838986 -0.023526401640542875 0 0.0014130165267230354 -0.023435698869139834 0 0.0015160783704416291 -0.023066681317754457 0 0.0012814652364015529 -0.023375175300907953 0 0.0005849878907505312 -0.02334774826589377 0 0.0014628704389124498 -0.023391147185957563 0 0.0015160783704416291 -0.023066681317754457 0 0.0014130165267230354 -0.023435698869139834 0 0.0014628704389124498 -0.023391147185957563 0 0.0015160783704416291 -0.023066681317754457 0 0.0012814652364015529 -0.023375175300907953 0 0.0014628704389124498 -0.023391147185957563 0 0.0012814652364015529 -0.023375175300907953 0 0.0013370293774869343 -0.023626189422527286 0 0.00021509322544410926 -0.022772074103576522 0 0.00014359763804883846 -0.02269916045306377 0 0.0012814652364015529 -0.023375175300907953 0 0.0013370293774869343 -0.023626189422527286 0 0.0005849878907505312 -0.02334774826589377 0 0.0014516006550023166 -0.023441038980269689 0 0.0014628704389124498 -0.023391147185957563 0 0.0013370293774869343 -0.023626189422527286 0 0.00050978805567733737 -0.022846300478839319 0 0.00021509322544410926 -0.022772074103576522 0 -0.00081012790411662792 -0.022767023340870687 0 -0.00081660185514522592 -0.022695002906352842 0 -0.0008333385087692227 -0.022753506860786511 0 0.00032634345929177908 -0.022488807354167341 0 0.00021509322544410926 -0.022772074103576522 0 -0.0013179963771113819 -0.020822364617753386 0 -0.0013205890431933953 -0.020767322078175735 0 -0.00081660185514522592 -0.022695002906352842 0 -0.00085787883998981172 -0.022763492386410192 0 -0.0008333385087692227 -0.022753506860786511 0 -0.00085787883998981172 -0.022763492386410192 0 -0.00083898585143107472 -0.022755579428616227 0 -0.0008333385087692227 -0.022753506860786511 0 -0.0013205890431933953 -0.020767322078175735 0 -0.0013189119107809527 -0.02077127872409934 0 0.00021509322544410926 -0.022772074103576522 0 -0.0010406212705826104 -0.022692948918203493 0 -0.0012889397108020633 -0.020283720258878368 0 -0.0013205890431933953 -0.020767322078175735 0 -0.0014373845670817766 -0.02303346316696504 0 -0.00085787883998981172 -0.022763492386410192 0 -0.00085918209953165408 -0.022892561834411629 0 -0.00081660185514522592 -0.022695002906352842 0 -0.00085787883998981172 -0.022763492386410192 0 -0.0015600373067275065 -0.022579636025099589 0 -0.0014373845670817766 -0.02303346316696504 0 -0.00085787883998981172 -0.022763492386410192 0 -0.0015600373067275065 -0.022579636025099589 0 -0.0014373845670817766 -0.02303346316696504 0 -0.0019660466548969591 -0.022816643141870343 0 -0.0015600373067275065 -0.022579636025099589 0 -0.0024277590508148075 -0.02247377839853465 0 -0.0019660466548969591 -0.022816643141870343 0 -0.0015600373067275065 -0.022579636025099589 0 -0.0016433381165357744 -0.021771978702591049 0 -0.0013360947025052537 -0.022451696078623039 0 -0.00070101346637398176 -0.022366338426353657 0 -0.0013360947025052537 -0.022451696078623039 0 -0.00063569174063978699 -0.022984257040215058 0 -0.00070101346637398176 -0.022366338426353657 0 0.00054886884008970677 -0.023113778791314942 0 -0.00063569174063978699 -0.022984257040215058 0 -4.8799063592877619e-05 -0.022466047903244194 0 -0.00063569174063978699 -0.022984257040215058 0 -0.00070101346637398176 -0.022366338426353657 0 -4.8799063592877619e-05 -0.022466047903244194 0 -0.00070101346637398176 -0.022366338426353657 0 -4.8799063592877619e-05 -0.022466047903244194 0 -0.00059416042494144547 -0.021875370928633869 0 0.00014359763804883846 -0.02269916045306377 0 -2.9549063931184315e-05 -0.022512366796513913 0 0.0015160783704416291 -0.023066681317754457 0 0.0005849878907505312 -0.02334774826589377 0 0.00071315302971353166 -0.021450502430022046 0 0.0005849878907505312 -0.02334774826589377 0 0.00071315302971353166 -0.021450502430022046 0 -0.00059416042494144547 -0.021875370928633869 0 -0.0016433381165357744 -0.021771978702591049 0 -0.00070101346637398176 -0.022366338426353657 0 -0.00059416042494144547 -0.021875370928633869 0 -0.0016433381165357744 -0.021771978702591049 0 -0.00059416042494144547 -0.021875370928633869 0 -0.0012722933348694994 -0.020620258905955154 0 -0.00062078128026774157 -0.019429619016875045 0 -0.0012722933348694994 -0.020620258905955154 0 -0.00029385188048767846 -0.020600614183781594 0 -0.00059416042494144547 -0.021875370928633869 0 -0.0012722933348694994 -0.020620258905955154 0 -0.00029385188048767846 -0.020600614183781594 0 0.00071315302971353166 -0.021450502430022046 0 -0.00059416042494144547 -0.021875370928633869 0 -0.00029385188048767846 -0.020600614183781594 0 0.0010335250514917646 -0.019334227167257034 0 0.00071315302971353166 -0.021450502430022046 0 -0.00029385188048767846 -0.020600614183781594 0 0.0010335250514917646 -0.019334227167257034 0 0.00071315302971353166 -0.021450502430022046 0 0.0022285803798007312 -0.021009562987723891 0 -6.8266065635212068e-05 -0.021516961910469281 0 0.00058119748516904522 -0.022036205452438885 0 0.001559705973961549 -0.023885776538254255 0 0.0012573441718392083 -0.023778623485807358 0 0.0012523733102044376 -0.02408337567695891 0 0.0014176740176377854 -0.024311692798920703 0 0.001559705973961549 -0.023885776538254255 0 0.0012523733102044376 -0.02408337567695891 0 0.0013282774163838986 -0.023526401640542875 0 0.0012573441718392083 -0.023778623485807358 0 0.0014130165267230354 -0.023435698869139834 0 0.001559705973961549 -0.023885776538254255 0 0.0012573441718392083 -0.023778623485807358 0 0.0014130165267230354 -0.023435698869139834 0 0.0015160783704416291 -0.023066681317754457 0 0.00071315302971353166 -0.021450502430022046 0 0.0022285803798007312 -0.021009562987723891 0 0.00070039832943672158 -0.022359922580947478 0 0.00058119748516904522 -0.022036205452438885 0 0.0015160783704416291 -0.023066681317754457 0 0.001559705973961549 -0.023885776538254255 0 0.0014130165267230354 -0.023435698869139834 0 0.00084173685084067737 -0.024021210277041308 0 0.001070544947748992 -0.023806973745785342 0 0.00083174079581751006 -0.023806023658854491 0 0.0013282774163838986 -0.023526401640542875 0 0.0012573441718392083 -0.023778623485807358 0 0.001070544947748992 -0.023806973745785342 0 0.0012573441718392083 -0.023778623485807358 0 0.001070544947748992 -0.023806973745785342 0 0.0010154364885995102 -0.024087032203403184 0 0.0012573441718392083 -0.023778623485807358 0 0.0012523733102044376 -0.02408337567695891 0 0.0010154364885995102 -0.024087032203403184 0 0.00084173685084067737 -0.024021210277041308 0 0.001070544947748992 -0.023806973745785342 0 0.0010154364885995102 -0.024087032203403184 0 0.00084173685084067737 -0.024021210277041308 0 0.0010154364885995102 -0.024087032203403184 0 0.00073812242388825763 -0.024207332074289243 0 0.00084173685084067737 -0.024021210277041308 0 0.00073812242388825763 -0.024207332074289243 0 0.00059808193025766363 -0.024174166003442778 0 0.00046941176167277724 -0.024803608819797384 0 0.00059808193025766363 -0.024174166003442778 0 0.00021578371431019313 -0.024622191812757356 0 0.00061560198561857484 -0.024301769586772118 0 0.00073812242388825763 -0.024207332074289243 0 0.00059808193025766363 -0.024174166003442778 0 0.00029020988051063059 -0.024444385077154886 0 0.0003800013925154271 -0.024317225073328858 0 0.00059808193025766363 -0.024174166003442778 0 0.00054940548869672869 -0.023915653451244103 0 0.00032319092319727546 -0.02417194390894447 0 0.00059808193025766363 -0.024174166003442778 0 0.00032319092319727546 -0.02417194390894447 0 0.00021578371431019313 -0.024622191812757356 0 0.00059808193025766363 -0.024174166003442778 0 0.00083174079581751006 -0.023806023658854491 0 0.00054940548869672869 -0.023915653451244103 0 0.00084173685084067737 -0.024021210277041308 0 0.00059808193025766363 -0.024174166003442778 0 0.00083174079581751006 -0.023806023658854491 0 0.00083174079581751006 -0.023806023658854491 0 0.00054940548869672869 -0.023915653451244103 0 0.00059289038971643447 -0.023625789640590009 0 0.00054940548869672869 -0.023915653451244103 0 0.00034512022357542773 -0.023783468170426213 0 0.00059289038971643447 -0.023625789640590009 0 0.00054940548869672869 -0.023915653451244103 0 0.00034512022357542773 -0.023783468170426213 0 0.00032319092319727546 -0.02417194390894447 0 0.00030274101163281372 -0.023516688733212221 0 0.00059289038971643447 -0.023625789640590009 0 0.00046751053657173797 -0.023267562626389876 0 0.00034512022357542773 -0.023783468170426213 0 0.00030274101163281372 -0.023516688733212221 0 0.00059289038971643447 -0.023625789640590009 0 0.00034512022357542773 -0.023783468170426213 0 0.00030274101163281372 -0.023516688733212221 0 0.00019400446384630323 -0.023652961327472855 0 0.00083174079581751006 -0.023806023658854491 0 0.00059289038971643447 -0.023625789640590009 0 0.00091650419380252823 -0.023412837756930951 0 0.00059289038971643447 -0.023625789640590009 0 0.00091650419380252823 -0.023412837756930951 0 0.00046751053657173797 -0.023267562626389876 0 0.00091650419380252823 -0.023412837756930951 0 0.0011577955337055818 -0.023544054515472975 0 0.001284246601347948 -0.023321435026471486 0 0.00083174079581751006 -0.023806023658854491 0 0.00091650419380252823 -0.023412837756930951 0 0.0011577955337055818 -0.023544054515472975 0 0.001070544947748992 -0.023806973745785342 0 0.00083174079581751006 -0.023806023658854491 0 0.0011577955337055818 -0.023544054515472975 0 0.0013282774163838986 -0.023526401640542875 0 0.001070544947748992 -0.023806973745785342 0 0.0011577955337055818 -0.023544054515472975 0 0.0013282774163838986 -0.023526401640542875 0 0.0011577955337055818 -0.023544054515472975 0 0.0013340167760015503 -0.023466911158262549 0 0.0011577955337055818 -0.023544054515472975 0 0.0013340167760015503 -0.023466911158262549 0 0.001284246601347948 -0.023321435026471486 0 0.001457010266850151 -0.023247299077976725 0 0.001284246601347948 -0.023321435026471486 0 0.0013046850000532741 -0.023031821127349313 0 0.001284246601347948 -0.023321435026471486 0 0.001116344001781795 -0.023098015463790707 0 0.0013046850000532741 -0.023031821127349313 0 0.00091650419380252823 -0.023412837756930951 0 0.001284246601347948 -0.023321435026471486 0 0.001116344001781795 -0.023098015463790707 0 0.00091650419380252823 -0.023412837756930951 0 0.001116344001781795 -0.023098015463790707 0 0.00058916250180145505 -0.022809855797684742 0 0.001116344001781795 -0.023098015463790707 0 0.0011597523450341336 -0.022014628991962517 0 0.00058916250180145505 -0.022809855797684742 0 0.001116344001781795 -0.023098015463790707 0 0.0017658084208240054 -0.022766527524921244 0 0.0011597523450341336 -0.022014628991962517 0 8.2029419480367512e-05 -0.021625257795163725 0 8.3531350898758465e-05 -0.021000514299211639 0 0.00034666503316465951 -0.02177065139259797 0 8.2029419480367512e-05 -0.021625257795163725 0 -0.00012200765890854521 -0.018853572208249056 0 -0.00015255887757529695 -0.018882196817850541 0 6.4963774287657991e-05 -0.019143434059451719 0 6.4963774287657991e-05 -0.019143434059451719 0 -2.7358608468941371e-07 -0.019735984616779383 0 7.3921290060087114e-07 -0.020882046901083032 0 -0.00015255887757529695 -0.018882196817850541 0 6.4963774287657991e-05 -0.019143434059451719 0 -2.7358608468941371e-07 -0.019735984616779383 0 -6.0137350952707294e-07 -0.018587639324791867 0 -0.00015255887757529695 -0.018882196817850541 0 -2.7358608468941371e-07 -0.019735984616779383 0 -8.648059077682511e-05 -0.021733334130603139 0 1.5285913513788682e-06 -0.020886956925097479 0 3.9209352881385256e-05 -0.021994815613347232 0 -8.648059077682511e-05 -0.021733334130603139 0 1.5285913513788682e-06 -0.020886956925097479 0 -1.0967012318148988e-06 -0.022103289054471502 0 1.5285913513788682e-06 -0.020886956925097479 0 0.00038605134254637705 -0.022103693691697714 0 3.9209352881385256e-05 -0.021994815613347232 0 0.0011597523450341336 -0.022014628991962517 0 1.5285913513788682e-06 -0.020886956925097479 0 0.00038605134254637705 -0.022103693691697714 0 8.3531350898758465e-05 -0.021000514299211639 0 -2.4474614618597897e-08 -0.020883610600526202 0 0.0011597523450341336 -0.022014628991962517 0 0.00038605134254637705 -0.022103693691697714 0 0.00058916250180145505 -0.022809855797684742 0 0.00038605134254637705 -0.022103693691697714 0 0.00014988744237928861 -0.022354079079155563 0 3.9209352881385256e-05 -0.021994815613347232 0 -8.648059077682511e-05 -0.021733334130603139 0 3.9209352881385256e-05 -0.021994815613347232 0 -0.00020275993884590849 -0.021920640925106299 0 0.00014988744237928861 -0.022354079079155563 0 3.9209352881385256e-05 -0.021994815613347232 0 -0.00020275993884590849 -0.021920640925106299 0 0.00014988744237928861 -0.022354079079155563 0 4.3184506074855394e-05 -0.022873922639889126 0 0.00058916250180145505 -0.022809855797684742 0 0.00014988744237928861 -0.022354079079155563 0 4.3184506074855394e-05 -0.022873922639889126 0 -0.00020275993884590849 -0.021920640925106299 0 0.00038605134254637705 -0.022103693691697714 0 0.00014988744237928861 -0.022354079079155563 0 0.00058916250180145505 -0.022809855797684742 0 0.00091650419380252823 -0.023412837756930951 0 0.00058916250180145505 -0.022809855797684742 0 0.00046751053657173797 -0.023267562626389876 0 4.3184506074855394e-05 -0.022873922639889126 0 0.00058916250180145505 -0.022809855797684742 0 0.00046751053657173797 -0.023267562626389876 0 4.3184506074855394e-05 -0.022873922639889126 0 0.00046751053657173797 -0.023267562626389876 0 0.0001688439616906158 -0.023262646954533502 0 0.00030274101163281372 -0.023516688733212221 0 0.00046751053657173797 -0.023267562626389876 0 0.0001688439616906158 -0.023262646954533502 0 0.0001688439616906158 -0.023262646954533502 0 6.6570327981761902e-05 -0.023482828765158652 0 -0.00014243875789156994 -0.023263612157260537 0 0.00030274101163281372 -0.023516688733212221 0 0.0001688439616906158 -0.023262646954533502 0 6.6570327981761902e-05 -0.023482828765158652 0 0.00017917470452446713 -0.023650310204285235 0 0.00011115656589503585 -0.023718554115966337 0 0.00013341954339195417 -0.023629456228282619 0 6.6570327981761902e-05 -0.023482828765158652 0 0.0001533432756492202 -0.023605378071956177 0 0.00013341954339195417 -0.023629456228282619 0 0.0001533432756492202 -0.023605378071956177 0 0.00017917470452446713 -0.023650310204285235 0 0.00013341954339195417 -0.023629456228282619 0 -5.0181934991914133e-05 -0.023529918654692526 0 -5.8345035545563568e-05 -0.023525591386921205 0 0.0001533432756492202 -0.023605378071956177 0 0.00019655405062843172 -0.023653629374957366 0 0.00017917470452446713 -0.023650310204285235 0 6.6570327981761902e-05 -0.023482828765158652 0 0.0001533432756492202 -0.023605378071956177 0 0.00019655405062843172 -0.023653629374957366 0 4.3184506074855394e-05 -0.022873922639889126 0 0.0001688439616906158 -0.023262646954533502 0 -0.00014243875789156994 -0.023263612157260537 0 0.00017917470452446713 -0.023650310204285235 0 3.901878973648193e-05 -0.023848288741322249 0 5.4554395527425611e-05 -0.023603427460142084 0 -5.8345035545563568e-05 -0.023525591386921205 0 -9.0194831549176126e-05 -0.023843142387719254 0 0.00017917470452446713 -0.023650310204285235 0 3.901878973648193e-05 -0.023848288741322249 0 0.00012735094235757859 -0.024337530303127332 0 0.00019655405062843172 -0.023653629374957366 0 0.00017917470452446713 -0.023650310204285235 0 5.4554395527425611e-05 -0.023603427460142084 0 6.0040284212987097e-05 -0.023581467929129199 0 -3.8641020878769726e-05 -0.023503921820403388 0 9.7902942193579137e-05 -0.023493566819405277 0 -5.8345035545563568e-05 -0.023525591386921205 0 -2.7538818256483966e-05 -0.023042996019209783 0 -6.9126907962874188e-07 -0.022455631156263502 0 -1.2327916966672934e-05 -0.022289764983477366 0 4.3184506074855394e-05 -0.022873922639889126 0 -0.00014243875789156994 -0.023263612157260537 0 -0.00014516846757626706 -0.022560102945071461 0 -0.00014516846757626706 -0.022560102945071461 0 -4.7046091170843746e-05 -0.022502919651904176 0 -7.9313371243841883e-07 -0.022575016667560899 0 4.3184506074855394e-05 -0.022873922639889126 0 -0.00014516846757626706 -0.022560102945071461 0 -4.7046091170843746e-05 -0.022502919651904176 0 9.7902942193579137e-05 -0.023493566819405277 0 -0.00013812456637374342 -0.023450275058305197 0 5.1562864665455956e-07 -0.022580539613335233 0 -3.8641020878769726e-05 -0.023503921820403388 0 9.7902942193579137e-05 -0.023493566819405277 0 -0.00013812456637374342 -0.023450275058305197 0 -0.00013812456637374342 -0.023450275058305197 0 -5.1530785631198678e-07 -0.023421752426006928 0 5.1562864665455956e-07 -0.022580539613335233 0 -1.2327916966672934e-05 -0.022289764983477366 0 -6.6681803721993654e-08 -0.022106294653751777 0 -4.7046091170843746e-05 -0.022502919651904176 0 -7.9313371243841883e-07 -0.022575016667560899 0 7.3625886552913271e-07 -0.022109616652706811 0 -2.7538818256483966e-05 -0.023042996019209783 0 -7.0245274426590217e-08 -0.022578970700372892 0 -8.648059077682511e-05 -0.021733334130603139 0 -0.00020275993884590849 -0.021920640925106299 0 -1.0967012318148988e-06 -0.022103289054471502 0 6.3776052114472276e-06 -0.024823423887240344 0 6.5553417422029304e-07 -0.024267437098995367 0 0.00034625652600678807 -0.025396323044626329 0 6.3776052114472276e-06 -0.024823423887240344 0 -1.4416979228220405e-07 -0.024999020704631836 0 -3.6935378184111553e-07 -0.024999989446124454 0 -5.5267873462096348e-08 -0.024265618599797967 0 -6.039186870552126e-05 -0.024369489535789116 0 6.3776052114472276e-06 -0.024823423887240344 0 -1.4416979228220405e-07 -0.024999020704631836 0 6.5553417422029304e-07 -0.024267437098995367 0 5.1242032331802941e-07 -0.024263924489621582 0 -9.4650180677690945e-05 -0.02368280858343013 0 3.3602726364847198e-05 -0.023336495888711794 0 -0.00013812456637374342 -0.023450275058305197 0 -5.1530785631198678e-07 -0.023421752426006928 0 -9.4650180677690945e-05 -0.02368280858343013 0 -5.1530785631198678e-07 -0.023421752426006928 0 5.1242032331802941e-07 -0.024263924489621582 0 -9.4650180677690945e-05 -0.02368280858343013 0 -3.8641020878769726e-05 -0.023503921820403388 0 -0.00013812456637374342 -0.023450275058305197 0 3.3602726364847198e-05 -0.023336495888711794 0 -0.00013812456637374342 -0.023450275058305197 0 -9.4650180677690945e-05 -0.02368280858343013 0 3.3602726364847198e-05 -0.023336495888711794 0 -4.4989053412321557e-06 -0.025001569248294001 0 1.3016840810357475e-08 -0.024999987445181594 0 -3.0398673716070561e-08 -0.025000033418161836 0 6.3776052114472276e-06 -0.024823423887240344 0 0.00034625652600678807 -0.025396323044626329 0 -3.6935378184111553e-07 -0.024999989446124454 0 -6.039186870552126e-05 -0.024369489535789116 0 3.9980011806996018e-07 -0.024998914266936584 0 -4.4989053412321557e-06 -0.025001569248294001 0 -3.0398673716070561e-08 -0.025000033418161836 0 -3.1504774310147123e-05 -0.025018373352168451 0 -9.0194831549176126e-05 -0.023843142387719254 0 -6.039186870552126e-05 -0.024369489535789116 0 -6.039186870552126e-05 -0.024369489535789116 0 -9.9826560771179684e-05 -0.024454001846313484 0 5.4554395527425611e-05 -0.023603427460142084 0 -0.00031295298730887248 -0.023332336039852158 0 -0.00030288642178708143 -0.023891570319753259 0 3.901878973648193e-05 -0.023848288741322249 0 -0.00030288642178708143 -0.023891570319753259 0 0.00012735094235757859 -0.024337530303127332 0 3.901878973648193e-05 -0.023848288741322249 0 5.4554395527425611e-05 -0.023603427460142084 0 -0.00030288642178708143 -0.023891570319753259 0 -3.0398673716070561e-08 -0.025000033418161836 0 -3.1504774310147123e-05 -0.025018373352168451 0 2.7774632622583841e-08 -0.02499998096859957 0 -3.1504774310147123e-05 -0.025018373352168451 0 -2.788387713904059e-05 -0.0249520431423748 0 -8.3149347164874728e-05 -0.024831147212602555 0 2.7774632622583841e-08 -0.02499998096859957 0 -2.788387713904059e-05 -0.0249520431423748 0 -3.7566174829945557e-05 -0.024942436479477397 0 -3.1504774310147123e-05 -0.025018373352168451 0 2.7774632622583841e-08 -0.02499998096859957 0 -2.788387713904059e-05 -0.0249520431423748 0 2.7774632622583841e-08 -0.02499998096859957 0 -1.1408718759933824e-07 -0.024999875205081852 0 -3.7566174829945557e-05 -0.024942436479477397 0 -1.1408718759933824e-07 -0.024999875205081852 0 -3.7566174829945557e-05 -0.024942436479477397 0 -9.3363676238387668e-05 -0.024980431631552832 0 -2.788387713904059e-05 -0.0249520431423748 0 -3.7566174829945557e-05 -0.024942436479477397 0 -8.3149347164874728e-05 -0.024831147212602555 0 -3.7566174829945557e-05 -0.024942436479477397 0 -9.3363676238387668e-05 -0.024980431631552832 0 -8.3149347164874728e-05 -0.024831147212602555 0 -2.9804110792915659e-05 -0.024263509309392247 0 -0.00020511964640249742 -0.02435619277736966 0 -3.538872078507989e-05 -0.023808237995558534 0 2.7055422657863987e-05 -0.024642221316264912 0 0.00010324099285489527 -0.024308936065491095 0 -9.3363676238387668e-05 -0.024980431631552832 0 -8.3149347164874728e-05 -0.024831147212602555 0 0.00012735094235757859 -0.024337530303127332 0 -2.9804110792915659e-05 -0.024263509309392247 0 -0.00020511964640249742 -0.02435619277736966 0 -9.2306322042738431e-05 -0.024462427837863183 0 -9.9826560771179684e-05 -0.024454001846313484 0 -9.9601626017233397e-05 -0.024592707193981475 0 -0.00030288642178708143 -0.023891570319753259 0 -8.3149347164874728e-05 -0.024831147212602555 0 0.00012735094235757859 -0.024337530303127332 0 0.0001653710657157527 -0.024139186249404115 0 0.00010324099285489527 -0.024308936065491095 0 0.00017917470452446713 -0.023650310204285235 0 0.00011115656589503585 -0.023718554115966337 0 -3.538872078507989e-05 -0.023808237995558534 0 0.00011115656589503585 -0.023718554115966337 0 -3.538872078507989e-05 -0.023808237995558534 0 6.9616019925830523e-05 -0.024008943090580669 0 6.6570327981761902e-05 -0.023482828765158652 0 0.00019400446384630323 -0.023652961327472855 0 0.00013341954339195417 -0.023629456228282619 0 0.00030274101163281372 -0.023516688733212221 0 6.6570327981761902e-05 -0.023482828765158652 0 0.00019400446384630323 -0.023652961327472855 0 0.00011115656589503585 -0.023718554115966337 0 0.00019400446384630323 -0.023652961327472855 0 0.00013341954339195417 -0.023629456228282619 0 0.00011115656589503585 -0.023718554115966337 0 0.00019400446384630323 -0.023652961327472855 0 0.00018855520128422196 -0.023948015914627845 0 0.00034512022357542773 -0.023783468170426213 0 0.00019400446384630323 -0.023652961327472855 0 0.00018855520128422196 -0.023948015914627845 0 0.00018855520128422196 -0.023948015914627845 0 0.00010171362639248613 -0.024275473156007147 0 0.00032319092319727546 -0.02417194390894447 0 0.00034512022357542773 -0.023783468170426213 0 0.00018855520128422196 -0.023948015914627845 0 0.00032319092319727546 -0.02417194390894447 0 -2.9804110792915659e-05 -0.024263509309392247 0 -3.538872078507989e-05 -0.023808237995558534 0 6.9616019925830523e-05 -0.024008943090580669 0 0.00011115656589503585 -0.023718554115966337 0 0.00018855520128422196 -0.023948015914627845 0 6.9616019925830523e-05 -0.024008943090580669 0 0.00018855520128422196 -0.023948015914627845 0 6.9616019925830523e-05 -0.024008943090580669 0 0.00010171362639248613 -0.024275473156007147 0 -2.9804110792915659e-05 -0.024263509309392247 0 6.9616019925830523e-05 -0.024008943090580669 0 0.00010171362639248613 -0.024275473156007147 0 -2.9804110792915659e-05 -0.024263509309392247 0 0.00010171362639248613 -0.024275473156007147 0 -3.7195983055604685e-05 -0.024571195429609654 0 0.00010171362639248613 -0.024275473156007147 0 0.00011526148279727764 -0.024501572569173014 0 -3.7195983055604685e-05 -0.024571195429609654 0 0.00010171362639248613 -0.024275473156007147 0 0.00032319092319727546 -0.02417194390894447 0 0.00011526148279727764 -0.024501572569173014 0 0.00032319092319727546 -0.02417194390894447 0 0.00021578371431019313 -0.024622191812757356 0 0.00011526148279727764 -0.024501572569173014 0 0.00021578371431019313 -0.024622191812757356 0 0.00011526148279727764 -0.024501572569173014 0 3.3727748618917032e-06 -0.024741324319948872 0 0.00011526148279727764 -0.024501572569173014 0 3.3727748618917032e-06 -0.024741324319948872 0 -3.7195983055604685e-05 -0.024571195429609654 0 3.3727748618917032e-06 -0.024741324319948872 0 -6.834098021278949e-05 -0.02484568767400213 0 -3.7195983055604685e-05 -0.024571195429609654 0 -6.834098021278949e-05 -0.02484568767400213 0 -3.7195983055604685e-05 -0.024571195429609654 0 -9.067705777025314e-05 -0.024670800412363744 0 3.0273024742397528e-08 -0.025000039938752383 0 -6.834098021278949e-05 -0.02484568767400213 0 -5.2171076329688673e-07 -0.024999119042896607 0 -6.834098021278949e-05 -0.02484568767400213 0 -5.2171076329688673e-07 -0.024999119042896607 0 -9.067705777025314e-05 -0.024670800412363744 0 2.7055422657863987e-05 -0.024642221316264912 0 -9.8787890725059537e-08 -0.024999416181012639 0 -0.00020511964640249742 -0.02435619277736966 0 -5.2171076329688673e-07 -0.024999119042896607 0 -9.067705777025314e-05 -0.024670800412363744 0 -1.1408718759933824e-07 -0.024999875205081852 0 -9.3363676238387668e-05 -0.024980431631552832 0 3.6761450315418743e-08 -0.024999983480569275 0 -0.00020511964640249742 -0.02435619277736966 0 -9.2306322042738431e-05 -0.024462427837863183 0 -9.067705777025314e-05 -0.024670800412363744 0 -2.9804110792915659e-05 -0.024263509309392247 0 -9.2306322042738431e-05 -0.024462427837863183 0 -3.7195983055604685e-05 -0.024571195429609654 0 -9.2306322042738431e-05 -0.024462427837863183 0 -3.7195983055604685e-05 -0.024571195429609654 0 -9.067705777025314e-05 -0.024670800412363744 0 0.0035567302930772887 -0.010634539355351589 0 0.0032755771691617289 -0.010147989342057403 0 0.0051164835413805322 -0.015080180399401068 0 0.0051025781664320556 -0.01518135923642896 0 0.005319747420630838 -0.015837673661619395 0 0.0051025781664320556 -0.01518135923642896 0 0.005319747420630838 -0.015837673661619395 0 0.0050134002376455919 -0.015452572413178732 0 0.0028755413307361166 -0.005521905901500976 0 0.0014070147979178193 -0.0050582524502105998 0 0.0022028509958865105 -0.0039374000275785885 0 0.0014070147979178193 -0.0050582524502105998 0 0.0014254790686976018 -0.0065544914924022266 0 4.6620237321079662e-05 -0.0052756412188350241 0 0.0022028509958865105 -0.0039374000275785885 0 0.00070063129240568566 -0.0038570892692208064 0 0.001188944382943724 -0.0030300083411772209 0 0.0014070147979178193 -0.0050582524502105998 0 0.00059334382774669419 -0.0046029973622948497 0 0.00070063129240568566 -0.0038570892692208064 0 0.0014070147979178193 -0.0050582524502105998 0 0.0022028509958865105 -0.0039374000275785885 0 0.00070063129240568566 -0.0038570892692208064 0 0.005319747420630838 -0.015837673661619395 0 0.004906205406713389 -0.015620970204283798 0 0.0050134002376455919 -0.015452572413178732 0 0.005319747420630838 -0.015837673661619395 0 0.004906205406713389 -0.015620970204283798 0 0.0050182303934980339 -0.016032640445787928 0 0.004906205406713389 -0.015620970204283798 0 0.004353731884075591 -0.015450357843814431 0 0.0050182303934980339 -0.016032640445787928 0 0.0045305595612300503 -0.015207942818515497 0 0.0049628178005515933 -0.015039721431597793 0 0.0042737024582505962 -0.015856783836025911 0 0.0040902667843895632 -0.016893265196673155 0 0.0050672569211428929 -0.016910487677622606 0 0.0042737024582505962 -0.015856783836025911 0 0.0040902667843895632 -0.016893265196673155 0 0.0033621137146647964 -0.016298882529667644 0 0.0042737024582505962 -0.015856783836025911 0 0.0033621137146647964 -0.016298882529667644 0 0.0033790665904878969 -0.014642200415613938 0 0.0045305595612300503 -0.015207942818515497 0 0.0040894785580969581 -0.014882356983934321 0 0.004353731884075591 -0.015450357843814431 0 0.0047142862144693189 -0.015003721695671348 0 0.0043039869490560569 -0.01463691784586762 0 0.0051025781664320556 -0.01518135923642896 0 0.0050134002376455919 -0.015452572413178732 0 0.0049087618715175033 -0.015250538322189948 0 0.004906205406713389 -0.015620970204283798 0 0.0047838200107985021 -0.015362924616621722 0 0.0050134002376455919 -0.015452572413178732 0 0.0047838200107985021 -0.015362924616621722 0 0.0050134002376455919 -0.015452572413178732 0 0.0049087618715175033 -0.015250538322189948 0 0.004906205406713389 -0.015620970204283798 0 0.004353731884075591 -0.015450357843814431 0 0.0047838200107985021 -0.015362924616621722 0 0.004353731884075591 -0.015450357843814431 0 0.0047838200107985021 -0.015362924616621722 0 0.0047142862144693189 -0.015003721695671348 0 0.0047838200107985021 -0.015362924616621722 0 0.0047142862144693189 -0.015003721695671348 0 0.0049087618715175033 -0.015250538322189948 0 0.0051025781664320556 -0.01518135923642896 0 0.0047142862144693189 -0.015003721695671348 0 0.0049087618715175033 -0.015250538322189948 0 0.0047142862144693189 -0.015003721695671348 0 0.0043039869490560569 -0.01463691784586762 0 0.0048739256910844799 -0.014014766478644244 0 0.0051025781664320556 -0.01518135923642896 0 0.0047142862144693189 -0.015003721695671348 0 0.0048739256910844799 -0.014014766478644244 0 0.0051164835413805322 -0.015080180399401068 0 0.0051025781664320556 -0.01518135923642896 0 0.0048172740740157491 -0.014218348399004285 0 0.0045429999470965234 -0.013770183726297496 0 0.0037613962474040735 -0.011675240035016351 0 0.0035567302930772887 -0.010634539355351589 0 0.0037613962474040735 -0.011675240035016351 0 0.004353731884075591 -0.015450357843814431 0 0.0043039869490560569 -0.01463691784586762 0 0.0033790665904878969 -0.014642200415613938 0 0.0043039869490560569 -0.01463691784586762 0 0.0040404821079304959 -0.013879849853555675 0 0.0033790665904878969 -0.014642200415613938 0 0.0043039869490560569 -0.01463691784586762 0 0.0040404821079304959 -0.013879849853555675 0 0.0048739256910844799 -0.014014766478644244 0 0.0040404821079304959 -0.013879849853555675 0 0.0031908824699726562 -0.013717622925729521 0 0.0037152357271055857 -0.012986608462239861 0 0.0040404821079304959 -0.013879849853555675 0 0.0048739256910844799 -0.014014766478644244 0 0.0046808766136337858 -0.013116443761483104 0 0.0037613962474040735 -0.011675240035016351 0 0.0028915456985226058 -0.010289487699910905 0 0.0035460181567831275 -0.007134065650462239 0 0.0028325232956517496 -0.0078339946903757327 0 0.003930860138044695 -0.0082118089346402499 0 0.0028325232956517496 -0.0078339946903757327 0 0.0025923310192123841 -0.0066557737802577744 0 0.0014254790686976018 -0.0065544914924022266 0 0.0035460181567831275 -0.007134065650462239 0 0.0028325232956517496 -0.0078339946903757327 0 0.0025923310192123841 -0.0066557737802577744 0 0.0018780214274239134 -0.0083181591674684439 0 0.0014552371535845592 -0.007144021981604875 0 0.0028755413307361166 -0.005521905901500976 0 0.0025923310192123841 -0.0066557737802577744 0 0.0014254790686976018 -0.0065544914924022266 0 0.0028755413307361166 -0.005521905901500976 0 0.0035460181567831275 -0.007134065650462239 0 0.0025923310192123841 -0.0066557737802577744 0 0.0028755413307361166 -0.005521905901500976 0 0.0014070147979178193 -0.0050582524502105998 0 0.0014254790686976018 -0.0065544914924022266 0 0.00084539606571725759 -0.009057318678629793 0 0.0011291955067206051 -0.0092390922619982781 0 0.0011273192805323015 -0.0090184950559627428 0 0.0011291955067206051 -0.0092390922619982781 0 0.0013160759873249207 -0.0091111597779184282 0 0.0011273192805323015 -0.0090184950559627428 0 0.0013537098653176346 -0.008872098357891307 0 0.0014052937467642778 -0.0089488852863278401 0 0.0013786420017706628 -0.0082096475710064717 0 -0.00014191642867690394 -0.0001226142601299088 0 -0.00018584168952258628 -0.00023044164976495732 0 -0.00012041886457365655 -0.00027621933000332904 0 -0.00018584168952258628 -0.00023044164976495732 0 -0.00016112827760586965 -0.0001258099847505305 0 -0.00026986970860671438 -0.00032581398922362277 0 -0.00016112827760586965 -0.0001258099847505305 0 0.00036823484578077148 0.0002316801352578817 0 0.00025023654665365174 0.0011238516972581565 0 -0.00016112827760586965 -0.0001258099847505305 0 0.00017806826574269134 0.0012083471193071156 0 0.00025023654665365174 0.0011238516972581565 0 -0.00012337940749442762 0.0002477797114651573 0 -6.7315427940142593e-05 0.00041471354424639289 0 -0.00018584168952258628 -0.00023044164976495732 0 -0.00016172458400494469 -0.0002985945283383839 0 -0.00012041886457365655 -0.00027621933000332904 0 -0.00018584168952258628 -0.00023044164976495732 0 -0.00020440978984859862 -0.00029754632130090373 0 -0.00016172458400494469 -0.0002985945283383839 0 -0.00014191642867690394 -0.0001226142601299088 0 -0.00018584168952258628 -0.00023044164976495732 0 -0.00016112827760586965 -0.0001258099847505305 0 -0.00016112827760586965 -0.0001258099847505305 0 0.00036823484578077148 0.0002316801352578817 0 0.00021252492189815405 -0.00055024760952701178 0 -0.00016112827760586965 -0.0001258099847505305 0 -0.00019869050972101809 -0.00038511036632475046 0 0.00021252492189815405 -0.00055024760952701178 0 0.0011291955067206051 -0.0092390922619982781 0 0.0013466779915773943 -0.0093964987944806771 0 0.0014101232001108954 -0.0094918017123169773 0 0.0014052937467642778 -0.0089488852863278401 0 0.0013466779915773943 -0.0093964987944806771 0 0.0014101232001108954 -0.0094918017123169773 0 0.0010090655483677073 -0.0079652358660488049 0 0.0010957336395123209 -0.0086880253114061529 0 0.0014552371535845592 -0.007144021981604875 0 0.00026779076220334044 -0.0046973052363798789 0 0.0011291955067206051 -0.0092390922619982781 0 0.0013160759873249207 -0.0091111597779184282 0 0.0013466779915773943 -0.0093964987944806771 0 0.00050267508800136591 -0.0046621956370590844 0 0.00026779076220334044 -0.0046973052363798789 0 -0.00014191642867690394 -0.0001226142601299088 0 -0.00019869050972101809 -0.00038511036632475046 0 -0.00035387616068998956 -0.00054840827584756605 0 -0.00014191642867690394 -0.0001226142601299088 0 -0.00016112827760586965 -0.0001258099847505305 0 -0.00019869050972101809 -0.00038511036632475046 0 0.0013537098653176346 -0.008872098357891307 0 0.0014052937467642778 -0.0089488852863278401 0 0.0013466779915773943 -0.0093964987944806771 0 0.00035893698770966115 0.001176936925609263 0 0.00032097715304593141 0.0012222143463914024 0 0.00043652287359471768 0.0012532143967115431 0 0.0007597883349771522 0.00068094751874283666 0 0.00053847960585023599 0.0009103292967708943 0 0.00036823484578077148 0.0002316801352578817 0 0.0010293709656736744 1.320040360346193e-05 0 0.00025023654665365174 0.0011238516972581565 0 0.00035893698770966115 0.001176936925609263 0 0.00032097715304593141 0.0012222143463914024 0 0.00025023654665365174 0.0011238516972581565 0 0.00036823484578077148 0.0002316801352578817 0 0.0010293709656736744 1.320040360346193e-05 0 0.00079723181736714567 -0.00054507158549274028 0 0.00036823484578077148 0.0002316801352578817 0 0.00079723181736714567 -0.00054507158549274028 0 0.00021252492189815405 -0.00055024760952701178 0 0.0010293709656736744 1.320040360346193e-05 0 0.00079723181736714567 -0.00054507158549274028 0 0.0014982297167625751 -0.00077180342860340184 0 0.0007597883349771522 0.00068094751874283666 0 0.0011400852023327199 0.00037336816330962435 0 0.00079723181736714567 -0.00054507158549274028 0 0.00060760300154836437 -0.0011075968695509724 0 0.0014982297167625751 -0.00077180342860340184 0 0.00079723181736714567 -0.00054507158549274028 0 0.00060760300154836437 -0.0011075968695509724 0 0.00021252492189815405 -0.00055024760952701178 0 0.00060760300154836437 -0.0011075968695509724 0 0.00021252492189815405 -0.00055024760952701178 0 0.00010736609677123561 -0.00097526396364106937 0 0.00060760300154836437 -0.0011075968695509724 0 0.00014120405313289942 -0.0014428038940409492 0 0.00045746668390258275 -0.0017417623565788333 0 0.00060760300154836437 -0.0011075968695509724 0 0.0010533941532738106 -0.0015739838955339152 0 0.00045746668390258275 -0.0017417623565788333 0 0.00060760300154836437 -0.0011075968695509724 0 0.00010736609677123561 -0.00097526396364106937 0 0.00014120405313289942 -0.0014428038940409492 0 0.00060760300154836437 -0.0011075968695509724 0 0.0010533941532738106 -0.0015739838955339152 0 0.0014982297167625751 -0.00077180342860340184 0 0.0014070147979178193 -0.0050582524502105998 0 0.00059334382774669419 -0.0046029973622948497 0 4.6620237321079662e-05 -0.0052756412188350241 0 -0.00039060499122765612 -0.00056692782656819578 0 -0.00030937171329043558 -0.00063997405203559368 0 -0.00028899298024700489 -0.0014599526599981809 0 -0.00019869050972101809 -0.00038511036632475046 0 -0.00035387616068998956 -0.00054840827584756605 0 -0.00030937171329043558 -0.00063997405203559368 0 0.00026779076220334044 -0.0046973052363798789 0 0.0002424095741290933 -0.0046623928040239564 0 -0.00019869050972101809 -0.00038511036632475046 0 -7.042478322507948e-05 -0.00068434586754836913 0 0.00021252492189815405 -0.00055024760952701178 0 -0.00019869050972101809 -0.00038511036632475046 0 -0.00030937171329043558 -0.00063997405203559368 0 -7.042478322507948e-05 -0.00068434586754836913 0 -7.042478322507948e-05 -0.00068434586754836913 0 0.00021252492189815405 -0.00055024760952701178 0 0.00010736609677123561 -0.00097526396364106937 0 -0.00030937171329043558 -0.00063997405203559368 0 -7.042478322507948e-05 -0.00068434586754836913 0 -0.00010349103589707689 -0.00087220557088613852 0 -0.00030937171329043558 -0.00063997405203559368 0 -0.00010349103589707689 -0.00087220557088613852 0 -0.00011670707067853118 -0.0011361907262158603 0 -7.042478322507948e-05 -0.00068434586754836913 0 -0.00010349103589707689 -0.00087220557088613852 0 0.00010736609677123561 -0.00097526396364106937 0 -0.00030937171329043558 -0.00063997405203559368 0 -0.00011670707067853118 -0.0011361907262158603 0 -0.00028899298024700489 -0.0014599526599981809 0 -0.00010349103589707689 -0.00087220557088613852 0 -0.00011670707067853118 -0.0011361907262158603 0 0.00010736609677123561 -0.00097526396364106937 0 -0.00011670707067853118 -0.0011361907262158603 0 0.00010736609677123561 -0.00097526396364106937 0 0.00014120405313289942 -0.0014428038940409492 0 -0.00011670707067853118 -0.0011361907262158603 0 0.00014120405313289942 -0.0014428038940409492 0 -0.00028899298024700489 -0.0014599526599981809 0 0.00026779076220334044 -0.0046973052363798789 0 8.0068380089913394e-06 -0.0030731055138579415 0 0.00059334382774669419 -0.0046029973622948497 0 4.6620237321079662e-05 -0.0052756412188350241 0 -8.27546605390175e-05 -0.003658175977687834 0 0.00059334382774669419 -0.0046029973622948497 0 -8.27546605390175e-05 -0.003658175977687834 0 0.00070063129240568566 -0.0038570892692208064 0 -8.27546605390175e-05 -0.003658175977687834 0 0.00070063129240568566 -0.0038570892692208064 0 0.00044514789762876229 -0.00305987308461046 0 0.00070063129240568566 -0.0038570892692208064 0 0.00044514789762876229 -0.00305987308461046 0 0.00096216359325179527 -0.0031272985864013421 0 -8.27546605390175e-05 -0.003658175977687834 0 0.00044514789762876229 -0.00305987308461046 0 -1.7657964112387439e-05 -0.0023387018905608164 0 0.00044514789762876229 -0.00305987308461046 0 0.00046462354103380852 -0.002570489650516857 0 0.00076281071146429801 -0.0027473064588414962 0 -0.00028899298024700489 -0.0014599526599981809 0 0.0001292822075227526 -0.0018899585190860772 0 -1.7657964112387439e-05 -0.0023387018905608164 0 8.0068380089913394e-06 -0.0030731055138579415 0 -3.8477360928050736e-05 -0.0027091751404396498 0 0.0001292822075227526 -0.0018899585190860772 0 0.00023907963845709051 -0.0022858937954721506 0 0.00045746668390258275 -0.0017417623565788333 0 0.00014120405313289942 -0.0014428038940409492 0 -0.00028899298024700489 -0.0014599526599981809 0 0.0001292822075227526 -0.0018899585190860772 0 0.00014120405313289942 -0.0014428038940409492 0 0.0001292822075227526 -0.0018899585190860772 0 0.00045746668390258275 -0.0017417623565788333 0 0.00023907963845709051 -0.0022858937954721506 0 0.00056129750493848002 -0.0023987767023048098 0 4.9157355156549837e-05 -0.0023003676719478817 0 0.0001292822075227526 -0.0018899585190860772 0 -1.7657964112387439e-05 -0.0023387018905608164 0 0.00023907963845709051 -0.0022858937954721506 0 0.00023907963845709051 -0.0022858937954721506 0 6.1139385101641994e-05 -0.002315397310551377 0 4.9157355156549837e-05 -0.0023003676719478817 0 -1.7657964112387439e-05 -0.0023387018905608164 0 0.00023907963845709051 -0.0022858937954721506 0 6.1139385101641994e-05 -0.002315397310551377 0 6.1139385101641994e-05 -0.002315397310551377 0 0.00031528306369361817 -0.0022423751503265329 0 4.9157355156549837e-05 -0.0023003676719478817 0 -1.7657964112387439e-05 -0.0023387018905608164 0 6.1139385101641994e-05 -0.002315397310551377 0 0.00031528306369361817 -0.0022423751503265329 0 -1.7657964112387439e-05 -0.0023387018905608164 0 0.00031528306369361817 -0.0022423751503265329 0 0.00046462354103380852 -0.002570489650516857 0 0.00031528306369361817 -0.0022423751503265329 0 0.00062471180635139821 -0.0023861401419809302 0 0.00046462354103380852 -0.002570489650516857 0 0.00031528306369361817 -0.0022423751503265329 0 0.00062471180635139821 -0.0023861401419809302 0 0.00053275219585326302 -0.002163193638951422 0 0.00062471180635139821 -0.0023861401419809302 0 0.00046462354103380852 -0.002570489650516857 0 0.00076281071146429801 -0.0027473064588414962 0 0.00044514789762876229 -0.00305987308461046 0 -1.7657964112387439e-05 -0.0023387018905608164 0 0.00046462354103380852 -0.002570489650516857 0 0.0010533941532738106 -0.0015739838955339152 0 0.00074598413263668982 -0.002003437050556028 0 0.0012334654629648852 -0.0021809107366074776 0 0.0010533941532738106 -0.0015739838955339152 0 0.00045746668390258275 -0.0017417623565788333 0 0.00074598413263668982 -0.002003437050556028 0 0.00023907963845709051 -0.0022858937954721506 0 0.00074598413263668982 -0.002003437050556028 0 0.00056129750493848002 -0.0023987767023048098 0 0.00023907963845709051 -0.0022858937954721506 0 0.00045746668390258275 -0.0017417623565788333 0 0.00074598413263668982 -0.002003437050556028 0 0.00074598413263668982 -0.002003437050556028 0 0.00056129750493848002 -0.0023987767023048098 0 0.0012334654629648852 -0.0021809107366074776 0 0.00084146251454502395 -0.0023364338902680053 0 0.0012334654629648852 -0.0021809107366074776 0 0.0010905926607643259 -0.0024818914226214456 0 0.0012417950676061353 -0.0042052980005061564 0 0.0013349256333772608 -0.0038686395724807608 0 0.0012334654629648852 -0.0021809107366074776 0 0.0010905926607643259 -0.0024818914226214456 0 0.0013780190976456024 -0.002657067886289242 0 0.0010905926607643259 -0.0024818914226214456 0 0.0011006215914710967 -0.0027403844358517295 0 0.0013780190976456024 -0.002657067886289242 0 0.0010905926607643259 -0.0024818914226214456 0 0.00086390714779369104 -0.0026344708326708696 0 0.0011006215914710967 -0.0027403844358517295 0 0.0012417950676061353 -0.0042052980005061564 0 0.001216066637157207 -0.0052517474237380882 0 0.00084146251454502395 -0.0023364338902680053 0 0.0010905926607643259 -0.0024818914226214456 0 0.00086390714779369104 -0.0026344708326708696 0 0.00084146251454502395 -0.0023364338902680053 0 0.00086390714779369104 -0.0026344708326708696 0 0.00058064784683162045 -0.0025645958074785166 0 0.00086390714779369104 -0.0026344708326708696 0 0.00067922847186575343 -0.0026979706844918617 0 0.00058064784683162045 -0.0025645958074785166 0 0.00086390714779369104 -0.0026344708326708696 0 0.00067922847186575343 -0.0026979706844918617 0 0.00070588447578982783 -0.0028421657844510412 0 0.00067922847186575343 -0.0026979706844918617 0 0.00070588447578982783 -0.0028421657844510412 0 0.00056713363677521127 -0.0027521618979030665 0 0.0007346735833919472 -0.0030883809767614841 0 0.00070588447578982783 -0.0028421657844510412 0 0.00094800462989097251 -0.002952308899088386 0 0.0007346735833919472 -0.0030883809767614841 0 0.00070588447578982783 -0.0028421657844510412 0 0.00053634768532220898 -0.0029027642698821426 0 0.00086390714779369104 -0.0026344708326708696 0 0.00070588447578982783 -0.0028421657844510412 0 0.00094800462989097251 -0.002952308899088386 0 0.00086390714779369104 -0.0026344708326708696 0 0.00094800462989097251 -0.002952308899088386 0 0.0011006215914710967 -0.0027403844358517295 0 0.00094800462989097251 -0.002952308899088386 0 0.0011006215914710967 -0.0027403844358517295 0 0.001230993033022207 -0.0029752835422861106 0 0.0011006215914710967 -0.0027403844358517295 0 0.001230993033022207 -0.0029752835422861106 0 0.0013780190976456024 -0.002657067886289242 0 0.00031528306369361817 -0.0022423751503265329 0 0.00049915046981278857 -0.0019491511249167331 0 4.9157355156549837e-05 -0.0023003676719478817 0 9.5143312514756119e-05 -0.0027020055869051403 0 3.3903748665348253e-05 -0.0026315441458301023 0 0.00043606737879752546 -0.0024845595106342045 0 0.0014082751527269976 -0.007368501396661553 0 0.001216066637157207 -0.0052517474237380882 0 0.002404450189629273 -0.0076689698273698032 0 0.0011227533610793977 -0.0079537893579366605 0 0.0014166831353098802 -0.00650758709085198 0 0.0011795897953318191 -0.0069679530310518259 0 0.0014417809588697036 -0.0074330892991895043 0 0.0014417809588697036 -0.0074330892991895043 0 0.0015569369124841257 -0.0077137324820353527 0 0.0011227533610793977 -0.0079537893579366605 0 0.0014166831353098802 -0.00650758709085198 0 0.00062659226015386409 -0.0067478754436921355 0 0.0014082751527269976 -0.007368501396661553 0 0.0015569369124841257 -0.0077137324820353527 0 0.0011795897953318191 -0.0069679530310518259 0 0.0014082751527269976 -0.007368501396661553 0 0.00049915046981278857 -0.0019491511249167331 0 0.00053275219585326302 -0.002163193638951422 0 0.0006986921335853677 -0.002096132624637201 0 0.00031528306369361817 -0.0022423751503265329 0 0.00049915046981278857 -0.0019491511249167331 0 0.00053275219585326302 -0.002163193638951422 0 0.00084146251454502395 -0.0023364338902680053 0 0.00043606737879752546 -0.0024845595106342045 0 0.00058064784683162045 -0.0025645958074785166 0 9.5143312514756119e-05 -0.0027020055869051403 0 0.00043606737879752546 -0.0024845595106342045 0 0.00058064784683162045 -0.0025645958074785166 0 8.8593880734799433e-05 -0.002684571671780238 0 0.00058064784683162045 -0.0025645958074785166 0 0.00036716762573004894 -0.0027749426848736546 0 0.0011795897953318191 -0.0069679530310518259 0 0.0010944673511856916 -0.0060566486575458923 0 0.00067922847186575343 -0.0026979706844918617 0 0.00058064784683162045 -0.0025645958074785166 0 0.00056713363677521127 -0.0027521618979030665 0 0.00058064784683162045 -0.0025645958074785166 0 0.00036716762573004894 -0.0027749426848736546 0 0.00056713363677521127 -0.0027521618979030665 0 0.00070588447578982783 -0.0028421657844510412 0 0.00056713363677521127 -0.0027521618979030665 0 0.00053634768532220898 -0.0029027642698821426 0 0.00036716762573004894 -0.0027749426848736546 0 0.00056713363677521127 -0.0027521618979030665 0 0.00053634768532220898 -0.0029027642698821426 0 0.00041490556355243055 -0.0030665276107800354 0 0.0007346735833919472 -0.0030883809767614841 0 0.00053634768532220898 -0.0029027642698821426 0 0.00041490556355243055 -0.0030665276107800354 0 0.00036716762573004894 -0.0027749426848736546 0 0.00053634768532220898 -0.0029027642698821426 0 0.00041490556355243055 -0.0030665276107800354 0 8.8593880734799433e-05 -0.002684571671780238 0 0.00036716762573004894 -0.0027749426848736546 0 0.0004071369881472873 -0.0046357175456510401 0 0.0011795897953318191 -0.0069679530310518259 0 0.0009846111920524044 -0.0039005467146383541 0 0.00094117673280222011 -0.0039066260644279004 0 0.0010109420742890822 -0.0040132223235452768 0 0.0012443343924488713 -0.0085358550215807669 0 0.00052201744866667071 -0.0084390436407590676 0 0.00085250990656397319 -0.0092369408246919475 0 0.00088635404996131374 -0.0063807344474757499 0 0.0014417809588697036 -0.0074330892991895043 0 0.0009846111920524044 -0.0039005467146383541 0 0.0010109420742890822 -0.0040132223235452768 0 0.0010309072060516399 -0.0040098854135821706 0 0.0012443343924488713 -0.0085358550215807669 0 0.00085250990656397319 -0.0092369408246919475 0 0.0017294827069380886 -0.0090466643295523865 0 0.0014417809588697036 -0.0074330892991895043 0 0.0020668161332233464 -0.01086951847413678 0 0.0021158053378398317 -0.0091595750972142745 0 0.0016262767783422265 -0.0092238533561108463 0 0.0016039223342087941 -0.0092806835179927126 0 0.0019529433366425703 -0.0084872027199939335 0 0.0012443343924488713 -0.0085358550215807669 0 0.0017294827069380886 -0.0090466643295523865 0 0.0017528999594775072 -0.011204146812052819 0 0.0020668161332233464 -0.01086951847413678 0 0.0015356793022489766 -0.012324320019898659 0 0.0013673306846248411 -0.011535750998970223 0 0.0011744387411099053 -0.011878971967799379 0 0.0015356793022489766 -0.012324320019898659 0 0.001897832141268564 -0.011417318919807079 0 0.0013673306846248411 -0.011535750998970223 0 0.0017528999594775072 -0.011204146812052819 0 0.0022391448503550041 -0.012497019466627648 0 0.0021305029256432815 -0.010819651035680894 0 0.0020668161332233464 -0.01086951847413678 0 0.0020668161332233464 -0.01086951847413678 0 0.0022810384865974967 -0.012282881797935356 0 0.0021305029256432815 -0.010819651035680894 0 0.0022852842250485265 -0.01225358666796965 0 0.0022117454642044351 -0.011660982474213983 0 0.0022228468050056846 -0.011661704040008892 0 0.0022243399241398572 -0.011659180407026104 0 0.0022102878662608586 -0.011664514145456953 0 0.0022117454642044351 -0.011660982474213983 0 0.0022228468050056846 -0.011661704040008892 0 0.0022852842250485265 -0.01225358666796965 0 0.0022810384865974967 -0.012282881797935356 0 0.0021305029256432815 -0.010819651035680894 0 0.002545688962951413 -0.010193830664180772 0 0.002673173570344974 -0.011829420842913262 0 0.0026387286863107508 -0.011256881291341423 0 0.0031376670021074277 -0.010671991460998669 0 0.0051235213351719577 -0.019119181324398452 0 0.0054845080333975156 -0.018496311767607132 0 0.0050488615921145154 -0.018502921404176552 0 0.0022852842250485265 -0.01225358666796965 0 0.0025189079963298193 -0.01238601860247941 0 0.002673173570344974 -0.011829420842913262 0 0.0022418041037716545 -0.011960601151495789 0 0.0026387286863107508 -0.011256881291341423 0 0.0054845080333975156 -0.018496311767607132 0 0.0050666320066205858 -0.018087845349050981 0 0.0050488615921145154 -0.018502921404176552 0 0.0021305029256432815 -0.010819651035680894 0 0.0015569369124841257 -0.0077137324820353527 0 0.0021158053378398317 -0.0091595750972142745 0 0.0016262767783422265 -0.0092238533561108463 0 0.0020823637690191607 -0.0090783772606108232 0 0.0022105912804815222 -0.0095994617216261808 0 0.0029553637185926493 -0.0093699689581151664 0 0.0028536065741511215 -0.009121478657316627 0 0.0022105912804815222 -0.0095994617216261808 0 0.0028536065741511215 -0.009121478657316627 0 0.0025461720886704462 -0.008760075238940174 0 0.001963165237042588 -0.0075786015683416818 0 0.0018853833467333029 -0.0076023803923573035 0 0.0017941990556967643 -0.0073800599523649842 0 0.0015569369124841257 -0.0077137324820353527 0 0.0017360959462027021 -0.0081014062695618973 0 0.0014082751527269976 -0.007368501396661553 0 0.0017360959462027021 -0.0081014062695618973 0 0.0017360959462027021 -0.0081014062695618973 0 0.002545688962951413 -0.010193830664180772 0 0.0017360959462027021 -0.0081014062695618973 0 0.0026341432234102545 -0.0094048268325776334 0 0.00062471180635139821 -0.0023861401419809302 0 0.00053275219585326302 -0.002163193638951422 0 0.0006986921335853677 -0.002096132624637201 0 0.00062471180635139821 -0.0023861401419809302 0 0.0006986921335853677 -0.002096132624637201 0 0.0010324068449027437 -0.0025983591403531507 0 0.00062471180635139821 -0.0023861401419809302 0 0.0010324068449027437 -0.0025983591403531507 0 0.00076281071146429801 -0.0027473064588414962 0 0.0028105605681268157 -0.0099914530793615598 0 0.0026341432234102545 -0.0094048268325776334 0 0.0029375557514978172 -0.0093177761276756182 0 0.0032619791596552737 -0.010108058885091387 0 0.001964157156240483 -0.01104889156386595 0 0.0026341432234102545 -0.0094048268325776334 0 0.002545688962951413 -0.010193830664180772 0 0.0032619791596552737 -0.010108058885091387 0 0.001964157156240483 -0.01104889156386595 0 0.0025914993922804886 -0.011787169785293962 0 0.0028105605681268157 -0.0099914530793615598 0 0.0029381352431482404 -0.011065134583639242 0 0.0020616945551300814 -0.0088032464369185975 0 0.0026030973689544629 -0.010108254695828243 0 0.0027844250517432521 -0.0096498899332339814 0 0.0029381352431482404 -0.011065134583639242 0 0.002545688962951413 -0.010193830664180772 0 0.0025189079963298193 -0.01238601860247941 0 0.0029381352431482404 -0.011065134583639242 0 0.0026387286863107508 -0.011256881291341423 0 0.0030364434214705111 -0.010552687169918053 0 0.0031376670021074277 -0.010671991460998669 0 0.0054845080333975156 -0.018496311767607132 0 0.0058423547697584238 -0.017865004815027504 0 0.0053973862314175176 -0.017928536135463673 0 0.0054845080333975156 -0.018496311767607132 0 0.0053973862314175176 -0.017928536135463673 0 0.0050666320066205858 -0.018087845349050981 0 0.0053973862314175176 -0.017928536135463673 0 0.0050666320066205858 -0.018087845349050981 0 0.0049718864589315065 -0.017765171643402907 0 0.0053973862314175176 -0.017928536135463673 0 0.0052410777722258495 -0.017554865087099233 0 0.0049718864589315065 -0.017765171643402907 0 0.0058423547697584238 -0.017865004815027504 0 0.0053973862314175176 -0.017928536135463673 0 0.0052410777722258495 -0.017554865087099233 0 0.0055084855462050886 -0.016363539456819079 0 0.0054360619629514554 -0.01648699672563354 0 0.0050182303934980339 -0.016032640445787928 0 0.0029381352431482404 -0.011065134583639242 0 0.0049628178005515933 -0.015039721431597793 0 0.0058423547697584238 -0.017865004815027504 0 0.0052410777722258495 -0.017554865087099233 0 0.0050672569211428929 -0.016910487677622606 0 0.005319747420630838 -0.015837673661619395 0 0.0055084855462050886 -0.016363539456819079 0 0.0050182303934980339 -0.016032640445787928 0 0.0032755771691617289 -0.010147989342057403 0 0.0028105605681268157 -0.0099914530793615598 0 0.0022028509958865105 -0.0039374000275785885 0 0.0015465794365663616 -0.002400317495910056 0 0.001188944382943724 -0.0030300083411772209 0 0.0031172314251025394 -0.007522709977388113 0 0.0030034896675425939 -0.008395785311860483 0 0.0010324068449027437 -0.0025983591403531507 0 0.00096216359325179527 -0.0031272985864013421 0 0.00076281071146429801 -0.0027473064588414962 0 0.00044514789762876229 -0.00305987308461046 0 0.00096216359325179527 -0.0031272985864013421 0 0.00076281071146429801 -0.0027473064588414962 0 0.0026341432234102545 -0.0094048268325776334 0 0.0030034896675425939 -0.008395785311860483 0 0.0028105605681268157 -0.0099914530793615598 0 0.0030034896675425939 -0.008395785311860483 0 0.0023215085887753821 -0.0098478424055643745 0 0.0024596190003413751 -0.010185323049501432 0 0.0030278059970737445 -0.0085958045027627588 0 0.0040902667843895632 -0.016893265196673155 0 0.004456888241061433 -0.017313465204462961 0 0.0039784669958351027 -0.017845608108510574 0 0.0040902667843895632 -0.016893265196673155 0 0.003367728257880646 -0.017645565795279667 0 0.0033621137146647964 -0.016298882529667644 0 0.0040902667843895632 -0.016893265196673155 0 0.0039784669958351027 -0.017845608108510574 0 0.003367728257880646 -0.017645565795279667 0 0.0040902667843895632 -0.016893265196673155 0 0.0050672569211428929 -0.016910487677622606 0 0.004456888241061433 -0.017313465204462961 0 0.0050672569211428929 -0.016910487677622606 0 0.0048731222834155988 -0.017363820307179024 0 0.004456888241061433 -0.017313465204462961 0 0.0052410777722258495 -0.017554865087099233 0 0.0048731222834155988 -0.017363820307179024 0 0.0049718864589315065 -0.017765171643402907 0 0.0052410777722258495 -0.017554865087099233 0 0.0050672569211428929 -0.016910487677622606 0 0.0048731222834155988 -0.017363820307179024 0 0.0048731222834155988 -0.017363820307179024 0 0.004456888241061433 -0.017313465204462961 0 0.0045329380456982527 -0.017768134579146101 0 0.0045329380456982527 -0.017768134579146101 0 0.0049718864589315065 -0.017765171643402907 0 0.0047704416198485894 -0.018014762615583872 0 0.0048731222834155988 -0.017363820307179024 0 0.0045329380456982527 -0.017768134579146101 0 0.0049718864589315065 -0.017765171643402907 0 0.0050666320066205858 -0.018087845349050981 0 0.0049718864589315065 -0.017765171643402907 0 0.0047704416198485894 -0.018014762615583872 0 0.0050666320066205858 -0.018087845349050981 0 0.0047704416198485894 -0.018014762615583872 0 0.0047779240600384467 -0.018280551935418044 0 0.0045329380456982527 -0.017768134579146101 0 0.0044993319904758711 -0.018176539496634912 0 0.0042563199291268863 -0.018045069092587861 0 0.0045329380456982527 -0.017768134579146101 0 0.0047704416198485894 -0.018014762615583872 0 0.0044993319904758711 -0.018176539496634912 0 0.0047704416198485894 -0.018014762615583872 0 0.0044993319904758711 -0.018176539496634912 0 0.0047779240600384467 -0.018280551935418044 0 0.0044993319904758711 -0.018176539496634912 0 0.0043235573307259592 -0.018273077460519375 0 0.0042563199291268863 -0.018045069092587861 0 0.0039281928141783017 -0.016676324697256155 0 0.0036172847049000889 -0.017041729982804808 0 0.0042563199291268863 -0.018045069092587861 0 0.0039784669958351027 -0.017845608108510574 0 0.0040961155081993099 -0.018435222203555156 0 0.0035254277162610282 -0.018422038120105445 0 0.0030258008364137095 -0.018360853880667858 0 0.003070505580289568 -0.017690438726843234 0 0.0039784669958351027 -0.017845608108510574 0 0.0040961155081993099 -0.018435222203555156 0 0.003367728257880646 -0.017645565795279667 0 0.0043235573307259592 -0.018273077460519375 0 0.0042563199291268863 -0.018045069092587861 0 0.0040961155081993099 -0.018435222203555156 0 0.004456888241061433 -0.017313465204462961 0 0.0045329380456982527 -0.017768134579146101 0 0.0039784669958351027 -0.017845608108510574 0 0.0045329380456982527 -0.017768134579146101 0 0.0042563199291268863 -0.018045069092587861 0 0.0039784669958351027 -0.017845608108510574 0 0.0034852243126136839 -0.018506651182016248 0 0.0035745423969214081 -0.018597904662514212 0 0.0035925598131669096 -0.01871943390653253 0 0.0035254277162610282 -0.018422038120105445 0 0.0034852243126136839 -0.018506651182016248 0 0.0030258008364137095 -0.018360853880667858 0 0.0034852243126136839 -0.018506651182016248 0 0.0030760995340319273 -0.018600753106334293 0 0.0030258008364137095 -0.018360853880667858 0 0.0043235573307259592 -0.018273077460519375 0 0.0040961155081993099 -0.018435222203555156 0 0.0044595618600421381 -0.018466266463867478 0 0.0035254277162610282 -0.018422038120105445 0 0.0034852243126136839 -0.018506651182016248 0 0.0035745423969214081 -0.018597904662514212 0 0.0034852243126136839 -0.018506651182016248 0 0.0033549137394760652 -0.018710414332847744 0 0.0035281905261722738 -0.01885003844928463 0 0.0034852243126136839 -0.018506651182016248 0 0.0033549137394760652 -0.018710414332847744 0 0.0030760995340319273 -0.018600753106334293 0 0.0033549137394760652 -0.018710414332847744 0 0.0033860363267932203 -0.018843457366066546 0 0.0035281905261722738 -0.01885003844928463 0 0.0033549137394760652 -0.018710414332847744 0 0.0031593954694147833 -0.018839709831857347 0 0.0030760995340319273 -0.018600753106334293 0 0.0033549137394760652 -0.018710414332847744 0 0.0033860363267932203 -0.018843457366066546 0 0.0031593954694147833 -0.018839709831857347 0 0.0035254277162610282 -0.018422038120105445 0 0.0035745423969214081 -0.018597904662514212 0 0.0037138944397590453 -0.01870271968842049 0 0.0039281928141783017 -0.016676324697256155 0 0.0025657770944304886 -0.013229982770331796 0 0.0040961155081993099 -0.018435222203555156 0 0.0045854288863254175 -0.018706356990575459 0 0.0047915486478297773 -0.019260748375328773 0 0.0050666320066205858 -0.018087845349050981 0 0.0050488615921145154 -0.018502921404176552 0 0.0047779240600384467 -0.018280551935418044 0 0.0050488615921145154 -0.018502921404176552 0 0.0047779240600384467 -0.018280551935418044 0 0.0047576661181709138 -0.018567233263676302 0 0.0040961155081993099 -0.018435222203555156 0 0.0044595618600421381 -0.018466266463867478 0 0.0045854288863254175 -0.018706356990575459 0 0.0047576661181709138 -0.018567233263676302 0 0.0044595618600421381 -0.018466266463867478 0 0.0045854288863254175 -0.018706356990575459 0 0.0044993319904758711 -0.018176539496634912 0 0.0047779240600384467 -0.018280551935418044 0 0.0044595618600421381 -0.018466266463867478 0 0.0047779240600384467 -0.018280551935418044 0 0.0047576661181709138 -0.018567233263676302 0 0.0044595618600421381 -0.018466266463867478 0 0.0044993319904758711 -0.018176539496634912 0 0.0043235573307259592 -0.018273077460519375 0 0.0044595618600421381 -0.018466266463867478 0 0.0051235213351719577 -0.019119181324398452 0 0.0050488615921145154 -0.018502921404176552 0 0.004851837613680696 -0.018834925801292424 0 0.0045854288863254175 -0.018706356990575459 0 0.004851837613680696 -0.018834925801292424 0 0.0047915486478297773 -0.019260748375328773 0 0.0047576661181709138 -0.018567233263676302 0 0.0045854288863254175 -0.018706356990575459 0 0.004851837613680696 -0.018834925801292424 0 0.0050488615921145154 -0.018502921404176552 0 0.0047576661181709138 -0.018567233263676302 0 0.004851837613680696 -0.018834925801292424 0 0.0051235213351719577 -0.019119181324398452 0 0.004851837613680696 -0.018834925801292424 0 0.0047915486478297773 -0.019260748375328773 0 0.0025264268520564428 -0.012888706828946613 0 0.0025164693749817162 -0.012906760874679448 0 0.0024534674216942784 -0.012921691576682432 0 0.0022852842250485265 -0.01225358666796965 0 0.0025657770944304886 -0.013229982770331796 0 0.0022810384865974967 -0.012282881797935356 0 0.0025657770944304886 -0.013229982770331796 0 0.0022903825673006276 -0.012500804052643363 0 0.0010768823703093003 -0.01277082616893277 0 0.0017044927401091774 -0.013544362673966442 0 0.0035745423969214081 -0.018597904662514212 0 0.0037138944397590453 -0.01870271968842049 0 0.0036197830470183386 -0.018672357885069473 0 0.0035745423969214081 -0.018597904662514212 0 0.0036197830470183386 -0.018672357885069473 0 0.0035925598131669096 -0.01871943390653253 0 0.0037138944397590453 -0.01870271968842049 0 0.0036432732631771088 -0.018702263930012321 0 0.0036197830470183386 -0.018672357885069473 0 0.0025657770944304886 -0.013229982770331796 0 0.0025941438633629789 -0.013294318888237884 0 0.0036432732631771088 -0.018702263930012321 0 0.0036197830470183386 -0.018672357885069473 0 0.0035925598131669096 -0.01871943390653253 0 0.0025657770944304886 -0.013229982770331796 0 0.0028035965093430944 -0.01470802621006603 0 0.0020744087332950703 -0.013034310808695321 0 0.0015902331893925302 -0.013142936299739304 0 0.0022396048043474134 -0.013237939676124475 0 0.0018816108693322071 -0.013873042281185652 0 0.0015902331893925302 -0.013142936299739304 0 0.0022396048043474134 -0.013237939676124475 0 0.0037073246506438024 -0.018693016523103428 0 0.0036432732631771088 -0.018702263930012321 0 0.0035925598131669096 -0.01871943390653253 0 0.0025657770944304886 -0.013229982770331796 0 0.0022391448503550041 -0.012497019466627648 0 0.0022810384865974967 -0.012282881797935356 0 0.0022391448503550041 -0.012497019466627648 0 0.0034852243126136839 -0.018506651182016248 0 0.0037244664896500484 -0.019153587194834024 0 0.0035281905261722738 -0.01885003844928463 0 0.0033157111209850543 -0.016263560538891077 0 0.0028035965093430944 -0.01470802621006603 0 0.0033486938323769415 -0.018979109718348527 0 0.0034260441809528829 -0.019090727599953637 0 0.0031440666272334757 -0.019092801304009029 0 0.0033486938323769415 -0.018979109718348527 0 0.0034260441809528829 -0.019090727599953637 0 0.0034658730525041546 -0.01900494040608015 0 0.0033486938323769415 -0.018979109718348527 0 0.0034579679447578953 -0.018918851490546725 0 0.0034658730525041546 -0.01900494040608015 0 0.0033486938323769415 -0.018979109718348527 0 0.0031440666272334757 -0.019092801304009029 0 0.0031593954694147833 -0.018839709831857347 0 0.0033486938323769415 -0.018979109718348527 0 0.0033860363267932203 -0.018843457366066546 0 0.0031593954694147833 -0.018839709831857347 0 0.0033486938323769415 -0.018979109718348527 0 0.0033860363267932203 -0.018843457366066546 0 0.0034579679447578953 -0.018918851490546725 0 0.0035281905261722738 -0.01885003844928463 0 0.0035267385574059549 -0.018961582492969951 0 0.0036191023021080538 -0.019065484327712191 0 0.0037244664896500484 -0.019153587194834024 0 0.0035281905261722738 -0.01885003844928463 0 0.0036191023021080538 -0.019065484327712191 0 0.0033860363267932203 -0.018843457366066546 0 0.0035281905261722738 -0.01885003844928463 0 0.0034579679447578953 -0.018918851490546725 0 0.0035281905261722738 -0.01885003844928463 0 0.0035267385574059549 -0.018961582492969951 0 0.0034579679447578953 -0.018918851490546725 0 0.0035267385574059549 -0.018961582492969951 0 0.0034579679447578953 -0.018918851490546725 0 0.0034658730525041546 -0.01900494040608015 0 0.0035267385574059549 -0.018961582492969951 0 0.0034658730525041546 -0.01900494040608015 0 0.0035324213535968536 -0.019022443708077631 0 0.0035267385574059549 -0.018961582492969951 0 0.0036191023021080538 -0.019065484327712191 0 0.0035324213535968536 -0.019022443708077631 0 0.0036191023021080538 -0.019065484327712191 0 0.0035324213535968536 -0.019022443708077631 0 0.0035260097613731278 -0.019107770835586273 0 0.0034260441809528829 -0.019090727599953637 0 0.0035324213535968536 -0.019022443708077631 0 0.0035260097613731278 -0.019107770835586273 0 0.0034260441809528829 -0.019090727599953637 0 0.0034658730525041546 -0.01900494040608015 0 0.0035324213535968536 -0.019022443708077631 0 0.0021382329737220387 -0.014325973090870371 0 0.0021366441569264315 -0.014347391727973002 0 0.0021497971400726802 -0.014344859971871666 0 0.0034260441809528829 -0.019090727599953637 0 0.0035260097613731278 -0.019107770835586273 0 0.0035008721522840555 -0.019200196370435085 0 0.0036191023021080538 -0.019065484327712191 0 0.0035260097613731278 -0.019107770835586273 0 0.0035008721522840555 -0.019200196370435085 0 0.0028035965093430944 -0.01470802621006603 0 0.0029796869084562343 -0.015314589776622624 0 0.0037244664896500484 -0.019153587194834024 0 0.0036191023021080538 -0.019065484327712191 0 0.0035008721522840555 -0.019200196370435085 0 0.0029796869084562343 -0.015314589776622624 0 0.0028883797485956173 -0.015589441101841951 0 0.0030241357740483665 -0.019506302965741622 0 0.0033590753270824024 -0.019212354136844478 0 0.0030444178249548733 -0.019276754058710641 0 0.0035008721522840555 -0.019200196370435085 0 0.0030444178249548733 -0.019276754058710641 0 0.0031440666272334757 -0.019092801304009029 0 0.0034260441809528829 -0.019090727599953637 0 0.0035008721522840555 -0.019200196370435085 0 0.0031440666272334757 -0.019092801304009029 0 0.0030444178249548733 -0.019276754058710641 0 0.0031440666272334757 -0.019092801304009029 0 0.002597139103700834 -0.018806358760852251 0 0.0029267974416645791 -0.018908784710257844 0 0.0028753029153306565 -0.018943394258603988 0 0.0025466151478874539 -0.019771328993294073 0 0.0028947808923254462 -0.019733183287306739 0 0.002597139103700834 -0.018806358760852251 0 0.0030241357740483665 -0.019506302965741622 0 0.0030444178249548733 -0.019276754058710641 0 0.002597139103700834 -0.018806358760852251 0 0.0031440666272334757 -0.019092801304009029 0 0.0031593954694147833 -0.018839709831857347 0 0.002597139103700834 -0.018806358760852251 0 0.0030760995340319273 -0.018600753106334293 0 0.002597139103700834 -0.018806358760852251 0 0.0030258008364137095 -0.018360853880667858 0 0.0031593954694147833 -0.018839709831857347 0 0.0030760995340319273 -0.018600753106334293 0 0.002597139103700834 -0.018806358760852251 0 0.002597139103700834 -0.018806358760852251 0 0.0030258008364137095 -0.018360853880667858 0 0.0023057856239213806 -0.018182510129748079 0 0.002597139103700834 -0.018806358760852251 0 0.0016424164596107848 -0.018939236014613524 0 0.0023057856239213806 -0.018182510129748079 0 0.002597139103700834 -0.018806358760852251 0 0.002083451669147363 -0.019344943764221613 0 0.0016424164596107848 -0.018939236014613524 0 0.0025466151478874539 -0.019771328993294073 0 0.002597139103700834 -0.018806358760852251 0 0.002083451669147363 -0.019344943764221613 0 0.0015544677245253337 -0.019836522364176854 0 0.002083451669147363 -0.019344943764221613 0 0.0016424164596107848 -0.018939236014613524 0 0.0015544677245253337 -0.019836522364176854 0 0.0008524035231051028 -0.019170070928028762 0 0.0016424164596107848 -0.018939236014613524 0 0.0008524035231051028 -0.019170070928028762 0 0.00095752647073466598 -0.018539155739670285 0 0.0016424164596107848 -0.018939236014613524 0 0.00095752647073466598 -0.018539155739670285 0 0.0016424164596107848 -0.018939236014613524 0 0.0014808280620063569 -0.01798942230272357 0 0.0016424164596107848 -0.018939236014613524 0 0.0014808280620063569 -0.01798942230272357 0 0.0023057856239213806 -0.018182510129748079 0 0.00095752647073466598 -0.018539155739670285 0 0.0014808280620063569 -0.01798942230272357 0 0.0007220771682157277 -0.017829643690609288 0 0.0014808280620063569 -0.01798942230272357 0 0.0007220771682157277 -0.017829643690609288 0 0.0015010637428282305 -0.01694531615933928 0 0.0007220771682157277 -0.017829643690609288 0 0.00041046388595787099 -0.016806554165348032 0 0.0015010637428282305 -0.01694531615933928 0 0.0014808280620063569 -0.01798942230272357 0 0.0021971849914466063 -0.017535210088327469 0 0.0015010637428282305 -0.01694531615933928 0 0.0021971849914466063 -0.017535210088327469 0 0.0025583206875677716 -0.01680366612121514 0 0.0015010637428282305 -0.01694531615933928 0 0.0021971849914466063 -0.017535210088327469 0 0.003070505580289568 -0.017690438726843234 0 0.0025583206875677716 -0.01680366612121514 0 0.0036172847049000889 -0.017041729982804808 0 0.0033172388976300858 -0.016882682570757965 0 0.003367728257880646 -0.017645565795279667 0 0.0033621137146647964 -0.016298882529667644 0 0.0025583206875677716 -0.01680366612121514 0 0.0030258008364137095 -0.018360853880667858 0 0.003070505580289568 -0.017690438726843234 0 0.0023057856239213806 -0.018182510129748079 0 0.0021971849914466063 -0.017535210088327469 0 0.003070505580289568 -0.017690438726843234 0 0.0023057856239213806 -0.018182510129748079 0 0.0014808280620063569 -0.01798942230272357 0 0.0021971849914466063 -0.017535210088327469 0 0.0023057856239213806 -0.018182510129748079 0 -0.0013419591148371561 -0.019033689468798382 0 -0.0010616190396521442 -0.019723130148173222 0 -0.0006774684542716667 -0.019307065558739091 0 -0.0014791494091124246 -0.019796604628732915 0 -0.0013419591148371561 -0.019033689468798382 0 -0.0010616190396521442 -0.019723130148173222 0 -0.0011678444980797824 -0.020071030609157645 0 -0.0014791494091124246 -0.019796604628732915 0 -0.0010616190396521442 -0.019723130148173222 0 -0.0008175803543973854 -0.019918151920838019 0 -0.00098718823468638161 -0.019987520527746855 0 -0.0010616190396521442 -0.019723130148173222 0 -0.0008175803543973854 -0.019918151920838019 0 -0.0010616190396521442 -0.019723130148173222 0 -0.0006774684542716667 -0.019307065558739091 0 -0.0008175803543973854 -0.019918151920838019 0 -0.0006774684542716667 -0.019307065558739091 0 -0.00034786996377922472 -0.019715854114380156 0 -0.0013419591148371561 -0.019033689468798382 0 -0.0006774684542716667 -0.019307065558739091 0 -0.00060580603366099659 -0.018594192285269453 0 -0.0006774684542716667 -0.019307065558739091 0 -0.00060580603366099659 -0.018594192285269453 0 0.00024653261577373359 -0.018778875574175419 0 -0.0006774684542716667 -0.019307065558739091 0 -0.00034786996377922472 -0.019715854114380156 0 0.00024653261577373359 -0.018778875574175419 0 -0.00037636409842001288 -0.019379473569065511 0 0.00016815055909115466 -0.019367964955572373 0 0.00024653261577373359 -0.018778875574175419 0 -0.00048433526366882692 -0.019637574005630591 0 -0.00018010501640152923 -0.019288659151494816 0 0.00051673316536402013 -0.019856714140888479 0 0.0008524035231051028 -0.019170070928028762 0 0.00016815055909115466 -0.019367964955572373 0 0.0008524035231051028 -0.019170070928028762 0 0.00016815055909115466 -0.019367964955572373 0 0.00024653261577373359 -0.018778875574175419 0 0.0008524035231051028 -0.019170070928028762 0 0.00095752647073466598 -0.018539155739670285 0 0.00024653261577373359 -0.018778875574175419 0 0.0007220771682157277 -0.017829643690609288 0 0.00024653261577373359 -0.018778875574175419 0 -0.00013255528619411181 -0.017801244764074672 0 0.00095752647073466598 -0.018539155739670285 0 0.0007220771682157277 -0.017829643690609288 0 0.00024653261577373359 -0.018778875574175419 0 0.0007220771682157277 -0.017829643690609288 0 -0.00013255528619411181 -0.017801244764074672 0 0.00041046388595787099 -0.016806554165348032 0 -0.00013255528619411181 -0.017801244764074672 0 -0.00054590058466272957 -0.016877644547116381 0 0.00041046388595787099 -0.016806554165348032 0 -0.00060580603366099659 -0.018594192285269453 0 0.00024653261577373359 -0.018778875574175419 0 -0.00013255528619411181 -0.017801244764074672 0 -0.00060580603366099659 -0.018594192285269453 0 -0.00013255528619411181 -0.017801244764074672 0 -0.0010671231079186039 -0.018033817553411654 0 -0.0013419591148371561 -0.019033689468798382 0 -0.00060580603366099659 -0.018594192285269453 0 -0.0010671231079186039 -0.018033817553411654 0 -0.00013255528619411181 -0.017801244764074672 0 -0.0010671231079186039 -0.018033817553411654 0 -0.00054590058466272957 -0.016877644547116381 0 -0.0019036554656585601 -0.018216262541949073 0 -0.0010671231079186039 -0.018033817553411654 0 -0.0016255924125177694 -0.016953656173664001 0 -0.0019036554656585601 -0.018216262541949073 0 -0.0013419591148371561 -0.019033689468798382 0 -0.0010671231079186039 -0.018033817553411654 0 -0.0016255924125177694 -0.016953656173664001 0 -0.00098582100659491646 -0.016014061632957467 0 -0.0016871312462921344 -0.01536712056260797 0 -0.0016255924125177694 -0.016953656173664001 0 -0.00098582100659491646 -0.016014061632957467 0 -0.00054590058466272957 -0.016877644547116381 0 -0.0010671231079186039 -0.018033817553411654 0 -0.0016255924125177694 -0.016953656173664001 0 -0.00054590058466272957 -0.016877644547116381 0 -0.00098582100659491646 -0.016014061632957467 0 -0.00054590058466272957 -0.016877644547116381 0 -5.4558989083696715e-05 -0.015640646031416173 0 -0.00054590058466272957 -0.016877644547116381 0 0.00041046388595787099 -0.016806554165348032 0 -5.4558989083696715e-05 -0.015640646031416173 0 0.00041046388595787099 -0.016806554165348032 0 -5.4558989083696715e-05 -0.015640646031416173 0 0.0010262433181950118 -0.015903907044429427 0 -5.4558989083696715e-05 -0.015640646031416173 0 0.0010262433181950118 -0.015903907044429427 0 0.0006177902497640545 -0.014788667974624111 0 -5.4558989083696715e-05 -0.015640646031416173 0 -0.0002205719075814775 -0.013969825927300722 0 0.0006177902497640545 -0.014788667974624111 0 -0.0002205719075814775 -0.013969825927300722 0 -0.000722781273470861 -0.014973553428428809 0 -0.0011370022744223586 -0.014290569708280718 0 -5.4558989083696715e-05 -0.015640646031416173 0 -0.0002205719075814775 -0.013969825927300722 0 -0.000722781273470861 -0.014973553428428809 0 -0.00098582100659491646 -0.016014061632957467 0 -5.4558989083696715e-05 -0.015640646031416173 0 -0.000722781273470861 -0.014973553428428809 0 -0.00098582100659491646 -0.016014061632957467 0 -0.000722781273470861 -0.014973553428428809 0 -0.0016871312462921344 -0.01536712056260797 0 -0.000722781273470861 -0.014973553428428809 0 -0.0011370022744223586 -0.014290569708280718 0 -0.0016871312462921344 -0.01536712056260797 0 -0.0025720742356014435 -0.014117204091545559 0 -0.0011370022744223586 -0.014290569708280718 0 -0.0016871312462921344 -0.01536712056260797 0 0.0022038145339940162 -0.015737069188130129 0 0.0033621137146647964 -0.016298882529667644 0 0.0033790665904878969 -0.014642200415613938 0 0.0022038145339940162 -0.015737069188130129 0 0.0025583206875677716 -0.01680366612121514 0 0.0015010637428282305 -0.01694531615933928 0 0.0022038145339940162 -0.015737069188130129 0 0.0033621137146647964 -0.016298882529667644 0 0.0025583206875677716 -0.01680366612121514 0 0.0022038145339940162 -0.015737069188130129 0 0.0015010637428282305 -0.01694531615933928 0 0.0010262433181950118 -0.015903907044429427 0 0.00041046388595787099 -0.016806554165348032 0 0.0015010637428282305 -0.01694531615933928 0 0.0010262433181950118 -0.015903907044429427 0 0.0022038145339940162 -0.015737069188130129 0 0.0010262433181950118 -0.015903907044429427 0 0.0015222723119017539 -0.014979450600906743 0 0.0015222723119017539 -0.014979450600906743 0 0.0006177902497640545 -0.014788667974624111 0 0.00095796164329580195 -0.013547035480481275 0 0.0010262433181950118 -0.015903907044429427 0 0.0015222723119017539 -0.014979450600906743 0 0.0006177902497640545 -0.014788667974624111 0 -0.0002205719075814775 -0.013969825927300722 0 0.0006177902497640545 -0.014788667974624111 0 0.00095796164329580195 -0.013547035480481275 0 0.00095796164329580195 -0.013547035480481275 0 0.0022234094063743686 -0.014123676551995539 0 0.001609150843252373 -0.012767910809578663 0 0.0015222723119017539 -0.014979450600906743 0 0.00095796164329580195 -0.013547035480481275 0 0.0022234094063743686 -0.014123676551995539 0 0.0022234094063743686 -0.014123676551995539 0 0.0031908824699726562 -0.013717622925729521 0 0.0026123443688295615 -0.012918613110913029 0 0.0022038145339940162 -0.015737069188130129 0 0.0022234094063743686 -0.014123676551995539 0 0.0033790665904878969 -0.014642200415613938 0 0.0022038145339940162 -0.015737069188130129 0 0.0015222723119017539 -0.014979450600906743 0 0.0022234094063743686 -0.014123676551995539 0 0.0040404821079304959 -0.013879849853555675 0 0.0033790665904878969 -0.014642200415613938 0 0.0031908824699726562 -0.013717622925729521 0 0.0022234094063743686 -0.014123676551995539 0 0.0033790665904878969 -0.014642200415613938 0 0.0031908824699726562 -0.013717622925729521 0 0.0031411639123029044 -0.012133318565500786 0 0.0026123443688295615 -0.012918613110913029 0 0.0037152357271055857 -0.012986608462239861 0 0.0031908824699726562 -0.013717622925729521 0 0.0026123443688295615 -0.012918613110913029 0 0.0037152357271055857 -0.012986608462239861 0 0.0031411639123029044 -0.012133318565500786 0 0.003054935694350629 -0.010827174082665036 0 0.0043504356894271167 -0.012160730556295423 0 0.0031411639123029044 -0.012133318565500786 0 0.0018112308454132809 -0.011658822691266025 0 0.003054935694350629 -0.010827174082665036 0 0.0031411639123029044 -0.012133318565500786 0 0.0018112308454132809 -0.011658822691266025 0 0.0026123443688295615 -0.012918613110913029 0 0.0022234094063743686 -0.014123676551995539 0 0.0026123443688295615 -0.012918613110913029 0 0.001609150843252373 -0.012767910809578663 0 0.0018112308454132809 -0.011658822691266025 0 0.0026123443688295615 -0.012918613110913029 0 0.001609150843252373 -0.012767910809578663 0 0.00095796164329580195 -0.013547035480481275 0 0.001609150843252373 -0.012767910809578663 0 0.00048800786392638187 -0.011719106155645991 0 0.00095796164329580195 -0.013547035480481275 0 0.00048800786392638187 -0.011719106155645991 0 -0.00014736741148988411 -0.012338406537299977 0 0.0018112308454132809 -0.011658822691266025 0 0.00048800786392638187 -0.011719106155645991 0 0.00073156338854469887 -0.010683548328791641 0 0.0018112308454132809 -0.011658822691266025 0 0.001609150843252373 -0.012767910809578663 0 0.00048800786392638187 -0.011719106155645991 0 0.0018112308454132809 -0.011658822691266025 0 0.00073156338854469887 -0.010683548328791641 0 0.0008378161519129087 -0.0092986954986585043 0 0.00048800786392638187 -0.011719106155645991 0 0.00073156338854469887 -0.010683548328791641 0 2.6626986962836875e-05 -0.010222877895802802 0 2.6626986962836875e-05 -0.010222877895802802 0 0.0008378161519129087 -0.0092986954986585043 0 1.8684422894221167e-05 -0.0091750397175504317 0 0.00073156338854469887 -0.010683548328791641 0 2.6626986962836875e-05 -0.010222877895802802 0 0.0008378161519129087 -0.0092986954986585043 0 0.0008378161519129087 -0.0092986954986585043 0 0.00035236843776192142 -0.0084806081830598144 0 0.00041724207748148424 -0.0085204418754085999 0 0.0008378161519129087 -0.0092986954986585043 0 0.00035236843776192142 -0.0084806081830598144 0 0.00046460605895271701 -0.0084456127071179353 0 0.00035236843776192142 -0.0084806081830598144 0 0.00046460605895271701 -0.0084456127071179353 0 0.00041456438288768268 -0.0084434494616871195 0 0.0018112308454132809 -0.011658822691266025 0 0.0008378161519129087 -0.0092986954986585043 0 0.003054935694350629 -0.010827174082665036 0 0.0015156986303570938 -0.0092933774636547849 0 0.0018681177392437498 -0.0094683286794112666 0 -0.0023013609555528332 -0.01285704146025413 0 -0.0014665760864846198 -0.013223616459867197 0 -0.0016506177451325378 -0.01225046224029205 0 -0.0025720742356014435 -0.014117204091545559 0 -0.0011370022744223586 -0.014290569708280718 0 -0.0014665760864846198 -0.013223616459867197 0 -0.0011370022744223586 -0.014290569708280718 0 -0.0014665760864846198 -0.013223616459867197 0 -0.00051346909514253156 -0.013268115905908023 0 -0.00067696022073530438 -0.012591692526459673 0 -0.0010788508460256281 -0.011690204943887828 0 -0.0014665760864846198 -0.013223616459867197 0 -0.00051346909514253156 -0.013268115905908023 0 -0.00094201200792023586 -0.012077262796392889 0 -0.0011465913533887113 -0.011975734742140091 0 -0.00014736741148988411 -0.012338406537299977 0 -0.00060225463556104789 -0.010928948356142157 0 -0.00037385993515550255 -0.013196831625143209 0 -0.00067696022073530438 -0.012591692526459673 0 -0.0002205719075814775 -0.013969825927300722 0 -0.0011465913533887113 -0.011975734742140091 0 -0.00014736741148988411 -0.012338406537299977 0 -0.0002205719075814775 -0.013969825927300722 0 -0.0011370022744223586 -0.014290569708280718 0 -0.00051346909514253156 -0.013268115905908023 0 -0.0002205719075814775 -0.013969825927300722 0 0.00095796164329580195 -0.013547035480481275 0 -0.00014736741148988411 -0.012338406537299977 0 0.00048800786392638187 -0.011719106155645991 0 -0.00014736741148988411 -0.012338406537299977 0 -0.00060225463556104789 -0.010928948356142157 0 0.00048800786392638187 -0.011719106155645991 0 2.6626986962836875e-05 -0.010222877895802802 0 -0.00060225463556104789 -0.010928948356142157 0 2.6626986962836875e-05 -0.010222877895802802 0 -0.00045153413978576208 -0.0102016368069977 0 -0.00015738951574002821 -0.0098158853194341977 0 2.6626986962836875e-05 -0.010222877895802802 0 -0.00060225463556104789 -0.010928948356142157 0 -0.00045153413978576208 -0.0102016368069977 0 -0.00060225463556104789 -0.010928948356142157 0 -0.00080712537987993611 -0.010533942737653968 0 -0.00045153413978576208 -0.0102016368069977 0 -0.0011465913533887113 -0.011975734742140091 0 -0.00060225463556104789 -0.010928948356142157 0 -0.0011170473263412736 -0.010952118501375329 0 -0.00060225463556104789 -0.010928948356142157 0 -0.0011170473263412736 -0.010952118501375329 0 -0.00080712537987993611 -0.010533942737653968 0 -0.0018613381524004101 -0.011491596659202567 0 -0.00094201200792023586 -0.012077262796392889 0 -0.001241260342814042 -0.010729252752296871 0 -0.0010788508460256281 -0.011690204943887828 0 -0.001295469964510902 -0.011211684059575702 0 -0.0011170473263412736 -0.010952118501375329 0 -0.001241260342814042 -0.010729252752296871 0 -0.00080712537987993611 -0.010533942737653968 0 -0.0014665760864846198 -0.013223616459867197 0 -0.00094201200792023586 -0.012077262796392889 0 -0.0016506177451325378 -0.01225046224029205 0 -0.0018613381524004101 -0.011491596659202567 0 -0.00094201200792023586 -0.012077262796392889 0 -0.0016506177451325378 -0.01225046224029205 0 0.00036353624690856371 -0.010193972406693671 0 -0.00059940045774747582 -0.010366796061595135 0 6.0205870375096306e-05 -0.012157892496383394 0 -0.00042805318443652011 -0.015057406217210063 0 -0.00032751817081516806 -0.01466148729588701 0 -0.001241260342814042 -0.010729252752296871 0 -0.00081046834942302335 -0.010504059539616072 0 -0.00080712537987993611 -0.010533942737653968 0 -0.0012831224148088681 -0.010215112943267273 0 -0.001241260342814042 -0.010729252752296871 0 -0.00081046834942302335 -0.010504059539616072 0 -0.0012831224148088681 -0.010215112943267273 0 -0.00059940045774747582 -0.010366796061595135 0 -0.00081046834942302335 -0.010504059539616072 0 -0.00059940045774747582 -0.010366796061595135 0 -0.00081046834942302335 -0.010504059539616072 0 -0.00056954981025584075 -0.010319023839744498 0 -0.00081046834942302335 -0.010504059539616072 0 -0.00080712537987993611 -0.010533942737653968 0 -0.00056954981025584075 -0.010319023839744498 0 -0.00059940045774747582 -0.010366796061595135 0 -0.00056954981025584075 -0.010319023839744498 0 -0.00038564032889457924 -0.010997496517746669 0 -0.00056954981025584075 -0.010319023839744498 0 -0.00019587749252313562 -0.00987475599965742 0 -0.00030765260436567681 -0.010368801343238039 0 -0.00056954981025584075 -0.010319023839744498 0 -0.00045153413978576208 -0.0102016368069977 0 -0.00019587749252313562 -0.00987475599965742 0 -0.00080712537987993611 -0.010533942737653968 0 -0.00056954981025584075 -0.010319023839744498 0 -0.00045153413978576208 -0.0102016368069977 0 -0.00045153413978576208 -0.0102016368069977 0 -0.00019587749252313562 -0.00987475599965742 0 -0.00015738951574002821 -0.0098158853194341977 0 -0.00019587749252313562 -0.00987475599965742 0 -0.00017707735850665452 -0.009789164650240165 0 -0.00030765260436567681 -0.010368801343238039 0 -0.00017707735850665452 -0.009789164650240165 0 -8.0413848703890477e-07 -0.0098984880797054232 0 -0.00030765260436567681 -0.010368801343238039 0 -8.0413848703890477e-07 -0.0098984880797054232 0 -0.00030765260436567681 -0.010368801343238039 0 -3.9408637535892988e-07 -0.011396723082785203 0 -0.00030765260436567681 -0.010368801343238039 0 -0.00038564032889457924 -0.010997496517746669 0 -3.9408637535892988e-07 -0.011396723082785203 0 -0.00056954981025584075 -0.010319023839744498 0 -0.00030765260436567681 -0.010368801343238039 0 -0.00038564032889457924 -0.010997496517746669 0 -3.007670148882352e-08 -0.012894136725462168 0 -3.9408637535892988e-07 -0.011396723082785203 0 6.0205870375096306e-05 -0.012157892496383394 0 -0.00038564032889457924 -0.010997496517746669 0 -3.9408637535892988e-07 -0.011396723082785203 0 6.0205870375096306e-05 -0.012157892496383394 0 -0.00059940045774747582 -0.010366796061595135 0 -0.00038564032889457924 -0.010997496517746669 0 6.0205870375096306e-05 -0.012157892496383394 0 0.00015098202011945721 -0.0082049622970313853 0 0.00041724207748148424 -0.0085204418754085999 0 1.8684422894221167e-05 -0.0091750397175504317 0 0.00015098202011945721 -0.0082049622970313853 0 0.00018334264498904256 -0.0078469593775845163 0 -9.2889879037867074e-06 -0.0075401765249504147 0 0.00015098202011945721 -0.0082049622970313853 0 0.00018334264498904256 -0.0078469593775845163 0 0.00041724207748148424 -0.0085204418754085999 0 0.00018334264498904256 -0.0078469593775845163 0 3.1823617845862705e-05 -0.0070037525617513861 0 0.00023447847489862334 -0.0078255671124950847 0 0.00018334264498904256 -0.0078469593775845163 0 0.00041724207748148424 -0.0085204418754085999 0 0.00023447847489862334 -0.0078255671124950847 0 0.00035236843776192142 -0.0084806081830598144 0 0.00041724207748148424 -0.0085204418754085999 0 0.00023447847489862334 -0.0078255671124950847 0 0.0008378161519129087 -0.0092986954986585043 0 0.00041724207748148424 -0.0085204418754085999 0 1.8684422894221167e-05 -0.0091750397175504317 0 2.6626986962836875e-05 -0.010222877895802802 0 1.8684422894221167e-05 -0.0091750397175504317 0 -0.00015738951574002821 -0.0098158853194341977 0 -0.00019587749252313562 -0.00987475599965742 0 1.8684422894221167e-05 -0.0091750397175504317 0 -0.00015738951574002821 -0.0098158853194341977 0 -0.00019587749252313562 -0.00987475599965742 0 1.8684422894221167e-05 -0.0091750397175504317 0 7.3481276065674413e-05 -0.009672570736839671 0 0.00015098202011945721 -0.0082049622970313853 0 1.8684422894221167e-05 -0.0091750397175504317 0 -8.5120107890401499e-05 -0.007795047151087248 0 -9.5173230294738126e-07 -0.0088658213906208701 0 -1.4787620186068078e-06 -0.0087036062208498705 0 0.00015098202011945721 -0.0082049622970313853 0 -8.5120107890401499e-05 -0.007795047151087248 0 -9.2889879037867074e-06 -0.0075401765249504147 0 -0.00019587749252313562 -0.00987475599965742 0 -0.00017707735850665452 -0.009789164650240165 0 7.3481276065674413e-05 -0.009672570736839671 0 -0.00017707735850665452 -0.009789164650240165 0 7.3481276065674413e-05 -0.009672570736839671 0 8.1041085452137259e-07 -0.008403727046811792 0 -0.00017707735850665452 -0.009789164650240165 0 -8.0413848703890477e-07 -0.0098984880797054232 0 8.1041085452137259e-07 -0.008403727046811792 0 -1.4787620186068078e-06 -0.0087036062208498705 0 1.7373548994351747e-09 -0.0084015511072848253 0 -8.5120107890401499e-05 -0.007795047151087248 0 -2.9208688057478849e-08 -0.0083987903218434076 0 -9.2889879037867074e-06 -0.0075401765249504147 0 -2.9208688057478849e-08 -0.0083987903218434076 0 -2.3200477321020077e-07 -0.0072032731437711994 0 -9.2889879037867074e-06 -0.0075401765249504147 0 0.00018334264498904256 -0.0078469593775845163 0 -9.2889879037867074e-06 -0.0075401765249504147 0 3.1823617845862705e-05 -0.0070037525617513861 0 -2.3200477321020077e-07 -0.0072032731437711994 0 3.1823617845862705e-05 -0.0070037525617513861 0 1.8601565321365681e-07 -0.0060046302563354368 0 -2.3200477321020077e-07 -0.0072032731437711994 0 -9.2889879037867074e-06 -0.0075401765249504147 0 3.1823617845862705e-05 -0.0070037525617513861 0 3.1823617845862705e-05 -0.0070037525617513861 0 1.8601565321365681e-07 -0.0060046302563354368 0 4.7774375007350572e-05 -0.0061736119798701189 0 4.7774375007350572e-05 -0.0061736119798701189 0 -6.7035518418030941e-07 -0.0048055906155652726 0 0.0002921814374586267 -0.0059996149822804205 0 1.8601565321365681e-07 -0.0060046302563354368 0 4.7774375007350572e-05 -0.0061736119798701189 0 -6.7035518418030941e-07 -0.0048055906155652726 0 4.7774375007350572e-05 -0.0061736119798701189 0 0.0002921814374586267 -0.0059996149822804205 0 0.00021436943300047473 -0.0070852559708055839 0 3.1823617845862705e-05 -0.0070037525617513861 0 4.7774375007350572e-05 -0.0061736119798701189 0 0.00021436943300047473 -0.0070852559708055839 0 8.2444238466960359e-07 -0.0036073992954147572 0 0.00043308660409781751 -0.0040397917457627788 0 -6.7035518418030941e-07 -0.0048055906155652726 0 3.3464873633210497e-06 -0.0036099632304624949 0 0.0002921814374586267 -0.0059996149822804205 0 3.3464873633210497e-06 -0.0036099632304624949 0 0.0002921814374586267 -0.0059996149822804205 0 0.0013865223556655329 -0.0062975114320131921 0 0.00043308660409781751 -0.0040397917457627788 0 0.00063690933396179025 -0.0043364464811178087 0 0.0013865223556655329 -0.0062975114320131921 0 0.00068205001568759035 -0.0075594886271245177 0 0.0015172284248915736 -0.0076605036382404569 0 0.0002921814374586267 -0.0059996149822804205 0 0.0013865223556655329 -0.0062975114320131921 0 0.00068205001568759035 -0.0075594886271245177 0 0.00068205001568759035 -0.0075594886271245177 0 0.0015172284248915736 -0.0076605036382404569 0 0.00099859856908447188 -0.008205410948573107 0 0.00023447847489862334 -0.0078255671124950847 0 0.00021436943300047473 -0.0070852559708055839 0 0.00037300592268648541 -0.0078563936315710018 0 3.1823617845862705e-05 -0.0070037525617513861 0 0.00023447847489862334 -0.0078255671124950847 0 0.00021436943300047473 -0.0070852559708055839 0 0.00068205001568759035 -0.0075594886271245177 0 0.00021436943300047473 -0.0070852559708055839 0 0.00037300592268648541 -0.0078563936315710018 0 0.0002921814374586267 -0.0059996149822804205 0 0.00068205001568759035 -0.0075594886271245177 0 0.00021436943300047473 -0.0070852559708055839 0 0.00068205001568759035 -0.0075594886271245177 0 0.00037300592268648541 -0.0078563936315710018 0 0.00054380239747066383 -0.0082071615430046527 0 0.00035236843776192142 -0.0084806081830598144 0 0.00023447847489862334 -0.0078255671124950847 0 0.00037300592268648541 -0.0078563936315710018 0 0.00035236843776192142 -0.0084806081830598144 0 0.00037300592268648541 -0.0078563936315710018 0 0.00054380239747066383 -0.0082071615430046527 0 0.00035236843776192142 -0.0084806081830598144 0 0.0004981980515612114 -0.0084363862142340044 0 0.00054380239747066383 -0.0082071615430046527 0 0.00035236843776192142 -0.0084806081830598144 0 0.00041168130726421055 -0.0085008108613562807 0 0.0004981980515612114 -0.0084363862142340044 0 0.0012507694163002643 -0.0084415796527332106 0 0.0014631682274516306 -0.0085969460682774525 0 0.00041168130726421055 -0.0085008108613562807 0 0.0004981980515612114 -0.0084363862142340044 0 0.00050548783247717367 -0.0085823436584522728 0 0.00046460605895271701 -0.0084456127071179353 0 0.00041901057372204599 -0.0084437758569686303 0 0.00041456438288768268 -0.0084434494616871195 0 0.0004981980515612114 -0.0084363862142340044 0 0.00054380239747066383 -0.0082071615430046527 0 0.00077920916798308035 -0.0085227216643511267 0 0.0004981980515612114 -0.0084363862142340044 0 0.00077920916798308035 -0.0085227216643511267 0 0.0006079132705281851 -0.0086151873322843561 0 0.0004981980515612114 -0.0084363862142340044 0 0.00050548783247717367 -0.0085823436584522728 0 0.0006079132705281851 -0.0086151873322843561 0 0.00068205001568759035 -0.0075594886271245177 0 0.00054380239747066383 -0.0082071615430046527 0 0.00099859856908447188 -0.008205410948573107 0 0.00054380239747066383 -0.0082071615430046527 0 0.00099859856908447188 -0.008205410948573107 0 0.00077920916798308035 -0.0085227216643511267 0 0.0015172284248915736 -0.0076605036382404569 0 0.00099859856908447188 -0.008205410948573107 0 0.0014069387514017832 -0.008387693889834914 0 0.00063690933396179025 -0.0043364464811178087 0 0.00068391290206732845 -0.004573268176516725 0 0.00099859856908447188 -0.008205410948573107 0 0.0011227476984771664 -0.0085637354438799634 0 0.0014069387514017832 -0.008387693889834914 0 0.00099859856908447188 -0.008205410948573107 0 0.0011227476984771664 -0.0085637354438799634 0 0.00077920916798308035 -0.0085227216643511267 0 0.00077920916798308035 -0.0085227216643511267 0 0.0010249423766912201 -0.0087908312994431619 0 0.00076837086225844985 -0.0088022333623656666 0 0.0011227476984771664 -0.0085637354438799634 0 0.00077920916798308035 -0.0085227216643511267 0 0.0010249423766912201 -0.0087908312994431619 0 0.0011227476984771664 -0.0085637354438799634 0 0.0013430860055059135 -0.0088237961506881409 0 0.0014069387514017832 -0.008387693889834914 0 0.0011227476984771664 -0.0085637354438799634 0 0.0010249423766912201 -0.0087908312994431619 0 0.0013430860055059135 -0.0088237961506881409 0 0.0010249423766912201 -0.0087908312994431619 0 0.0011273192805323015 -0.0090184950559627428 0 0.0013430860055059135 -0.0088237961506881409 0 0.00084539606571725759 -0.009057318678629793 0 0.0010249423766912201 -0.0087908312994431619 0 0.00076837086225844985 -0.0088022333623656666 0 0.00084539606571725759 -0.009057318678629793 0 0.0010249423766912201 -0.0087908312994431619 0 0.0011273192805323015 -0.0090184950559627428 0 0.00084539606571725759 -0.009057318678629793 0 0.00049329563669532432 -0.0087942672648579599 0 0.00076837086225844985 -0.0088022333623656666 0 0.0018780214274239134 -0.0083181591674684439 0 0.0022425383274507541 -0.0093377910754101207 0 0.0028325232956517496 -0.0078339946903757327 0 0.003930860138044695 -0.0082118089346402499 0 0.004248980384442865 -0.0091047455562306406 0 0.0028915456985226058 -0.010289487699910905 0 0.0022425383274507541 -0.0093377910754101207 0 0.0046808766136337858 -0.013116443761483104 0 0.0037152357271055857 -0.012986608462239861 0 0.0043504356894271167 -0.012160730556295423 0 0.0040404821079304959 -0.013879849853555675 0 0.0046808766136337858 -0.013116443761483104 0 0.0037152357271055857 -0.012986608462239861 0 0.0031411639123029044 -0.012133318565500786 0 0.0037152357271055857 -0.012986608462239861 0 0.0043504356894271167 -0.012160730556295423 0 0.0028915456985226058 -0.010289487699910905 0 0.0023091769403656009 -0.0094963237127192544 0 0.0027145598099248837 -0.010210746608729821 0 0.0024461447127072278 -0.0094528507770473454 0 0.0023052783026575063 -0.0093259126334664603 0 0.00041168130726421055 -0.0085008108613562807 0 0.00049329563669532432 -0.0087942672648579599 0 0.00050548783247717367 -0.0085823436584522728 0 0.00041456438288768268 -0.0084434494616871195 0 0.00045034664302327472 -0.0084672841585002791 0 0.0004432537900722895 -0.0084646153042362525 0 0.0014631682274516306 -0.0085969460682774525 0 0.0022425383274507541 -0.0093377910754101207 0 0.00046460605895271701 -0.0084456127071179353 0 0.00041901057372204599 -0.0084437758569686303 0 0.00040279378335676783 -0.0084106161244153852 0 0.0018681177392437498 -0.0094683286794112666 0 0.0023091769403656009 -0.0094963237127192544 0 0.00041901057372204599 -0.0084437758569686303 0 0.00041456438288768268 -0.0084434494616871195 0 0.0004432537900722895 -0.0084646153042362525 0 0.0022425383274507541 -0.0093377910754101207 0 0.0023091769403656009 -0.0094963237127192544 0 0.002000352605821766 -0.0090633203027007583 0 0.0023091769403656009 -0.0094963237127192544 0 0.00049329563669532432 -0.0087942672648579599 0 0.0006079132705281851 -0.0086151873322843561 0 0.00076837086225844985 -0.0088022333623656666 0 0.00049329563669532432 -0.0087942672648579599 0 0.00050548783247717367 -0.0085823436584522728 0 0.0006079132705281851 -0.0086151873322843561 0 0.00077920916798308035 -0.0085227216643511267 0 0.0006079132705281851 -0.0086151873322843561 0 0.00076837086225844985 -0.0088022333623656666 0 -0.00034203698301766595 -0.00067207667111705035 0 -0.00023283616557528728 -0.0005302216071679897 0 -0.00026986970860671438 -0.00032581398922362277 0 -0.00034203698301766595 -0.00067207667111705035 0 -0.00023283616557528728 -0.0005302216071679897 0 -0.00018807427839743796 -0.00068868155366081383 0 -4.6685254383191701e-05 0.00055120012933812621 0 -6.7315427940142593e-05 0.00041471354424639289 0 0.00016806917577700224 0.0015977073171567909 0 0.00035340567158426443 0.0014643316019747141 0 0.00026028525193246205 0.0013565662337259104 0 0.00016806917577700224 0.0015977073171567909 0 0.00035340567158426443 0.0014643316019747141 0 0.00044866292724674245 0.0016166998579517952 0 0.00035340567158426443 0.0014643316019747141 0 0.00040307673625561104 0.0013373857069605823 0 0.00026028525193246205 0.0013565662337259104 0 0.00040307673625561104 0.0013373857069605823 0 0.00032097715304593141 0.0012222143463914024 0 0.00043652287359471768 0.0012532143967115431 0 0.00040307673625561104 0.0013373857069605823 0 0.00032097715304593141 0.0012222143463914024 0 0.00026028525193246205 0.0013565662337259104 0 0.00026496934403269767 0.0012209513691097372 0 0.00026028525193246205 0.0013565662337259104 0 0.00017806826574269134 0.0012083471193071156 0 0.00016806917577700224 0.0015977073171567909 0 0.00026028525193246205 0.0013565662337259104 0 0.00017806826574269134 0.0012083471193071156 0 0.00032097715304593141 0.0012222143463914024 0 0.00026496934403269767 0.0012209513691097372 0 0.00025023654665365174 0.0011238516972581565 0 0.00032097715304593141 0.0012222143463914024 0 0.00026496934403269767 0.0012209513691097372 0 0.00026028525193246205 0.0013565662337259104 0 -0.00023283616557528728 -0.0005302216071679897 0 -0.00026986970860671438 -0.00032581398922362277 0 -0.00021827452559988178 -0.00039477961109159318 0 0.00026496934403269767 0.0012209513691097372 0 0.00017806826574269134 0.0012083471193071156 0 0.00025023654665365174 0.0011238516972581565 0 -0.00018584168952258628 -0.00023044164976495732 0 -0.00026986970860671438 -0.00032581398922362277 0 -0.00020440978984859862 -0.00029754632130090373 0 -0.00026986970860671438 -0.00032581398922362277 0 -0.00022071919005492595 -0.00033443224538898004 0 -0.00020440978984859862 -0.00029754632130090373 0 -0.00026986970860671438 -0.00032581398922362277 0 -0.00022071919005492595 -0.00033443224538898004 0 -0.00021827452559988178 -0.00039477961109159318 0 -0.00022071919005492595 -0.00033443224538898004 0 -0.00018661398559173355 -0.00034688697866951015 0 -0.00021827452559988178 -0.00039477961109159318 0 -0.00022071919005492595 -0.00033443224538898004 0 -0.00018661398559173355 -0.00034688697866951015 0 -0.00020440978984859862 -0.00029754632130090373 0 -0.00018661398559173355 -0.00034688697866951015 0 -0.00020440978984859862 -0.00029754632130090373 0 -0.00016172458400494469 -0.0002985945283383839 0 -0.00016172458400494469 -0.0002985945283383839 0 -0.00012451702994529992 -0.00036949586289350807 0 -0.00012041886457365655 -0.00027621933000332904 0 -0.00018661398559173355 -0.00034688697866951015 0 -0.00016172458400494469 -0.0002985945283383839 0 -0.00012451702994529992 -0.00036949586289350807 0 -0.00018661398559173355 -0.00034688697866951015 0 -0.00012451702994529992 -0.00036949586289350807 0 -0.00017542592247188094 -0.00044785365222030544 0 -0.00012451702994529992 -0.00036949586289350807 0 -0.00017542592247188094 -0.00044785365222030544 0 -0.00010823941789982456 -0.0004771894474964077 0 -0.00023283616557528728 -0.0005302216071679897 0 -0.00017542592247188094 -0.00044785365222030544 0 -0.00021827452559988178 -0.00039477961109159318 0 -0.00018661398559173355 -0.00034688697866951015 0 -0.00017542592247188094 -0.00044785365222030544 0 -0.00021827452559988178 -0.00039477961109159318 0 0.0010090655483677073 -0.0079652358660488049 0 0.00066682716249385706 -0.0047304751588886111 0 -0.00014191642867690394 -0.0001226142601299088 0 -0.00012041886457365655 -0.00027621933000332904 0 6.8548748866310537e-05 -0.00046979766483491346 0 0.0013160759873249207 -0.0091111597779184282 0 0.0011273192805323015 -0.0090184950559627428 0 0.0013430860055059135 -0.0088237961506881409 0 0.00050267508800136591 -0.0046621956370590844 0 0.00066682716249385706 -0.0047304751588886111 0 -0.00012451702994529992 -0.00036949586289350807 0 -0.00012041886457365655 -0.00027621933000332904 0 6.8548748866310537e-05 -0.00046979766483491346 0 -0.00012451702994529992 -0.00036949586289350807 0 6.8548748866310537e-05 -0.00046979766483491346 0 -0.00010823941789982456 -0.0004771894474964077 0 6.8548748866310537e-05 -0.00046979766483491346 0 -2.9973677228207045e-05 -0.00058032575519949259 0 0.00010037048924659722 -0.00069214958061258013 0 0.00066682716249385706 -0.0047304751588886111 0 0.00044433803447880134 -0.0023043245978577429 0 5.2982047161670804e-05 -0.00077785698843090044 0 0.00010899383772299882 -0.00085016943186468205 0 8.4492205193724713e-05 -0.00082275633381440939 0 0.00066682716249385706 -0.0047304751588886111 0 0.00068391290206732845 -0.004573268176516725 0 6.8548748866310537e-05 -0.00046979766483491346 0 -2.9973677228207045e-05 -0.00058032575519949259 0 -0.00010823941789982456 -0.0004771894474964077 0 -2.9973677228207045e-05 -0.00058032575519949259 0 -6.3617702650972804e-05 -0.00069000521313483947 0 0.00010037048924659722 -0.00069214958061258013 0 -0.00023283616557528728 -0.0005302216071679897 0 -0.00017542592247188094 -0.00044785365222030544 0 -0.00013916871342529283 -0.00056649205073124997 0 -2.9973677228207045e-05 -0.00058032575519949259 0 -0.00013916871342529283 -0.00056649205073124997 0 -0.00010823941789982456 -0.0004771894474964077 0 -0.00017542592247188094 -0.00044785365222030544 0 -0.00013916871342529283 -0.00056649205073124997 0 -0.00010823941789982456 -0.0004771894474964077 0 -2.9973677228207045e-05 -0.00058032575519949259 0 -0.00013916871342529283 -0.00056649205073124997 0 -6.3617702650972804e-05 -0.00069000521313483947 0 -0.00023283616557528728 -0.0005302216071679897 0 -0.00013916871342529283 -0.00056649205073124997 0 -0.00018807427839743796 -0.00068868155366081383 0 -0.00013916871342529283 -0.00056649205073124997 0 -0.00018807427839743796 -0.00068868155366081383 0 -6.3617702650972804e-05 -0.00069000521313483947 0 -0.00018807427839743796 -0.00068868155366081383 0 -6.3617702650972804e-05 -0.00069000521313483947 0 -9.6311349252107818e-05 -0.00082013047474925583 0 -6.3617702650972804e-05 -0.00069000521313483947 0 -9.6311349252107818e-05 -0.00082013047474925583 0 1.3720268647282115e-05 -0.00079429206292688792 0 -0.00018807427839743796 -0.00068868155366081383 0 -9.6311349252107818e-05 -0.00082013047474925583 0 -0.00022018251243746949 -0.00082559217040071447 0 0.00010037048924659722 -0.00069214958061258013 0 1.3720268647282115e-05 -0.00079429206292688792 0 0.00011767796959156653 -0.00089376860794571447 0 0.00044433803447880134 -0.0023043245978577429 0 0.00038667699287417846 -0.0017521896534345757 0 0.00010899383772299882 -0.00085016943186468205 0 8.4492205193724713e-05 -0.00082275633381440939 0 0.00011767796959156653 -0.00089376860794571447 0 -6.3617702650972804e-05 -0.00069000521313483947 0 0.00010037048924659722 -0.00069214958061258013 0 1.3720268647282115e-05 -0.00079429206292688792 0 -9.6311349252107818e-05 -0.00082013047474925583 0 1.3720268647282115e-05 -0.00079429206292688792 0 1.8895082630615276e-05 -0.00088622654189759347 0 0.00023063105965455543 -0.0010403394949535371 0 0.00011767796959156653 -0.00089376860794571447 0 5.5184783493478794e-05 -0.00096616130497358533 0 0.00023063105965455543 -0.0010403394949535371 0 0.00010899383772299882 -0.00085016943186468205 0 0.00011767796959156653 -0.00089376860794571447 0 0.00011767796959156653 -0.00089376860794571447 0 1.8895082630615276e-05 -0.00088622654189759347 0 5.5184783493478794e-05 -0.00096616130497358533 0 1.3720268647282115e-05 -0.00079429206292688792 0 0.00011767796959156653 -0.00089376860794571447 0 1.8895082630615276e-05 -0.00088622654189759347 0 1.8895082630615276e-05 -0.00088622654189759347 0 5.5184783493478794e-05 -0.00096616130497358533 0 -5.7054639654559842e-05 -0.0009523999736275907 0 -9.6311349252107818e-05 -0.00082013047474925583 0 -0.00015625995725071693 -0.0009173312738643294 0 -0.00022018251243746949 -0.00082559217040071447 0 -9.6311349252107818e-05 -0.00082013047474925583 0 -5.7054639654559842e-05 -0.0009523999736275907 0 -0.00015625995725071693 -0.0009173312738643294 0 -9.6311349252107818e-05 -0.00082013047474925583 0 1.8895082630615276e-05 -0.00088622654189759347 0 -5.7054639654559842e-05 -0.0009523999736275907 0 -5.7054639654559842e-05 -0.0009523999736275907 0 -0.00015625995725071693 -0.0009173312738643294 0 -0.00017425292868961836 -0.0010392267844102853 0 -0.00015625995725071693 -0.0009173312738643294 0 -0.00023940416885977894 -0.00093935428379982467 0 -0.00017425292868961836 -0.0010392267844102853 0 -0.00023940416885977894 -0.00093935428379982467 0 -0.00027485804718064243 -0.00087363952608946643 0 -0.00027010479832267144 -0.00094466372057360902 0 -0.00023940416885977894 -0.00093935428379982467 0 -0.00027485804718064243 -0.00087363952608946643 0 -0.00022018251243746949 -0.00082559217040071447 0 -0.00015625995725071693 -0.0009173312738643294 0 -0.00023940416885977894 -0.00093935428379982467 0 -0.00022018251243746949 -0.00082559217040071447 0 -0.00034203698301766595 -0.00067207667111705035 0 -0.00027485804718064243 -0.00087363952608946643 0 -0.00022018251243746949 -0.00082559217040071447 0 -0.00034203698301766595 -0.00067207667111705035 0 -0.00018807427839743796 -0.00068868155366081383 0 -0.00022018251243746949 -0.00082559217040071447 0 0.00016806917577700224 0.0015977073171567909 0 0.00037678952921372231 0.0017895548814526676 0 0.00044866292724674245 0.0016166998579517952 0 -4.6685254383191701e-05 0.00055120012933812621 0 -3.7447151694689432e-05 0.00067763814962190888 0 0.00016806917577700224 0.0015977073171567909 0 0.00020461828589028337 0.0019769597533994868 0 0.00037678952921372231 0.0017895548814526676 0 -0.00034203698301766595 -0.00067207667111705035 0 -0.00027485804718064243 -0.00087363952608946643 0 -0.00029339218403294818 -0.00095423739227694447 0 0.00016806917577700224 0.0015977073171567909 0 0.00020461828589028337 0.0019769597533994868 0 0.00017494992333079277 0.0021202094354047284 0 -0.00029339218403294818 -0.00095423739227694447 0 -0.00027010479832267144 -0.00094466372057360902 0 -0.00025880496622568747 -0.00098217979326648149 0 -0.00027485804718064243 -0.00087363952608946643 0 -0.00029339218403294818 -0.00095423739227694447 0 -0.00027010479832267144 -0.00094466372057360902 0 -0.00023940416885977894 -0.00093935428379982467 0 -0.00027010479832267144 -0.00094466372057360902 0 -0.00025880496622568747 -0.00098217979326648149 0 -0.00029339218403294818 -0.00095423739227694447 0 -0.00025880496622568747 -0.00098217979326648149 0 -6.6900921092193579e-05 -0.00091552197705507669 0 -0.00023940416885977894 -0.00093935428379982467 0 -0.00025880496622568747 -0.00098217979326648149 0 -0.00017425292868961836 -0.0010392267844102853 0 -0.00025880496622568747 -0.00098217979326648149 0 -0.00017425292868961836 -0.0010392267844102853 0 -0.00022562444424552305 -0.0011475610011698945 0 -0.00025880496622568747 -0.00098217979326648149 0 -0.0001904606673595917 -0.00065169546169874368 0 -0.00022562444424552305 -0.0011475610011698945 0 -0.00025880496622568747 -0.00098217979326648149 0 -0.0001904606673595917 -0.00065169546169874368 0 -6.6900921092193579e-05 -0.00091552197705507669 0 0.00023063105965455543 -0.0010403394949535371 0 -2.5432962808929968e-05 -0.0010691020379784851 0 -5.5538219450894112e-05 -0.0012921633309737118 0 0.00023063105965455543 -0.0010403394949535371 0 5.5184783493478794e-05 -0.00096616130497358533 0 -2.5432962808929968e-05 -0.0010691020379784851 0 5.5184783493478794e-05 -0.00096616130497358533 0 -5.7054639654559842e-05 -0.0009523999736275907 0 -2.5432962808929968e-05 -0.0010691020379784851 0 -2.5432962808929968e-05 -0.0010691020379784851 0 -0.00017425292868961836 -0.0010392267844102853 0 -5.5538219450894112e-05 -0.0012921633309737118 0 -5.7054639654559842e-05 -0.0009523999736275907 0 -2.5432962808929968e-05 -0.0010691020379784851 0 -0.00017425292868961836 -0.0010392267844102853 0 -0.00017425292868961836 -0.0010392267844102853 0 -5.5538219450894112e-05 -0.0012921633309737118 0 -0.00022562444424552305 -0.0011475610011698945 0 0.00038959003617309467 -0.0017008494844775305 0 0.00023063105965455543 -0.0010403394949535371 0 -5.5538219450894112e-05 -0.0012921633309737118 0 0.00038959003617309467 -0.0017008494844775305 0 -5.5538219450894112e-05 -0.0012921633309737118 0 -0.0001672494256001674 -0.0016937597326550145 0 -5.5538219450894112e-05 -0.0012921633309737118 0 -0.0001672494256001674 -0.0016937597326550145 0 -0.00022562444424552305 -0.0011475610011698945 0 -0.0001672494256001674 -0.0016937597326550145 0 -6.5623153369636061e-07 -0.0022727079818760589 0 -3.6718931439043327e-07 -0.00093810202890749587 0 1.6249109240253531e-06 -0.0036042778285771096 0 0.00038959003617309467 -0.0017008494844775305 0 -0.0001672494256001674 -0.0016937597326550145 0 1.6249109240253531e-06 -0.0036042778285771096 0 -0.0001672494256001674 -0.0016937597326550145 0 -6.5623153369636061e-07 -0.0022727079818760589 0 -0.0001672494256001674 -0.0016937597326550145 0 -0.00022562444424552305 -0.0011475610011698945 0 -3.6718931439043327e-07 -0.00093810202890749587 0 -0.0001904606673595917 -0.00065169546169874368 0 -0.00022562444424552305 -0.0011475610011698945 0 -3.6718931439043327e-07 -0.00093810202890749587 0 -0.0001904606673595917 -0.00065169546169874368 0 -3.6718931439043327e-07 -0.00093810202890749587 0 -5.8230955968786939e-07 0.00039627838440011229 0 -0.0001904606673595917 -0.00065169546169874368 0 -5.8230955968786939e-07 0.00039627838440011229 0 0.00021913690911828406 -0.00019384349807647529 0 -4.318526908236836e-05 0.001129034469646596 0 5.8445162683381785e-08 0.0017297614400889716 0 -5.8230955968786939e-07 0.00039627838440011229 0 0.00021913690911828406 -0.00019384349807647529 0 1.4451315117452026e-06 0.0017283344039905938 0 0.00015386780521168091 0.0023670824547693836 0 5.8577062097253539e-07 0.0017325171978017952 0 -7.1444493520121121e-05 0.0023463533739526117 0 5.8577062097253539e-07 0.0017325171978017952 0 -6.9214237649675782e-07 0.0026145108267808625 0 -7.1444493520121121e-05 0.0023463533739526117 0 -6.9214237649675782e-07 0.0026145108267808625 0 -4.5157417618559812e-05 0.0026548189388385193 0 9.4544520658761064e-07 0.0034966951811295304 0 -6.9214237649675782e-07 0.0026145108267808625 0 -4.5157417618559812e-05 0.0026548189388385193 0 -7.1444493520121121e-05 0.0023463533739526117 0 -4.5157417618559812e-05 0.0026548189388385193 0 -1.8941261152054036e-05 0.0024115013881375875 0 -7.1444493520121121e-05 0.0023463533739526117 0 -4.5157417618559812e-05 0.0026548189388385193 0 -1.8941261152054036e-05 0.0024115013881375875 0 0.00013543715619661247 0.0023543200492999791 0 0.00015386780521168091 0.0023670824547693836 0 -7.1444493520121121e-05 0.0023463533739526117 0 8.1178678733828297e-05 0.0023688017628369692 0 -1.8941261152054036e-05 0.0024115013881375875 0 -7.1444493520121121e-05 0.0023463533739526117 0 8.1178678733828297e-05 0.0023688017628369692 0 8.1178678733828297e-05 0.0023688017628369692 0 6.8181878923164274e-05 0.0023437622425370882 0 9.5832517794522902e-05 0.0023014983419581757 0 -1.8941261152054036e-05 0.0024115013881375875 0 8.1178678733828297e-05 0.0023688017628369692 0 6.8181878923164274e-05 0.0023437622425370882 0 6.8181878923164274e-05 0.0023437622425370882 0 0.00013599703279731934 0.0023025239281824791 0 0.00013543715619661247 0.0023543200492999791 0 -1.8941261152054036e-05 0.0024115013881375875 0 6.8181878923164274e-05 0.0023437622425370882 0 0.00013543715619661247 0.0023543200492999791 0 6.8181878923164274e-05 0.0023437622425370882 0 0.00013599703279731934 0.0023025239281824791 0 9.5832517794522902e-05 0.0023014983419581757 0 0.00013599703279731934 0.0023025239281824791 0 9.5832517794522902e-05 0.0023014983419581757 0 0.00011962574207221067 0.0022670848860548995 0 8.1178678733828297e-05 0.0023688017628369692 0 9.5832517794522902e-05 0.0023014983419581757 0 0.00011168268512597007 0.0022745204660087042 0 9.5832517794522902e-05 0.0023014983419581757 0 0.00011168268512597007 0.0022745204660087042 0 0.00010940334126357597 0.0022674080365782225 0 8.1178678733828297e-05 0.0023688017628369692 0 0.00011168268512597007 0.0022745204660087042 0 0.00010432620414277327 0.0022966976774605966 0 -3.7447151694689432e-05 0.00067763814962190888 0 -3.5302406086917811e-05 0.00083755212142280658 0 0.00011168268512597007 0.0022745204660087042 0 0.00010432620414277327 0.0022966976774605966 0 0.0001410646054978827 0.002217906005834856 0 0.00017494992333079277 0.0021202094354047284 0 0.00010432620414277327 0.0022966976774605966 0 0.0001410646054978827 0.002217906005834856 0 -0.0001904606673595917 -0.00065169546169874368 0 0.00021913690911828406 -0.00019384349807647529 0 -6.6900921092193579e-05 -0.00091552197705507669 0 -4.318526908236836e-05 0.001129034469646596 0 -3.5302406086917811e-05 0.00083755212142280658 0 0.00015386780521168091 0.0023670824547693836 0 8.1178678733828297e-05 0.0023688017628369692 0 0.00010432620414277327 0.0022966976774605966 0 -0.00010725107521882578 0.0053151224827523184 0 9.0749934815506438e-05 0.0051558463366355731 0 0.00020887718870200061 0.0053295608685288987 0 -2.9153243868085484e-07 0.0057133760625834567 0 -0.00010725107521882578 0.0053151224827523184 0 0.00020887718870200061 0.0053295608685288987 0 1.3074275412723897e-06 0.0057183783377201406 0 0.00071059532413567019 0.0066885119749050606 0 1.1395080987263979e-07 0.0050046498654644908 0 6.1826187474468608e-05 0.004891101433242253 0 -3.0872805288339401e-08 0.005001718916661132 0 7.4737920976261225e-06 0.0042754362018592148 0 -0.00010962763742767056 0.004310914852971361 0 -2.9153243868085484e-07 0.0057133760625834567 0 3.0071418094885125e-07 0.0050086582367542308 0 -0.00010725107521882578 0.0053151224827523184 0 7.4737920976261225e-06 0.0042754362018592148 0 -0.00010962763742767056 0.004310914852971361 0 -3.9354862921251022e-06 0.0043902850114398879 0 7.4737920976261225e-06 0.0042754362018592148 0 -3.9354862921251022e-06 0.0043902850114398879 0 1.1071711658692908e-05 0.0043349424492121705 0 -3.0872805288339401e-08 0.005001718916661132 0 -0.00010962763742767056 0.004310914852971361 0 3.2644455976799811e-08 0.0035016293012677399 0 3.0906541032762776e-07 0.0034986229460438685 0 0.00016644575626429298 0.0035513890708436229 0 -0.00010962763742767056 0.004310914852971361 0 3.2644455976799811e-08 0.0035016293012677399 0 -3.9354862921251022e-06 0.0043902850114398879 0 -4.5157417618559812e-05 0.0026548189388385193 0 9.4544520658761064e-07 0.0034966951811295304 0 0.00030740059262385742 0.0024805947358543215 0 -4.5157417618559812e-05 0.0026548189388385193 0 0.00030740059262385742 0.0024805947358543215 0 0.00013543715619661247 0.0023543200492999791 0 0.00030740059262385742 0.0024805947358543215 0 0.00013543715619661247 0.0023543200492999791 0 0.00022706109878283353 0.0022964608937890026 0 0.00013599703279731934 0.0023025239281824791 0 0.00013543715619661247 0.0023543200492999791 0 0.00022706109878283353 0.0022964608937890026 0 0.00013599703279731934 0.0023025239281824791 0 0.00022706109878283353 0.0022964608937890026 0 0.00020002552679454521 0.0022908515587403947 0 7.9099330409033673e-06 0.0043330658657571653 0 -3.4371271517023648e-06 0.0043436575842712259 0 -5.0942840201945132e-06 0.0043674163113891608 0 0.00031753784796936135 0.0038205382175294997 0 0.00030020783026757977 0.0053516096810128887 0 0.00016644575626429298 0.0035513890708436229 0 0.00031753784796936135 0.0038205382175294997 0 -3.9354862921251022e-06 0.0043902850114398879 0 7.9099330409033673e-06 0.0043330658657571653 0 1.1071711658692908e-05 0.0043349424492121705 0 7.9099330409033673e-06 0.0043330658657571653 0 1.1071711658692908e-05 0.0043349424492121705 0 -3.4371271517023648e-06 0.0043436575842712259 0 -0.00010725107521882578 0.0053151224827523184 0 -9.312823036126276e-05 0.0050980191671204786 0 9.0749934815506438e-05 0.0051558463366355731 0 6.1826187474468608e-05 0.004891101433242253 0 0.00018021992531124661 0.0050127940348799124 0 7.4737920976261225e-06 0.0042754362018592148 0 1.1071711658692908e-05 0.0043349424492121705 0 -3.4371271517023648e-06 0.0043436575842712259 0 0.00018021992531124661 0.0050127940348799124 0 0.00043024827854663383 0.0059050489205355336 0 -9.312823036126276e-05 0.0050980191671204786 0 0.00011455979711299217 0.0049691621953049468 0 -9.7038488572751011e-05 0.0048716385053434938 0 -9.312823036126276e-05 0.0050980191671204786 0 0.00011455979711299217 0.0049691621953049468 0 9.0749934815506438e-05 0.0051558463366355731 0 0.00028425331654753215 0.0095964469331156158 0 0.00028250877633862961 0.0096299406818387487 0 0.000244360192844745 0.0096190928638372648 0 0.00028425331654753215 0.0095964469331156158 0 0.00032654247363318723 0.0096224221140046532 0 0.00028250877633862961 0.0096299406818387487 0 0.00028025082377468492 0.0095564277328258583 0 0.00028425331654753215 0.0095964469331156158 0 0.00024680333021552867 0.0095782046199620087 0 0.00028025082377468492 0.0095564277328258583 0 0.00028425331654753215 0.0095964469331156158 0 0.00032592976078271463 0.0095731013108033974 0 0.00048113841323378398 0.0074128935179896991 0 0.00043024827854663383 0.0059050489205355336 0 0.00043024827854663383 0.0059050489205355336 0 0.00030020783026757977 0.0053516096810128887 0 0.00018415747681423185 0.0054090677369984831 0 0.00019677337093385979 0.0058479401326175266 0 0.0003082277207838032 0.0054681144629666898 0 0.00028425331654753215 0.0095964469331156158 0 0.00032592976078271463 0.0095731013108033974 0 0.00032654247363318723 0.0096224221140046532 0 0.00043024827854663383 0.0059050489205355336 0 0.00036171838789793797 0.0058746374902921674 0 0.00036171838789793797 0.0058746374902921674 0 0.00030020783026757977 0.0053516096810128887 0 5.1454106118955114e-05 0.002506896078301376 0 0.00015223178603382428 0.0023907500264408179 0 0.00012546267647587793 0.0023197864671083476 0 5.1454106118955114e-05 0.002506896078301376 0 0.00018272310625909026 0.0024688187707614566 0 0.00015223178603382428 0.0023907500264408179 0 0.00018272310625909026 0.0024688187707614566 0 0.00021186036290184559 0.0023756043741724976 0 0.00026069796505824241 0.0024637706697737231 0 0.00018272310625909026 0.0024688187707614566 0 0.00026069796505824241 0.0024637706697737231 0 0.00022302812480149168 0.0025140793683837022 0 0.00018272310625909026 0.0024688187707614566 0 0.00021186036290184559 0.0023756043741724976 0 0.00015223178603382428 0.0023907500264408179 0 0.00021186036290184559 0.0023756043741724976 0 0.00015223178603382428 0.0023907500264408179 0 0.00017729045006438515 0.0023503839939401326 0 0.00015223178603382428 0.0023907500264408179 0 0.0001513490301554152 0.0023278221569594322 0 0.00017729045006438515 0.0023503839939401326 0 0.00014761313500291157 0.0023185591533731922 0 0.0001513490301554152 0.0023278221569594322 0 0.00020002552679454521 0.0022908515587403947 0 0.00022706109878283353 0.0022964608937890026 0 0.00014761313500291157 0.0023185591533731922 0 0.00020002552679454521 0.0022908515587403947 0 7.9099330409033673e-06 0.0043330658657571653 0 -5.0942840201945132e-06 0.0043674163113891608 0 3.1576840995436481e-06 0.004371769648096685 0 0.00030020783026757977 0.0053516096810128887 0 0.00029069269291158651 0.0053399324318511394 0 0.00015223178603382428 0.0023907500264408179 0 0.00012546267647587793 0.0023197864671083476 0 0.0001513490301554152 0.0023278221569594322 0 0.00021186036290184559 0.0023756043741724976 0 0.00020002552679454521 0.0022908515587403947 0 0.00017729045006438515 0.0023503839939401326 0 0.0001513490301554152 0.0023278221569594322 0 0.00020002552679454521 0.0022908515587403947 0 0.00017729045006438515 0.0023503839939401326 0 0.00020002552679454521 0.0022908515587403947 0 0.00034045153266582721 0.0023744630360631766 0 0.00026711594011727716 0.0023886507565166609 0 0.00020002552679454521 0.0022908515587403947 0 0.00034045153266582721 0.0023744630360631766 0 0.00046148124752813684 0.0023073961419693605 0 0.00013599703279731934 0.0023025239281824791 0 0.00020002552679454521 0.0022908515587403947 0 0.00011962574207221067 0.0022670848860548995 0 0.00026478353452348021 0.0022755652427013527 0 0.00032305250659863581 0.0022767611101720494 0 0.00021186036290184559 0.0023756043741724976 0 0.00020002552679454521 0.0022908515587403947 0 0.00026711594011727716 0.0023886507565166609 0 0.00034045153266582721 0.0023744630360631766 0 0.00026711594011727716 0.0023886507565166609 0 0.00030989697114928343 0.0024509386943541971 0 0.00026711594011727716 0.0023886507565166609 0 0.00026069796505824241 0.0024637706697737231 0 0.00030989697114928343 0.0024509386943541971 0 0.00021186036290184559 0.0023756043741724976 0 0.00026711594011727716 0.0023886507565166609 0 0.00026069796505824241 0.0024637706697737231 0 0.00026069796505824241 0.0024637706697737231 0 0.00030989697114928343 0.0024509386943541971 0 0.00030588537072803349 0.002518699197099441 0 0.00034045153266582721 0.0023744630360631766 0 0.00030989697114928343 0.0024509386943541971 0 0.00037492075115711052 0.0025091686841861617 0 0.00030989697114928343 0.0024509386943541971 0 0.00030588537072803349 0.002518699197099441 0 0.00037492075115711052 0.0025091686841861617 0 0.00030588537072803349 0.002518699197099441 0 0.00029282370407367311 0.0026531358050911964 0 0.00037492075115711052 0.0025091686841861617 0 0.00026069796505824241 0.0024637706697737231 0 0.0002627544618854655 0.002558624784311998 0 0.00022302812480149168 0.0025140793683837022 0 0.00030588537072803349 0.002518699197099441 0 0.0002627544618854655 0.002558624784311998 0 0.00029282370407367311 0.0026531358050911964 0 0.00026069796505824241 0.0024637706697737231 0 0.00030588537072803349 0.002518699197099441 0 0.0002627544618854655 0.002558624784311998 0 0.0002627544618854655 0.002558624784311998 0 0.00029282370407367311 0.0026531358050911964 0 0.0002365453310929462 0.0026043921392487749 0 0.00029282370407367311 0.0026531358050911964 0 0.0002365453310929462 0.0026043921392487749 0 0.00020603099408140858 0.0026391348323553487 0 0.00096193996757715889 0.0015052547955751894 0 0.00097014538400969443 0.0014428277574693811 0 0.00090053148387099762 0.0014398353497332365 0 0.00097014538400969443 0.0014428277574693811 0 0.00096652560224471642 0.0013951418373001603 0 0.00090053148387099762 0.0014398353497332365 0 0.00096652560224471642 0.0013951418373001603 0 0.0010501940253890853 0.0014302820923030317 0 0.0010131572888238021 0.0013613941322647661 0 0.00097014538400969443 0.0014428277574693811 0 0.00096652560224471642 0.0013951418373001603 0 0.0010501940253890853 0.0014302820923030317 0 0.0014886946789840251 0.0030132367732295718 0 0.0014163383279069508 0.0032622537973317563 0 0.00096193996757715889 0.0015052547955751894 0 0.00097014538400969443 0.0014428277574693811 0 0.0010501940253890853 0.0014302820923030317 0 0.00098908194915767146 0.0015000465383926762 0 0.00096193996757715889 0.0015052547955751894 0 0.0010332565960856942 0.0014822513776713011 0 0.00016352756385547569 0.0027048940094065899 0 0.00012595723611187956 0.0026382469992255533 0 0.00020603099408140858 0.0026391348323553487 0 0.00029282370407367311 0.0026531358050911964 0 0.00016352756385547569 0.0027048940094065899 0 0.00020603099408140858 0.0026391348323553487 0 0.0010044082277361869 0.0028392805519339872 0 0.0010065300383273242 0.0041785134432419536 0 0.00029282370407367311 0.0026531358050911964 0 0.00016352756385547569 0.0027048940094065899 0 8.1139002955628875e-05 0.0028236064309925951 0 0.00098908194915767146 0.0015000465383926762 0 0.0010332565960856942 0.0014822513776713011 0 0.0010987281239422156 0.0014668541345320806 0 0.0014163383279069508 0.0032622537973317563 0 0.0010065300383273242 0.0041785134432419536 0 0.00016352756385547569 0.0027048940094065899 0 9.7336373507984325e-05 0.0027414320365430852 0 8.1139002955628875e-05 0.0028236064309925951 0 9.7336373507984325e-05 0.0027414320365430852 0 0.00012595723611187956 0.0026382469992255533 0 5.2847046121933303e-05 0.002671767379034982 0 0.00016352756385547569 0.0027048940094065899 0 9.7336373507984325e-05 0.0027414320365430852 0 0.00012595723611187956 0.0026382469992255533 0 0.00012595723611187956 0.0026382469992255533 0 0.00020603099408140858 0.0026391348323553487 0 0.00018491881441120794 0.0025668974283126309 0 0.0002365453310929462 0.0026043921392487749 0 0.00020603099408140858 0.0026391348323553487 0 0.00018491881441120794 0.0025668974283126309 0 0.0002627544618854655 0.002558624784311998 0 0.00022302812480149168 0.0025140793683837022 0 0.00018491881441120794 0.0025668974283126309 0 0.0002627544618854655 0.002558624784311998 0 0.0002365453310929462 0.0026043921392487749 0 0.00018491881441120794 0.0025668974283126309 0 0.00018272310625909026 0.0024688187707614566 0 0.00022302812480149168 0.0025140793683837022 0 0.00018491881441120794 0.0025668974283126309 0 5.1454106118955114e-05 0.002506896078301376 0 0.00012595723611187956 0.0026382469992255533 0 0.00018491881441120794 0.0025668974283126309 0 5.1454106118955114e-05 0.002506896078301376 0 0.00018272310625909026 0.0024688187707614566 0 0.00018491881441120794 0.0025668974283126309 0 0.00047806726457882553 0.0058516295781026722 0 0.00047179162114159063 0.0058494276051913978 0 0.00047294318714951748 0.0058494180108449312 0 0.00036171838789793797 0.0058746374902921674 0 3.1779090662451872e-05 0.0071013381519384276 0 5.1454106118955114e-05 0.002506896078301376 0 0.00012595723611187956 0.0026382469992255533 0 5.2847046121933303e-05 0.002671767379034982 0 0.00036171838789793797 0.0058746374902921674 0 0.00055047692012717437 0.0049113452791511667 0 0.00032654247363318723 0.0096224221140046532 0 0.00031043157641015063 0.009673000685259248 0 0.00028825780999568981 0.0096564989726565346 0 0.00055047692012717437 0.0049113452791511667 0 0.00083020869934492055 0.0046699991419827894 0 0.00047179162114159063 0.0058494276051913978 0 0.00047294318714951748 0.0058494180108449312 0 0.00046997450726348123 0.005848179292045454 0 9.7336373507984325e-05 0.0027414320365430852 0 5.2847046121933303e-05 0.002671767379034982 0 5.8992044615481184e-05 0.0028405263542017481 0 9.7336373507984325e-05 0.0027414320365430852 0 8.1139002955628875e-05 0.0028236064309925951 0 5.8992044615481184e-05 0.0028405263542017481 0 0.00027345436724881368 0.0096910521776157471 0 0.00028825780999568981 0.0096564989726565346 0 0.00024941266503646146 0.0096653223955554691 0 0.00031043157641015063 0.009673000685259248 0 0.00027345436724881368 0.0096910521776157471 0 0.00029430483059566674 0.0097208697639045872 0 0.00031043157641015063 0.009673000685259248 0 0.00027345436724881368 0.0096910521776157471 0 0.00028825780999568981 0.0096564989726565346 0 0.00032654247363318723 0.0096224221140046532 0 0.00028825780999568981 0.0096564989726565346 0 0.00028250877633862961 0.0096299406818387487 0 0.00028825780999568981 0.0096564989726565346 0 0.00028250877633862961 0.0096299406818387487 0 0.00024941266503646146 0.0096653223955554691 0 0.0005966513640826886 0.0017938265075443625 0 0.00050495635087100422 0.0018954024850398523 0 0.00067142875474775676 0.0018581095931092771 0 0.0005966513640826886 0.0017938265075443625 0 0.00069495386805110289 0.0017165744760770842 0 0.00067142875474775676 0.0018581095931092771 0 0.00069495386805110289 0.0017165744760770842 0 0.00060014475903146804 0.0016831718379030204 0 0.00071902931719037048 0.0015792780423754176 0 0.0005966513640826886 0.0017938265075443625 0 0.00069495386805110289 0.0017165744760770842 0 0.00060014475903146804 0.0016831718379030204 0 0.0005966513640826886 0.0017938265075443625 0 0.00060014475903146804 0.0016831718379030204 0 0.00051738553813119085 0.0017704678803093375 0 0.00060014475903146804 0.0016831718379030204 0 0.00051738553813119085 0.0017704678803093375 0 0.00044866292724674245 0.0016166998579517952 0 0.00020461828589028337 0.0019769597533994868 0 0.00037678952921372231 0.0017895548814526676 0 0.00050495635087100422 0.0018954024850398523 0 0.00037678952921372231 0.0017895548814526676 0 0.00051738553813119085 0.0017704678803093375 0 0.00044866292724674245 0.0016166998579517952 0 0.00037678952921372231 0.0017895548814526676 0 0.00051738553813119085 0.0017704678803093375 0 0.00050495635087100422 0.0018954024850398523 0 0.0005966513640826886 0.0017938265075443625 0 0.00051738553813119085 0.0017704678803093375 0 0.00050495635087100422 0.0018954024850398523 0 0.00016792219860810152 0.0021826748842885876 0 0.0001410646054978827 0.002217906005834856 0 0.00012966310616436077 0.0022348095924937033 0 0.00025130524080044491 0.0021789341971915179 0 0.00031929325051533152 0.0022057443087593219 0 0.00020461828589028337 0.0019769597533994868 0 0.00017494992333079277 0.0021202094354047284 0 0.00016792219860810152 0.0021826748842885876 0 0.00017494992333079277 0.0021202094354047284 0 0.00016792219860810152 0.0021826748842885876 0 0.0001410646054978827 0.002217906005834856 0 0.00031929325051533152 0.0022057443087593219 0 0.0004797756621849572 0.002279933094248782 0 0.00016792219860810152 0.0021826748842885876 0 0.00012966310616436077 0.0022348095924937033 0 0.00012008177275128498 0.002250276976438606 0 0.00011168268512597007 0.0022745204660087042 0 0.0001410646054978827 0.002217906005834856 0 0.00012966310616436077 0.0022348095924937033 0 0.00012966310616436077 0.0022348095924937033 0 0.0001150861812225599 0.0022514088095880861 0 0.00010940334126357597 0.0022674080365782225 0 0.00047017032318739986 0.0022840627500005759 0 0.0004797756621849572 0.002279933094248782 0 0.00011168268512597007 0.0022745204660087042 0 0.00012966310616436077 0.0022348095924937033 0 0.00010940334126357597 0.0022674080365782225 0 0.0001150861812225599 0.0022514088095880861 0 0.00010940334126357597 0.0022674080365782225 0 0.00011962574207221067 0.0022670848860548995 0 0.0004797756621849572 0.002279933094248782 0 0.00032305250659863581 0.0022767611101720494 0 9.5832517794522902e-05 0.0023014983419581757 0 0.00010940334126357597 0.0022674080365782225 0 0.00011962574207221067 0.0022670848860548995 0 0.00034045153266582721 0.0023744630360631766 0 0.00046148124752813684 0.0023073961419693605 0 0.00049646544613622472 0.0024950631214454492 0 0.00034045153266582721 0.0023744630360631766 0 0.00049646544613622472 0.0024950631214454492 0 0.00037492075115711052 0.0025091686841861617 0 0.00070738355266133912 0.002336149773770722 0 0.00046148124752813684 0.0023073961419693605 0 0.00049646544613622472 0.0024950631214454492 0 0.0004797756621849572 0.002279933094248782 0 0.00079790397130222645 0.0023776627927543327 0 0.00069495386805110289 0.0017165744760770842 0 0.00067142875474775676 0.0018581095931092771 0 0.00085572081737534268 0.0016414906478912257 0 0.00069495386805110289 0.0017165744760770842 0 0.00085572081737534268 0.0016414906478912257 0 0.00071902931719037048 0.0015792780423754176 0 0.00085572081737534268 0.0016414906478912257 0 0.00071902931719037048 0.0015792780423754176 0 0.00082897635092122213 0.0014978370073609451 0 0.00071902931719037048 0.0015792780423754176 0 0.00082897635092122213 0.0014978370073609451 0 0.00070192919431513018 0.0014354525069179469 0 0.00029282370407367311 0.0026531358050911964 0 0.00049646544613622472 0.0024950631214454492 0 0.00037492075115711052 0.0025091686841861617 0 0.00098908194915767146 0.0015000465383926762 0 0.00096193996757715889 0.0015052547955751894 0 0.00085572081737534268 0.0016414906478912257 0 0.00096193996757715889 0.0015052547955751894 0 0.00085572081737534268 0.0016414906478912257 0 0.00082897635092122213 0.0014978370073609451 0 0.0010044082277361869 0.0028392805519339872 0 0.00079790397130222645 0.0023776627927543327 0 0.00082897635092122213 0.0014978370073609451 0 0.00090053148387099762 0.0014398353497332365 0 0.00080319320627902696 0.0013603003136390792 0 0.00096193996757715889 0.0015052547955751894 0 0.00082897635092122213 0.0014978370073609451 0 0.00090053148387099762 0.0014398353497332365 0 0.00090053148387099762 0.0014398353497332365 0 0.00080319320627902696 0.0013603003136390792 0 0.00089875261686431359 0.0013432210922490698 0 0.00096652560224471642 0.0013951418373001603 0 0.00090053148387099762 0.0014398353497332365 0 0.00089875261686431359 0.0013432210922490698 0 0.00082897635092122213 0.0014978370073609451 0 0.00070192919431513018 0.0014354525069179469 0 0.00080319320627902696 0.0013603003136390792 0 0.00070192919431513018 0.0014354525069179469 0 0.00080319320627902696 0.0013603003136390792 0 0.0006727221067312013 0.001293134407256664 0 0.00070192919431513018 0.0014354525069179469 0 0.00055358178234769242 0.0013534247920208198 0 0.0006727221067312013 0.001293134407256664 0 0.00070192919431513018 0.0014354525069179469 0 0.00055358178234769242 0.0013534247920208198 0 0.00059679213458294414 0.0015212132508450316 0 0.00071902931719037048 0.0015792780423754176 0 0.00070192919431513018 0.0014354525069179469 0 0.00059679213458294414 0.0015212132508450316 0 0.00060014475903146804 0.0016831718379030204 0 0.00071902931719037048 0.0015792780423754176 0 0.00059679213458294414 0.0015212132508450316 0 0.00060014475903146804 0.0016831718379030204 0 0.00059679213458294414 0.0015212132508450316 0 0.00044866292724674245 0.0016166998579517952 0 0.00059679213458294414 0.0015212132508450316 0 0.00044866292724674245 0.0016166998579517952 0 0.00047399911664651234 0.0014627661480537686 0 0.00035340567158426443 0.0014643316019747141 0 0.00044866292724674245 0.0016166998579517952 0 0.00047399911664651234 0.0014627661480537686 0 0.00040307673625561104 0.0013373857069605823 0 0.00055358178234769242 0.0013534247920208198 0 0.00047399911664651234 0.0014627661480537686 0 0.00040307673625561104 0.0013373857069605823 0 0.00055358178234769242 0.0013534247920208198 0 0.00043652287359471768 0.0012532143967115431 0 0.00055358178234769242 0.0013534247920208198 0 0.00059679213458294414 0.0015212132508450316 0 0.00047399911664651234 0.0014627661480537686 0 0.00035340567158426443 0.0014643316019747141 0 0.00040307673625561104 0.0013373857069605823 0 0.00047399911664651234 0.0014627661480537686 0 0.00035893698770966115 0.001176936925609263 0 0.00043652287359471768 0.0012532143967115431 0 0.00053334240545506299 0.0011903873559080368 0 0.00055358178234769242 0.0013534247920208198 0 0.00043652287359471768 0.0012532143967115431 0 0.00053334240545506299 0.0011903873559080368 0 0.0006727221067312013 0.001293134407256664 0 0.00053334240545506299 0.0011903873559080368 0 0.0006839436828345953 0.0011760859070584911 0 0.00055358178234769242 0.0013534247920208198 0 0.0006727221067312013 0.001293134407256664 0 0.00053334240545506299 0.0011903873559080368 0 0.00053334240545506299 0.0011903873559080368 0 0.00061571955402421456 0.0010802277566379726 0 0.0006839436828345953 0.0011760859070584911 0 0.00053334240545506299 0.0011903873559080368 0 0.00050385183711926468 0.001053653088269924 0 0.00061571955402421456 0.0010802277566379726 0 0.00035893698770966115 0.001176936925609263 0 0.00053334240545506299 0.0011903873559080368 0 0.00050385183711926468 0.001053653088269924 0 0.00050385183711926468 0.001053653088269924 0 0.00061571955402421456 0.0010802277566379726 0 0.00063947207302197018 0.00093235442470986107 0 0.00061571955402421456 0.0010802277566379726 0 0.00063947207302197018 0.00093235442470986107 0 0.00072002283185853026 0.0010548844204749143 0 0.00061571955402421456 0.0010802277566379726 0 0.00072002283185853026 0.0010548844204749143 0 0.0006839436828345953 0.0011760859070584911 0 0.0010533941532738106 -0.0015739838955339152 0 0.0014982297167625751 -0.00077180342860340184 0 0.0015118979197049852 -0.0014212213485090218 0 0.0014982297167625751 -0.00077180342860340184 0 0.0019124385119213844 -0.0014549981124478664 0 0.0015118979197049852 -0.0014212213485090218 0 0.0011400852023327199 0.00037336816330962435 0 0.0015315903425967209 0.00031204920423853186 0 0.00084068578089545592 0.00098600696196448527 0 0.00097727025358244749 0.00099391288185186931 0 0.00085724579425860081 0.0008925045595041596 0 0.00084068578089545592 0.00098600696196448527 0 0.00075881470627511545 0.00092249847340987153 0 0.00085724579425860081 0.0008925045595041596 0 0.00063947207302197018 0.00093235442470986107 0 0.00072002283185853026 0.0010548844204749143 0 0.00075881470627511545 0.00092249847340987153 0 0.00084068578089545592 0.00098600696196448527 0 0.00072002283185853026 0.0010548844204749143 0 0.00075881470627511545 0.00092249847340987153 0 0.00072002283185853026 0.0010548844204749143 0 0.00082661094688050031 0.0010838225113388583 0 0.00081284068436526477 0.001182406017579226 0 0.00084068578089545592 0.00098600696196448527 0 0.00072002283185853026 0.0010548844204749143 0 0.00082661094688050031 0.0010838225113388583 0 0.00084068578089545592 0.00098600696196448527 0 0.00082661094688050031 0.0010838225113388583 0 0.00092407182540595555 0.0010754176348136172 0 0.00082661094688050031 0.0010838225113388583 0 0.00092241653672866435 0.0011702392383288957 0 0.00092407182540595555 0.0010754176348136172 0 0.00082661094688050031 0.0010838225113388583 0 0.00081284068436526477 0.001182406017579226 0 0.00092241653672866435 0.0011702392383288957 0 0.00081284068436526477 0.001182406017579226 0 0.00090155010333671536 0.0012480936292216993 0 0.00083943335394380482 0.0012774520736224117 0 0.00081284068436526477 0.001182406017579226 0 0.00076371849379633513 0.0012576210789904437 0 0.00083943335394380482 0.0012774520736224117 0 0.00081284068436526477 0.001182406017579226 0 0.00090155010333671536 0.0012480936292216993 0 0.00092241653672866435 0.0011702392383288957 0 0.00081284068436526477 0.001182406017579226 0 0.0006839436828345953 0.0011760859070584911 0 0.00076371849379633513 0.0012576210789904437 0 0.00072002283185853026 0.0010548844204749143 0 0.00081284068436526477 0.001182406017579226 0 0.0006839436828345953 0.0011760859070584911 0 0.00080319320627902696 0.0013603003136390792 0 0.0006727221067312013 0.001293134407256664 0 0.00076371849379633513 0.0012576210789904437 0 0.0006727221067312013 0.001293134407256664 0 0.0006839436828345953 0.0011760859070584911 0 0.00076371849379633513 0.0012576210789904437 0 0.00080319320627902696 0.0013603003136390792 0 0.00076371849379633513 0.0012576210789904437 0 0.00083943335394380482 0.0012774520736224117 0 0.00090155010333671536 0.0012480936292216993 0 0.00083943335394380482 0.0012774520736224117 0 0.00089875261686431359 0.0013432210922490698 0 0.00080319320627902696 0.0013603003136390792 0 0.00083943335394380482 0.0012774520736224117 0 0.00089875261686431359 0.0013432210922490698 0 0.00096652560224471642 0.0013951418373001603 0 0.00089875261686431359 0.0013432210922490698 0 0.00097204969839030696 0.001318971300431066 0 0.00090155010333671536 0.0012480936292216993 0 0.00089875261686431359 0.0013432210922490698 0 0.00097204969839030696 0.001318971300431066 0 0.00090155010333671536 0.0012480936292216993 0 0.00097204969839030696 0.001318971300431066 0 0.00098286318990641877 0.001248833687592095 0 0.00097204969839030696 0.001318971300431066 0 0.0010625649455953509 0.00130075578767785 0 0.00098286318990641877 0.001248833687592095 0 0.00097204969839030696 0.001318971300431066 0 0.0010131572888238021 0.0013613941322647661 0 0.0010625649455953509 0.00130075578767785 0 0.00096652560224471642 0.0013951418373001603 0 0.00097204969839030696 0.001318971300431066 0 0.0010131572888238021 0.0013613941322647661 0 0.0010501940253890853 0.0014302820923030317 0 0.0010131572888238021 0.0013613941322647661 0 0.0010625649455953509 0.00130075578767785 0 0.0010625649455953509 0.00130075578767785 0 0.0011550747232494775 0.0013569897011835015 0 0.0011354000804996071 0.0011454266626199701 0 0.0010501940253890853 0.0014302820923030317 0 0.0010625649455953509 0.00130075578767785 0 0.0011394897847432979 0.0013686777132155485 0 0.0010625649455953509 0.00130075578767785 0 0.0011394897847432979 0.0013686777132155485 0 0.0011550747232494775 0.0013569897011835015 0 0.0010625649455953509 0.00130075578767785 0 0.001011386749714205 0.0011557247857041319 0 0.0011354000804996071 0.0011454266626199701 0 0.0010625649455953509 0.00130075578767785 0 0.001011386749714205 0.0011557247857041319 0 0.00098286318990641877 0.001248833687592095 0 0.001011386749714205 0.0011557247857041319 0 0.00092241653672866435 0.0011702392383288957 0 0.00098286318990641877 0.001248833687592095 0 0.00090155010333671536 0.0012480936292216993 0 0.00092241653672866435 0.0011702392383288957 0 0.00098286318990641877 0.001248833687592095 0 0.00029430483059566674 0.0097208697639045872 0 0.00024397920518913669 0.0097386630490864951 0 0.00025408679426883949 0.0097153698880685334 0 0.00027345436724881368 0.0096910521776157471 0 0.00029430483059566674 0.0097208697639045872 0 0.00025408679426883949 0.0097153698880685334 0 0.00061292885728836584 0.0094247675610010656 0 0.00089162982149956554 0.0092397031546790059 0 0.00090777304267623512 0.0098536455862126057 0 0.00047179162114159063 0.0058494276051913978 0 0.00046662216155614561 0.0058495581422731546 0 0.00046997450726348123 0.005848179292045454 0 3.1779090662451872e-05 0.0071013381519384276 0 -0.00019008922606824881 0.0071477731393124778 0 -0.00019008922606824881 0.0071477731393124778 0 0.00083020869934492055 0.0046699991419827894 0 0.0010065300383273242 0.0041785134432419536 0 0.00083020869934492055 0.0046699991419827894 0 0.00061292885728836584 0.0094247675610010656 0 0.00075500922127154401 0.0098364539788920839 0 0.00090777304267623512 0.0098536455862126057 0 0.00061292885728836584 0.0094247675610010656 0 0.0005638910131646964 0.0097014352114390186 0 0.00075500922127154401 0.0098364539788920839 0 0.00083020869934492055 0.0046699991419827894 0 0.00071755115126502674 0.0054747045882098458 0 0.0005638910131646964 0.0097014352114390186 0 0.00046994991829202613 0.0098697854395717668 0 0.00075500922127154401 0.0098364539788920839 0 0.0005676018025667388 0.0094606388849177523 0 0.00041230441412440849 0.0096442999181682882 0 0.00023486697595816007 0.0097593240916889496 0 0.00029430483059566674 0.0097208697639045872 0 0.00024397920518913669 0.0097386630490864951 0 0.00023486697595816007 0.0097593240916889496 0 -0.00019008922606824881 0.0071477731393124778 0 -0.00040611457834944744 0.0080832919715412219 0 0.00061292885728836584 0.0094247675610010656 0 0.0005638910131646964 0.0097014352114390186 0 0.00041230441412440849 0.0096442999181682882 0 -0.00019008922606824881 0.0071477731393124778 0 -0.00030894037809430609 0.0075193904264981301 0 0.0005638910131646964 0.0097014352114390186 0 0.00041230441412440849 0.0096442999181682882 0 0.00046994991829202613 0.0098697854395717668 0 0.00041230441412440849 0.0096442999181682882 0 0.00046994991829202613 0.0098697854395717668 0 0.00030885607595141468 0.0098092377336532425 0 0.00030993404316450224 0.010175675993447934 0 0.00029240734520846577 0.010519925878991775 0 -0.00012713639194863267 0.010007125097911442 0 0.00030772186060698878 0.0099187653613803019 0 0.00056210507829114822 0.010094560675091855 0 0.00075500922127154401 0.0098364539788920839 0 0.00030993404316450224 0.010175675993447934 0 0.00030772186060698878 0.0099187653613803019 0 -0.00012713639194863267 0.010007125097911442 0 0.00049755402093244988 0.01187778751520401 0 0.00062817614896265659 0.011660460435034383 0 0.00030993404316450224 0.010175675993447934 0 0.00056210507829114822 0.010094560675091855 0 0.00051136199850024494 0.010336361487354463 0 0.00030993404316450224 0.010175675993447934 0 0.00030772186060698878 0.0099187653613803019 0 0.00056210507829114822 0.010094560675091855 0 0.00056210507829114822 0.010094560675091855 0 0.00076950590019436423 0.010265201329387293 0 0.00051136199850024494 0.010336361487354463 0 0.00056210507829114822 0.010094560675091855 0 0.00075064733534721149 0.010011100297519183 0 0.00076950590019436423 0.010265201329387293 0 0.00056210507829114822 0.010094560675091855 0 0.00075500922127154401 0.0098364539788920839 0 0.00075064733534721149 0.010011100297519183 0 0.00075500922127154401 0.0098364539788920839 0 0.00075064733534721149 0.010011100297519183 0 0.00090777304267623512 0.0098536455862126057 0 0.00075064733534721149 0.010011100297519183 0 0.00090777304267623512 0.0098536455862126057 0 0.00076950590019436423 0.010265201329387293 0 0.00071755115126502674 0.0054747045882098458 0 0.00034772091769823005 0.0059814240596938687 0 0.00090777304267623512 0.0098536455862126057 0 0.00076950590019436423 0.010265201329387293 0 0.00094076932638213426 0.010662076291673454 0 0.00076950590019436423 0.010265201329387293 0 0.00063147571599783648 0.010543352592679999 0 0.00094076932638213426 0.010662076291673454 0 0.00076950590019436423 0.010265201329387293 0 0.00063147571599783648 0.010543352592679999 0 0.00051136199850024494 0.010336361487354463 0 0.00030993404316450224 0.010175675993447934 0 0.00051136199850024494 0.010336361487354463 0 0.00029240734520846577 0.010519925878991775 0 0.00063147571599783648 0.010543352592679999 0 0.00051136199850024494 0.010336361487354463 0 0.00029240734520846577 0.010519925878991775 0 0.00063147571599783648 0.010543352592679999 0 0.00029240734520846577 0.010519925878991775 0 0.00057518426286705707 0.010862988383154443 0 0.001011386749714205 0.0011557247857041319 0 0.00092407182540595555 0.0010754176348136172 0 0.00097727025358244749 0.00099391288185186931 0 0.001011386749714205 0.0011557247857041319 0 0.00092241653672866435 0.0011702392383288957 0 0.00092407182540595555 0.0010754176348136172 0 0.001011386749714205 0.0011557247857041319 0 0.0011354000804996071 0.0011454266626199701 0 0.00097727025358244749 0.00099391288185186931 0 0.0011354000804996071 0.0011454266626199701 0 0.00097727025358244749 0.00099391288185186931 0 0.0011124081618825155 0.00094984868457673437 0 0.00084068578089545592 0.00098600696196448527 0 0.00092407182540595555 0.0010754176348136172 0 0.00097727025358244749 0.00099391288185186931 0 0.00097727025358244749 0.00099391288185186931 0 0.00093392663181897872 0.0007890129702586543 0 0.0011124081618825155 0.00094984868457673437 0 0.00097727025358244749 0.00099391288185186931 0 0.00093392663181897872 0.0007890129702586543 0 0.00085724579425860081 0.0008925045595041596 0 0.0010977414307817425 0.00077058623741272389 0 0.00093392663181897872 0.0007890129702586543 0 0.0011124081618825155 0.00094984868457673437 0 -0.00055463624446864851 0.0073182207028531874 0 0.00074560238560772343 0.0036410034511399842 0 -0.0014942266512027026 0.0033280496845741313 0 0.0001837448135138521 0.002960248876209221 0 -0.00035940268319320561 0.0035571876890259043 0 0.00057518426286705707 0.010862988383154443 0 0.00019769944145467511 0.011241658620384868 0 -0.00024634523408112555 0.010929129394736612 0 0.00029240734520846577 0.010519925878991775 0 0.00057518426286705707 0.010862988383154443 0 -0.00014603755023845599 0.010916999074249839 0 0.00014869393198153872 0.013189001623941163 0 -0.00057851599110341498 0.014082622055352201 0 0.00057518426286705707 0.010862988383154443 0 0.00094076932638213426 0.010662076291673454 0 0.00060005748059402354 0.011255785401003443 0 -0.00055463624446864851 0.0073182207028531874 0 0.00034772091769823005 0.0059814240596938687 0 0.00063147571599783648 0.010543352592679999 0 0.00057518426286705707 0.010862988383154443 0 0.00094076932638213426 0.010662076291673454 0 0.00096249611370209469 0.011500364371004428 0 0.00094076932638213426 0.010662076291673454 0 0.00060005748059402354 0.011255785401003443 0 0.00096249611370209469 0.011500364371004428 0 0.00060005748059402354 0.011255785401003443 0 0.00036425537669882709 0.0116428313477853 0 0.00057518426286705707 0.010862988383154443 0 0.00060005748059402354 0.011255785401003443 0 0.00019769944145467511 0.011241658620384868 0 0.00060005748059402354 0.011255785401003443 0 0.00019769944145467511 0.011241658620384868 0 0.00036425537669882709 0.0116428313477853 0 -0.0023961688154168978 0.011350071533512975 0 -0.0024546451490926663 0.011649498517496366 0 -0.0027306530310594857 0.011431289426338795 0 0.00019769944145467511 0.011241658620384868 0 0.00036425537669882709 0.0116428313477853 0 -0.00024427019054591655 0.011782874131404317 0 -0.0020588710212077312 0.011268721517245357 0 -0.0023961688154168978 0.011350071533512975 0 -0.0020510626838953854 0.011680737572545528 0 -0.00055463624446864851 0.0073182207028531874 0 -0.0012100530860005194 0.011242204536131237 0 -0.0024546451490926663 0.011649498517496366 0 -0.0020510626838953854 0.011680737572545528 0 -0.0024113077462924919 0.011975897614609437 0 -0.0023961688154168978 0.011350071533512975 0 -0.0024546451490926663 0.011649498517496366 0 -0.0020510626838953854 0.011680737572545528 0 0.0001837448135138521 0.002960248876209221 0 -4.6562144890431622e-05 0.0037825642711003891 0 0.0010204809449013755 0.0036081382199779771 0 -3.3002051481050027e-05 0.0041646914726855017 0 -4.6562144890431622e-05 0.0037825642711003891 0 0.0010204809449013755 0.0036081382199779771 0 -3.3002051481050027e-05 0.0041646914726855017 0 0.00020248340506713014 0.0046119691530237122 0 0.0010204809449013755 0.0036081382199779771 0 -0.000434765166040559 0.0040826234710576023 0 -2.7999758513793836e-05 0.0041908591735878393 0 -0.00057784980449517812 0.0046762629118365451 0 -0.000434765166040559 0.0040826234710576023 0 -2.7999758513793836e-05 0.0041908591735878393 0 -0.00035940268319320561 0.0035571876890259043 0 0.00040116485615259828 0.002562800121420484 0 0.00039653854480433781 0.0026406948876421354 0 0.0001837448135138521 0.002960248876209221 0 -0.00035940268319320561 0.0035571876890259043 0 -4.6562144890431622e-05 0.0037825642711003891 0 0.00040116485615259828 0.002562800121420484 0 0.00041434462880194734 0.0027044066574382296 0 -3.0065581730459191e-05 0.0041626419761176372 0 -0.00035940268319320561 0.0035571876890259043 0 -4.6562144890431622e-05 0.0037825642711003891 0 -0.00055463624446864851 0.0073182207028531874 0 -0.0013551202242331091 0.0080324488663151301 0 -0.0014942266512027026 0.0033280496845741313 0 -0.00084338636919829217 0.0040943806301603136 0 -0.0014524950116799361 0.0049864914105166016 0 -0.0014942266512027026 0.0033280496845741313 0 -0.00035940268319320561 0.0035571876890259043 0 -0.00084338636919829217 0.0040943806301603136 0 -0.000434765166040559 0.0040826234710576023 0 -0.00084338636919829217 0.0040943806301603136 0 -0.00057784980449517812 0.0046762629118365451 0 -0.000434765166040559 0.0040826234710576023 0 -0.00035940268319320561 0.0035571876890259043 0 -0.00084338636919829217 0.0040943806301603136 0 -0.00057784980449517812 0.0046762629118365451 0 -0.0014524950116799361 0.0049864914105166016 0 -0.00070486106951834885 0.0057858565908861575 0 -0.00084338636919829217 0.0040943806301603136 0 -0.00057784980449517812 0.0046762629118365451 0 -0.0014524950116799361 0.0049864914105166016 0 0.00011406766911101746 0.0020498617154106817 0 0.00019184555406850809 0.0019531026025533789 0 -0.00014084110874423262 0.0015683017693074925 0 -0.00057784980449517812 0.0046762629118365451 0 -3.8138501553970735e-06 0.0049194585806130288 0 -0.00070486106951834885 0.0057858565908861575 0 7.6301050159902775e-05 0.0027877066695365629 0 -0.00089851356510535702 0.0052528343144147508 0 -2.7999758513793836e-05 0.0041908591735878393 0 -0.00057784980449517812 0.0046762629118365451 0 -3.8138501553970735e-06 0.0049194585806130288 0 0.00037217199178814176 0.0024899626860497054 0 1.6941022725746302e-05 0.0018149898450697734 0 0.00033242621291902202 0.0014244898092458922 0 0.00040116485615259828 0.002562800121420484 0 7.6301050159902775e-05 0.0027877066695365629 0 0.00040116485615259828 0.002562800121420484 0 0.00048496986948277508 0.0018209903691239061 0 0.00048496986948277508 0.0018209903691239061 0 7.6301050159902775e-05 0.0027877066695365629 0 0.0027849525214711777 -0.0027515408840356578 0 0.0023923276393142626 -0.0027917580403685606 0 0.0025399997278686211 -0.0032128352756483499 0 0.00048496986948277508 0.0018209903691239061 0 0.00037348394778033981 3.8589702817201022e-05 0 0.0027849525214711777 -0.0027515408840356578 0 0.0023923276393142626 -0.0027917580403685606 0 0.0025091737025016861 -0.0023994596820531245 0 0.00048496986948277508 0.0018209903691239061 0 0.0013844050822089205 0.001095795089691366 0 0.0023923276393142626 -0.0027917580403685606 0 0.0025091737025016861 -0.0023994596820531245 0 0.0020662929494252454 -0.0025766024227198972 0 0.0025091737025016861 -0.0023994596820531245 0 0.0020662929494252454 -0.0025766024227198972 0 0.002081245906200522 -0.0022547897445363021 0 0.0023923276393142626 -0.0027917580403685606 0 0.0020662929494252454 -0.0025766024227198972 0 0.0020607006164014615 -0.0030210479321384305 0 0.0023923276393142626 -0.0027917580403685606 0 0.0020607006164014615 -0.0030210479321384305 0 0.0025399997278686211 -0.0032128352756483499 0 0.0020607006164014615 -0.0030210479321384305 0 0.0017463886093504306 -0.0027505471314501762 0 0.0015682214990931399 -0.0031181753565437008 0 0.0020662929494252454 -0.0025766024227198972 0 0.0020607006164014615 -0.0030210479321384305 0 0.0017463886093504306 -0.0027505471314501762 0 0.001230993033022207 -0.0029752835422861106 0 0.0013780190976456024 -0.002657067886289242 0 0.0015682214990931399 -0.0031181753565437008 0 0.0017463886093504306 -0.0027505471314501762 0 0.0013780190976456024 -0.002657067886289242 0 0.0015682214990931399 -0.0031181753565437008 0 0.0017463886093504306 -0.0027505471314501762 0 0.0013780190976456024 -0.002657067886289242 0 0.0017254788480834126 -0.0023190017915257796 0 0.0012334654629648852 -0.0021809107366074776 0 0.0013780190976456024 -0.002657067886289242 0 0.0017254788480834126 -0.0023190017915257796 0 0.0020662929494252454 -0.0025766024227198972 0 0.0017463886093504306 -0.0027505471314501762 0 0.0017254788480834126 -0.0023190017915257796 0 0.0020662929494252454 -0.0025766024227198972 0 0.0017254788480834126 -0.0023190017915257796 0 0.002081245906200522 -0.0022547897445363021 0 0.0017254788480834126 -0.0023190017915257796 0 0.0020468791774359341 -0.0019748303925852697 0 0.002081245906200522 -0.0022547897445363021 0 0.0017254788480834126 -0.0023190017915257796 0 0.0020468791774359341 -0.0019748303925852697 0 0.0015933667427331143 -0.0018366753921915983 0 0.0012334654629648852 -0.0021809107366074776 0 0.0017254788480834126 -0.0023190017915257796 0 0.0015933667427331143 -0.0018366753921915983 0 0.0010533941532738106 -0.0015739838955339152 0 0.0012334654629648852 -0.0021809107366074776 0 0.0015933667427331143 -0.0018366753921915983 0 0.0010533941532738106 -0.0015739838955339152 0 0.0015118979197049852 -0.0014212213485090218 0 0.0015933667427331143 -0.0018366753921915983 0 0.0019124385119213844 -0.0014549981124478664 0 0.0015118979197049852 -0.0014212213485090218 0 0.0015933667427331143 -0.0018366753921915983 0 0.0019124385119213844 -0.0014549981124478664 0 0.0020468791774359341 -0.0019748303925852697 0 0.0015933667427331143 -0.0018366753921915983 0 0.00063947207302197018 0.00093235442470986107 0 0.00075881470627511545 0.00092249847340987153 0 0.00076127269628132558 0.00081049600648182946 0 0.0019124385119213844 -0.0014549981124478664 0 0.0020468791774359341 -0.0019748303925852697 0 0.002292028344496736 -0.0020339047770263764 0 0.0015315903425967209 0.00031204920423853186 0 0.0016026416646171711 0.0012193134615910723 0 0.00075881470627511545 0.00092249847340987153 0 0.00085724579425860081 0.0008925045595041596 0 0.00076127269628132558 0.00081049600648182946 0 0.0001837448135138521 0.002960248876209221 0 0.0010204809449013755 0.0036081382199779771 0 0.0018369797337708092 0.0025990032510241848 0 0.00074560238560772343 0.0036410034511399842 0 0.0016026416646171711 0.0012193134615910723 0 0.0013844050822089205 0.001095795089691366 0 0.0016026416646171711 0.0012193134615910723 0 0.00093392663181897872 0.0007890129702586543 0 0.00085724579425860081 0.0008925045595041596 0 0.00076127269628132558 0.00081049600648182946 0 0.0025091737025016861 -0.0023994596820531245 0 0.002081245906200522 -0.0022547897445363021 0 0.0022440973726070967 -0.0020367476600611973 0 0.0020468791774359341 -0.0019748303925852697 0 0.002081245906200522 -0.0022547897445363021 0 0.0022440973726070967 -0.0020367476600611973 0 0.0017462516203788408 0.0010652999978867758 0 0.0016026416646171711 0.0012193134615910723 0 -0.0019670290371941088 0.017455654053557774 0 -0.001854677953908389 0.017384786486038133 0 -0.0018422315358443328 0.017556959261350171 0 -0.0019670290371941088 0.017455654053557774 0 -0.0020844809708547582 0.017518826187932234 0 -0.0018422315358443328 0.017556959261350171 0 -0.0019670290371941088 0.017455654053557774 0 -0.001854677953908389 0.017384786486038133 0 -0.0020940651143059727 0.01734877970677819 0 -0.0017664986037491419 0.017455641901006215 0 -0.001854677953908389 0.017384786486038133 0 -0.0017093177014246101 0.01740349731936618 0 -0.0017664986037491419 0.017455641901006215 0 -0.0018422315358443328 0.017556959261350171 0 -0.0016826894961042705 0.017474256418403292 0 -0.0017664986037491419 0.017455641901006215 0 -0.001854677953908389 0.017384786486038133 0 -0.0018422315358443328 0.017556959261350171 0 -0.0011013507325417448 0.016967397336791291 0 -0.0014601263834321452 0.017321715515013703 0 -0.00069981200157541641 0.017250224098850086 0 -0.0016296577868030373 0.016791071268992139 0 -0.0012777409948361317 0.016415365132450978 0 -0.0011013507325417448 0.016967397336791291 0 -0.0015633664890078738 0.017001590850613452 0 -0.0014601263834321452 0.017321715515013703 0 -0.0016296577868030373 0.016791071268992139 0 -0.0018203912798077603 0.016904013743867668 0 -0.0018538433944805025 0.017164860137196748 0 -0.0020919806472714853 0.017010664149109372 0 -0.0016871554129709763 0.016855083584122191 0 -0.0014601263834321452 0.017321715515013703 0 -0.0018538433944805025 0.017164860137196748 0 -0.0020940651143059727 0.01734877970677819 0 -0.0015633664890078738 0.017001590850613452 0 -0.0014601263834321452 0.017321715515013703 0 -0.0018538433944805025 0.017164860137196748 0 -0.0015633664890078738 0.017001590850613452 0 -0.0018538433944805025 0.017164860137196748 0 -0.0016274390612310676 0.016648053021010273 0 -0.0006230383500023817 0.017843966123521966 0 -0.00052099301364578207 0.018020697611808092 0 -0.0020919806472714853 0.017010664149109372 0 -0.0024311023905476585 0.017181084764524509 0 -0.0020940651143059727 0.01734877970677819 0 -0.0018538433944805025 0.017164860137196748 0 -0.0020919806472714853 0.017010664149109372 0 -0.0020940651143059727 0.01734877970677819 0 -0.00018749750431089798 0.019177843939440709 0 0.0001942538324112515 0.0204303252180481 0 -0.0024311023905476585 0.017181084764524509 0 -0.0023523356586475194 0.017476312400890658 0 -0.0020940651143059727 0.01734877970677819 0 -0.0023523356586475194 0.017476312400890658 0 -0.0020940651143059727 0.01734877970677819 0 -0.0020844809708547582 0.017518826187932234 0 -0.0023523356586475194 0.017476312400890658 0 -0.0020844809708547582 0.017518826187932234 0 -0.0021743622866386906 0.017685294877135788 0 -0.0019670290371941088 0.017455654053557774 0 -0.0020940651143059727 0.01734877970677819 0 -0.0020844809708547582 0.017518826187932234 0 -0.0020844809708547582 0.017518826187932234 0 -0.0021743622866386906 0.017685294877135788 0 -0.0018422315358443328 0.017556959261350171 0 -0.0040029997822367356 0.02516546498973871 0 -0.0036660286596094552 0.024750928452604931 0 -0.003214788529468778 0.025035868288332336 0 -0.0023523356586475194 0.017476312400890658 0 -0.0021743622866386906 0.017685294877135788 0 -0.0026250770469792468 0.017793016627771756 0 -0.0029282012883109854 0.021756449949266194 0 -0.0019664608645866308 0.022519563463942457 0 -0.0040029997822367356 0.02516546498973871 0 -0.0036660286596094552 0.024750928452604931 0 -0.0040628068853138339 0.024492559238956262 0 -0.0040029997822367356 0.02516546498973871 0 -0.0045817134598893283 0.024729333603970227 0 -0.0040628068853138339 0.024492559238956262 0 -0.0029282012883109854 0.021756449949266194 0 -0.0033217702520956611 0.021162382280149227 0 -0.0040029997822367356 0.02516546498973871 0 -0.0045817134598893283 0.024729333603970227 0 -0.0047994760981165041 0.025257698880396074 0 -0.0047994760981165041 0.025257698880396074 0 -0.0050872939194694065 0.024797160555588924 0 -0.0053566410634756359 0.025085635193225042 0 -0.0045817134598893283 0.024729333603970227 0 -0.0047994760981165041 0.025257698880396074 0 -0.0050872939194694065 0.024797160555588924 0 -0.0033217702520956611 0.021162382280149227 0 -0.0035025345007042422 0.020349145262099067 0 -0.0045817134598893283 0.024729333603970227 0 -0.0050872939194694065 0.024797160555588924 0 -0.0049780142562026947 0.024401093900655226 0 -0.0050872939194694065 0.024797160555588924 0 -0.0053503952452947081 0.024495248843171523 0 -0.0049780142562026947 0.024401093900655226 0 -0.0053611989625155301 0.024740966932290009 0 -0.0055766454963906663 0.024615330556323218 0 -0.0053566410634756359 0.025085635193225042 0 -0.0050872939194694065 0.024797160555588924 0 -0.0053503952452947081 0.024495248843171523 0 -0.0053611989625155301 0.024740966932290009 0 -0.0053503952452947081 0.024495248843171523 0 -0.0053611989625155301 0.024740966932290009 0 -0.0055766454963906663 0.024615330556323218 0 -0.0055766454963906663 0.024615330556323218 0 -0.0059718663372530277 0.024561598157965266 0 -0.0053566410634756359 0.025085635193225042 0 -0.0050872939194694065 0.024797160555588924 0 -0.0053611989625155301 0.024740966932290009 0 -0.0053566410634756359 0.025085635193225042 0 -0.0059101858701196362 0.024457534594334873 0 -0.0057222188268658538 0.025024147920712732 0 -0.0059414402865914451 0.024916249982337116 0 -0.0059101858701196362 0.024457534594334873 0 -0.0059414402865914451 0.024916249982337116 0 -0.0061129742038781897 0.024742928901606585 0 -0.0045909291809157543 0.022665459730698431 0 -0.0046130605485392622 0.023537636360448488 0 -0.0057222188268658538 0.025024147920712732 0 -0.0060947764936122905 0.025189874232947745 0 -0.0055331119386977309 0.025329346204444984 0 -0.0059101858701196362 0.024457534594334873 0 -0.0057222188268658538 0.025024147920712732 0 -0.0053566410634756359 0.025085635193225042 0 -0.0057222188268658538 0.025024147920712732 0 -0.0059414402865914451 0.024916249982337116 0 -0.0060947764936122905 0.025189874232947745 0 -0.0057222188268658538 0.025024147920712732 0 -0.0053566410634756359 0.025085635193225042 0 -0.0055331119386977309 0.025329346204444984 0 -0.0047994760981165041 0.025257698880396074 0 -0.0053566410634756359 0.025085635193225042 0 -0.0055331119386977309 0.025329346204444984 0 -0.0024546451490926663 0.011649498517496366 0 -0.002729867851182617 0.011778661121671672 0 -0.0027306530310594857 0.011431289426338795 0 -0.0031773102297916358 0.015562426335142737 0 -0.0021532946340190374 0.015110082437189254 0 -0.0034038259325102514 0.017592730434155549 0 -0.0036313948344982795 0.017566660392245494 0 -0.0034018789464962005 0.016806971229184151 0 -0.0062874832488230238 0.024813419978411733 0 -0.0064660403881661426 0.024416702956402626 0 -0.0063657933207247174 0.024980259918319165 0 -0.0037485192828561752 0.019434830442038187 0 -0.00299578968048226 0.017202881270898644 0 -0.0059101858701196362 0.024457534594334873 0 -0.0064660403881661426 0.024416702956402626 0 -0.0061129742038781897 0.024742928901606585 0 -0.0062874832488230238 0.024813419978411733 0 -0.0064660403881661426 0.024416702956402626 0 -0.0061129742038781897 0.024742928901606585 0 -0.0060947764936122905 0.025189874232947745 0 -0.0063657933207247174 0.024980259918319165 0 -0.0062818374043094498 0.025437395525288228 0 -0.0036313948344982795 0.017566660392245494 0 -0.0037251298448051549 0.016877895826921775 0 -0.0034018789464962005 0.016806971229184151 0 -0.00299578968048226 0.017202881270898644 0 -0.0024363968450508452 0.01854715301295207 0 -0.0016525673405908968 0.017334779119974473 0 -0.0016743595696056199 0.017339618313713431 0 -0.0016533004585773772 0.017378844773150867 0 -0.0059414402865914451 0.024916249982337116 0 -0.0061432595785973071 0.024945900580830425 0 -0.0060947764936122905 0.025189874232947745 0 -0.0062874832488230238 0.024813419978411733 0 -0.0061432595785973071 0.024945900580830425 0 -0.0063657933207247174 0.024980259918319165 0 -0.0059414402865914451 0.024916249982337116 0 -0.0061129742038781897 0.024742928901606585 0 -0.0061432595785973071 0.024945900580830425 0 -0.0062874832488230238 0.024813419978411733 0 -0.0061129742038781897 0.024742928901606585 0 -0.0061432595785973071 0.024945900580830425 0 -0.0061432595785973071 0.024945900580830425 0 -0.0060947764936122905 0.025189874232947745 0 -0.0063657933207247174 0.024980259918319165 0 -0.0012100530860005194 0.011242204536131237 0 -0.0021532946340190374 0.015110082437189254 0 -0.00299578968048226 0.017202881270898644 0 -0.0021532946340190374 0.015110082437189254 0 -0.0021532946340190374 0.015110082437189254 0 -0.00057851599110341498 0.014082622055352201 0 0.00019769944145467511 0.011241658620384868 0 -0.00024427019054591655 0.011782874131404317 0 -0.00024634523408112555 0.010929129394736612 0 -0.0016743595696056199 0.017339618313713431 0 -0.0016533004585773772 0.017378844773150867 0 -0.0016554362058238245 0.017406448447740145 0 -0.0016525673405908968 0.017334779119974473 0 -0.0016533004585773772 0.017378844773150867 0 -0.0016425003657706755 0.017376822203710656 0 -0.0024363968450508452 0.01854715301295207 0 -0.0024144954232219991 0.018349872677220564 0 -0.0016533004585773772 0.017378844773150867 0 -0.0016420333178613863 0.017377888616948226 0 -0.0016423098429051261 0.017408340902805259 0 -0.0023953179020576925 0.018528054422065992 0 -0.0024363968450508452 0.01854715301295207 0 -0.0016257692473658711 0.017431855063672574 0 -0.0016423098429051261 0.017408340902805259 0 -0.0016474947016934275 0.017427523092411065 0 -0.00057851599110341498 0.014082622055352201 0 -0.0009222565225989269 0.015626368273752543 0 -0.0016423098429051261 0.017408340902805259 0 -0.0016554362058238245 0.017406448447740145 0 -0.0016381810170684073 0.017412163538541497 0 0.0007565397978069522 0.017106187673682001 0 3.4435128925416551e-05 0.017172014203786241 0 0.00038225255683880664 0.016813600669312968 0 -0.0016423098429051261 0.017408340902805259 0 -0.0016474947016934275 0.017427523092411065 0 -0.0016381810170684073 0.017412163538541497 0 3.4435128925416551e-05 0.017172014203786241 0 2.4300936956208276e-05 0.016721229516863299 0 0.00038225255683880664 0.016813600669312968 0 -0.0016533004585773772 0.017378844773150867 0 -0.0016423098429051261 0.017408340902805259 0 -0.0016554362058238245 0.017406448447740145 0 0.0007565397978069522 0.017106187673682001 0 0.00075562409898083567 0.016574662844007288 0 0.00038225255683880664 0.016813600669312968 0 -0.00057851599110341498 0.014082622055352201 0 -0.00013301065861287493 0.013472080923642295 0 -0.0017664986037491419 0.017455641901006215 0 -0.0016826894961042705 0.017474256418403292 0 -0.0017093177014246101 0.01740349731936618 0 -0.0016826894961042705 0.017474256418403292 0 -0.0016704419611541451 0.017427302497291214 0 -0.0017093177014246101 0.01740349731936618 0 -0.0060947764936122905 0.025189874232947745 0 -0.0062818374043094498 0.025437395525288228 0 -0.0055331119386977309 0.025329346204444984 0 -0.0024363968450508452 0.01854715301295207 0 -0.0035025345007042422 0.020349145262099067 0 -0.0016257692473658711 0.017431855063672574 0 -0.0016826894961042705 0.017474256418403292 0 -0.0016474947016934275 0.017427523092411065 0 -0.0016474947016934275 0.017427523092411065 0 -0.0016704419611541451 0.017427302497291214 0 -0.0016381810170684073 0.017412163538541497 0 -0.0016826894961042705 0.017474256418403292 0 -0.0016474947016934275 0.017427523092411065 0 -0.0016704419611541451 0.017427302497291214 0 -0.0009222565225989269 0.015626368273752543 0 -0.0012777409948361317 0.016415365132450978 0 3.4435128925416551e-05 0.017172014203786241 0 -0.00026110012392199837 0.016965656717773222 0 -0.00069981200157541641 0.017250224098850086 0 -0.0016704419611541451 0.017427302497291214 0 -0.0016381810170684073 0.017412163538541497 0 -0.0017093177014246101 0.01740349731936618 0 3.4435128925416551e-05 0.017172014203786241 0 -0.00026110012392199837 0.016965656717773222 0 2.4300936956208276e-05 0.016721229516863299 0 -0.00069981200157541641 0.017250224098850086 0 -0.00080446947999038808 0.016752651888964153 0 -0.00040763799822355565 0.016722824640816866 0 -0.00026110012392199837 0.016965656717773222 0 -0.00069981200157541641 0.017250224098850086 0 -0.00040763799822355565 0.016722824640816866 0 -0.0011013507325417448 0.016967397336791291 0 -0.00069981200157541641 0.017250224098850086 0 -0.00080446947999038808 0.016752651888964153 0 -0.00078192616449054137 0.016346010188855911 0 -0.00040763799822355565 0.016722824640816866 0 -1.32645569283106e-05 0.016194222487343923 0 -0.00080446947999038808 0.016752651888964153 0 -0.00078192616449054137 0.016346010188855911 0 -0.00040763799822355565 0.016722824640816866 0 -0.00040763799822355565 0.016722824640816866 0 2.4300936956208276e-05 0.016721229516863299 0 -1.32645569283106e-05 0.016194222487343923 0 -0.00026110012392199837 0.016965656717773222 0 -0.00040763799822355565 0.016722824640816866 0 2.4300936956208276e-05 0.016721229516863299 0 -0.00078192616449054137 0.016346010188855911 0 -0.0005138954830559429 0.015707784071442292 0 -0.0012399170422750685 0.015858976444725444 0 -0.00078192616449054137 0.016346010188855911 0 4.8539944654241926e-05 0.016170398666496406 0 -0.0005138954830559429 0.015707784071442292 0 -0.00053944207845722737 0.014761739623142747 0 -0.00023365750919233233 0.014298159670294717 0 0.00029240734520846577 0.010519925878991775 0 -0.00014603755023845599 0.010916999074249839 0 -0.00014090800623731177 0.010495244606718274 0 0.00075562409898083567 0.016574662844007288 0 0.00038061954049734183 0.016468429859626529 0 0.00075335186426928329 0.016037974369551521 0 0.00029240734520846577 0.010519925878991775 0 -0.00014090800623731177 0.010495244606718274 0 -8.0287900494717366e-05 0.010082517650739991 0 -0.00022440943965744306 0.011624069257504425 0 0.00018113634949620995 0.012557476896159183 0 2.4300936956208276e-05 0.016721229516863299 0 -1.32645569283106e-05 0.016194222487343923 0 0.00038061954049734183 0.016468429859626529 0 0.00075562409898083567 0.016574662844007288 0 0.00038061954049734183 0.016468429859626529 0 0.00038225255683880664 0.016813600669312968 0 2.4300936956208276e-05 0.016721229516863299 0 0.00038061954049734183 0.016468429859626529 0 0.00038225255683880664 0.016813600669312968 0 4.8539944654241926e-05 0.016170398666496406 0 0.00086452294958822863 0.015881061938666043 0 0.00086499985666923628 0.016001426684175334 0 -1.32645569283106e-05 0.016194222487343923 0 0.00038061954049734183 0.016468429859626529 0 0.00075335186426928329 0.016037974369551521 0 -0.00023365750919233233 0.014298159670294717 0 0.00020934136031513142 0.012789958940049377 0 -0.00013301065861287493 0.013472080923642295 0 0.00020934136031513142 0.012789958940049377 0 -0.00014090800623731177 0.010495244606718274 0 -0.00013967221749374209 0.010094682513512277 0 -8.0287900494717366e-05 0.010082517650739991 0 0.00046994991829202613 0.0098697854395717668 0 0.00023770684546750088 0.009902641526564086 0 0.00030885607595141468 0.0098092377336532425 0 0.00049755402093244988 0.01187778751520401 0 0.00018113634949620995 0.012557476896159183 0 0.00069099487882301914 0.012669062421290546 0 0.00068929367782568339 0.01237391306254316 0 0.00048350577870245474 0.012413972414556508 0 0.00023737296134464673 0.012625108724869022 0 0.00018113634949620995 0.012557476896159183 0 0.00023737296134464673 0.012625108724869022 0 0.00020934136031513142 0.012789958940049377 0 0.00020934136031513142 0.012789958940049377 0 0.00018113634949620995 0.012557476896159183 0 0.00020521098082995919 0.009856435343937868 0 0.00023770684546750088 0.009902641526564086 0 0.00030885607595141468 0.0098092377336532425 0 4.8539944654241926e-05 0.016170398666496406 0 0.00086452294958822863 0.015881061938666043 0 0.00022510753478692408 0.015093919949660391 0 0.00041230441412440849 0.0096442999181682882 0 0.00030885607595141468 0.0098092377336532425 0 0.00023486697595816007 0.0097593240916889496 0 0.00023737296134464673 0.012625108724869022 0 0.0002356938301346279 0.012315508190635985 0 0.00024397920518913669 0.0097386630490864951 0 0.00023486697595816007 0.0097593240916889496 0 0.00022550159702009099 0.0097539377720015658 0 0.00020521098082995919 0.009856435343937868 0 0.00023486697595816007 0.0097593240916889496 0 0.00022550159702009099 0.0097539377720015658 0 0.00020521098082995919 0.009856435343937868 0 0.00030885607595141468 0.0098092377336532425 0 0.00023486697595816007 0.0097593240916889496 0 0.00024397920518913669 0.0097386630490864951 0 0.00022550159702009099 0.0097539377720015658 0 0.00022972700057398486 0.0097261776571484909 0 0.00022550159702009099 0.0097539377720015658 0 0.0002008097090069043 0.0097308932830173812 0 0.00022972700057398486 0.0097261776571484909 0 0.00023737296134464673 0.012625108724869022 0 0.00025335180340604229 0.012745965875861954 0 0.00022466002504499175 0.0097697570147472056 0 0.00022550159702009099 0.0097539377720015658 0 0.0002008097090069043 0.0097308932830173812 0 0.0002008097090069043 0.0097308932830173812 0 0.00022972700057398486 0.0097261776571484909 0 0.00023223534701534909 0.0097008512710262205 0 0.00027345436724881368 0.0096910521776157471 0 0.00025408679426883949 0.0097153698880685334 0 0.00023223534701534909 0.0097008512710262205 0 0.00022972700057398486 0.0097261776571484909 0 0.00025408679426883949 0.0097153698880685334 0 0.00023223534701534909 0.0097008512710262205 0 0.00024397920518913669 0.0097386630490864951 0 0.00022972700057398486 0.0097261776571484909 0 0.00025408679426883949 0.0097153698880685334 0 4.8539944654241926e-05 0.016170398666496406 0 0.00022510753478692408 0.015093919949660391 0 -0.0005138954830559429 0.015707784071442292 0 -0.0005138954830559429 0.015707784071442292 0 -0.0008266088824052906 0.015076832058442147 0 -0.0012399170422750685 0.015858976444725444 0 0.00022510753478692408 0.015093919949660391 0 -0.0005138954830559429 0.015707784071442292 0 -0.0008266088824052906 0.015076832058442147 0 0.00022510753478692408 0.015093919949660391 0 -0.0008266088824052906 0.015076832058442147 0 -0.00041491010302918528 0.014301879315393709 0 0.0027850400753808018 0.019141521135856578 0 0.0024750297695104225 0.018897955975974899 0 0.0027564990009890517 0.018684938114722483 0 0.0027850400753808018 0.019141521135856578 0 0.0024750297695104225 0.018897955975974899 0 0.0023391916908363257 0.019375313541945174 0 0.0024750297695104225 0.018897955975974899 0 0.0018397584257011019 0.019415362101904955 0 0.0023391916908363257 0.019375313541945174 0 0.0020981175091961098 0.019229471061157993 0 0.0018025796495731783 0.019477158068600783 0 0.0020867382361846208 0.018890096718127348 0 0.0018938156437029977 0.019418399667137067 0 0.0016881327729264225 0.018880902844696835 0 0.0024750297695104225 0.018897955975974899 0 0.0020867382361846208 0.018890096718127348 0 0.0018938156437029977 0.019418399667137067 0 0.0021215440688550614 0.019617688598870149 0 0.0024072025639963572 0.019852057279681378 0 0.0019119510578143339 0.01985858292097864 0 0.0018397584257011019 0.019415362101904955 0 0.0021215440688550614 0.019617688598870149 0 0.0023391916908363257 0.019375313541945174 0 0.0018397584257011019 0.019415362101904955 0 0.0021215440688550614 0.019617688598870149 0 0.0019119510578143339 0.01985858292097864 0 0.0027850400753808018 0.019141521135856578 0 0.0023391916908363257 0.019375313541945174 0 0.0024072025639963572 0.019852057279681378 0 0.00052247180421079371 0.016455353618993546 0 8.1878972707037046e-05 0.017470091933235416 0 0.0021215440688550614 0.019617688598870149 0 0.0023391916908363257 0.019375313541945174 0 0.0024072025639963572 0.019852057279681378 0 -0.00078192616449054137 0.016346010188855911 0 -0.0012399170422750685 0.015858976444725444 0 -0.0012661974910352289 0.016500571923763505 0 8.1878972707037046e-05 0.017470091933235416 0 -0.00052099301364578207 0.018020697611808092 0 0.0024072025639963572 0.019852057279681378 0 0.0019119510578143339 0.01985858292097864 0 0.00203093814353971 0.020546203610008765 0 0.0019119510578143339 0.01985858292097864 0 0.00203093814353971 0.020546203610008765 0 0.0013957818600593126 0.020408964540184045 0 -0.00052099301364578207 0.018020697611808092 0 -0.00060759031566400088 0.017955963748280061 0 -0.0015633664890078738 0.017001590850613452 0 -0.0016274390612310676 0.016648053021010273 0 -0.0012661974910352289 0.016500571923763505 0 -0.0011013507325417448 0.016967397336791291 0 -0.0015633664890078738 0.017001590850613452 0 -0.0012661974910352289 0.016500571923763505 0 -0.0012399170422750685 0.015858976444725444 0 -0.0016448355254730488 0.01664245299339405 0 -0.0012661974910352289 0.016500571923763505 0 -0.0011013507325417448 0.016967397336791291 0 -0.00080446947999038808 0.016752651888964153 0 -0.0012661974910352289 0.016500571923763505 0 -0.00080446947999038808 0.016752651888964153 0 -0.00078192616449054137 0.016346010188855911 0 -0.0012661974910352289 0.016500571923763505 0 0.0001942538324112515 0.0204303252180481 0 0.00094212470664154489 0.020167031947492416 0 0.00089763470533453147 0.020993165587349726 0 0.0014009118961492858 0.020437788389531378 0 0.00061790877721775643 0.020475234416029848 0 0.0014568104812502532 0.020755444342357616 0 0.00088061465250052122 0.020964186192250826 0 0.0013957818600593126 0.020408964540184045 0 -0.00018749750431089798 0.019177843939440709 0 -0.00052099301364578207 0.018020697611808092 0 0.0014568104812502532 0.020755444342357616 0 0.00203093814353971 0.020546203610008765 0 0.0013957818600593126 0.020408964540184045 0 0.0012672905564117579 0.019968621571494472 0 0.00094212470664154489 0.020167031947492416 0 0.0019119510578143339 0.01985858292097864 0 0.0014009118961492858 0.020437788389531378 0 0.0012208113949252484 0.019945756781309665 0 0.0013030479287269737 0.019896207505602347 0 0.0010055588417727085 0.020144230763450781 0 0.0014009118961492858 0.020437788389531378 0 0.0012208113949252484 0.019945756781309665 0 0.00061790877721775643 0.020475234416029848 0 0.0012676074965115754 0.019967724030658513 0 0.00090486627771927384 0.019624933477953341 0 0.00067221266321752825 0.020039501136669663 0 0.0012676074965115754 0.019967724030658513 0 0.00061790877721775643 0.020475234416029848 0 0.00067221266321752825 0.020039501136669663 0 0.0012676074965115754 0.019967724030658513 0 0.00090486627771927384 0.019624933477953341 0 0.0014046447170892565 0.019458382399427536 0 0.00090486627771927384 0.019624933477953341 0 0.0014046447170892565 0.019458382399427536 0 0.001049853225211472 0.019218667624823837 0 0.00090486627771927384 0.019624933477953341 0 0.001049853225211472 0.019218667624823837 0 0.00055817600418253015 0.019266623482203503 0 0.0018025796495731783 0.019477158068600783 0 0.0013030479287269737 0.019896207505602347 0 0.0018938156437029977 0.019418399667137067 0 0.0012676074965115754 0.019967724030658513 0 0.0014046447170892565 0.019458382399427536 0 0.0018397584257011019 0.019415362101904955 0 0.0019119510578143339 0.01985858292097864 0 0.0012208113949252484 0.019945756781309665 0 0.0014046447170892565 0.019458382399427536 0 0.0016881327729264225 0.018880902844696835 0 0.001049853225211472 0.019218667624823837 0 0.0018938156437029977 0.019418399667137067 0 0.0014046447170892565 0.019458382399427536 0 0.0016881327729264225 0.018880902844696835 0 0.0014668755535586768 0.017721321591745939 0 0.001187032786984973 0.018117189776818834 0 0.0019999940642072521 0.01870087262535523 0 0.001049853225211472 0.019218667624823837 0 0.0013648977700850455 0.018326624119875637 0 0.001049853225211472 0.019218667624823837 0 0.0013648977700850455 0.018326624119875637 0 0.00072688202353891169 0.018688930275357896 0 0.0013648977700850455 0.018326624119875637 0 0.00077587305134083561 0.017864206042265011 0 0.00072688202353891169 0.018688930275357896 0 0.00077587305134083561 0.017864206042265011 0 0.0018136091280770421 0.017322090500640673 0 0.00091641914334261189 0.016473212861744798 0 0.00077587305134083561 0.017864206042265011 0 0.00091641914334261189 0.016473212861744798 0 0.0003191823855287181 0.016998300892359177 0 0.0013648977700850455 0.018326624119875637 0 0.00077587305134083561 0.017864206042265011 0 0.0018136091280770421 0.017322090500640673 0 0.0018136091280770421 0.017322090500640673 0 0.0023256633059037888 0.017433226838918698 0 0.0023875418483742749 0.016728660437368491 0 0.0018136091280770421 0.017322090500640673 0 0.0019854489633741442 0.018035732524564068 0 0.0023256633059037888 0.017433226838918698 0 0.0013648977700850455 0.018326624119875637 0 0.0018136091280770421 0.017322090500640673 0 0.0019854489633741442 0.018035732524564068 0 0.0019999940642072521 0.01870087262535523 0 0.0013648977700850455 0.018326624119875637 0 0.0019854489633741442 0.018035732524564068 0 0.0014668755535586768 0.017721321591745939 0 0.0018557977969443516 0.016651161352654147 0 0.0020867382361846208 0.018890096718127348 0 0.0016881327729264225 0.018880902844696835 0 0.0023101687574194583 0.0185396210157899 0 0.0019999940642072521 0.01870087262535523 0 0.0026235519790061448 0.018011999811290726 0 0.0030114438543891553 0.018132749281725594 0 0.0019999940642072521 0.01870087262535523 0 0.0019854489633741442 0.018035732524564068 0 0.0026235519790061448 0.018011999811290726 0 0.0026235519790061448 0.018011999811290726 0 0.0030114438543891553 0.018132749281725594 0 0.0029418212522685132 0.017647723446274514 0 0.0023101687574194583 0.0185396210157899 0 0.0027063036088260085 0.018544086538941358 0 0.0029445013546710178 0.018191659156291441 0 0.0018557977969443516 0.016651161352654147 0 0.0019375972557716355 0.014711227424809022 0 0.0025098229115939059 0.018661407121425975 0 0.0027063036088260085 0.018544086538941358 0 0.0027564990009890517 0.018684938114722483 0 0.0025098229115939059 0.018661407121425975 0 0.0023101687574194583 0.0185396210157899 0 0.0027063036088260085 0.018544086538941358 0 0.0024750297695104225 0.018897955975974899 0 0.0025098229115939059 0.018661407121425975 0 0.0027564990009890517 0.018684938114722483 0 0.0024750297695104225 0.018897955975974899 0 0.0020867382361846208 0.018890096718127348 0 0.0023101687574194583 0.0185396210157899 0 0.0024750297695104225 0.018897955975974899 0 0.0025098229115939059 0.018661407121425975 0 0.0023101687574194583 0.0185396210157899 0 0.0030114438543891553 0.018132749281725594 0 0.0037265949337933401 0.01739310515295563 0 0.0041884533861198826 0.017489776840764817 0 0.0037265949337933401 0.01739310515295563 0 0.0032603770790504446 0.017404462578361066 0 0.0035324551269451695 0.017163358537145169 0 0.0030114438543891553 0.018132749281725594 0 0.0037265949337933401 0.01739310515295563 0 0.0032603770790504446 0.017404462578361066 0 0.0030114438543891553 0.018132749281725594 0 0.0032603770790504446 0.017404462578361066 0 0.0029418212522685132 0.017647723446274514 0 0.0032603770790504446 0.017404462578361066 0 0.003070923890070004 0.017194274296602943 0 0.0029418212522685132 0.017647723446274514 0 0.0032603770790504446 0.017404462578361066 0 0.0033365900106458279 0.016878572130284302 0 0.003070923890070004 0.017194274296602943 0 0.0033365900106458279 0.016878572130284302 0 0.003070923890070004 0.017194274296602943 0 0.0027454133755793011 0.016843091997161847 0 0.0032603770790504446 0.017404462578361066 0 0.0033365900106458279 0.016878572130284302 0 0.0035324551269451695 0.017163358537145169 0 0.0033365900106458279 0.016878572130284302 0 0.0035324551269451695 0.017163358537145169 0 0.0038054902791218033 0.01697569242355456 0 0.0037265949337933401 0.01739310515295563 0 0.0035324551269451695 0.017163358537145169 0 0.0038054902791218033 0.01697569242355456 0 0.0019644429815565277 0.016786015859599424 0 0.0019229795209023861 0.016176614850238868 0 0.0026235519790061448 0.018011999811290726 0 0.0023256633059037888 0.017433226838918698 0 0.002799532044026296 0.017077139794657376 0 0.0026235519790061448 0.018011999811290726 0 0.0029418212522685132 0.017647723446274514 0 0.0027454133755793011 0.016843091997161847 0 0.0019854489633741442 0.018035732524564068 0 0.0026235519790061448 0.018011999811290726 0 0.0023256633059037888 0.017433226838918698 0 0.003070923890070004 0.017194274296602943 0 0.0029418212522685132 0.017647723446274514 0 0.0027454133755793011 0.016843091997161847 0 0.0023875418483742749 0.016728660437368491 0 0.002799532044026296 0.017077139794657376 0 0.0029646665459728818 0.016125177490545817 0 0.0019229795209023861 0.016176614850238868 0 0.0017252357000263111 0.014510441290237637 0 0.0023256633059037888 0.017433226838918698 0 0.0023875418483742749 0.016728660437368491 0 0.002799532044026296 0.017077139794657376 0 0.0016293136306232477 0.015391335157271875 0 0.0017252357000263111 0.014510441290237637 0 0.0027454133755793011 0.016843091997161847 0 0.003319924665160403 0.016274139185064807 0 0.0029369166204955876 0.015686940790990481 0 0.0033365900106458279 0.016878572130284302 0 0.003319924665160403 0.016274139185064807 0 0.003865303711445073 0.01637839599085112 0 0.0033365900106458279 0.016878572130284302 0 0.0038054902791218033 0.01697569242355456 0 0.003865303711445073 0.01637839599085112 0 0.0033365900106458279 0.016878572130284302 0 0.0027454133755793011 0.016843091997161847 0 0.003319924665160403 0.016274139185064807 0 0.003319924665160403 0.016274139185064807 0 0.0037452282529627933 0.015728340372061212 0 0.003865303711445073 0.01637839599085112 0 0.0017252357000263111 0.014510441290237637 0 0.002012449296436293 0.012496209193775315 0 0.0037452282529627933 0.015728340372061212 0 0.0029369166204955876 0.015686940790990481 0 0.0039124103607328592 0.014665967627206884 0 0.003319924665160403 0.016274139185064807 0 0.0037452282529627933 0.015728340372061212 0 0.0029369166204955876 0.015686940790990481 0 0.0033238211594535752 0.015727927039131642 0 0.0022551723173473257 0.015366634712175118 0 0.0035746577891453018 0.014268181970122888 0 0.0025688748838953268 0.016520319308830137 0 0.0033238211594535752 0.015727927039131642 0 0.0022551723173473257 0.015366634712175118 0 0.0010984204489446695 0.015079392004304734 0 0.00070513078441097714 0.015382194973454881 0 0.00091641914334261189 0.016473212861744798 0 0.00092666348863452899 0.014279280002152245 0 0.00057066571407244401 0.015074864527049177 0 0.00070513078441097714 0.015382194973454881 0 0.00091641914334261189 0.016473212861744798 0 0.0001076196419651907 0.015878753388465665 0 0.00070513078441097714 0.015382194973454881 0 0.00031339371247078791 0.014886848354705209 0 0.0001076196419651907 0.015878753388465665 0 0.0022551723173473257 0.015366634712175118 0 0.00091641914334261189 0.016473212861744798 0 0.0018890589412463553 0.016419516718586463 0 0.0025688748838953268 0.016520319308830137 0 0.0022551723173473257 0.015366634712175118 0 0.0018890589412463553 0.016419516718586463 0 0.0018136091280770421 0.017322090500640673 0 0.00091641914334261189 0.016473212861744798 0 0.0018890589412463553 0.016419516718586463 0 0.0015065984100891437 0.015758588958988302 0 0.0016293136306232477 0.015391335157271875 0 0.0018136091280770421 0.017322090500640673 0 0.0025688748838953268 0.016520319308830137 0 0.0018890589412463553 0.016419516718586463 0 0.00024941266503646146 0.0096653223955554691 0 0.00022450568966204916 0.0096535966130447196 0 0.000244360192844745 0.0096190928638372648 0 0.00028250877633862961 0.0096299406818387487 0 0.00024941266503646146 0.0096653223955554691 0 0.000244360192844745 0.0096190928638372648 0 0.00024941266503646146 0.0096653223955554691 0 0.00023223534701534909 0.0097008512710262205 0 0.00021119373501708011 0.0096852148251866631 0 0.00027345436724881368 0.0096910521776157471 0 0.00024941266503646146 0.0096653223955554691 0 0.00023223534701534909 0.0097008512710262205 0 0.0002008097090069043 0.0097308932830173812 0 0.00023223534701534909 0.0097008512710262205 0 0.00021119373501708011 0.0096852148251866631 0 0.00024941266503646146 0.0096653223955554691 0 0.00021119373501708011 0.0096852148251866631 0 0.00022450568966204916 0.0096535966130447196 0 0.00021119373501708011 0.0096852148251866631 0 0.00022450568966204916 0.0096535966130447196 0 0.00019881102149825654 0.0096648759328806962 0 0.00022450568966204916 0.0096535966130447196 0 0.00019881102149825654 0.0096648759328806962 0 0.00019952024213586747 0.0096423217516231341 0 0.00018183288491879508 0.0096560882900296411 0 0.00019881102149825654 0.0096648759328806962 0 0.00016624448602929159 0.0096917630166161849 0 0.0016219208734237689 0.013362936225588908 0 0.0011584386032479381 0.014193408272386233 0 0.00018183288491879508 0.0096560882900296411 0 0.00019881102149825654 0.0096648759328806962 0 0.00019952024213586747 0.0096423217516231341 0 0.0016219208734237689 0.013362936225588908 0 0.0016064673150333816 0.013186079261135705 0 0.00021119373501708011 0.0096852148251866631 0 0.00019881102149825654 0.0096648759328806962 0 0.00016624448602929159 0.0096917630166161849 0 0.00025335180340604229 0.012745965875861954 0 0.0011584386032479381 0.014193408272386233 0 0.0002008097090069043 0.0097308932830173812 0 0.00021119373501708011 0.0096852148251866631 0 0.00016624448602929159 0.0096917630166161849 0 0.0027850400753808018 0.019141521135856578 0 0.0031478253876837817 0.018440536125785778 0 0.0027564990009890517 0.018684938114722483 0 0.00052247180421079371 0.016455353618993546 0 0.0011584386032479381 0.014193408272386233 0 0.0031478253876837817 0.018440536125785778 0 0.0029169393901734646 0.018424349673819802 0 0.0029445013546710178 0.018191659156291441 0 0.0027063036088260085 0.018544086538941358 0 0.0029169393901734646 0.018424349673819802 0 0.0029445013546710178 0.018191659156291441 0 0.0031478253876837817 0.018440536125785778 0 0.0027564990009890517 0.018684938114722483 0 0.0029169393901734646 0.018424349673819802 0 0.0027063036088260085 0.018544086538941358 0 0.0027564990009890517 0.018684938114722483 0 0.0029169393901734646 0.018424349673819802 0 0.0014616704336269789 0.013790002031816163 0 0.0010838543551808565 0.014506414059226754 0 0.00078739120941209121 0.014141193528559521 0 0.0037265949337933401 0.01739310515295563 0 0.0039699095270198182 0.017404964970391974 0 0.0041884533861198826 0.017489776840764817 0 0.0037265949337933401 0.01739310515295563 0 0.0039699095270198182 0.017404964970391974 0 0.0040086539723340692 0.017200830040139448 0 0.0039699095270198182 0.017404964970391974 0 0.0041884533861198826 0.017489776840764817 0 0.0040086539723340692 0.017200830040139448 0 0.0011584386032479381 0.014193408272386233 0 0.0019375972557716355 0.014711227424809022 0 0.0050402817539277958 0.01703298393741844 0 0.0041884533861198826 0.017489776840764817 0 0.0043676871677927687 0.016893209474889235 0 0.0016219208734237689 0.013362936225588908 0 0.0019375972557716355 0.014711227424809022 0 0.0043676871677927687 0.016893209474889235 0 0.0038054902791218033 0.01697569242355456 0 0.0040086539723340692 0.017200830040139448 0 0.0041884533861198826 0.017489776840764817 0 0.0043676871677927687 0.016893209474889235 0 0.0040086539723340692 0.017200830040139448 0 0.0037265949337933401 0.01739310515295563 0 0.0038054902791218033 0.01697569242355456 0 0.0040086539723340692 0.017200830040139448 0 0.0037452282529627933 0.015728340372061212 0 0.003865303711445073 0.01637839599085112 0 0.0047552308602624499 0.015920902373498077 0 0.0043676871677927687 0.016893209474889235 0 0.003865303711445073 0.01637839599085112 0 0.0047552308602624499 0.015920902373498077 0 0.0043676871677927687 0.016893209474889235 0 0.0038054902791218033 0.01697569242355456 0 0.003865303711445073 0.01637839599085112 0 0.0047552308602624499 0.015920902373498077 0 0.0050645863796608256 0.014833898460556855 0 0.0039124103607328592 0.014665967627206884 0 0.0037452282529627933 0.015728340372061212 0 0.0047552308602624499 0.015920902373498077 0 0.0039124103607328592 0.014665967627206884 0 0.0047552308602624499 0.015920902373498077 0 0.0057248267654220093 0.015699356809991055 0 0.0050645863796608256 0.014833898460556855 0 0.0001781959341472664 0.0096584402995594631 0 0.00019952024213586747 0.0096423217516231341 0 0.00020654912531795956 0.0095938694808918885 0 0.0016219208734237689 0.013362936225588908 0 0.0017167470109517027 0.011798885987054884 0 0.0050402817539277958 0.01703298393741844 0 0.0047552308602624499 0.015920902373498077 0 0.0057248267654220093 0.015699356809991055 0 0.0050402817539277958 0.01703298393741844 0 0.0043676871677927687 0.016893209474889235 0 0.0047552308602624499 0.015920902373498077 0 0.00021893416487091708 0.0096278678205024698 0 0.00020654912531795956 0.0095938694808918885 0 0.000244360192844745 0.0096190928638372648 0 0.00019952024213586747 0.0096423217516231341 0 0.00021893416487091708 0.0096278678205024698 0 0.00020654912531795956 0.0095938694808918885 0 0.00022450568966204916 0.0096535966130447196 0 0.00019952024213586747 0.0096423217516231341 0 0.00021893416487091708 0.0096278678205024698 0 0.00022450568966204916 0.0096535966130447196 0 0.00021893416487091708 0.0096278678205024698 0 0.000244360192844745 0.0096190928638372648 0 0.00020654912531795956 0.0095938694808918885 0 0.00024680333021552867 0.0095782046199620087 0 0.00023579836957462777 0.0095366290274919944 0 0.00020654912531795956 0.0095938694808918885 0 0.00024680333021552867 0.0095782046199620087 0 0.000244360192844745 0.0096190928638372648 0 0.00028425331654753215 0.0095964469331156158 0 0.00024680333021552867 0.0095782046199620087 0 0.000244360192844745 0.0096190928638372648 0 9.0749934815506438e-05 0.0051558463366355731 0 0.00033831104302464569 0.0050742686506705572 0 0.00020887718870200061 0.0053295608685288987 0 0.0012876093205311896 0.0092880192500240759 0 0.00071059532413567019 0.0066885119749050606 0 -1.1535102962180806e-06 0.0067673691880559862 0 -6.6127850393318506e-06 0.0067125306644382774 0 5.5481999867122758e-05 0.00671353418992756 0 0.00028025082377468492 0.0095564277328258583 0 0.00024680333021552867 0.0095782046199620087 0 0.00023579836957462777 0.0095366290274919944 0 0.00011455979711299217 0.0049691621953049468 0 9.0749934815506438e-05 0.0051558463366355731 0 0.00033831104302464569 0.0050742686506705572 0 0.00048113841323378398 0.0074128935179896991 0 0.0012876093205311896 0.0092880192500240759 0 0.0057248267654220093 0.015699356809991055 0 0.0064061587378263247 0.01437226030336293 0 0.0050645863796608256 0.014833898460556855 0 0.0017167470109517027 0.011798885987054884 0 0.0012876093205311896 0.0092880192500240759 0 0.0012876093205311896 0.0092880192500240759 0 0.0020261488387252973 0.0098153720483588024 0 -1.1535102962180806e-06 0.0067673691880559862 0 -4.0012414241771435e-05 0.0067319656002662893 0 -6.6127850393318506e-06 0.0067125306644382774 0 0.0064061587378263247 0.01437226030336293 0 0.0048823913677907569 0.013649054960899959 0 0.0050645863796608256 0.014833898460556855 0 0.0048823913677907569 0.013649054960899959 0 0.0050645863796608256 0.014833898460556855 0 0.0039124103607328592 0.014665967627206884 0 0.0020261488387252973 0.0098153720483588024 0 0.002012449296436293 0.012496209193775315 0 -8.6857441322175214e-05 0.0089957516930831479 0 0.0002546244155479042 0.009158040245072328 0 0.00088794011625033904 0.0081780866917077252 0 0.0017542253485844641 0.012197294850972444 0 0.0020261507332787316 0.011353894435651039 0 0.001265039645926099 0.011986532225756611 0 0.0023952913186857218 0.011528884694102431 0 0.0017542253485844641 0.012197294850972444 0 0.0020261507332787316 0.011353894435651039 0 0.0020261488387252973 0.0098153720483588024 0 0.001295610427057544 0.0093756038714394828 0 0.001295610427057544 0.0093756038714394828 0 0.0012058506271685338 0.0093400848902399462 0 6.5072747397851362e-05 0.0091834927884598249 0 4.4924064337801436e-05 0.0091453136384758646 0 0.00016391121540723747 0.0094451338141536972 0 6.5072747397851362e-05 0.0091834927884598249 0 0.0002546244155479042 0.009158040245072328 0 0.00016391121540723747 0.0094451338141536972 0 4.4924064337801436e-05 0.0091453136384758646 0 0.00016391121540723747 0.0094451338141536972 0 0.00010760435064014033 0.0094181574425933872 0 0.00010760435064014033 0.0094181574425933872 0 -3.9734064433922202e-07 0.0082465417023279714 0 1.2016656602478056e-06 0.0096134461373958251 0 4.4924064337801436e-05 0.0091453136384758646 0 0.00010760435064014033 0.0094181574425933872 0 -3.9734064433922202e-07 0.0082465417023279714 0 0.00016391121540723747 0.0094451338141536972 0 0.00010760435064014033 0.0094181574425933872 0 0.00061471078132177353 0.010125743910231794 0 4.4924064337801436e-05 0.0091453136384758646 0 -3.9734064433922202e-07 0.0082465417023279714 0 0.00011043982140185123 0.0087405521739316299 0 6.5072747397851362e-05 0.0091834927884598249 0 4.4924064337801436e-05 0.0091453136384758646 0 0.00011043982140185123 0.0087405521739316299 0 4.1036762701648791e-05 0.0066627052273615563 0 6.2711957373732499e-05 0.0066742900033531054 0 1.6301586269352505e-05 0.0067009773376889292 0 4.1036762701648791e-05 0.0066627052273615563 0 1.6301586269352505e-05 0.0067009773376889292 0 -8.3560450431579066e-06 0.0066907548106540423 0 0.001295610427057544 0.0093756038714394828 0 0.00035650281850451544 0.0081368182676974897 0 0.0020261488387252973 0.0098153720483588024 0 0.0018894349499267394 0.0091314691516103212 0 -4.0012414241771435e-05 0.0067319656002662893 0 -6.6127850393318506e-06 0.0067125306644382774 0 -8.3560450431579066e-06 0.0066907548106540423 0 1.6301586269352505e-05 0.0067009773376889292 0 -8.3560450431579066e-06 0.0066907548106540423 0 -5.646979936968096e-05 0.0066788718952277143 0 -6.6127850393318506e-06 0.0067125306644382774 0 -8.3560450431579066e-06 0.0066907548106540423 0 -5.646979936968096e-05 0.0066788718952277143 0 1.6301586269352505e-05 0.0067009773376889292 0 -5.4538748750710778e-08 0.0068762783024960391 0 -5.646979936968096e-05 0.0066788718952277143 0 -3.9734064433922202e-07 0.0082465417023279714 0 0.00011043982140185123 0.0087405521739316299 0 9.0776798230956303e-07 0.0068809445407176572 0 0.00035650281850451544 0.0081368182676974897 0 7.0495967420372854e-07 0.0068818675708992375 0 7.2063701302517066e-08 0.0057205222953473503 0 -5.4538748750710778e-08 0.0068762783024960391 0 -5.646979936968096e-05 0.0066788718952277143 0 7.2063701302517066e-08 0.0057205222953473503 0 -5.646979936968096e-05 0.0066788718952277143 0 5.5481999867122758e-05 0.00671353418992756 0 -6.6127850393318506e-06 0.0067125306644382774 0 -5.646979936968096e-05 0.0066788718952277143 0 5.5481999867122758e-05 0.00671353418992756 0 0.00040552471795300969 0.0130514541605448 0 0.00066124017955448804 0.01416350691018348 0 0.00084566014069186292 0.01284689746044608 0 0.00040552471795300969 0.0130514541605448 0 0.0001596849546458365 0.013875813169531983 0 0.00066124017955448804 0.01416350691018348 0 0.0001596849546458365 0.013875813169531983 0 0.00031339371247078791 0.014886848354705209 0 0.00066124017955448804 0.01416350691018348 0 0.00070513078441097714 0.015382194973454881 0 0.00031339371247078791 0.014886848354705209 0 0.00066124017955448804 0.01416350691018348 0 0.0001596849546458365 0.013875813169531983 0 0.00031339371247078791 0.014886848354705209 0 -8.2923571554635467e-05 0.014771482419253671 0 0.0010984204489446695 0.015079392004304734 0 0.00070513078441097714 0.015382194973454881 0 0.00066124017955448804 0.01416350691018348 0 0.0010984204489446695 0.015079392004304734 0 0.00066124017955448804 0.01416350691018348 0 0.00162159143457118 0.013844539630112025 0 0.00092666348863452899 0.014279280002152245 0 0.0013430237627550092 0.012345816070958577 0 0.0011110042145015149 0.012869151843925671 0 0.0017542253485844641 0.012197294850972444 0 0.001265039645926099 0.011986532225756611 0 0.0017252357000263111 0.014510441290237637 0 0.0013430237627550092 0.012345816070958577 0 0.001295610427057544 0.0093756038714394828 0 0.0013430237627550092 0.012345816070958577 0 0.0013430237627550092 0.012345816070958577 0 0.0013032700499486407 0.011511864072177976 0 0.0002546244155479042 0.009158040245072328 0 0.00088794011625033904 0.0081780866917077252 0 0.00073479770694286507 0.0090164910678992849 0 0.00162159143457118 0.013844539630112025 0 0.0015618197506285523 0.01250307536721881 0 0.00084566014069186292 0.01284689746044608 0 0.00066124017955448804 0.01416350691018348 0 0.00162159143457118 0.013844539630112025 0 0.00084566014069186292 0.01284689746044608 0 0.00040552471795300969 0.0130514541605448 0 0.00084566014069186292 0.01284689746044608 0 0.0003360464701818835 0.011812010459936613 0 0.00084566014069186292 0.01284689746044608 0 0.00066008851608865421 0.011505396644257588 0 0.0003360464701818835 0.011812010459936613 0 0.00066008851608865421 0.011505396644257588 0 0.0003360464701818835 0.011812010459936613 0 0.00032883436326921448 0.010736446085069065 0 0.0015618197506285523 0.01250307536721881 0 0.00066008851608865421 0.011505396644257588 0 0.00061471078132177353 0.010125743910231794 0 0.00016391121540723747 0.0094451338141536972 0 0.00073479770694286507 0.0090164910678992849 0 0.00061471078132177353 0.010125743910231794 0 0.0013032700499486407 0.011511864072177976 0 0.0012584928106806126 0.011277573664406184 0 0.0002546244155479042 0.009158040245072328 0 0.00016391121540723747 0.0094451338141536972 0 0.00073479770694286507 0.0090164910678992849 0 0.0015618197506285523 0.01250307536721881 0 0.00084566014069186292 0.01284689746044608 0 0.00066008851608865421 0.011505396644257588 0 0.00066008851608865421 0.011505396644257588 0 0.00061471078132177353 0.010125743910231794 0 0.00032883436326921448 0.010736446085069065 0 0.00010760435064014033 0.0094181574425933872 0 0.00061471078132177353 0.010125743910231794 0 1.2016656602478056e-06 0.0096134461373958251 0 0.00061471078132177353 0.010125743910231794 0 1.2016656602478056e-06 0.0096134461373958251 0 0.00032883436326921448 0.010736446085069065 0 1.2016656602478056e-06 0.0096134461373958251 0 0.00032883436326921448 0.010736446085069065 0 3.0527437378476572e-07 0.010979722530670647 0 0.0003360464701818835 0.011812010459936613 0 0.00032883436326921448 0.010736446085069065 0 3.0527437378476572e-07 0.010979722530670647 0 3.0527437378476572e-07 0.010979722530670647 0 9.7138680109862664e-05 0.012605970555539017 0 1.3629313018500228e-07 0.012347029297397626 0 0.0003360464701818835 0.011812010459936613 0 3.0527437378476572e-07 0.010979722530670647 0 9.7138680109862664e-05 0.012605970555539017 0 0.00040552471795300969 0.0130514541605448 0 0.0001596849546458365 0.013875813169531983 0 9.7138680109862664e-05 0.012605970555539017 0 0.00040552471795300969 0.0130514541605448 0 0.0003360464701818835 0.011812010459936613 0 9.7138680109862664e-05 0.012605970555539017 0 0.0001596849546458365 0.013875813169531983 0 9.7138680109862664e-05 0.012605970555539017 0 -0.00014345222345885048 0.013712646764018205 0 9.7138680109862664e-05 0.012605970555539017 0 1.3629313018500228e-07 0.012347029297397626 0 -0.00014345222345885048 0.013712646764018205 0 1.3629313018500228e-07 0.012347029297397626 0 -1.3156694310300986e-06 0.013710521398280637 0 -0.00014345222345885048 0.013712646764018205 0 -1.3156694310300986e-06 0.013710521398280637 0 -0.00036385302441608767 0.014293879249973005 0 -0.00014345222345885048 0.013712646764018205 0 -0.00036385302441608767 0.014293879249973005 0 -0.00014345222345885048 0.013712646764018205 0 -0.00042198128520328214 0.014868324305066084 0 0.0001596849546458365 0.013875813169531983 0 -0.00014345222345885048 0.013712646764018205 0 -8.2923571554635467e-05 0.014771482419253671 0 -0.00014345222345885048 0.013712646764018205 0 -0.00042198128520328214 0.014868324305066084 0 -8.2923571554635467e-05 0.014771482419253671 0 -0.00042198128520328214 0.014868324305066084 0 -0.00038622469354056331 0.015477833220955041 0 -8.2923571554635467e-05 0.014771482419253671 0 0.00031339371247078791 0.014886848354705209 0 -8.2923571554635467e-05 0.014771482419253671 0 0.0001076196419651907 0.015878753388465665 0 -0.00038622469354056331 0.015477833220955041 0 -8.2923571554635467e-05 0.014771482419253671 0 0.0001076196419651907 0.015878753388465665 0 -0.00075145708501649186 0.015667209668392183 0 -0.0011929318683420386 0.016225296802997415 0 -0.00100095684322025 0.01624577849638658 0 -0.0011929318683420386 0.016225296802997415 0 -0.0012385384592815225 0.016498060324471223 0 -0.00100095684322025 0.01624577849638658 0 -0.00042198128520328214 0.014868324305066084 0 -0.00038622469354056331 0.015477833220955041 0 -0.00075145708501649186 0.015667209668392183 0 -0.00038622469354056331 0.015477833220955041 0 -0.00075145708501649186 0.015667209668392183 0 -0.00060060818079507973 0.01639484251205656 0 -0.00036385302441608767 0.014293879249973005 0 -0.00042198128520328214 0.014868324305066084 0 -0.00080930669252939113 0.015166387711001391 0 -0.00042198128520328214 0.014868324305066084 0 -0.00075145708501649186 0.015667209668392183 0 -0.00080930669252939113 0.015166387711001391 0 -0.00075145708501649186 0.015667209668392183 0 -0.00080930669252939113 0.015166387711001391 0 -0.0011929318683420386 0.016225296802997415 0 -0.00080930669252939113 0.015166387711001391 0 -0.0013349433052582669 0.015462523284757697 0 -0.0011929318683420386 0.016225296802997415 0 -0.00049684912441255366 0.01475459766783737 0 -0.00070307278383806022 0.015478715380163079 0 8.6534564727881221e-07 0.013713700512522823 0 0.00014803760469275009 0.015478170666263289 0 -2.7759231064947564e-07 0.015358199378173253 0 -0.00080930669252939113 0.015166387711001391 0 -0.0007670539387901453 0.014220200997311494 0 -0.0013349433052582669 0.015462523284757697 0 -0.00036385302441608767 0.014293879249973005 0 -0.00080930669252939113 0.015166387711001391 0 -0.0007670539387901453 0.014220200997311494 0 -1.3156694310300986e-06 0.013710521398280637 0 -0.00036385302441608767 0.014293879249973005 0 -0.0007670539387901453 0.014220200997311494 0 -4.4600756494288109e-07 0.01371426219870016 0 -0.00049684912441255366 0.01475459766783737 0 0.00014803760469275009 0.015478170666263289 0 -2.7759231064947564e-07 0.015358199378173253 0 -0.00015421588312400074 0.016734680739321071 0 -2.7759231064947564e-07 0.015358199378173253 0 -0.00046695298419707141 0.017143651514800823 0 -1.0678789281229438e-06 0.017618888666130619 0 -2.7759231064947564e-07 0.015358199378173253 0 -0.00046695298419707141 0.017143651514800823 0 -0.00015421588312400074 0.016734680739321071 0 -0.00046695298419707141 0.017143651514800823 0 -1.0678789281229438e-06 0.017618888666130619 0 -0.00015803296452275695 0.018044656719220935 0 -1.0678789281229438e-06 0.017618888666130619 0 -0.00015803296452275695 0.018044656719220935 0 2.9849079690009235e-05 0.019271688357028541 0 -0.00049914715273000282 0.018657075495411606 0 -0.00014527084281698346 0.017897536281413419 0 0.00028923490728600791 0.018805500572943813 0 -0.00049914715273000282 0.018657075495411606 0 -0.00075390045681967297 0.017595604539828752 0 -0.00081070631240566071 0.01715115776729376 0 -0.00046695298419707141 0.017143651514800823 0 -0.00015803296452275695 0.018044656719220935 0 -0.00081070631240566071 0.01715115776729376 0 -0.00020372467591680627 0.018752593876346521 0 -0.00047502020673175719 0.018442383268372296 0 -0.00075390045681967297 0.017595604539828752 0 -0.00014527084281698346 0.017897536281413419 0 -0.00076292679250010713 0.017165948329296597 0 -0.00089683211622336944 0.017229756247487859 0 -0.00075390045681967297 0.017595604539828752 0 -0.00087092256925189551 0.01719690312516374 0 -0.00075390045681967297 0.017595604539828752 0 -0.00081070631240566071 0.01715115776729376 0 -0.00087092256925189551 0.01719690312516374 0 -0.00089683211622336944 0.017229756247487859 0 -0.00075390045681967297 0.017595604539828752 0 -0.00076292679250010713 0.017165948329296597 0 -0.00089683211622336944 0.017229756247487859 0 -0.001073565316688501 0.01693697352947102 0 -0.00076292679250010713 0.017165948329296597 0 -0.00049914715273000282 0.018657075495411606 0 -0.00075390045681967297 0.017595604539828752 0 -0.00014527084281698346 0.017897536281413419 0 -0.0013349433052582669 0.015462523284757697 0 -0.0011707491630240962 0.016364527374707241 0 -0.0011929318683420386 0.016225296802997415 0 -0.0013349433052582669 0.015462523284757697 0 -0.0011707491630240962 0.016364527374707241 0 -0.00084093316562262107 0.017093032160632779 0 -0.00070307278383806022 0.015478715380163079 0 -0.00076934208998587922 0.015785294619110754 0 -0.0011707491630240962 0.016364527374707241 0 -0.0010443503866652997 0.016763487055275385 0 -0.001200716154191052 0.01655406714830682 0 -0.00046695298419707141 0.017143651514800823 0 -0.00081070631240566071 0.01715115776729376 0 -0.00084093316562262107 0.017093032160632779 0 -0.00046695298419707141 0.017143651514800823 0 -0.00015421588312400074 0.016734680739321071 0 -0.00084093316562262107 0.017093032160632779 0 -0.00081070631240566071 0.01715115776729376 0 -0.0009076552318853146 0.017011574913691343 0 -0.00087092256925189551 0.01719690312516374 0 -0.00081070631240566071 0.01715115776729376 0 -0.00084093316562262107 0.017093032160632779 0 -0.0009076552318853146 0.017011574913691343 0 -0.0011707491630240962 0.016364527374707241 0 -0.00084093316562262107 0.017093032160632779 0 -0.0010443503866652997 0.016763487055275385 0 -0.0009076552318853146 0.017011574913691343 0 -0.0010443503866652997 0.016763487055275385 0 -0.00097584942734783148 0.016945525223502865 0 -0.00084093316562262107 0.017093032160632779 0 -0.0009076552318853146 0.017011574913691343 0 -0.0010443503866652997 0.016763487055275385 0 -0.0010443503866652997 0.016763487055275385 0 -0.0010861733409192908 0.016826381771393079 0 -0.001200716154191052 0.01655406714830682 0 -0.0010443503866652997 0.016763487055275385 0 -0.0010861733409192908 0.016826381771393079 0 -0.00097584942734783148 0.016945525223502865 0 -0.0009076552318853146 0.017011574913691343 0 -0.00087092256925189551 0.01719690312516374 0 -0.00097584942734783148 0.016945525223502865 0 -0.00087092256925189551 0.01719690312516374 0 -0.00097584942734783148 0.016945525223502865 0 -0.00098731234857708317 0.017013822341420938 0 -0.0010861733409192908 0.016826381771393079 0 -0.00097584942734783148 0.016945525223502865 0 -0.00098731234857708317 0.017013822341420938 0 -0.00089683211622336944 0.017229756247487859 0 -0.00087092256925189551 0.01719690312516374 0 -0.00098731234857708317 0.017013822341420938 0 -0.00089683211622336944 0.017229756247487859 0 -0.00098731234857708317 0.017013822341420938 0 -0.001073565316688501 0.01693697352947102 0 -0.0010861733409192908 0.016826381771393079 0 -0.00098731234857708317 0.017013822341420938 0 -0.001073565316688501 0.01693697352947102 0 -0.0010861733409192908 0.016826381771393079 0 -0.001073565316688501 0.01693697352947102 0 -0.0012290079763814157 0.016698145803073394 0 -0.0010861733409192908 0.016826381771393079 0 -0.0012290079763814157 0.016698145803073394 0 -0.001200716154191052 0.01655406714830682 0 -0.0012290079763814157 0.016698145803073394 0 -0.001200716154191052 0.01655406714830682 0 -0.0012385384592815225 0.016498060324471223 0 -0.0011707491630240962 0.016364527374707241 0 -0.001200716154191052 0.01655406714830682 0 -0.0011929318683420386 0.016225296802997415 0 -0.001200716154191052 0.01655406714830682 0 -0.0011929318683420386 0.016225296802997415 0 -0.0012385384592815225 0.016498060324471223 0 -0.0012290079763814157 0.016698145803073394 0 -0.0011928956276568417 0.016772347850328134 0 -0.0014344178949567809 0.016814840246267847 0 -0.0012290079763814157 0.016698145803073394 0 -0.0012385384592815225 0.016498060324471223 0 -0.0014344178949567809 0.016814840246267847 0 -0.001073565316688501 0.01693697352947102 0 -0.0012290079763814157 0.016698145803073394 0 -0.0011928956276568417 0.016772347850328134 0 -0.001073565316688501 0.01693697352947102 0 -0.0011928956276568417 0.016772347850328134 0 -0.00076292679250010713 0.017165948329296597 0 -0.0024208873629178139 0.017078868594122772 0 -0.0014344178949567809 0.016814840246267847 0 -0.0022246959322643738 0.017727971930637881 0 -0.00074847987141142362 0.019504539585506329 0 -0.00090339568895506702 0.019035090190246701 0 -0.0011928956276568417 0.016772347850328134 0 -0.0011108914095077391 0.016530175068800862 0 -0.0014344178949567809 0.016814840246267847 0 -0.0011928956276568417 0.016772347850328134 0 -0.0011108914095077391 0.016530175068800862 0 -0.00075676018793504457 0.016710144371075483 0 -0.00076292679250010713 0.017165948329296597 0 -0.00075676018793504457 0.016710144371075483 0 7.2872729490188961e-05 0.016936307406580146 0 -0.00014527084281698346 0.017897536281413419 0 -0.00076292679250010713 0.017165948329296597 0 7.2872729490188961e-05 0.016936307406580146 0 -0.0011928956276568417 0.016772347850328134 0 -0.00076292679250010713 0.017165948329296597 0 -0.00075676018793504457 0.016710144371075483 0 -0.0011108914095077391 0.016530175068800862 0 -0.00075676018793504457 0.016710144371075483 0 -0.00048240931217625717 0.016297253865905394 0 -0.00074847987141142362 0.019504539585506329 0 0.00028530597232776173 0.02101269575579497 0 0.0033285688614541546 0.024532729639412575 0 0.0027116745508771268 0.023711118234856925 0 0.0023292304413450341 0.024775333318784173 0 0.00028530597232776173 0.02101269575579497 0 0.0007913757235752443 0.020734370674987054 0 -0.00075676018793504457 0.016710144371075483 0 -0.00048240931217625717 0.016297253865905394 0 7.2872729490188961e-05 0.016936307406580146 0 0.0021985252061824307 0.024724305263343817 0 0.0021438804886518294 0.024969180501108225 0 0.0017926430769614414 0.024825261167308214 0 0.00028530597232776173 0.02101269575579497 0 0.0011913171878817177 0.022394810798945706 0 0.0021438804886518294 0.024969180501108225 0 0.0020898132298032444 0.025227454981959527 0 0.0017926430769614414 0.024825261167308214 0 -0.0033707301576502966 0.017325824556819875 0 -0.0026758937339064143 0.018216964407683663 0 -0.0022246959322643738 0.017727971930637881 0 0.0021985252061824307 0.024724305263343817 0 0.0021438804886518294 0.024969180501108225 0 0.0024878111507993148 0.025097129617259573 0 0.00028530597232776173 0.02101269575579497 0 -0.00079797961848040088 0.021038240975696187 0 -0.0024208873629178139 0.017078868594122772 0 -0.0033707301576502966 0.017325824556819875 0 -0.0022246959322643738 0.017727971930637881 0 -0.00079797961848040088 0.021038240975696187 0 0.00017132808714424161 0.021899441651384213 0 -0.00071186974924032176 0.020090876405276254 0 -0.00079928076719705402 0.019845146554971042 0 -0.00071804662620449284 0.020058272150591708 0 0.0021438804886518294 0.024969180501108225 0 0.0024878111507993148 0.025097129617259573 0 0.0020898132298032444 0.025227454981959527 0 -0.00077091883455763621 0.019894848205373915 0 -0.00071186974924032176 0.020090876405276254 0 -0.00064826220706662788 0.020308442511079994 0 -0.00079797961848040088 0.021038240975696187 0 -0.00080397578499641679 0.021026381679649552 0 -0.00077091883455763621 0.019894848205373915 0 -0.00071186974924032176 0.020090876405276254 0 -0.00079928076719705402 0.019845146554971042 0 -0.0014344178949567809 0.016814840246267847 0 -0.0015846174830033526 0.01790774620979332 0 -0.0022246959322643738 0.017727971930637881 0 -0.0026758937339064143 0.018216964407683663 0 -0.0015846174830033526 0.01790774620979332 0 -0.0022246959322643738 0.017727971930637881 0 -0.00079797961848040088 0.021038240975696187 0 -0.0006544144170403522 0.01973853088264358 0 -0.00079928076719705402 0.019845146554971042 0 -0.00081365502620409026 0.019578518224704411 0 -0.00071804662620449284 0.020058272150591708 0 -0.00080559651823148073 0.019848853983166014 0 -0.0008918611900485563 0.019035239674451306 0 -0.00079928076719705402 0.019845146554971042 0 -0.0008918611900485563 0.019035239674451306 0 -0.00079928076719705402 0.019845146554971042 0 -0.00081365502620409026 0.019578518224704411 0 -0.0008918611900485563 0.019035239674451306 0 -0.00081365502620409026 0.019578518224704411 0 -0.00071171674602716901 0.019164608729826817 0 -0.0014344178949567809 0.016814840246267847 0 -0.0015846174830033526 0.01790774620979332 0 -0.00070327294685468755 0.017793323506480593 0 -0.0008918611900485563 0.019035239674451306 0 -0.00071171674602716901 0.019164608729826817 0 -0.00070327294685468755 0.017793323506480593 0 -0.0006544144170403522 0.01973853088264358 0 -0.00042625883601179744 0.019268609697564342 0 -0.00070327294685468755 0.017793323506480593 0 -0.00036283809949993443 0.018541062409257993 0 -3.5155863821111827e-05 0.017796072678297761 0 -0.00036283809949993443 0.018541062409257993 0 0.0001516759997739239 0.018685621321624702 0 -0.00031396691604361243 0.01921323129038063 0 -0.00071171674602716901 0.019164608729826817 0 -0.00070327294685468755 0.017793323506480593 0 -0.00036283809949993443 0.018541062409257993 0 -0.00071171674602716901 0.019164608729826817 0 -0.00036283809949993443 0.018541062409257993 0 -0.00031396691604361243 0.01921323129038063 0 -0.00036283809949993443 0.018541062409257993 0 0.0001516759997739239 0.018685621321624702 0 -3.5155863821111827e-05 0.017796072678297761 0 0.00077587305134083561 0.017864206042265011 0 0.0001516759997739239 0.018685621321624702 0 -3.5155863821111827e-05 0.017796072678297761 0 0.00077587305134083561 0.017864206042265011 0 0.0001516759997739239 0.018685621321624702 0 0.00072688202353891169 0.018688930275357896 0 0.00077587305134083561 0.017864206042265011 0 -3.5155863821111827e-05 0.017796072678297761 0 0.0003191823855287181 0.016998300892359177 0 -0.00070327294685468755 0.017793323506480593 0 -3.5155863821111827e-05 0.017796072678297761 0 -0.00017815649435589639 0.016894457911713328 0 -3.5155863821111827e-05 0.017796072678297761 0 -0.00017815649435589639 0.016894457911713328 0 0.0003191823855287181 0.016998300892359177 0 0.00091641914334261189 0.016473212861744798 0 0.0003191823855287181 0.016998300892359177 0 0.0001076196419651907 0.015878753388465665 0 -0.00017815649435589639 0.016894457911713328 0 0.0003191823855287181 0.016998300892359177 0 0.0001076196419651907 0.015878753388465665 0 -0.00017815649435589639 0.016894457911713328 0 0.0001076196419651907 0.015878753388465665 0 -0.00060060818079507973 0.01639484251205656 0 -0.00038622469354056331 0.015477833220955041 0 0.0001076196419651907 0.015878753388465665 0 -0.00060060818079507973 0.01639484251205656 0 -0.00075145708501649186 0.015667209668392183 0 -0.00060060818079507973 0.01639484251205656 0 -0.00100095684322025 0.01624577849638658 0 -0.0012385384592815225 0.016498060324471223 0 -0.0014344178949567809 0.016814840246267847 0 -0.0010145781127982264 0.016701711448253772 0 -0.00060060818079507973 0.01639484251205656 0 -0.00100095684322025 0.01624577849638658 0 -0.0010145781127982264 0.016701711448253772 0 -0.0012385384592815225 0.016498060324471223 0 -0.00100095684322025 0.01624577849638658 0 -0.0010145781127982264 0.016701711448253772 0 -0.0014344178949567809 0.016814840246267847 0 -0.00070327294685468755 0.017793323506480593 0 -0.0010145781127982264 0.016701711448253772 0 -0.00070327294685468755 0.017793323506480593 0 -0.00017815649435589639 0.016894457911713328 0 -0.00060060818079507973 0.01639484251205656 0 -0.00070327294685468755 0.017793323506480593 0 -0.00060060818079507973 0.01639484251205656 0 -0.0010145781127982264 0.016701711448253772 0 -1.5608941563993952e-07 0.024997540577214244 0 -9.5571771475587742e-05 0.022815920202740342 0 6.114716651950447e-07 0.020727436601724745 0 -1.5608941563993952e-07 0.024997540577214244 0 1.8499148961718243e-06 0.024801439391604268 0 -2.3029577588586185e-07 0.024999460254338621 0 -5.5719233181131128e-05 0.024556187565215555 0 1.8499148961718243e-06 0.024801439391604268 0 -2.3029577588586185e-07 0.024999460254338621 0 -5.5719233181131128e-05 0.024556187565215555 0 -5.8646547464387633e-05 0.024627153365596278 0 1.8499148961718243e-06 0.024801439391604268 0 -1.5608941563993952e-07 0.024997540577214244 0 1.8499148961718243e-06 0.024801439391604268 0 -9.5571771475587742e-05 0.022815920202740342 0 -2.9650270367799067e-05 0.022948005568853722 0 1.8499148961718243e-06 0.024801439391604268 0 -9.5571771475587742e-05 0.022815920202740342 0 -0.00017596709366953439 0.023691178069047782 0 -0.00015873014980140131 0.023860981897365262 0 -9.5571771475587742e-05 0.022815920202740342 0 -0.0003946865491436566 0.02215138513515346 0 -6.3722592999551221e-05 0.021524064402164741 0 -0.00017596709366953439 0.023691178069047782 0 -5.8818986213150754e-05 0.02352533459782322 0 -2.9650270367799067e-05 0.022948005568853722 0 -9.5571771475587742e-05 0.022815920202740342 0 -0.0003946865491436566 0.02215138513515346 0 -5.5719233181131128e-05 0.024556187565215555 0 -5.8646547464387633e-05 0.024627153365596278 0 -0.00014031091406019927 0.02419915379721093 0 -5.5719233181131128e-05 0.024556187565215555 0 -0.00014031091406019927 0.02419915379721093 0 -0.00014015344567657441 0.024135623926461409 0 -0.00014031091406019927 0.02419915379721093 0 -3.3030040307462724e-05 0.023742008086549225 0 -0.00014015344567657441 0.024135623926461409 0 -5.8818986213150754e-05 0.02352533459782322 0 0.00012753941579559647 0.023521961519806005 0 -0.00014031091406019927 0.02419915379721093 0 0.00012068147236870141 0.023088831492494546 0 -3.3030040307462724e-05 0.023742008086549225 0 -0.0003946865491436566 0.02215138513515346 0 0.00012068147236870141 0.023088831492494546 0 0.00011460096574204827 0.021742949541498607 0 0.00012068147236870141 0.023088831492494546 0 0.00078361500816202052 0.022052881024435499 0 0.00011460096574204827 0.021742949541498607 0 0.00012068147236870141 0.023088831492494546 0 0.00078361500816202052 0.022052881024435499 0 0.0011285840400655906 0.022938054520584884 0 0.00012068147236870141 0.023088831492494546 0 0.0011285840400655906 0.022938054520584884 0 0.00042835471429271459 0.023633669680268633 0 0.00078361500816202052 0.022052881024435499 0 0.00011460096574204827 0.021742949541498607 0 0.001020042737929764 0.020746849208340717 0 0.00011460096574204827 0.021742949541498607 0 0.0003224316083097141 0.020757027401747261 0 0.001020042737929764 0.020746849208340717 0 0.00011460096574204827 0.021742949541498607 0 -6.3722592999551221e-05 0.021524064402164741 0 0.0003224316083097141 0.020757027401747261 0 -0.0003946865491436566 0.02215138513515346 0 0.00011460096574204827 0.021742949541498607 0 -6.3722592999551221e-05 0.021524064402164741 0 6.114716651950447e-07 0.020727436601724745 0 0.0003224316083097141 0.020757027401747261 0 2.9849079690009235e-05 0.019271688357028541 0 -9.5571771475587742e-05 0.022815920202740342 0 -6.3722592999551221e-05 0.021524064402164741 0 6.114716651950447e-07 0.020727436601724745 0 -6.3722592999551221e-05 0.021524064402164741 0 6.114716651950447e-07 0.020727436601724745 0 0.0003224316083097141 0.020757027401747261 0 -1.0678789281229438e-06 0.017618888666130619 0 6.114716651950447e-07 0.020727436601724745 0 2.9849079690009235e-05 0.019271688357028541 0 0.0002923196835933972 0.019566187160760813 0 0.0002071103685484256 0.019300949470678345 0 -0.00049914715273000282 0.018657075495411606 0 0.00028923490728600791 0.018805500572943813 0 0.00093967660378357887 0.020234051382480772 0 0.00028923490728600791 0.018805500572943813 0 0.00093967660378357887 0.020234051382480772 0 0.0009256159883205083 0.018291670457250695 0 -0.00020372467591680627 0.018752593876346521 0 0.0002071103685484256 0.019300949470678345 0 0.0003224316083097141 0.020757027401747261 0 0.00093967660378357887 0.020234051382480772 0 0.001020042737929764 0.020746849208340717 0 0.00093967660378357887 0.020234051382480772 0 0.001020042737929764 0.020746849208340717 0 0.0009256159883205083 0.018291670457250695 0 0.00088108591274695526 0.020442086876038979 0 0.0009294219013843343 0.020546260775898304 0 0.00078361500816202052 0.022052881024435499 0 0.0011285840400655906 0.022938054520584884 0 0.0021877154580766341 0.022747960048532478 0 0.00078361500816202052 0.022052881024435499 0 0.001020042737929764 0.020746849208340717 0 0.0021877154580766341 0.022747960048532478 0 -0.00014527084281698346 0.017897536281413419 0 0.0009256159883205083 0.018291670457250695 0 7.2872729490188961e-05 0.016936307406580146 0 -0.00014527084281698346 0.017897536281413419 0 0.00028923490728600791 0.018805500572943813 0 0.0009256159883205083 0.018291670457250695 0 0.0021877154580766341 0.022747960048532478 0 0.0027116745508771268 0.023711118234856925 0 0.0018082143466541544 0.02370801323924351 0 0.0009294219013843343 0.020546260775898304 0 0.0007913757235752443 0.020734370674987054 0 0.0011285840400655906 0.022938054520584884 0 0.0021877154580766341 0.022747960048532478 0 0.0018082143466541544 0.02370801323924351 0 0.0011285840400655906 0.022938054520584884 0 0.0018082143466541544 0.02370801323924351 0 0.0011818592295796348 0.024300895089574569 0 0.0018595783457983962 0.024301847702870433 0 0.0013453185834089595 0.02490847223060955 0 0.0011818592295796348 0.024300895089574569 0 0.0018082143466541544 0.02370801323924351 0 0.0018595783457983962 0.024301847702870433 0 0.0011818592295796348 0.024300895089574569 0 0.0027116745508771268 0.023711118234856925 0 0.0018595783457983962 0.024301847702870433 0 0.0023292304413450341 0.024775333318784173 0 0.0027116745508771268 0.023711118234856925 0 0.0018082143466541544 0.02370801323924351 0 0.0018595783457983962 0.024301847702870433 0 -0.00064826220706662788 0.020308442511079994 0 -0.00067108935513807047 0.020573818930686279 0 -0.00066747534557120907 0.020562917889917522 0 0.0020898132298032444 0.025227454981959527 0 0.0016274287917252253 0.025086971753918556 0 0.0016726598823466883 0.025377917897188872 0 0.00017132808714424161 0.021899441651384213 0 0.00020559630312516497 0.022573874860212367 0 0.0020898132298032444 0.025227454981959527 0 0.0017926430769614414 0.024825261167308214 0 0.0016274287917252253 0.025086971753918556 0 0.0001629343896651349 0.023552353629700838 0 0.00020559630312516497 0.022573874860212367 0 0.0016274287917252253 0.025086971753918556 0 0.0013453185834089595 0.02490847223060955 0 0.0011515943617332088 0.025221830661015743 0 -0.00019416193894355874 0.022625748435985932 0 -0.00021967257915637766 0.022840001500899737 0 7.40667232509982e-05 0.022756859314304094 0 0.0016274287917252253 0.025086971753918556 0 0.0011515943617332088 0.025221830661015743 0 0.0016726598823466883 0.025377917897188872 0 0.0017926430769614414 0.024825261167308214 0 0.0016274287917252253 0.025086971753918556 0 0.0013453185834089595 0.02490847223060955 0 0.0018595783457983962 0.024301847702870433 0 0.0023292304413450341 0.024775333318784173 0 0.0013453185834089595 0.02490847223060955 0 0.0011913171878817177 0.022394810798945706 0 0.0012044335667623167 0.022853427939358014 0 0.0001629343896651349 0.023552353629700838 0 0.00056232734926901296 0.023935333127282403 0 0.0013453185834089595 0.02490847223060955 0 0.0011515943617332088 0.025221830661015743 0 0.0011818592295796348 0.024300895089574569 0 0.0004166485987028825 0.024648753734709119 0 0.00062516578779260904 0.025051135716497371 0 0.00078844437961215954 0.024358971307141774 0 0.0001629343896651349 0.023552353629700838 0 -0.00032176274988205555 0.022723852083356179 0 -0.0020314852725062857 0.023742750199208913 0 -0.0012622766877077934 0.023429824616961897 0 -0.0019614375819005016 0.022957155121617549 0 -0.0020314852725062857 0.023742750199208913 0 -0.0012622766877077934 0.023429824616961897 0 -0.0010413047373711028 0.024178229691835251 0 -0.0012622766877077934 0.023429824616961897 0 -0.0010413047373711028 0.024178229691835251 0 -0.00076694086911330555 0.023715999208944637 0 0.0001629343896651349 0.023552353629700838 0 -0.00016633698629836354 0.023899697005224877 0 0.0004166485987028825 0.024648753734709119 0 0.00062516578779260904 0.025051135716497371 0 4.2108694077845549e-05 0.024702600349560792 0 0.0004166485987028825 0.024648753734709119 0 4.2108694077845549e-05 0.024702600349560792 0 0.00017410285922724508 0.024422142449182765 0 4.2108694077845549e-05 0.024702600349560792 0 0.00017410285922724508 0.024422142449182765 0 -7.3098151531553849e-05 0.024341363996523476 0 0.00017410285922724508 0.024422142449182765 0 0.00012700197135654914 0.024043065053383397 0 -7.3098151531553849e-05 0.024341363996523476 0 0.0004166485987028825 0.024648753734709119 0 0.00017410285922724508 0.024422142449182765 0 0.00078844437961215954 0.024358971307141774 0 0.00017410285922724508 0.024422142449182765 0 0.00078844437961215954 0.024358971307141774 0 0.00012700197135654914 0.024043065053383397 0 0.0011285840400655906 0.022938054520584884 0 0.00078844437961215954 0.024358971307141774 0 0.00042835471429271459 0.023633669680268633 0 0.00073246855736570438 0.02349068283647349 0 0.00056232734926901296 0.023935333127282403 0 0.00078844437961215954 0.024358971307141774 0 0.00042835471429271459 0.023633669680268633 0 0.00012700197135654914 0.024043065053383397 0 -3.3030040307462724e-05 0.023742008086549225 0 0.00012700197135654914 0.024043065053383397 0 -0.00014015344567657441 0.024135623926461409 0 0.00012068147236870141 0.023088831492494546 0 0.00042835471429271459 0.023633669680268633 0 -3.3030040307462724e-05 0.023742008086549225 0 0.00042835471429271459 0.023633669680268633 0 -3.3030040307462724e-05 0.023742008086549225 0 0.00012700197135654914 0.024043065053383397 0 0.00012700197135654914 0.024043065053383397 0 -0.00014015344567657441 0.024135623926461409 0 -7.3098151531553849e-05 0.024341363996523476 0 -5.5719233181131128e-05 0.024556187565215555 0 -0.0001152938969724686 0.024426215641944693 0 -4.9028260672978915e-05 0.024592388704665884 0 -5.5719233181131128e-05 0.024556187565215555 0 -0.00014015344567657441 0.024135623926461409 0 -0.0001152938969724686 0.024426215641944693 0 -0.00014015344567657441 0.024135623926461409 0 -0.0001152938969724686 0.024426215641944693 0 -0.00017253061134064616 0.024387213579423743 0 -0.00017253061134064616 0.024387213579423743 0 -4.9028260672978915e-05 0.024592388704665884 0 -0.00025497815570250227 0.024395030687739926 0 -0.0001152938969724686 0.024426215641944693 0 -0.00017253061134064616 0.024387213579423743 0 -4.9028260672978915e-05 0.024592388704665884 0 -4.9028260672978915e-05 0.024592388704665884 0 -0.00025497815570250227 0.024395030687739926 0 -0.00012323105911766835 0.023968634800557116 0 -0.00014015344567657441 0.024135623926461409 0 -0.00017253061134064616 0.024387213579423743 0 -7.3098151531553849e-05 0.024341363996523476 0 -0.00017253061134064616 0.024387213579423743 0 -0.00025497815570250227 0.024395030687739926 0 -7.3098151531553849e-05 0.024341363996523476 0 4.2108694077845549e-05 0.024702600349560792 0 -0.00025497815570250227 0.024395030687739926 0 -7.3098151531553849e-05 0.024341363996523476 0 -0.0010413047373711028 0.024178229691835251 0 -0.00046828916010002291 0.02399856500795718 0 -0.00076694086911330555 0.023715999208944637 0 -0.0010413047373711028 0.024178229691835251 0 -0.00025497815570250227 0.024395030687739926 0 -0.00046828916010002291 0.02399856500795718 0 -0.00016633698629836354 0.023899697005224877 0 -0.00017898512990601649 0.024022517740179269 0 -0.00046828916010002291 0.02399856500795718 0 -0.00076694086911330555 0.023715999208944637 0 -0.00032733469633225827 0.023697133786738545 0 -0.00076694086911330555 0.023715999208944637 0 -0.00032733469633225827 0.023697133786738545 0 -0.00078774302356936872 0.023158038572391841 0 -0.0012622766877077934 0.023429824616961897 0 -0.00076694086911330555 0.023715999208944637 0 -0.00078774302356936872 0.023158038572391841 0 -0.00032733469633225827 0.023697133786738545 0 -0.00012323105911766835 0.023968634800557116 0 -0.00045001194052154546 0.023878476173159666 0 -0.00046828916010002291 0.02399856500795718 0 -0.00032733469633225827 0.023697133786738545 0 -0.00012323105911766835 0.023968634800557116 0 -0.00014745844324809797 0.024535700992692838 0 -0.00019241960911095155 0.024549620006848117 0 -0.00025497815570250227 0.024395030687739926 0 -0.00046828916010002291 0.02399856500795718 0 -0.00012323105911766835 0.023968634800557116 0 -0.0001300329859578721 0.024558839457154251 0 -0.00014745844324809797 0.024535700992692838 0 -4.9028260672978915e-05 0.024592388704665884 0 1.1048295110598818e-05 0.024906078397517503 0 -2.3029577588586185e-07 0.024999460254338621 0 1.1048295110598818e-05 0.024906078397517503 0 -2.3029577588586185e-07 0.024999460254338621 0 -3.6156845198219502e-05 0.024985156873440783 0 -5.5719233181131128e-05 0.024556187565215555 0 -4.9028260672978915e-05 0.024592388704665884 0 -2.3029577588586185e-07 0.024999460254338621 0 -2.3029577588586185e-07 0.024999460254338621 0 1.6135061950922579e-08 0.024999854652557888 0 -6.2202814996129962e-05 0.024999813964403206 0 1.6135061950922579e-08 0.024999854652557888 0 -6.2202814996129962e-05 0.024999813964403206 0 -0.00012446116865750471 0.024790322791733956 0 -6.2202814996129962e-05 0.024999813964403206 0 -0.0002481759873859279 0.024841815382419419 0 -0.00012446116865750471 0.024790322791733956 0 -6.2202814996129962e-05 0.024999813964403206 0 -0.00010981159409873032 0.024993335494774834 0 -0.0002481759873859279 0.024841815382419419 0 -2.3029577588586185e-07 0.024999460254338621 0 -6.2202814996129962e-05 0.024999813964403206 0 -3.6156845198219502e-05 0.024985156873440783 0 -6.2202814996129962e-05 0.024999813964403206 0 -0.00010981159409873032 0.024993335494774834 0 -3.6156845198219502e-05 0.024985156873440783 0 -0.00048632406566212537 0.024507341950181807 0 -0.00045001194052154546 0.023878476173159666 0 -0.00012664055353221325 0.02438965578427672 0 -0.00048632406566212537 0.024507341950181807 0 -0.00012664055353221325 0.02438965578427672 0 -0.00032051797298039074 0.024690489182161511 0 -0.00032733469633225827 0.023697133786738545 0 -0.00045001194052154546 0.023878476173159666 0 -0.00012664055353221325 0.02438965578427672 0 -0.0002248466542639964 0.024634959846597682 0 -0.00019241960911095155 0.024549620006848117 0 -0.00092881110537641894 0.022607172639859403 0 -0.00078774302356936872 0.023158038572391841 0 -0.00069022543998348393 0.02233731529949326 0 -0.00048569930614974881 0.02363706910667995 0 -0.00054531379861149504 0.023553543121677761 0 -0.0012622766877077934 0.023429824616961897 0 -0.00092881110537641894 0.022607172639859403 0 -0.00078774302356936872 0.023158038572391841 0 -0.00032733469633225827 0.023697133786738545 0 -0.00078774302356936872 0.023158038572391841 0 -0.00069022543998348393 0.02233731529949326 0 -0.00092881110537641894 0.022607172639859403 0 -0.00069022543998348393 0.02233731529949326 0 -0.00098548645324916936 0.022224073316643129 0 -0.0012469379604051931 0.022339476910138229 0 -0.00099419885144255943 0.022312566790564734 0 -0.00098548645324916936 0.022224073316643129 0 -0.00012664055353221325 0.02438965578427672 0 -0.00032051797298039074 0.024690489182161511 0 -0.00040189652689342418 0.024870195721455535 0 -0.00069022543998348393 0.02233731529949326 0 -0.0012469379604051931 0.022339476910138229 0 -0.00098548645324916936 0.022224073316643129 0 -0.00054531379861149504 0.023553543121677761 0 -0.00066044481775997068 0.02358406067795717 0 -0.0002248466542639964 0.024634959846597682 0 -0.00023220905834263475 0.024673826627285431 0 -0.00048632406566212537 0.024507341950181807 0 -0.00032051797298039074 0.024690489182161511 0 -0.0002481759873859279 0.024841815382419419 0 -0.00032051797298039074 0.024690489182161511 0 -0.0002481759873859279 0.024841815382419419 0 -0.00040189652689342418 0.024870195721455535 0 -0.0002481759873859279 0.024841815382419419 0 -0.00032709177806740966 0.02457870629435354 0 -0.00012446116865750471 0.024790322791733956 0 -0.0002481759873859279 0.024841815382419419 0 -0.00040189652689342418 0.024870195721455535 0 -0.00032709177806740966 0.02457870629435354 0 -0.0012469379604051931 0.022339476910138229 0 -0.00094825917467593573 0.022669855864912689 0 -0.00083679714929683555 0.023201699644409723 0 -0.0012469379604051931 0.022339476910138229 0 -0.00099419885144255943 0.022312566790564734 0 -0.00094825917467593573 0.022669855864912689 0 -0.00099419885144255943 0.022312566790564734 0 -0.00087165394586901214 0.022329300325010973 0 -0.00082766675533212379 0.022829412473561381 0 -0.00099419885144255943 0.022312566790564734 0 -0.00094825917467593573 0.022669855864912689 0 -0.00082766675533212379 0.022829412473561381 0 -0.00094825917467593573 0.022669855864912689 0 -0.00082766675533212379 0.022829412473561381 0 -0.00083679714929683555 0.023201699644409723 0 -0.00087165394586901214 0.022329300325010973 0 -0.00072743825472960347 0.022714080307294552 0 -0.00082766675533212379 0.022829412473561381 0 -0.00087165394586901214 0.022329300325010973 0 -0.00065126888065267165 0.02227039181020337 0 -0.00072743825472960347 0.022714080307294552 0 -0.00065126888065267165 0.02227039181020337 0 -0.00056748109482711686 0.022646444722966511 0 -0.00072743825472960347 0.022714080307294552 0 -0.00087165394586901214 0.022329300325010973 0 -0.00084324310465678251 0.021940985534591926 0 -0.00065126888065267165 0.02227039181020337 0 -0.00099419885144255943 0.022312566790564734 0 -0.00087165394586901214 0.022329300325010973 0 -0.001114780056459616 0.021975840006626213 0 -0.00087165394586901214 0.022329300325010973 0 -0.00084324310465678251 0.021940985534591926 0 -0.001114780056459616 0.021975840006626213 0 -0.00084324310465678251 0.021940985534591926 0 -0.001114780056459616 0.021975840006626213 0 -0.00086446892692018445 0.021470166770031305 0 -0.00099419885144255943 0.022312566790564734 0 -0.001114780056459616 0.021975840006626213 0 -0.00098548645324916936 0.022224073316643129 0 -0.001114780056459616 0.021975840006626213 0 -0.00098548645324916936 0.022224073316643129 0 -0.0010883906974960696 0.022359579463005264 0 -0.00092881110537641894 0.022607172639859403 0 -0.00098548645324916936 0.022224073316643129 0 -0.0010883906974960696 0.022359579463005264 0 -0.0012622766877077934 0.023429824616961897 0 -0.00092881110537641894 0.022607172639859403 0 -0.0019614375819005016 0.022957155121617549 0 -0.00092881110537641894 0.022607172639859403 0 -0.0010883906974960696 0.022359579463005264 0 -0.0013437287716828936 0.022672370544055721 0 -0.00080040393694208022 0.022794787619607848 0 -0.00032176274988205555 0.022723852083356179 0 -0.001114780056459616 0.021975840006626213 0 -0.0010883906974960696 0.022359579463005264 0 -0.0013437287716828936 0.022672370544055721 0 -0.001114780056459616 0.021975840006626213 0 -0.0012289224838510837 0.020721350927155918 0 -0.00086446892692018445 0.021470166770031305 0 -0.00052612690483790428 0.022141569305873882 0 -0.00032176274988205555 0.022723852083356179 0 -0.0012289224838510837 0.020721350927155918 0 -0.00086446892692018445 0.021470166770031305 0 -0.00077224238834050257 0.021055667627200271 0 -0.00086446892692018445 0.021470166770031305 0 -0.00072952087514862381 0.021310949158765184 0 -0.00077224238834050257 0.021055667627200271 0 -0.00072952087514862381 0.021310949158765184 0 -0.00061968266963405901 0.02112085225731019 0 -0.000679803037877238 0.021596446932696946 0 -0.00072952087514862381 0.021310949158765184 0 -0.00077224238834050257 0.021055667627200271 0 -0.00061968266963405901 0.02112085225731019 0 -0.0012289224838510837 0.020721350927155918 0 -0.00077224238834050257 0.021055667627200271 0 -0.00071814036537931202 0.020709397027978305 0 -0.00032176274988205555 0.022723852083356179 0 0.00020559630312516497 0.022573874860212367 0 -0.0012289224838510837 0.020721350927155918 0 -0.00071814036537931202 0.020709397027978305 0 -0.00067853601178887292 0.020547951834599992 0 -0.00077224238834050257 0.021055667627200271 0 -0.00071814036537931202 0.020709397027978305 0 -0.00064439885632859443 0.020824117980274302 0 -0.00064826220706662788 0.020308442511079994 0 -0.00062380775813083902 0.020526995316708617 0 -0.00066747534557120907 0.020562917889917522 0 -0.00062380775813083902 0.020526995316708617 0 -0.00066747534557120907 0.020562917889917522 0 -0.00064711804801857893 0.020659035799266957 0 -0.00071814036537931202 0.020709397027978305 0 -0.00066747534557120907 0.020562917889917522 0 -0.00064711804801857893 0.020659035799266957 0 -0.00071814036537931202 0.020709397027978305 0 -0.00067853601178887292 0.020547951834599992 0 -0.00066747534557120907 0.020562917889917522 0 0.00020559630312516497 0.022573874860212367 0 0.00019578581363340007 0.022566243871185623 0 -0.00071814036537931202 0.020709397027978305 0 -0.00064711804801857893 0.020659035799266957 0 -0.00064439885632859443 0.020824117980274302 0 -0.00064711804801857893 0.020659035799266957 0 -0.00061898828828989749 0.020693818359087578 0 -0.00064439885632859443 0.020824117980274302 0 -0.00062380775813083902 0.020526995316708617 0 -0.00064711804801857893 0.020659035799266957 0 -0.00061898828828989749 0.020693818359087578 0 -0.00062380775813083902 0.020526995316708617 0 -0.00061898828828989749 0.020693818359087578 0 -0.00057744988313372712 0.020762038762828443 0 -0.00061898828828989749 0.020693818359087578 0 -0.00064439885632859443 0.020824117980274302 0 -0.00057744988313372712 0.020762038762828443 0 -0.00064439885632859443 0.020824117980274302 0 -0.00061968266963405901 0.02112085225731019 0 -0.00057744988313372712 0.020762038762828443 0 -0.00077224238834050257 0.021055667627200271 0 -0.00064439885632859443 0.020824117980274302 0 -0.00061968266963405901 0.02112085225731019 0 -0.00061968266963405901 0.02112085225731019 0 -0.00053899577828434139 0.020970632451029068 0 -0.00057744988313372712 0.020762038762828443 0 -0.00061968266963405901 0.02112085225731019 0 -0.00048049444980682111 0.021337655790585771 0 -0.00053899577828434139 0.020970632451029068 0 -0.00061968266963405901 0.02112085225731019 0 -0.00048049444980682111 0.021337655790585771 0 -0.000679803037877238 0.021596446932696946 0 -0.00048049444980682111 0.021337655790585771 0 -0.000679803037877238 0.021596446932696946 0 -0.00065126888065267165 0.02227039181020337 0 -0.00084324310465678251 0.021940985534591926 0 -0.000679803037877238 0.021596446932696946 0 -0.00065126888065267165 0.02227039181020337 0 -0.00084324310465678251 0.021940985534591926 0 -0.00086446892692018445 0.021470166770031305 0 -0.000679803037877238 0.021596446932696946 0 -0.00086446892692018445 0.021470166770031305 0 -0.00072952087514862381 0.021310949158765184 0 -0.000679803037877238 0.021596446932696946 0 -0.00048564950772197638 0.021276366447463706 0 -0.00065126888065267165 0.02227039181020337 0 -0.00043488124623268645 0.022302813043690244 0 -0.00065126888065267165 0.02227039181020337 0 -0.00043488124623268645 0.022302813043690244 0 -0.00056748109482711686 0.022646444722966511 0 -0.0006152064046403762 0.021185861660638284 0 -0.00073228330487874911 0.021461556730666607 0 -0.00043488124623268645 0.022302813043690244 0 7.7035303878976734e-05 0.022710975944741883 0 0.0003601341334889262 0.02240822821284881 0 -0.00048564950772197638 0.021276366447463706 0 -0.00043488124623268645 0.022302813043690244 0 -0.00048641219373206341 0.021211399008025253 0 -0.00054573071403157922 0.02192372954827055 0 -0.00032154096263667793 0.021785403996045855 0 7.7035303878976734e-05 0.022710975944741883 0 -0.00036004501482574613 0.022951794226428658 0 -5.4440766904051671e-05 0.023192458928774935 0 -0.00043488124623268645 0.022302813043690244 0 7.7035303878976734e-05 0.022710975944741883 0 -0.00036004501482574613 0.022951794226428658 0 -0.00043488124623268645 0.022302813043690244 0 -0.00056748109482711686 0.022646444722966511 0 -0.00036004501482574613 0.022951794226428658 0 -0.00056748109482711686 0.022646444722966511 0 -0.00036004501482574613 0.022951794226428658 0 -0.0006160190647968597 0.023077020718105183 0 -6.9282665179970626e-06 0.023253431455688069 0 -0.00040591618437846576 0.023481713689624813 0 -0.00036004501482574613 0.022951794226428658 0 -0.00063856745822999891 0.023584540025888365 0 -0.0006160190647968597 0.023077020718105183 0 -0.00036004501482574613 0.022951794226428658 0 -5.4440766904051671e-05 0.023192458928774935 0 -0.00063856745822999891 0.023584540025888365 0 -1.9621764536616928e-05 0.023304658511388372 0 1.5745650031409043e-05 0.023679813912875634 0 -0.00023573431748858848 0.023753047207494667 0 -1.9621764536616928e-05 0.023304658511388372 0 1.5745650031409043e-05 0.023679813912875634 0 0.00029093583113260423 0.023480597301371704 0 1.5745650031409043e-05 0.023679813912875634 0 0.00026660697062148142 0.023903474898337468 0 -0.00018311294961694696 0.023955376634805951 0 1.5745650031409043e-05 0.023679813912875634 0 -0.00023573431748858848 0.023753047207494667 0 -0.00018311294961694696 0.023955376634805951 0 -1.9621764536616928e-05 0.023304658511388372 0 -0.00023573431748858848 0.023753047207494667 0 -0.0003358902568451384 0.023548130220919224 0 -0.00023573431748858848 0.023753047207494667 0 -0.00040121555322178605 0.023798357731244127 0 -0.00027640869353024735 0.02397521629371693 0 -0.00023573431748858848 0.023753047207494667 0 -0.0003358902568451384 0.023548130220919224 0 -0.00040121555322178605 0.023798357731244127 0 -0.00040121555322178605 0.023798357731244127 0 -0.00060417653708245771 0.023714260103020145 0 -0.0005023545071090648 0.023806198579026321 0 -0.00063856745822999891 0.023584540025888365 0 -0.00060417653708245771 0.023714260103020145 0 -0.00068542910442590259 0.023657144796599267 0 -0.00040591618437846576 0.023481713689624813 0 -0.00054906883112971507 0.023572232967650708 0 -0.0003358902568451384 0.023548130220919224 0 -0.00040121555322178605 0.023798357731244127 0 -0.00060417653708245771 0.023714260103020145 0 -0.00060417653708245771 0.023714260103020145 0 -0.00068542910442590259 0.023657144796599267 0 -0.00065339139771847525 0.023752475454137841 0 -0.00068542910442590259 0.023657144796599267 0 -0.00072602895855898987 0.02368912846544706 0 -0.00065339139771847525 0.023752475454137841 0 -0.00072602895855898987 0.02368912846544706 0 -0.00064222779381147824 0.02391743677129405 0 -0.00065339139771847525 0.023752475454137841 0 -0.00072602895855898987 0.02368912846544706 0 -0.0007463172288536779 0.023703961188438375 0 -0.00074888452823395832 0.02340935791017865 0 -0.00072602895855898987 0.02368912846544706 0 -0.0007463172288536779 0.023703961188438375 0 -0.00064222779381147824 0.02391743677129405 0 -0.00072602895855898987 0.02368912846544706 0 -0.00070871045822430245 0.023448930413745982 0 -0.00074888452823395832 0.02340935791017865 0 -0.00068542910442590259 0.023657144796599267 0 -0.00072602895855898987 0.02368912846544706 0 -0.00070871045822430245 0.023448930413745982 0 -0.00063856745822999891 0.023584540025888365 0 -0.00068542910442590259 0.023657144796599267 0 -0.00070871045822430245 0.023448930413745982 0 -0.00063856745822999891 0.023584540025888365 0 -0.00070871045822430245 0.023448930413745982 0 -0.0006160190647968597 0.023077020718105183 0 -0.00070871045822430245 0.023448930413745982 0 -0.00073833577811407188 0.023078628923995745 0 -0.0006160190647968597 0.023077020718105183 0 -0.00073833577811407188 0.023078628923995745 0 -0.0006160190647968597 0.023077020718105183 0 -0.00072743825472960347 0.022714080307294552 0 -0.00056748109482711686 0.022646444722966511 0 -0.0006160190647968597 0.023077020718105183 0 -0.00072743825472960347 0.022714080307294552 0 -0.00073833577811407188 0.023078628923995745 0 -0.00072743825472960347 0.022714080307294552 0 -0.00082766675533212379 0.022829412473561381 0 -0.00073833577811407188 0.023078628923995745 0 -0.00082766675533212379 0.022829412473561381 0 -0.00074888452823395832 0.02340935791017865 0 -0.00082766675533212379 0.022829412473561381 0 -0.00083679714929683555 0.023201699644409723 0 -0.00074888452823395832 0.02340935791017865 0 -0.0007463172288536779 0.023703961188438375 0 -0.00083679714929683555 0.023201699644409723 0 -0.00074888452823395832 0.02340935791017865 0 -0.00070871045822430245 0.023448930413745982 0 -0.00073833577811407188 0.023078628923995745 0 -0.00074888452823395832 0.02340935791017865 0 -0.00040189652689342418 0.024870195721455535 0 -0.00032709177806740966 0.02457870629435354 0 -0.00080436451641099319 0.023938087505350803 0 -0.00066044481775997068 0.02358406067795717 0 -0.00070018315466488729 0.023659588301503272 0 -0.0012469379604051931 0.022339476910138229 0 -0.00083679714929683555 0.023201699644409723 0 -0.00080436451641099319 0.023938087505350803 0 -0.00032709177806740966 0.02457870629435354 0 -0.00044972998300497782 0.024308928309602771 0 -0.00080436451641099319 0.023938087505350803 0 -0.0007463172288536779 0.023703961188438375 0 -0.00083679714929683555 0.023201699644409723 0 -0.00080436451641099319 0.023938087505350803 0 -0.00032709177806740966 0.02457870629435354 0 -0.00028300071394165503 0.024516304948299796 0 -0.00012446116865750471 0.024790322791733956 0 -0.00032709177806740966 0.02457870629435354 0 -0.00028300071394165503 0.024516304948299796 0 -0.00044972998300497782 0.024308928309602771 0 -0.00048422479061927464 0.024216081665961613 0 -0.00039691863660298773 0.024393570283278432 0 -0.00025124329996689595 0.02462321636357968 0 -0.00028300071394165503 0.024516304948299796 0 -0.00048422479061927464 0.024216081665961613 0 -0.00025124329996689595 0.02462321636357968 0 -0.00028300071394165503 0.024516304948299796 0 -0.00044972998300497782 0.024308928309602771 0 -0.00048422479061927464 0.024216081665961613 0 -0.00048422479061927464 0.024216081665961613 0 -0.00064222779381147824 0.02391743677129405 0 -0.00039691863660298773 0.024393570283278432 0 -0.00044972998300497782 0.024308928309602771 0 -0.00048422479061927464 0.024216081665961613 0 -0.00080436451641099319 0.023938087505350803 0 -0.00048422479061927464 0.024216081665961613 0 -0.00080436451641099319 0.023938087505350803 0 -0.00064222779381147824 0.02391743677129405 0 -0.0007463172288536779 0.023703961188438375 0 -0.00080436451641099319 0.023938087505350803 0 -0.00064222779381147824 0.02391743677129405 0 -0.00047663586983396055 0.024177017105863181 0 -0.00044510309469993357 0.024235518930259364 0 -0.00060417653708245771 0.023714260103020145 0 -0.00065339139771847525 0.023752475454137841 0 -0.00057835486645569777 0.023701719232320138 0 -0.00064222779381147824 0.02391743677129405 0 -0.00019975269352289369 0.024681787021425452 0 -0.00039691863660298773 0.024393570283278432 0 -0.00064222779381147824 0.02391743677129405 0 -0.00065339139771847525 0.023752475454137841 0 -0.00057835486645569777 0.023701719232320138 0 -0.00060417653708245771 0.023714260103020145 0 -0.00057835486645569777 0.023701719232320138 0 -0.0005023545071090648 0.023806198579026321 0 -0.00019975269352289369 0.024681787021425452 0 -0.00027473463874218263 0.024693272384853887 0 -0.00027936125834520005 0.024851500474599726 0 -0.00019975269352289369 0.024681787021425452 0 -0.00027473463874218263 0.024693272384853887 0 -0.00039691863660298773 0.024393570283278432 0 -0.00027473463874218263 0.024693272384853887 0 -0.00039691863660298773 0.024393570283278432 0 -0.00025124329996689595 0.02462321636357968 0 -0.00025124329996689595 0.02462321636357968 0 -0.0002011665567216149 0.024832095573515331 0 -4.1685571285221721e-07 0.024999360372401334 0 -0.00027473463874218263 0.024693272384853887 0 -0.00025124329996689595 0.02462321636357968 0 -0.0002011665567216149 0.024832095573515331 0 1.6135061950922579e-08 0.024999854652557888 0 -4.1685571285221721e-07 0.024999360372401334 0 -0.00012446116865750471 0.024790322791733956 0 -0.00025124329996689595 0.02462321636357968 0 -4.1685571285221721e-07 0.024999360372401334 0 -0.00012446116865750471 0.024790322791733956 0 -0.00028300071394165503 0.024516304948299796 0 -0.00025124329996689595 0.02462321636357968 0 -0.00012446116865750471 0.024790322791733956 0 -0.00018648983551360456 0.020007693732135672 0 -3.988225398741264e-05 0.019987790111549161 0 -7.0882241516976194e-05 0.019789438986319494 0 0.00070252762300684283 0.021082192141347367 0 0.00066225001808416218 0.021068939669231089 0 0.00070252762300684283 0.021082192141347367 0 0.00035462190395125543 0.021317999561943732 0 -0.00017123874831110963 0.020096416588845381 0 -0.00057428359955974211 0.020321806099039712 0 -0.00044818625578501583 0.020023216060933161 0 0.0018738524648879379 0.022156814331667454 0 0.0013157892324640464 0.022282048932251792 0 0.0016552566489070766 0.02244398792386933 0 0.0013157892324640464 0.022282048932251792 0 0.0016552566489070766 0.02244398792386933 0 0.0014797741096466818 0.022733250586799897 0 0.0017164869413234399 0.022664211272903745 0 0.0016552566489070766 0.02244398792386933 0 0.0014797741096466818 0.022733250586799897 0 0.0017164869413234399 0.022664211272903745 0 0.0016552566489070766 0.02244398792386933 0 0.0019549569139215559 0.022607483203763417 0 0.0018738524648879379 0.022156814331667454 0 0.0016552566489070766 0.02244398792386933 0 0.0019549569139215559 0.022607483203763417 0 0.00070252762300684283 0.021082192141347367 0 0.00067378030826460169 0.021633232471568252 0 -0.00023532755876342059 0.020030301062055049 0 -0.00012904003212347535 0.020680408932688799 0 -1.4555815932544967e-05 0.020296098280603993 0 -0.00012904003212347535 0.020680408932688799 0 0.00016844962684344151 0.02076865588896238 0 9.784858821959913e-05 0.020531294497690214 0 0.00016844962684344151 0.02076865588896238 0 0.00031046729017808917 0.020550896686009391 0 0.00047293753188641115 0.020833439705306052 0 0.00016844962684344151 0.02076865588896238 0 0.00031046729017808917 0.020550896686009391 0 9.784858821959913e-05 0.020531294497690214 0 0.00031046729017808917 0.020550896686009391 0 0.00015354332829820263 0.020362233876378606 0 9.784858821959913e-05 0.020531294497690214 0 0.00031046729017808917 0.020550896686009391 0 0.00015354332829820263 0.020362233876378606 0 0.00038422563460029297 0.020294355490490253 0 0.00015354332829820263 0.020362233876378606 0 9.784858821959913e-05 0.020531294497690214 0 -1.4555815932544967e-05 0.020296098280603993 0 -0.00012904003212347535 0.020680408932688799 0 9.784858821959913e-05 0.020531294497690214 0 -1.4555815932544967e-05 0.020296098280603993 0 0.00089763470533453147 0.020993165587349726 0 0.00061790877721775643 0.020475234416029848 0 0.00047293753188641115 0.020833439705306052 0 0.00031046729017808917 0.020550896686009391 0 0.00061790877721775643 0.020475234416029848 0 0.00047293753188641115 0.020833439705306052 0 0.00031046729017808917 0.020550896686009391 0 0.00061790877721775643 0.020475234416029848 0 0.00038422563460029297 0.020294355490490253 0 0.00061790877721775643 0.020475234416029848 0 0.00038422563460029297 0.020294355490490253 0 0.00067221266321752825 0.020039501136669663 0 0.00038422563460029297 0.020294355490490253 0 0.00067221266321752825 0.020039501136669663 0 0.00033081585569173479 0.020042162971084569 0 0.00067221266321752825 0.020039501136669663 0 0.00033081585569173479 0.020042162971084569 0 0.00045592313776355345 0.019768805301779439 0 -1.4555815932544967e-05 0.020296098280603993 0 0.00013188838283401976 0.020139675206585984 0 -3.988225398741264e-05 0.019987790111549161 0 -0.00023532755876342059 0.020030301062055049 0 -1.4555815932544967e-05 0.020296098280603993 0 -3.988225398741264e-05 0.019987790111549161 0 0.00015354332829820263 0.020362233876378606 0 -1.4555815932544967e-05 0.020296098280603993 0 0.00013188838283401976 0.020139675206585984 0 0.00015354332829820263 0.020362233876378606 0 0.00038422563460029297 0.020294355490490253 0 0.00013188838283401976 0.020139675206585984 0 0.00038422563460029297 0.020294355490490253 0 0.00013188838283401976 0.020139675206585984 0 0.00033081585569173479 0.020042162971084569 0 0.00014221739385005276 0.019864013670460562 0 0.00033081585569173479 0.020042162971084569 0 0.00045592313776355345 0.019768805301779439 0 0.00013188838283401976 0.020139675206585984 0 0.00014221739385005276 0.019864013670460562 0 0.00033081585569173479 0.020042162971084569 0 0.00013188838283401976 0.020139675206585984 0 0.00014221739385005276 0.019864013670460562 0 -3.988225398741264e-05 0.019987790111549161 0 0.00014221739385005276 0.019864013670460562 0 -3.988225398741264e-05 0.019987790111549161 0 -7.0882241516976194e-05 0.019789438986319494 0 0.00014221739385005276 0.019864013670460562 0 -7.0882241516976194e-05 0.019789438986319494 0 8.9473833582860902e-05 0.019475845527603806 0 0.00014221739385005276 0.019864013670460562 0 8.9473833582860902e-05 0.019475845527603806 0 0.00045592313776355345 0.019768805301779439 0 -7.0882241516976194e-05 0.019789438986319494 0 8.9473833582860902e-05 0.019475845527603806 0 -0.00025007785457206852 0.01968376356296463 0 0.00090486627771927384 0.019624933477953341 0 0.00067221266321752825 0.020039501136669663 0 0.00045592313776355345 0.019768805301779439 0 8.9473833582860902e-05 0.019475845527603806 0 0.00045592313776355345 0.019768805301779439 0 0.00055817600418253015 0.019266623482203503 0 0.00090486627771927384 0.019624933477953341 0 0.00045592313776355345 0.019768805301779439 0 0.00055817600418253015 0.019266623482203503 0 0.0001516759997739239 0.018685621321624702 0 0.00072688202353891169 0.018688930275357896 0 0.00055817600418253015 0.019266623482203503 0 0.001049853225211472 0.019218667624823837 0 0.00072688202353891169 0.018688930275357896 0 0.00055817600418253015 0.019266623482203503 0 0.0001516759997739239 0.018685621321624702 0 8.9473833582860902e-05 0.019475845527603806 0 0.00055817600418253015 0.019266623482203503 0 0.0001516759997739239 0.018685621321624702 0 8.9473833582860902e-05 0.019475845527603806 0 -0.00031396691604361243 0.01921323129038063 0 -0.00031396691604361243 0.01921323129038063 0 -0.00025007785457206852 0.01968376356296463 0 -0.00052464018573790622 0.019619166254312096 0 8.9473833582860902e-05 0.019475845527603806 0 -0.00031396691604361243 0.01921323129038063 0 -0.00025007785457206852 0.01968376356296463 0 0.00070252762300684283 0.021082192141347367 0 0.00055294755020823881 0.020628431551464852 0 -0.00018648983551360456 0.020007693732135672 0 -7.0882241516976194e-05 0.019789438986319494 0 -0.00025007785457206852 0.01968376356296463 0 -0.00017123874831110963 0.020096416588845381 0 -0.00044818625578501583 0.020023216060933161 0 -0.00025007785457206852 0.01968376356296463 0 -0.00044818625578501583 0.020023216060933161 0 -0.00052464018573790622 0.019619166254312096 0 -0.00073662545666493729 0.019942792939329743 0 -0.00044818625578501583 0.020023216060933161 0 -0.00025007785457206852 0.01968376356296463 0 -0.00052464018573790622 0.019619166254312096 0 -0.00071171674602716901 0.019164608729826817 0 -0.00031396691604361243 0.01921323129038063 0 -0.00052464018573790622 0.019619166254312096 0 -0.00071171674602716901 0.019164608729826817 0 -0.00052464018573790622 0.019619166254312096 0 -0.00073662545666493729 0.019942792939329743 0 -0.00081365502620409026 0.019578518224704411 0 -0.00071171674602716901 0.019164608729826817 0 -0.00073662545666493729 0.019942792939329743 0 -0.00081365502620409026 0.019578518224704411 0 -0.00073662545666493729 0.019942792939329743 0 -0.00071804662620449284 0.020058272150591708 0 -0.00052750795389636595 0.020575253809358155 0 -0.00055052804435124533 0.020782970196481353 0 -0.00073662545666493729 0.019942792939329743 0 -0.00068935491506635492 0.020613247307704155 0 -0.00069516321425356492 0.020397022835996773 0 -0.00073662545666493729 0.019942792939329743 0 -0.00071804662620449284 0.020058272150591708 0 -0.0005478669468455934 0.020534019958977304 0 -0.00057428359955974211 0.020321806099039712 0 -0.00044818625578501583 0.020023216060933161 0 -0.00073662545666493729 0.019942792939329743 0 -0.00057428359955974211 0.020321806099039712 0 -0.00073662545666493729 0.019942792939329743 0 -0.00069516321425356492 0.020397022835996773 0 -0.00071186974924032176 0.020090876405276254 0 -0.00064826220706662788 0.020308442511079994 0 -0.00063001692012494516 0.020362228406724348 0 -0.00062380775813083902 0.020526995316708617 0 -0.00063001692012494516 0.020362228406724348 0 -0.00057744988313372712 0.020762038762828443 0 -0.00064826220706662788 0.020308442511079994 0 -0.00062380775813083902 0.020526995316708617 0 -0.00063001692012494516 0.020362228406724348 0 -0.00071804662620449284 0.020058272150591708 0 -0.00063001692012494516 0.020362228406724348 0 -0.0005478669468455934 0.020534019958977304 0 -0.00071186974924032176 0.020090876405276254 0 -0.00071804662620449284 0.020058272150591708 0 -0.00063001692012494516 0.020362228406724348 0 -0.00063001692012494516 0.020362228406724348 0 -0.0005478669468455934 0.020534019958977304 0 -0.00057744988313372712 0.020762038762828443 0 -0.0005478669468455934 0.020534019958977304 0 -0.00053899577828434139 0.020970632451029068 0 -0.00057744988313372712 0.020762038762828443 0 -0.00048564950772197638 0.021276366447463706 0 -0.00060515889550357652 0.020857203834625433 0 -0.00048641219373206341 0.021211399008025253 0 -0.0006152064046403762 0.021185861660638284 0 -0.00055052804435124533 0.020782970196481353 0 -0.00048049444980682111 0.021337655790585771 0 -0.0005478669468455934 0.020534019958977304 0 -0.00053899577828434139 0.020970632451029068 0 -0.00048564950772197638 0.021276366447463706 0 -0.00068935491506635492 0.020613247307704155 0 -0.00060515889550357652 0.020857203834625433 0 -0.00068935491506635492 0.020613247307704155 0 -0.00060515889550357652 0.020857203834625433 0 -0.00069516321425356492 0.020397022835996773 0 -0.00060515889550357652 0.020857203834625433 0 -0.00048641219373206341 0.021211399008025253 0 -0.00066553578156980635 0.020636736180041797 0 -0.00032154096263667793 0.021785403996045855 0 1.183420862970141e-06 0.021554377731822377 0 0.00062615501989084124 0.022559089142155132 0 0.0003601341334889262 0.02240822821284881 0 0.00081226205909429446 0.022401240798128438 0 0.00035462190395125543 0.021317999561943732 0 1.183420862970141e-06 0.021554377731822377 0 -0.00057428359955974211 0.020321806099039712 0 -0.00069516321425356492 0.020397022835996773 0 -0.00066553578156980635 0.020636736180041797 0 -0.00060515889550357652 0.020857203834625433 0 -0.00069516321425356492 0.020397022835996773 0 -0.00066553578156980635 0.020636736180041797 0 0.00062615501989084124 0.022559089142155132 0 0.00081226205909429446 0.022401240798128438 0 0.00099499906431943551 0.022698381943460477 0 0.0013157892324640464 0.022282048932251792 0 0.00081226205909429446 0.022401240798128438 0 0.00099499906431943551 0.022698381943460477 0 0.0013157892324640464 0.022282048932251792 0 0.00099499906431943551 0.022698381943460477 0 0.0014797741096466818 0.022733250586799897 0 0.00099499906431943551 0.022698381943460477 0 0.0012529838648495488 0.0230268034055514 0 0.0014797741096466818 0.022733250586799897 0 0.00099499906431943551 0.022698381943460477 0 0.00089338179997099402 0.02314373949304175 0 0.0012529838648495488 0.0230268034055514 0 0.00099499906431943551 0.022698381943460477 0 0.00089338179997099402 0.02314373949304175 0 0.00041292139413679748 0.023022255455693676 0 0.00075434313277381493 0.022865890613869868 0 0.00047390537173849372 0.023001007380105583 0 0.00089338179997099402 0.02314373949304175 0 0.00057835805921628829 0.023352477096149633 0 0.00077871908998826433 0.023541194561522094 0 0.00089338179997099402 0.02314373949304175 0 0.0012529838648495488 0.0230268034055514 0 0.0012314539247982024 0.023381459714516148 0 0.00089338179997099402 0.02314373949304175 0 0.0012314539247982024 0.023381459714516148 0 0.00077871908998826433 0.023541194561522094 0 7.7035303878976734e-05 0.022710975944741883 0 -5.4440766904051671e-05 0.023192458928774935 0 0.0005721724684701969 0.022845743443212323 0 7.7035303878976734e-05 0.022710975944741883 0 0.0003601341334889262 0.02240822821284881 0 0.0005721724684701969 0.022845743443212323 0 0.00062615501989084124 0.022559089142155132 0 0.0003601341334889262 0.02240822821284881 0 0.0005721724684701969 0.022845743443212323 0 0.00062615501989084124 0.022559089142155132 0 0.00099499906431943551 0.022698381943460477 0 0.0005721724684701969 0.022845743443212323 0 0.00041292139413679748 0.023022255455693676 0 0.00057835805921628829 0.023352477096149633 0 0.00029093583113260423 0.023480597301371704 0 0.00089338179997099402 0.02314373949304175 0 0.00041292139413679748 0.023022255455693676 0 0.00057835805921628829 0.023352477096149633 0 -1.9621764536616928e-05 0.023304658511388372 0 0.00041292139413679748 0.023022255455693676 0 0.00029093583113260423 0.023480597301371704 0 -6.9282665179970626e-06 0.023253431455688069 0 0.00047390537173849372 0.023001007380105583 0 0.00057835805921628829 0.023352477096149633 0 0.00029093583113260423 0.023480597301371704 0 0.00052952661622557512 0.023616410479255768 0 0.00057835805921628829 0.023352477096149633 0 0.00052952661622557512 0.023616410479255768 0 0.00077871908998826433 0.023541194561522094 0 0.00052952661622557512 0.023616410479255768 0 0.00071217150204398911 0.023782428609268869 0 0.00026660697062148142 0.023903474898337468 0 -0.00028741834029158127 0.02389159277864044 0 -0.00021530358981515111 0.023950129088120574 0 1.5745650031409043e-05 0.023679813912875634 0 0.00029093583113260423 0.023480597301371704 0 0.00026660697062148142 0.023903474898337468 0 0.00029093583113260423 0.023480597301371704 0 0.00052952661622557512 0.023616410479255768 0 0.00026660697062148142 0.023903474898337468 0 0.00087525051400985144 0.022905728675825271 0 0.00081379523234450363 0.023019526792203367 0 0.00092430056939618577 0.023508786124258545 0 0.00077871908998826433 0.023541194561522094 0 0.00095829530064204345 0.023654778998534666 0 0.00052952661622557512 0.023616410479255768 0 0.00077871908998826433 0.023541194561522094 0 0.00071217150204398911 0.023782428609268869 0 0.00077871908998826433 0.023541194561522094 0 0.00071217150204398911 0.023782428609268869 0 0.00095829530064204345 0.023654778998534666 0 -0.0010389243445993591 0.024373560866265943 0 -0.0016044385954533567 0.024564671489429861 0 -0.0013082866839523874 0.024119020360643569 0 -0.00028741834029158127 0.02389159277864044 0 -0.00049224214206263742 0.023728204242621977 0 0.00095829530064204345 0.023654778998534666 0 0.0010639715097759597 0.023586312151373794 0 0.0010241936469711098 0.023548926873393664 0 -0.0016044385954533567 0.024564671489429861 0 -0.002251552639220476 0.024746662168812657 0 -0.0020277245512054509 0.024342148340986483 0 -0.00049224214206263742 0.023728204242621977 0 -0.00091232369022927709 0.02334364408490297 0 -0.002251552639220476 0.024746662168812657 0 -0.0024916765760204535 0.024363496829017416 0 -0.0020277245512054509 0.024342148340986483 0 0.0010639715097759597 0.023586312151373794 0 0.0010746518193546037 0.0235455742045107 0 0.00110886209712409 0.02354008360838343 0 0.0010639715097759597 0.023586312151373794 0 0.0010746518193546037 0.0235455742045107 0 0.0010241936469711098 0.023548926873393664 0 0.0010635829773612019 0.023512894612216534 0 0.0010241936469711098 0.023548926873393664 0 0.0010229115685615302 0.023484944638243504 0 0.0010746518193546037 0.0235455742045107 0 0.0010635829773612019 0.023512894612216534 0 0.0010241936469711098 0.023548926873393664 0 0.0010746518193546037 0.0235455742045107 0 0.0010635829773612019 0.023512894612216534 0 0.0010865092045549249 0.023514338956199605 0 0.00092430056939618577 0.023508786124258545 0 0.00095829530064204345 0.023654778998534666 0 0.0010241936469711098 0.023548926873393664 0 0.00092430056939618577 0.023508786124258545 0 0.0010241936469711098 0.023548926873393664 0 0.0010229115685615302 0.023484944638243504 0 0.00087525051400985144 0.022905728675825271 0 0.00088070880964915893 0.02259511920719692 0 0.0012529838648495488 0.0230268034055514 0 0.0012314539247982024 0.023381459714516148 0 0.0016400774306402949 0.023214478625912593 0 0.0016400774306402949 0.023214478625912593 0 0.0017767209722654241 0.022873096496597602 0 0.0020359228219617178 0.023060598213991732 0 0.0010635829773612019 0.023512894612216534 0 0.0010229115685615302 0.023484944638243504 0 0.001097591643797514 0.023461192946305772 0 0.00088070880964915893 0.02259511920719692 0 0.0005293367695479135 0.022088030498539815 0 0.0010635829773612019 0.023512894612216534 0 0.001097591643797514 0.023461192946305772 0 0.0010865092045549249 0.023514338956199605 0 0.0019549569139215559 0.022607483203763417 0 0.0017767209722654241 0.022873096496597602 0 0.0020359228219617178 0.023060598213991732 0 0.0017164869413234399 0.022664211272903745 0 0.0019549569139215559 0.022607483203763417 0 0.0017767209722654241 0.022873096496597602 0 0.0017164869413234399 0.022664211272903745 0 0.0017767209722654241 0.022873096496597602 0 0.0014797741096466818 0.022733250586799897 0 0.0016400774306402949 0.023214478625912593 0 0.0017767209722654241 0.022873096496597602 0 0.0014797741096466818 0.022733250586799897 0 0.0012529838648495488 0.0230268034055514 0 0.0016400774306402949 0.023214478625912593 0 0.0014797741096466818 0.022733250586799897 0 0.00089763470533453147 0.020993165587349726 0 0.00047293753188641115 0.020833439705306052 0 0.00028404799604767788 0.021217247483503759 0 0.0001942538324112515 0.0204303252180481 0 0.00021813924761529343 0.021538593188321891 0 0.00016844962684344151 0.02076865588896238 0 0.00028959903324332246 0.021229105653354952 0 -1.6081693254420538e-05 0.021341096039345524 0 0.00018421424986484554 0.02135531344138376 0 0.00021813924761529343 0.021538593188321891 0 0.00016844962684344151 0.02076865588896238 0 0.00047293753188641115 0.020833439705306052 0 0.00028404799604767788 0.021217247483503759 0 0.00067378030826460169 0.021633232471568252 0 0.0005293367695479135 0.022088030498539815 0 -0.00012904003212347535 0.020680408932688799 0 0.00016844962684344151 0.02076865588896238 0 -1.6081693254420538e-05 0.021341096039345524 0 0.00021813924761529343 0.021538593188321891 0 -0.00038281278888848536 0.021358685643618817 0 0.00021813924761529343 0.021538593188321891 0 0.0005293367695479135 0.022088030498539815 0 0.001097591643797514 0.023461192946305772 0 0.0010865092045549249 0.023514338956199605 0 0.00110886209712409 0.02354008360838343 0 0.0010668106988542595 0.023339743951721191 0 0.0011922276409902695 0.023412996034959461 0 0.0011130620963995914 0.023503810923370779 0 0.0011628031163922405 0.023301584205820364 0 0.0010668106988542595 0.023339743951721191 0 0.0011922276409902695 0.023412996034959461 0 0.0005293367695479135 0.022088030498539815 0 0.0007110505144394231 0.022816615272532866 0 -0.00038281278888848536 0.021358685643618817 0 -0.00034638243712712351 0.021555527916394587 0 0.0001942538324112515 0.0204303252180481 0 -0.00038281278888848536 0.021358685643618817 0 6.170515014644109e-05 0.020718272364548342 0 -0.00046367932152749429 0.020911877988384057 0 -0.00038686248718451134 0.021208460203942896 0 -0.0024311023905476585 0.017181084764524509 0 -0.0023523356586475194 0.017476312400890658 0 -0.0027029594037861486 0.017509516114305314 0 -0.00038281278888848536 0.021358685643618817 0 -0.0019664608645866308 0.022519563463942457 0 -0.0023523356586475194 0.017476312400890658 0 -0.0027029594037861486 0.017509516114305314 0 -0.0026250770469792468 0.017793016627771756 0 0.0010639715097759597 0.023586312151373794 0 0.0011675418252971896 0.023549153710938679 0 0.00110886209712409 0.02354008360838343 0 0.0011494553191373127 0.023458337798270459 0 0.0011675418252971896 0.023549153710938679 0 0.0011130620963995914 0.023503810923370779 0 -0.00091232369022927709 0.02334364408490297 0 -0.0019664608645866308 0.022519563463942457 0 0.0010668106988542595 0.023339743951721191 0 0.0011130620963995914 0.023503810923370779 0 0.00110886209712409 0.02354008360838343 0 0.0010746518193546037 0.0235455742045107 0 0.0010865092045549249 0.023514338956199605 0 0.00110886209712409 0.02354008360838343 0 0.0011675418252971896 0.023549153710938679 0 0.0011130620963995914 0.023503810923370779 0 0.00110886209712409 0.02354008360838343 0 -0.002251552639220476 0.024746662168812657 0 -0.0029259312937843854 0.024886891286370588 0 -0.0024916765760204535 0.024363496829017416 0 -0.0019664608645866308 0.022519563463942457 0 -0.0025161392715639078 0.023749511244119025 0 -0.0029259312937843854 0.024886891286370588 0 -0.003134334015755246 0.024228882631187991 0 -0.0024916765760204535 0.024363496829017416 0 -0.0036660286596094552 0.024750928452604931 0 -0.003214788529468778 0.025035868288332336 0 -0.0033875236671582535 0.024302440588245731 0 -0.003134334015755246 0.024228882631187991 0 -0.0024916765760204535 0.024363496829017416 0 -0.0025029763146639126 0.023954375858635062 0 -0.0025029763146639126 0.023954375858635062 0 -0.0027526842574515319 0.023603596140340671 0 -0.002213510327072996 0.023571866461280074 0 -0.003134334015755246 0.024228882631187991 0 -0.0025029763146639126 0.023954375858635062 0 -0.0027526842574515319 0.023603596140340671 0 -0.003134334015755246 0.024228882631187991 0 -0.0027526842574515319 0.023603596140340671 0 -0.0034724575257355107 0.023548184060202346 0 -0.0027526842574515319 0.023603596140340671 0 -0.0028294968369525875 0.022983398293019108 0 -0.0034724575257355107 0.023548184060202346 0 -0.0027526842574515319 0.023603596140340671 0 -0.0024209815459228863 0.023215719729158889 0 -0.0028294968369525875 0.022983398293019108 0 -0.0027526842574515319 0.023603596140340671 0 -0.0024209815459228863 0.023215719729158889 0 -0.002213510327072996 0.023571866461280074 0 -0.0024209815459228863 0.023215719729158889 0 -0.0028294968369525875 0.022983398293019108 0 -0.0022049081775606344 0.022728738502274467 0 -0.0028294968369525875 0.022983398293019108 0 -0.0034724575257355107 0.023548184060202346 0 -0.003529620322578374 0.02305420009629278 0 -0.0028294968369525875 0.022983398293019108 0 -0.003529620322578374 0.02305420009629278 0 -0.0033081247734252626 0.0224402795536667 0 -0.0017762290027480393 0.022957407552975314 0 -0.002069486956094962 0.023186446032881176 0 -0.0017936461981279716 0.023543922642129556 0 -0.0024209815459228863 0.023215719729158889 0 -0.002069486956094962 0.023186446032881176 0 -0.0022049081775606344 0.022728738502274467 0 -0.0017762290027480393 0.022957407552975314 0 -0.002069486956094962 0.023186446032881176 0 -0.0022049081775606344 0.022728738502274467 0 -0.002069486956094962 0.023186446032881176 0 -0.002213510327072996 0.023571866461280074 0 -0.0017936461981279716 0.023543922642129556 0 -0.0024209815459228863 0.023215719729158889 0 -0.002069486956094962 0.023186446032881176 0 -0.002213510327072996 0.023571866461280074 0 -0.0017762290027480393 0.022957407552975314 0 -0.0017936461981279716 0.023543922642129556 0 -0.0013939238283716497 0.023315958479974377 0 -0.0017936461981279716 0.023543922642129556 0 -0.0021261090187273757 0.023984176811076244 0 -0.0016937543687130065 0.024055510373666308 0 -0.0017936461981279716 0.023543922642129556 0 -0.0016937543687130065 0.024055510373666308 0 -0.0013683872175437454 0.02373552300661463 0 -0.002213510327072996 0.023571866461280074 0 -0.0017936461981279716 0.023543922642129556 0 -0.0021261090187273757 0.023984176811076244 0 -0.0025029763146639126 0.023954375858635062 0 -0.002213510327072996 0.023571866461280074 0 -0.0021261090187273757 0.023984176811076244 0 -0.0024916765760204535 0.024363496829017416 0 -0.0021261090187273757 0.023984176811076244 0 -0.0020277245512054509 0.024342148340986483 0 -0.0024916765760204535 0.024363496829017416 0 -0.0025029763146639126 0.023954375858635062 0 -0.0021261090187273757 0.023984176811076244 0 -0.0021261090187273757 0.023984176811076244 0 -0.0020277245512054509 0.024342148340986483 0 -0.0016937543687130065 0.024055510373666308 0 -0.0016044385954533567 0.024564671489429861 0 -0.0020277245512054509 0.024342148340986483 0 -0.0016937543687130065 0.024055510373666308 0 -0.0016044385954533567 0.024564671489429861 0 -0.0016937543687130065 0.024055510373666308 0 -0.0013082866839523874 0.024119020360643569 0 -0.0010389243445993591 0.024373560866265943 0 -0.0013082866839523874 0.024119020360643569 0 -0.00088630051374144546 0.023892560633551843 0 -0.0013082866839523874 0.024119020360643569 0 -0.0013683872175437454 0.02373552300661463 0 -0.00088630051374144546 0.023892560633551843 0 -0.0013683872175437454 0.02373552300661463 0 -0.00088630051374144546 0.023892560633551843 0 -0.0010796332661254606 0.023541053702462903 0 -0.0016937543687130065 0.024055510373666308 0 -0.0013082866839523874 0.024119020360643569 0 -0.0013683872175437454 0.02373552300661463 0 -0.00054904953559677041 0.024187161790390269 0 -0.00088630051374144546 0.023892560633551843 0 -0.00047482460975384452 0.023858808957072774 0 -0.0010389243445993591 0.024373560866265943 0 -0.00054904953559677041 0.024187161790390269 0 -0.00088630051374144546 0.023892560633551843 0 -0.00047482460975384452 0.023858808957072774 0 -0.00055290138081228531 0.023487406913420956 0 -0.00023427977617636783 0.023794149598506408 0 -0.00088630051374144546 0.023892560633551843 0 -0.00047482460975384452 0.023858808957072774 0 -0.00055290138081228531 0.023487406913420956 0 -0.00088630051374144546 0.023892560633551843 0 -0.00055290138081228531 0.023487406913420956 0 -0.0010796332661254606 0.023541053702462903 0 -0.00055290138081228531 0.023487406913420956 0 -0.0010796332661254606 0.023541053702462903 0 -0.0009976511191580929 0.023226003142371759 0 -0.00061171607674102531 0.023740050759128838 0 -0.0009976511191580929 0.023226003142371759 0 -0.00066991027498035545 0.023159157676047724 0 -0.00058299712101826369 0.023630556348270958 0 -0.00075043394674850663 0.023507892990031531 0 -0.00061171607674102531 0.023740050759128838 0 -0.00049350498774085891 0.023543721138615532 0 -0.00066991027498035545 0.023159157676047724 0 -0.0013683872175437454 0.02373552300661463 0 -0.0013939238283716497 0.023315958479974377 0 -0.0010796332661254606 0.023541053702462903 0 -0.0017936461981279716 0.023543922642129556 0 -0.0013683872175437454 0.02373552300661463 0 -0.0013939238283716497 0.023315958479974377 0 -0.0013939238283716497 0.023315958479974377 0 -0.0010796332661254606 0.023541053702462903 0 -0.0009976511191580929 0.023226003142371759 0 -0.0013939238283716497 0.023315958479974377 0 -0.0009976511191580929 0.023226003142371759 0 -0.0014161191248592828 0.022851028694953947 0 -0.0017762290027480393 0.022957407552975314 0 -0.0013939238283716497 0.023315958479974377 0 -0.0014161191248592828 0.022851028694953947 0 -0.0014161191248592828 0.022851028694953947 0 -0.0011179950354712389 0.022746840902449331 0 -0.0012968099385901805 0.022240352766199154 0 -0.0009976511191580929 0.023226003142371759 0 -0.0014161191248592828 0.022851028694953947 0 -0.0011179950354712389 0.022746840902449331 0 -0.0015765739323037498 0.022189100438791277 0 -0.0012916821370387481 0.022341015258946283 0 -0.0011179950354712389 0.022746840902449331 0 -0.0012968099385901805 0.022240352766199154 0 -0.00086377448501062974 0.02253853169539978 0 -0.0014161191248592828 0.022851028694953947 0 -0.0012968099385901805 0.022240352766199154 0 -0.0018220868347978102 0.022464407123921892 0 -0.00081526985398361232 0.02266253780218528 0 -0.00077109459956964464 0.022634832710784866 0 -0.00077877142975698406 0.022630316927093951 0 -0.00081526985398361232 0.02266253780218528 0 -0.00086377448501062974 0.02253853169539978 0 -0.00077877142975698406 0.022630316927093951 0 -0.00088620639283198846 0.023070988110040516 0 -0.00069622954983517048 0.023241703872205911 0 -0.00049350498774085891 0.023543721138615532 0 -0.00066991027498035545 0.023159157676047724 0 -0.00036481041540177583 0.023552046130440655 0 -0.0011179950354712389 0.022746840902449331 0 -0.00081526985398361232 0.02266253780218528 0 -0.00086377448501062974 0.02253853169539978 0 -0.0010324697993520818 0.022997856530935706 0 -0.00088620639283198846 0.023070988110040516 0 -0.0009976511191580929 0.023226003142371759 0 -0.0011179950354712389 0.022746840902449331 0 -0.00066991027498035545 0.023159157676047724 0 -0.0016976914407858289 0.022218538783579978 0 -0.0014173510531136405 0.022166446256205639 0 -0.001569144274753909 0.021987846423353993 0 -0.0012916821370387481 0.022341015258946283 0 -0.001032970477160388 0.022471164040796944 0 -0.0016976914407858289 0.022218538783579978 0 -0.0014173510531136405 0.022166446256205639 0 -0.0012538738334077822 0.022451492512311343 0 -0.0014173510531136405 0.022166446256205639 0 -0.0013232221012979891 0.021936948619632649 0 -0.001569144274753909 0.021987846423353993 0 -0.0016976914407858289 0.022218538783579978 0 -0.001569144274753909 0.021987846423353993 0 -0.0018058628935280865 0.021922145089038104 0 -0.001569144274753909 0.021987846423353993 0 -0.0018058628935280865 0.021922145089038104 0 -0.0014948011119740323 0.021520786433490535 0 -0.0015030488953878881 0.022065393842593671 0 -0.0014110722476686408 0.022132952871076243 0 -0.0018058628935280865 0.021922145089038104 0 -0.0018425118121101641 0.021878305148804119 0 -0.0018911236402266998 0.021858545740462879 0 -0.0011979993097571938 0.02168732709560349 0 -0.0012034275530213431 0.021475202088452317 0 -0.0014948011119740323 0.021520786433490535 0 -0.0013232221012979891 0.021936948619632649 0 -0.001569144274753909 0.021987846423353993 0 -0.0014948011119740323 0.021520786433490535 0 -0.0013232221012979891 0.021936948619632649 0 -0.0011979993097571938 0.02168732709560349 0 -0.0014948011119740323 0.021520786433490535 0 -0.0019099673815314692 0.022002374125062989 0 -0.001887294731798573 0.021910562283583391 0 -0.0019049234733172751 0.021943638305741548 0 -0.0015765739323037498 0.022189100438791277 0 -0.0017349865888150681 0.022109093686671379 0 -0.0019099673815314692 0.022002374125062989 0 -0.0018058628935280865 0.021922145089038104 0 -0.001887294731798573 0.021910562283583391 0 -0.0019099673815314692 0.022002374125062989 0 -0.0016976914407858289 0.022218538783579978 0 -0.0018058628935280865 0.021922145089038104 0 -0.001887294731798573 0.021910562283583391 0 -0.0019083130799460286 0.021858394085722682 0 -0.0018911236402266998 0.021858545740462879 0 -0.0018058628935280865 0.021922145089038104 0 -0.001887294731798573 0.021910562283583391 0 -0.0018911236402266998 0.021858545740462879 0 -0.001887294731798573 0.021910562283583391 0 -0.0019049234733172751 0.021943638305741548 0 -0.0019083130799460286 0.021858394085722682 0 -0.0019049234733172751 0.021943638305741548 0 -0.002064726855768056 0.021834988300375568 0 -0.0019567290071940326 0.021808912224524909 0 -0.0019049234733172751 0.021943638305741548 0 -0.0019567290071940326 0.021808912224524909 0 -0.0019083130799460286 0.021858394085722682 0 -0.0019049234733172751 0.021943638305741548 0 -0.0022270112929110462 0.021903931210851865 0 -0.0022159239934835644 0.022182964153996673 0 -0.0019049234733172751 0.021943638305741548 0 -0.002064726855768056 0.021834988300375568 0 -0.0022270112929110462 0.021903931210851865 0 -0.0021633731103018333 0.021817591455902102 0 -0.002064726855768056 0.021834988300375568 0 -0.0022270112929110462 0.021903931210851865 0 -0.0021633731103018333 0.021817591455902102 0 -0.002064726855768056 0.021834988300375568 0 -0.0020452166847311532 0.021767106547444334 0 -0.0010029932509149745 0.019398814004698308 0 -0.00082934771100902339 0.019564924902468243 0 0.00063064842561884945 0.017537393348262886 0 -0.0021633731103018333 0.021817591455902102 0 -0.0023136440682430307 0.021800449503797965 0 -0.0020452166847311532 0.021767106547444334 0 -0.0015807374642767935 0.020574721497033325 0 -0.00088199486411152841 0.01962412210550114 0 -0.0019789021343672945 0.018440464663859433 0 -0.0028561248834862657 0.017648382514463715 0 -0.0010029932509149745 0.019398814004698308 0 -0.0028131722256209963 0.017896994064240085 0 -0.0030009711731212234 0.01977731613330452 0 -0.0010029932509149745 0.019398814004698308 0 -0.0026585054548352001 0.021659663060676033 0 -0.0030009711731212234 0.01977731613330452 0 -0.0010029932509149745 0.019398814004698308 0 -0.00082934771100902339 0.019564924902468243 0 -0.0026585054548352001 0.021659663060676033 0 -0.0015807374642767935 0.020574721497033325 0 -0.0020100289934679447 0.021113673756726837 0 -0.0023136440682430307 0.021800449503797965 0 -0.0022270112929110462 0.021903931210851865 0 -0.0026585054548352001 0.021659663060676033 0 -0.0021633731103018333 0.021817591455902102 0 -0.0023136440682430307 0.021800449503797965 0 -0.0022270112929110462 0.021903931210851865 0 -0.0022270112929110462 0.021903931210851865 0 -0.0026585054548352001 0.021659663060676033 0 -0.0022159239934835644 0.022182964153996673 0 -0.0026585054548352001 0.021659663060676033 0 -0.0025845227417180343 0.022378207832583638 0 -0.0022159239934835644 0.022182964153996673 0 -0.0026585054548352001 0.021659663060676033 0 -0.0025845227417180343 0.022378207832583638 0 -0.0033081247734252626 0.0224402795536667 0 -0.0028294968369525875 0.022983398293019108 0 -0.0025845227417180343 0.022378207832583638 0 -0.0033081247734252626 0.0224402795536667 0 -0.0028294968369525875 0.022983398293019108 0 -0.0025845227417180343 0.022378207832583638 0 -0.0022049081775606344 0.022728738502274467 0 -0.0025845227417180343 0.022378207832583638 0 -0.0022049081775606344 0.022728738502274467 0 -0.0022159239934835644 0.022182964153996673 0 -0.0022049081775606344 0.022728738502274467 0 -0.0018220868347978102 0.022464407123921892 0 -0.0022159239934835644 0.022182964153996673 0 -0.0017762290027480393 0.022957407552975314 0 -0.0014161191248592828 0.022851028694953947 0 -0.0018220868347978102 0.022464407123921892 0 -0.0017762290027480393 0.022957407552975314 0 -0.0022049081775606344 0.022728738502274467 0 -0.0018220868347978102 0.022464407123921892 0 -0.0019049234733172751 0.021943638305741548 0 -0.0018220868347978102 0.022464407123921892 0 -0.0022159239934835644 0.022182964153996673 0 -0.0012968099385901805 0.022240352766199154 0 -0.0019049234733172751 0.021943638305741548 0 -0.0018220868347978102 0.022464407123921892 0 -4.1685571285221721e-07 0.024999360372401334 0 -2.3691881484628503e-09 0.024999052516260785 0 -0.00013479148826036144 0.024854754389476239 0 -2.2397265011444915e-07 0.024999367122936704 0 -0.00015917654171487516 0.024706762347345017 0 3.8624697203327448e-09 0.025000069773362374 0 -4.1722567129462063e-05 0.025049665820734104 0 -1.3212762338632682e-05 0.025010964207300965 0 -0.00017525977629812949 0.02462881274422014 0 -0.00013479148826036144 0.024854754389476239 0 -0.00036280485584376504 0.02448012499837228 0 -2.3691881484628503e-09 0.024999052516260785 0 -0.00017525977629812949 0.02462881274422014 0 -0.00013479148826036144 0.024854754389476239 0 -0.0002011665567216149 0.024832095573515331 0 -4.1685571285221721e-07 0.024999360372401334 0 -0.00013479148826036144 0.024854754389476239 0 -0.0002011665567216149 0.024832095573515331 0 -0.00013479148826036144 0.024854754389476239 0 -0.00027936125834520005 0.024851500474599726 0 -0.00013479148826036144 0.024854754389476239 0 -0.00027936125834520005 0.024851500474599726 0 -0.00036280485584376504 0.02448012499837228 0 -0.0004171936994952626 0.024314562779789068 0 -0.0004046537275450568 0.024344802357455418 0 -0.00027473463874218263 0.024693272384853887 0 -0.0002011665567216149 0.024832095573515331 0 -0.00027936125834520005 0.024851500474599726 0 -0.00057835486645569777 0.023701719232320138 0 -0.0005023545071090648 0.023806198579026321 0 -0.00054338171779038085 0.02398941438540381 0 -0.00044510309469993357 0.024235518930259364 0 -0.0004171936994952626 0.024314562779789068 0 -0.0005023545071090648 0.023806198579026321 0 -0.00054338171779038085 0.02398941438540381 0 -0.00040574862525314688 0.023906639165259359 0 -0.00054338171779038085 0.02398941438540381 0 -0.00037434100870373417 0.024224805176858582 0 -0.00035247837908974374 0.024035607804970206 0 -0.00054338171779038085 0.02398941438540381 0 -0.00035247837908974374 0.024035607804970206 0 -0.00040574862525314688 0.023906639165259359 0 -0.0003486269006675316 0.024194847315148288 0 -0.00037434100870373417 0.024224805176858582 0 -0.00033171278999921265 0.024119617816298108 0 -0.0003486269006675316 0.024194847315148288 0 -0.00036196644637817165 0.024264621586816082 0 -0.00033401270406650243 0.024167519223788847 0 -0.0003486269006675316 0.024194847315148288 0 -0.00037434100870373417 0.024224805176858582 0 -0.00036196644637817165 0.024264621586816082 0 -0.00037434100870373417 0.024224805176858582 0 -0.00036196644637817165 0.024264621586816082 0 -0.00037399487883223843 0.024347010430885985 0 -0.00037434100870373417 0.024224805176858582 0 -0.00036280485584376504 0.02448012499837228 0 -0.00037399487883223843 0.024347010430885985 0 -0.00054338171779038085 0.02398941438540381 0 -0.00037434100870373417 0.024224805176858582 0 -0.00036280485584376504 0.02448012499837228 0 -0.00017525977629812949 0.02462881274422014 0 -0.00036280485584376504 0.02448012499837228 0 -0.00037474903813018766 0.024350846777763911 0 -0.00015917654171487516 0.024706762347345017 0 -0.00023736883527818333 0.024370797281347036 0 -4.1722567129462063e-05 0.025049665820734104 0 -0.0001198341323041581 0.025057026841290353 0 -0.00013923784165780384 0.025072867183599776 0 -0.00036280485584376504 0.02448012499837228 0 -0.00037474903813018766 0.024350846777763911 0 -0.00037399487883223843 0.024347010430885985 0 -0.0001198341323041581 0.025057026841290353 0 -0.00013923784165780384 0.025072867183599776 0 -0.00013891883412512967 0.025052823454674789 0 -0.00013923784165780384 0.025072867183599776 0 -0.00013891883412512967 0.025052823454674789 0 -0.00017041741568497715 0.025057066247666779 0 -0.00037474903813018766 0.024350846777763911 0 -0.00035878076663163529 0.02426101074283718 0 -0.00033387629369845454 0.024171460343150999 0 -0.00023736883527818333 0.024370797281347036 0 -0.00025073579341128901 0.023901737270966669 0 -0.00013923784165780384 0.025072867183599776 0 -0.00017041741568497715 0.025057066247666779 0 -0.00023610810291203437 0.025070252121297175 0 -0.00034094896546516532 0.024197598816370888 0 -0.00035878076663163529 0.02426101074283718 0 -0.00033455213984909384 0.024177756051393644 0 -0.00035878076663163529 0.02426101074283718 0 -0.00033455213984909384 0.024177756051393644 0 -0.00033387629369845454 0.024171460343150999 0 -0.00034094896546516532 0.024197598816370888 0 -0.00034840299517936572 0.024219068416242624 0 -0.00035878076663163529 0.02426101074283718 0 -0.00034840299517936572 0.024219068416242624 0 -0.00036196644637817165 0.024264621586816082 0 -0.00035878076663163529 0.02426101074283718 0 -0.00034840299517936572 0.024219068416242624 0 -0.00036196644637817165 0.024264621586816082 0 -0.00033401270406650243 0.024167519223788847 0 -0.00034094896546516532 0.024197598816370888 0 -0.00034840299517936572 0.024219068416242624 0 -0.00033013285563392386 0.024164999067850267 0 -0.00036196644637817165 0.024264621586816082 0 -0.00037399487883223843 0.024347010430885985 0 -0.00035878076663163529 0.02426101074283718 0 -0.00037474903813018766 0.024350846777763911 0 -0.00037399487883223843 0.024347010430885985 0 -0.00035878076663163529 0.02426101074283718 0 -0.00032334097517981117 0.024161895140681754 0 -0.00029584947386855295 0.024044553874023801 0 -0.00026578608482021271 0.023891467435426732 0 -0.00025073579341128901 0.023901737270966669 0 -0.00052803577333945795 0.023498441175092491 0 -0.00030425213965272995 0.024083267868479419 0 -0.00029584947386855295 0.024044553874023801 0 -0.00028867031331072967 0.024023813270022003 0 -0.00030425213965272995 0.024083267868479419 0 -0.00028867031331072967 0.024023813270022003 0 -0.00030635117890009375 0.024090237771324814 0 -0.00030425213965272995 0.024083267868479419 0 -0.00031796651146891896 0.024127848512868477 0 -0.00030635117890009375 0.024090237771324814 0 -0.00033401270406650243 0.024167519223788847 0 -0.00031796651146891896 0.024127848512868477 0 -0.00030635117890009375 0.024090237771324814 0 -0.00034840299517936572 0.024219068416242624 0 -0.00033401270406650243 0.024167519223788847 0 -0.00033013285563392386 0.024164999067850267 0 -0.00033401270406650243 0.024167519223788847 0 -0.00033013285563392386 0.024164999067850267 0 -0.00031796651146891896 0.024127848512868477 0 -0.00033013285563392386 0.024164999067850267 0 -0.00031796651146891896 0.024127848512868477 0 -0.00031726724178015453 0.024133110816063563 0 -0.00030425213965272995 0.024083267868479419 0 -0.00031796651146891896 0.024127848512868477 0 -0.00031726724178015453 0.024133110816063563 0 -0.00031726724178015453 0.024133110816063563 0 -0.00032334097517981117 0.024161895140681754 0 -0.00029584947386855295 0.024044553874023801 0 -0.00034094896546516532 0.024197598816370888 0 -0.00033013285563392386 0.024164999067850267 0 -0.00032905037369472745 0.024165062767119043 0 -0.00034094896546516532 0.024197598816370888 0 -0.00032905037369472745 0.024165062767119043 0 -0.00033455213984909384 0.024177756051393644 0 -0.00033013285563392386 0.024164999067850267 0 -0.00031726724178015453 0.024133110816063563 0 -0.00032905037369472745 0.024165062767119043 0 -0.00031726724178015453 0.024133110816063563 0 -0.00032519519051276119 0.024159476143252551 0 -0.00032334097517981117 0.024161895140681754 0 -0.00032905037369472745 0.024165062767119043 0 -0.00032519519051276119 0.024159476143252551 0 -0.00033455213984909384 0.024177756051393644 0 -0.00031726724178015453 0.024133110816063563 0 -0.00032905037369472745 0.024165062767119043 0 -0.00032519519051276119 0.024159476143252551 0 -0.00025051054023818206 0.023902826768541059 0 -0.00025073579341128901 0.023901737270966669 0 -0.00032519519051276119 0.024159476143252551 0 -0.00033455213984909384 0.024177756051393644 0 -0.00032334097517981117 0.024161895140681754 0 -0.00030425213965272995 0.024083267868479419 0 -0.00031726724178015453 0.024133110816063563 0 -0.00029584947386855295 0.024044553874023801 0 -0.00029584947386855295 0.024044553874023801 0 -0.00028098851690988504 0.023972481901319755 0 -0.00026578608482021271 0.023891467435426732 0 -0.00029584947386855295 0.024044553874023801 0 -0.00028098851690988504 0.023972481901319755 0 -0.00028867031331072967 0.024023813270022003 0 -0.00027736563273650253 0.023936750217895267 0 -0.00028500001700760923 0.023865473728453917 0 -0.00026578608482021271 0.023891467435426732 0 -0.00028098851690988504 0.023972481901319755 0 -0.00027736563273650253 0.023936750217895267 0 -0.00026578608482021271 0.023891467435426732 0 -0.00027736563273650253 0.023936750217895267 0 -0.00028041230520913554 0.023992249917330951 0 -0.00029164688154007402 0.023902604037997665 0 -0.00028867031331072967 0.024023813270022003 0 -0.00028041230520913554 0.023992249917330951 0 -0.00030635117890009375 0.024090237771324814 0 -0.00028098851690988504 0.023972481901319755 0 -0.00027736563273650253 0.023936750217895267 0 -0.00028867031331072967 0.024023813270022003 0 -0.00027736563273650253 0.023936750217895267 0 -0.00028867031331072967 0.024023813270022003 0 -0.00028041230520913554 0.023992249917330951 0 -0.00028041230520913554 0.023992249917330951 0 -0.0002763040553782056 0.02401067398581351 0 -0.00030635117890009375 0.024090237771324814 0 -0.00028041230520913554 0.023992249917330951 0 -0.0002763040553782056 0.02401067398581351 0 -0.00029164688154007402 0.023902604037997665 0 -0.0002763040553782056 0.02401067398581351 0 -0.00030635117890009375 0.024090237771324814 0 -0.00033171278999921265 0.024119617816298108 0 -0.0002763040553782056 0.02401067398581351 0 -0.00033171278999921265 0.024119617816298108 0 -0.00035247837908974374 0.024035607804970206 0 -0.0003486269006675316 0.024194847315148288 0 -0.00033401270406650243 0.024167519223788847 0 -0.00033171278999921265 0.024119617816298108 0 -0.00033401270406650243 0.024167519223788847 0 -0.00030635117890009375 0.024090237771324814 0 -0.00033171278999921265 0.024119617816298108 0 -0.00037434100870373417 0.024224805176858582 0 -0.00033171278999921265 0.024119617816298108 0 -0.00035247837908974374 0.024035607804970206 0 -0.00035247837908974374 0.024035607804970206 0 -0.00040574862525314688 0.023906639165259359 0 -0.00027640869353024735 0.02397521629371693 0 -0.00040121555322178605 0.023798357731244127 0 -0.0005023545071090648 0.023806198579026321 0 -0.00040574862525314688 0.023906639165259359 0 -0.00040121555322178605 0.023798357731244127 0 -0.00040574862525314688 0.023906639165259359 0 -0.00027640869353024735 0.02397521629371693 0 -0.0002763040553782056 0.02401067398581351 0 -0.00035247837908974374 0.024035607804970206 0 -0.00027640869353024735 0.02397521629371693 0 -0.00027640869353024735 0.02397521629371693 0 -0.00018311294961694696 0.023955376634805951 0 -0.00023427977617636783 0.023794149598506408 0 -0.0002763040553782056 0.02401067398581351 0 -0.00027640869353024735 0.02397521629371693 0 -0.00033921824525891411 0.023963858372445357 0 -0.00032609939217085541 0.023843375195416999 0 -0.00038482385536051772 0.023787152098799873 0 -0.00023573431748858848 0.023753047207494667 0 -0.00027640869353024735 0.02397521629371693 0 -0.00018311294961694696 0.023955376634805951 0 -0.00021530358981515111 0.023950129088120574 0 -0.00020880297356005309 0.023959369603501566 0 -0.00054904953559677041 0.024187161790390269 0 -0.00047482460975384452 0.023858808957072774 0 -0.00018311294961694696 0.023955376634805951 0 -0.00047482460975384452 0.023858808957072774 0 -0.00018311294961694696 0.023955376634805951 0 -0.00023427977617636783 0.023794149598506408 0 -0.00061171607674102531 0.023740050759128838 0 -0.00033921824525891411 0.023963858372445357 0 -0.00037979108942699352 0.023734064158586064 0 -0.00058299712101826369 0.023630556348270958 0 -0.00038482385536051772 0.023787152098799873 0 -0.0002763040553782056 0.02401067398581351 0 -0.00033921824525891411 0.023963858372445357 0 -0.00029164688154007402 0.023902604037997665 0 -0.00033921824525891411 0.023963858372445357 0 -0.00029164688154007402 0.023902604037997665 0 -0.00037979108942699352 0.023734064158586064 0 -0.00029164688154007402 0.023902604037997665 0 -0.00031217598722771119 0.023765164467617322 0 -0.00037979108942699352 0.023734064158586064 0 -0.00027736563273650253 0.023936750217895267 0 -0.00029164688154007402 0.023902604037997665 0 -0.00028500001700760923 0.023865473728453917 0 -0.00029164688154007402 0.023902604037997665 0 -0.00028500001700760923 0.023865473728453917 0 -0.00031217598722771119 0.023765164467617322 0 -0.00028500001700760923 0.023865473728453917 0 -0.00031217598722771119 0.023765164467617322 0 -0.00026578608482021271 0.023891467435426732 0 -0.00061171607674102531 0.023740050759128838 0 -0.00049350498774085891 0.023543721138615532 0 -0.00037979108942699352 0.023734064158586064 0 -0.00049350498774085891 0.023543721138615532 0 -0.00037979108942699352 0.023734064158586064 0 -0.00036481041540177583 0.023552046130440655 0 -0.00031217598722771119 0.023765164467617322 0 -0.00037979108942699352 0.023734064158586064 0 -0.00036481041540177583 0.023552046130440655 0 -0.001032970477160388 0.022471164040796944 0 -0.00089442120898325481 0.022530638596335861 0 -0.00077109459956964464 0.022634832710784866 0 -0.00077877142975698406 0.022630316927093951 0 -0.000726048908403946 0.02261704664468752 0 -0.0012538738334077822 0.022451492512311343 0 -0.000726048908403946 0.02261704664468752 0 -0.00095228195919365747 0.022368806560518179 0 -0.00031217598722771119 0.023765164467617322 0 -0.00036481041540177583 0.023552046130440655 0 -0.00026578608482021271 0.023891467435426732 0 -0.00069622954983517048 0.023241703872205911 0 -0.00052803577333945795 0.023498441175092491 0 -0.00077109459956964464 0.022634832710784866 0 -0.000726048908403946 0.02261704664468752 0 -0.00067641265518379517 0.022630311111451574 0 -0.000726048908403946 0.02261704664468752 0 -0.00095228195919365747 0.022368806560518179 0 -0.00073046294298882719 0.022401134208534724 0 -0.000726048908403946 0.02261704664468752 0 -0.00073046294298882719 0.022401134208534724 0 -0.00068436776513922245 0.022578532863825052 0 -0.00095228195919365747 0.022368806560518179 0 -0.00073046294298882719 0.022401134208534724 0 -0.00090212185555733177 0.022187117315956392 0 -0.00073046294298882719 0.022401134208534724 0 -0.00090212185555733177 0.022187117315956392 0 -0.00067171406081110118 0.021943273079834822 0 -0.00095228195919365747 0.022368806560518179 0 -0.00090212185555733177 0.022187117315956392 0 -0.0011434275526558499 0.022168591903475792 0 -0.0012538738334077822 0.022451492512311343 0 -0.00095228195919365747 0.022368806560518179 0 -0.0011434275526558499 0.022168591903475792 0 -0.0014173510531136405 0.022166446256205639 0 -0.0012538738334077822 0.022451492512311343 0 -0.0011434275526558499 0.022168591903475792 0 -0.0014173510531136405 0.022166446256205639 0 -0.0013232221012979891 0.021936948619632649 0 -0.0011434275526558499 0.022168591903475792 0 -0.0013232221012979891 0.021936948619632649 0 -0.0011434275526558499 0.022168591903475792 0 -0.0010149962386405273 0.021926510097369952 0 -0.0013232221012979891 0.021936948619632649 0 -0.0010149962386405273 0.021926510097369952 0 -0.0011979993097571938 0.02168732709560349 0 -0.00090212185555733177 0.022187117315956392 0 -0.0011434275526558499 0.022168591903475792 0 -0.0010149962386405273 0.021926510097369952 0 -0.0010149962386405273 0.021926510097369952 0 -0.0011979993097571938 0.02168732709560349 0 -0.00093084717184028262 0.021533204598130455 0 -0.0011979993097571938 0.02168732709560349 0 -0.00093084717184028262 0.021533204598130455 0 -0.0012034275530213431 0.021475202088452317 0 -0.0010149962386405273 0.021926510097369952 0 -0.00067171406081110118 0.021943273079834822 0 -0.00093084717184028262 0.021533204598130455 0 -0.0010088286317589633 0.024980999022896064 0 -0.00097408567771424765 0.024518997423143611 0 -0.0012408129240302644 0.024609095558595095 0 -0.0008452750387727832 0.023474782744281643 0 -0.001172016042137696 0.023155824477276762 0 -0.00090212185555733177 0.022187117315956392 0 -0.0010149962386405273 0.021926510097369952 0 -0.00067171406081110118 0.021943273079834822 0 -0.0010088286317589633 0.024980999022896064 0 -0.00073161997390504404 0.024705967764724654 0 -0.00097408567771424765 0.024518997423143611 0 -0.00073161997390504404 0.024705967764724654 0 -0.00057044930162981943 0.025075469463161148 0 -0.00035491898581448318 0.02481130914672787 0 -0.0010088286317589633 0.024980999022896064 0 -0.00073161997390504404 0.024705967764724654 0 -0.00057044930162981943 0.025075469463161148 0 -0.0010088286317589633 0.024980999022896064 0 -0.00057044930162981943 0.025075469463161148 0 -0.00078451098142566912 0.025340569307466865 0 -0.00059053881509164342 0.02447305113685961 0 -0.000502700364525866 0.023830204844426522 0 -0.00025076080944643446 0.024922421541624155 0 -0.00029214215106873088 0.024985841408967722 0 -0.00022561832854764638 0.024977329959994816 0 -0.00029214215106873088 0.024985841408967722 0 -0.00023349625728453808 0.025017869562845813 0 -0.00022561832854764638 0.024977329959994816 0 -0.00073046294298882719 0.022401134208534724 0 -0.00067171406081110118 0.021943273079834822 0 -0.00059597935034306387 0.022375545601388665 0 -0.0008452750387727832 0.023474782744281643 0 -0.000502700364525866 0.023830204844426522 0 -0.00067171406081110118 0.021943273079834822 0 -0.00043322087853493675 0.022359218167271166 0 -0.00059597935034306387 0.022375545601388665 0 -0.000502700364525866 0.023830204844426522 0 -0.00038893107858199407 0.02358038285563754 0 -0.00033350453944711711 0.022684075306892502 0 -0.00061752864316894378 0.022546477122923174 0 -0.00067641265518379517 0.022630311111451574 0 -0.00043322087853493675 0.022359218167271166 0 -0.00059597935034306387 0.022375545601388665 0 -0.00061752864316894378 0.022546477122923174 0 -0.00073046294298882719 0.022401134208534724 0 -0.00059597935034306387 0.022375545601388665 0 -0.00061752864316894378 0.022546477122923174 0 -0.00073046294298882719 0.022401134208534724 0 -0.00061752864316894378 0.022546477122923174 0 -0.00068436776513922245 0.022578532863825052 0 -0.000726048908403946 0.02261704664468752 0 -0.00068436776513922245 0.022578532863825052 0 -0.00067641265518379517 0.022630311111451574 0 -0.00061752864316894378 0.022546477122923174 0 -0.00068436776513922245 0.022578532863825052 0 -0.00067641265518379517 0.022630311111451574 0 -0.00025073579341128901 0.023901737270966669 0 -0.000502700364525866 0.023830204844426522 0 -0.00033350453944711711 0.022684075306892502 0 -0.00050329562375438642 0.022405648872781604 0 -0.00061752864316894378 0.022546477122923174 0 -0.00023610810291203437 0.025070252121297175 0 -0.00029214215106873088 0.024985841408967722 0 -0.00023349625728453808 0.025017869562845813 0 -0.00023610810291203437 0.025070252121297175 0 -0.00023349625728453808 0.025017869562845813 0 -0.00021435200282542323 0.025038451492514952 0 -0.00016839418912209677 0.025025142738679517 0 -0.00020060133490464022 0.02501667069778871 0 -0.00018891757385637202 0.025044651519103574 0 -0.00016839418912209677 0.025025142738679517 0 -0.00014288107118719267 0.025023001448114188 0 -0.00017028434146750074 0.025000223265859257 0 -0.00016839418912209677 0.025025142738679517 0 -0.00020060133490464022 0.02501667069778871 0 -0.00017028434146750074 0.025000223265859257 0 -0.00023349625728453808 0.025017869562845813 0 -0.00020060133490464022 0.02501667069778871 0 -0.00022561832854764638 0.024977329959994816 0 -0.00023349625728453808 0.025017869562845813 0 -0.00020060133490464022 0.02501667069778871 0 -0.00021435200282542323 0.025038451492514952 0 -0.00023610810291203437 0.025070252121297175 0 -0.00021435200282542323 0.025038451492514952 0 -0.00018891757385637202 0.025044651519103574 0 -0.00017041741568497715 0.025057066247666779 0 -0.00023610810291203437 0.025070252121297175 0 -0.00018891757385637202 0.025044651519103574 0 -0.00020060133490464022 0.02501667069778871 0 -0.00021435200282542323 0.025038451492514952 0 -0.00018891757385637202 0.025044651519103574 0 -0.00017041741568497715 0.025057066247666779 0 -0.00018891757385637202 0.025044651519103574 0 -0.00015008245284771324 0.02504224993822533 0 -0.00016839418912209677 0.025025142738679517 0 -0.00018891757385637202 0.025044651519103574 0 -0.00015008245284771324 0.02504224993822533 0 -0.0001198341323041581 0.025057026841290353 0 -0.00013891883412512967 0.025052823454674789 0 -0.0001168045786386398 0.02503205419971043 0 -0.00013891883412512967 0.025052823454674789 0 -0.00017041741568497715 0.025057066247666779 0 -0.00015008245284771324 0.02504224993822533 0 -0.0001198341323041581 0.025057026841290353 0 -0.0001168045786386398 0.02503205419971043 0 -4.7013148968720747e-05 0.025013185759218633 0 -0.00013891883412512967 0.025052823454674789 0 -0.00015008245284771324 0.02504224993822533 0 -0.0001168045786386398 0.02503205419971043 0 -0.00015008245284771324 0.02504224993822533 0 -0.0001168045786386398 0.02503205419971043 0 -0.00014288107118719267 0.025023001448114188 0 -0.00016839418912209677 0.025025142738679517 0 -0.00015008245284771324 0.02504224993822533 0 -0.00014288107118719267 0.025023001448114188 0 -0.0001168045786386398 0.02503205419971043 0 -0.00014288107118719267 0.025023001448114188 0 -0.00010940555475941267 0.025006198732345983 0 -0.00014288107118719267 0.025023001448114188 0 -0.00010940555475941267 0.025006198732345983 0 -0.00017028434146750074 0.025000223265859257 0 -0.00010940555475941267 0.025006198732345983 0 -0.00017960325885440178 0.024951526253027274 0 -0.00010930002088098551 0.024924298768778483 0 -0.00010940555475941267 0.025006198732345983 0 -0.00017960325885440178 0.024951526253027274 0 -0.00017028434146750074 0.025000223265859257 0 -0.00025076080944643446 0.024922421541624155 0 -0.00017960325885440178 0.024951526253027274 0 -0.00022561832854764638 0.024977329959994816 0 -0.00017960325885440178 0.024951526253027274 0 -0.00017028434146750074 0.025000223265859257 0 -0.00022561832854764638 0.024977329959994816 0 -0.00020060133490464022 0.02501667069778871 0 -0.00017028434146750074 0.025000223265859257 0 -0.00022561832854764638 0.024977329959994816 0 -0.00025076080944643446 0.024922421541624155 0 -0.00017960325885440178 0.024951526253027274 0 -0.00022974816727984554 0.024837461023601341 0 -0.00059053881509164342 0.02447305113685961 0 -0.00047807465389203046 0.024581719518005179 0 -0.00035491898581448318 0.02481130914672787 0 -0.000149397170685724 0.02460407509423429 0 -0.00048939808060764593 0.024590401328042539 0 -0.00073161997390504404 0.024705967764724654 0 -0.00035491898581448318 0.02481130914672787 0 -0.00048939808060764593 0.024590401328042539 0 -0.00047807465389203046 0.024581719518005179 0 -0.00040317257387674141 0.024558849878788171 0 -0.00022974816727984554 0.024837461023601341 0 -0.00011812875650050208 0.024826006048967966 0 -0.000149397170685724 0.02460407509423429 0 -0.00022974816727984554 0.024837461023601341 0 -0.00011812875650050208 0.024826006048967966 0 -0.00010930002088098551 0.024924298768778483 0 -0.00017960325885440178 0.024951526253027274 0 -0.00022974816727984554 0.024837461023601341 0 -0.00010930002088098551 0.024924298768778483 0 -0.00010930002088098551 0.024924298768778483 0 -2.9685019701130055e-05 0.02496988568641547 0 -2.3959596890986896e-05 0.024901065875847388 0 -0.00011812875650050208 0.024826006048967966 0 -0.00010930002088098551 0.024924298768778483 0 -2.3959596890986896e-05 0.024901065875847388 0 -0.00011812875650050208 0.024826006048967966 0 -2.3959596890986896e-05 0.024901065875847388 0 4.3407502770106634e-05 0.024672682468557989 0 -2.3959596890986896e-05 0.024901065875847388 0 2.630080556004254e-07 0.024999574841269998 0 4.3407502770106634e-05 0.024672682468557989 0 2.5496010037308584e-08 0.024999657468796434 0 -3.7152201885697578e-05 0.02477119849580716 0 -2.9685019701130055e-05 0.02496988568641547 0 -2.3959596890986896e-05 0.024901065875847388 0 2.630080556004254e-07 0.024999574841269998 0 -2.9685019701130055e-05 0.02496988568641547 0 2.630080556004254e-07 0.024999574841269998 0 -1.398701217797634e-07 0.025000134143451733 0 -2.9685019701130055e-05 0.02496988568641547 0 -1.398701217797634e-07 0.025000134143451733 0 -4.7013148968720747e-05 0.025013185759218633 0 2.950093665107427e-09 0.024999979914299097 0 -2.7230577841567135e-05 0.024986906258809373 0 -1.4181392029890433e-08 0.024999991531199701 0 -4.2095029251887118e-08 0.025000004752610903 0 -3.6481922876421129e-05 0.025016965452780093 0 -0.00010940555475941267 0.025006198732345983 0 -2.9685019701130055e-05 0.02496988568641547 0 -4.7013148968720747e-05 0.025013185759218633 0 -0.00010940555475941267 0.025006198732345983 0 -0.00010930002088098551 0.024924298768778483 0 -2.9685019701130055e-05 0.02496988568641547 0 -6.5384955742151554e-05 0.025036142527627155 0 -3.6481922876421129e-05 0.025016965452780093 0 -0.0001168045786386398 0.02503205419971043 0 -0.00010940555475941267 0.025006198732345983 0 -4.7013148968720747e-05 0.025013185759218633 0 -4.1722567129462063e-05 0.025049665820734104 0 -0.0001198341323041581 0.025057026841290353 0 -2.7230577841567135e-05 0.024986906258809373 0 -4.1722567129462063e-05 0.025049665820734104 0 -2.7230577841567135e-05 0.024986906258809373 0 -1.3212762338632682e-05 0.025010964207300965 0 3.8624697203327448e-09 0.025000069773362374 0 -1.3212762338632682e-05 0.025010964207300965 0 -1.4181392029890433e-08 0.024999991531199701 0 -2.7230577841567135e-05 0.024986906258809373 0 -1.3212762338632682e-05 0.025010964207300965 0 -1.4181392029890433e-08 0.024999991531199701 0 -9.1454929733105373e-06 0.024994352553481987 0 1.4625777380383772e-08 0.024999955993300613 0 -1.2168554981237325e-05 0.024956669264630377 0 1.1531944354132959e-07 0.024999708557050852 0 4.3518979438044258e-05 0.02484486845882607 0 -9.1454929733105373e-06 0.024994352553481987 0 -2.6575387269204541e-05 0.024945431088659056 0 -1.2168554981237325e-05 0.024956669264630377 0 -8.1401842197331282e-06 0.024972754024287454 0 -2.8080417956252888e-05 0.024965049507300868 0 -2.6575387269204541e-05 0.024945431088659056 0 -8.1401842197331282e-06 0.024972754024287454 0 -2.8080417956252888e-05 0.024965049507300868 0 -2.0545338780832689e-05 0.024980776444438083 0 -1.0235238951506291e-05 0.024984188241808224 0 -1.6732649555861089e-05 0.024974392793929229 0 -8.1401842197331282e-06 0.024972754024287454 0 -2.0545338780832689e-05 0.024980776444438083 0 -1.1845274167130291e-05 0.024995689501488304 0 -2.0545338780832689e-05 0.024980776444438083 0 -1.1845274167130291e-05 0.024995689501488304 0 -3.4196475765044653e-05 0.025001565347812435 0 -8.1401842197331282e-06 0.024972754024287454 0 4.0467217583407694e-09 0.024999961675043127 0 -1.1845274167130291e-05 0.024995689501488304 0 -1.0235238951506291e-05 0.024984188241808224 0 -1.1122732464969538e-08 0.024999977395523756 0 -9.1454929733105373e-06 0.024994352553481987 0 1.4625777380383772e-08 0.024999955993300613 0 -8.9358305980155395e-09 0.025000026748251036 0 -6.6501174339604081e-09 0.025000016003364049 0 -9.5793740767020037e-06 0.025004938240545883 0 -1.1845274167130291e-05 0.024995689501488304 0 4.0467217583407694e-09 0.024999961675043127 0 -6.6501174339604081e-09 0.025000016003364049 0 -1.1845274167130291e-05 0.024995689501488304 0 1.7904226156756517e-09 0.025000000469947752 0 -6.6501174339604081e-09 0.025000016003364049 0 -9.5793740767020037e-06 0.025004938240545883 0 -9.5793740767020037e-06 0.025004938240545883 0 -1.1845274167130291e-05 0.024995689501488304 0 -3.4196475765044653e-05 0.025001565347812435 0 -3.7152201885697578e-05 0.02477119849580716 0 -7.9529017746672625e-05 0.024522770097721025 0 -0.0001200221827205669 0.024233467351773664 0 -0.000149397170685724 0.02460407509423429 0 -0.00039698618178638206 0.024334585074206216 0 4.3407502770106634e-05 0.024672682468557989 0 -0.0001200221827205669 0.024233467351773664 0 -0.000149397170685724 0.02460407509423429 0 -0.00011812875650050208 0.024826006048967966 0 4.3407502770106634e-05 0.024672682468557989 0 -0.000149397170685724 0.02460407509423429 0 -0.000149397170685724 0.02460407509423429 0 -0.00048939808060764593 0.024590401328042539 0 -0.00039698618178638206 0.024334585074206216 0 -0.0001200221827205669 0.024233467351773664 0 -0.00039698618178638206 0.024334585074206216 0 -0.00041823862493099592 0.023802138293291079 0 -7.9529017746672625e-05 0.024522770097721025 0 -0.0001269657097271364 0.024206709200148561 0 -2.0545338780832689e-05 0.024980776444438083 0 -3.4196475765044653e-05 0.025001565347812435 0 -3.9038495477129365e-05 0.024975613811431398 0 -3.4196475765044653e-05 0.025001565347812435 0 -7.3607232114879592e-05 0.024980119707613473 0 -3.9038495477129365e-05 0.024975613811431398 0 -2.8080417956252888e-05 0.024965049507300868 0 -2.0545338780832689e-05 0.024980776444438083 0 -3.9038495477129365e-05 0.024975613811431398 0 -2.8080417956252888e-05 0.024965049507300868 0 -3.9038495477129365e-05 0.024975613811431398 0 -5.307159447062503e-05 0.024949490142247403 0 -2.8080417956252888e-05 0.024965049507300868 0 -5.307159447062503e-05 0.024949490142247403 0 -2.6575387269204541e-05 0.024945431088659056 0 -7.3607232114879592e-05 0.024980119707613473 0 -3.9038495477129365e-05 0.024975613811431398 0 -5.307159447062503e-05 0.024949490142247403 0 -7.3607232114879592e-05 0.024980119707613473 0 -5.307159447062503e-05 0.024949490142247403 0 -0.00011817323669720624 0.024943410851301438 0 -0.00041823862493099592 0.023802138293291079 0 -0.00071291579285468636 0.02344040997147721 0 -0.00082286742902254874 0.023789007621680989 0 -0.0001269657097271364 0.024206709200148561 0 -0.00012675071852538076 0.023752199634753127 0 -0.00071291579285468636 0.02344040997147721 0 -0.00082286742902254874 0.023789007621680989 0 -0.00096315996497081723 0.023522103921112855 0 -0.00041823862493099592 0.023802138293291079 0 -0.00082286742902254874 0.023789007621680989 0 -0.00070909021381996055 0.024174078772588176 0 -0.00059568059264964888 0.023882009917696317 0 -0.00074730862256737289 0.023786920543170314 0 -0.00039698618178638206 0.024334585074206216 0 -0.00041823862493099592 0.023802138293291079 0 -0.00070909021381996055 0.024174078772588176 0 -0.00048939808060764593 0.024590401328042539 0 -0.00039698618178638206 0.024334585074206216 0 -0.00075667169326222247 0.02430093459090691 0 -0.00073161997390504404 0.024705967764724654 0 -0.00048939808060764593 0.024590401328042539 0 -0.00075667169326222247 0.02430093459090691 0 -0.00073161997390504404 0.024705967764724654 0 -0.00075667169326222247 0.02430093459090691 0 -0.00097408567771424765 0.024518997423143611 0 -0.00074730862256737289 0.023786920543170314 0 -0.0010695615334594629 0.023502754521305163 0 -0.00075667169326222247 0.02430093459090691 0 -0.00097408567771424765 0.024518997423143611 0 -0.0011019417695936459 0.024256273640042514 0 -0.00082286742902254874 0.023789007621680989 0 -0.00070909021381996055 0.024174078772588176 0 -0.00099519780032407304 0.024056651783196811 0 -0.0011019417695936459 0.024256273640042514 0 -0.0012916978203167864 0.024358574934779314 0 -0.0014698225205042863 0.02423342505948025 0 -0.00099519780032407304 0.024056651783196811 0 -0.0013684162034566178 0.024024503300789174 0 -0.0011051646882753324 0.023714450745685119 0 -0.0010695615334594629 0.023502754521305163 0 -0.0015142488931635355 0.022947212037786588 0 -0.00097408567771424765 0.024518997423143611 0 -0.0011019417695936459 0.024256273640042514 0 -0.0012916978203167864 0.024358574934779314 0 -0.00097408567771424765 0.024518997423143611 0 -0.0012916978203167864 0.024358574934779314 0 -0.0012408129240302644 0.024609095558595095 0 -0.00093084717184028262 0.021533204598130455 0 -0.0012034275530213431 0.021475202088452317 0 -0.0011805674752373065 0.021134758016323783 0 -0.0012916978203167864 0.024358574934779314 0 -0.0012408129240302644 0.024609095558595095 0 -0.0014698225205042863 0.02423342505948025 0 -0.001172016042137696 0.023155824477276762 0 -0.0015142488931635355 0.022947212037786588 0 -0.0012034275530213431 0.021475202088452317 0 -0.0011805674752373065 0.021134758016323783 0 -0.0014948011119740323 0.021520786433490535 0 -0.0018179463433327589 0.021839643793685262 0 -0.0018193686738915142 0.021836609959267152 0 -0.0018418822549805052 0.021851373344295714 0 -0.0013535242187135272 0.02413069503327955 0 -0.001383216273359747 0.024095266107151219 0 -0.0013536653041481134 0.023898800503416695 0 -0.0015142488931635355 0.022947212037786588 0 -0.0016011969124756947 0.022847324803294072 0 -0.001383216273359747 0.024095266107151219 0 -0.0013536653041481134 0.023898800503416695 0 -0.001827361598498846 0.023497899981819288 0 -0.0015142488931635355 0.022947212037786588 0 -0.0015697378130495041 0.023235224111113631 0 -0.0013535242187135272 0.02413069503327955 0 -0.0013536653041481134 0.023898800503416695 0 -0.0011051646882753324 0.023714450745685119 0 -0.0013470594892822177 0.023657215202419216 0 -0.0012893012002000328 0.02345983551790869 0 -0.001827361598498846 0.023497899981819288 0 -0.0013536653041481134 0.023898800503416695 0 -0.0013470594892822177 0.023657215202419216 0 -0.001827361598498846 0.023497899981819288 0 -0.0011051646882753324 0.023714450745685119 0 -0.0011285811933499166 0.023508842053329513 0 -0.0012893012002000328 0.02345983551790869 0 -0.0013470594892822177 0.023657215202419216 0 -0.0011051646882753324 0.023714450745685119 0 -0.0012893012002000328 0.02345983551790869 0 -0.0013536653041481134 0.023898800503416695 0 -0.0013470594892822177 0.023657215202419216 0 -0.0011051646882753324 0.023714450745685119 0 -0.00082286742902254874 0.023789007621680989 0 -0.00099519780032407304 0.024056651783196811 0 -0.0011051646882753324 0.023714450745685119 0 -0.00082286742902254874 0.023789007621680989 0 -0.0011051646882753324 0.023714450745685119 0 -0.00096315996497081723 0.023522103921112855 0 -0.0011051646882753324 0.023714450745685119 0 -0.0011285811933499166 0.023508842053329513 0 -0.00096315996497081723 0.023522103921112855 0 -0.0011285811933499166 0.023508842053329513 0 -0.00096315996497081723 0.023522103921112855 0 -0.0011444625775480003 0.023376358725032097 0 -0.00068459911947862657 0.023294777178332171 0 -0.00051998750795762189 0.023151805159871829 0 -0.0012893012002000328 0.02345983551790869 0 -0.00078637112307932441 0.022757495335035679 0 -0.0016421172317099119 0.022749609370377628 0 -0.0011285811933499166 0.023508842053329513 0 -0.0012893012002000328 0.02345983551790869 0 -0.0011444625775480003 0.023376358725032097 0 -0.0014668086654193368 0.022316287132063215 0 -0.001072279298934858 0.022088981298037231 0 -0.0017795678971920454 0.022007543238273766 0 -0.0014668086654193368 0.022316287132063215 0 -0.00078637112307932441 0.022757495335035679 0 -0.001072279298934858 0.022088981298037231 0 -0.0014668086654193368 0.022316287132063215 0 -0.00078637112307932441 0.022757495335035679 0 -0.0016421172317099119 0.022749609370377628 0 -0.00096315996497081723 0.023522103921112855 0 -0.0011444625775480003 0.023376358725032097 0 -0.00099823578114771258 0.023167543741426395 0 -0.00078637112307932441 0.022757495335035679 0 -0.00035138922618460047 0.022132965376091177 0 -0.001072279298934858 0.022088981298037231 0 -0.00051998750795762189 0.023151805159871829 0 -0.00011847785106445887 0.022870736761960046 0 -0.00011847785106445887 0.022870736761960046 0 -9.2172049898026003e-05 0.020537323998954412 0 0.0004557858785068751 0.021699810980395026 0 -0.00017083443018682675 0.021119005753177551 0 0.00039065780602295935 0.021117259223731574 0 -0.001072279298934858 0.022088981298037231 0 -0.0011846058799034334 0.02135991096814745 0 -0.0017795678971920454 0.022007543238273766 0 -0.00035138922618460047 0.022132965376091177 0 -0.001072279298934858 0.022088981298037231 0 -0.0011846058799034334 0.02135991096814745 0 -0.00017083443018682675 0.021119005753177551 0 -0.0002975784421474583 0.020612984679862723 0 0.00020878983961976092 0.020583106103661854 0 -0.00052600586116817254 0.020156076391886719 0 -0.0002975784421474583 0.020612984679862723 0 0.00020878983961976092 0.020583106103661854 0 0.00010717782038878316 0.019202089796741952 0 0.0003132807174159399 0.021743098566880954 0 -8.2462643836317143e-05 0.024914227419744497 0 -7.8165554295630372e-05 0.024923048784797786 0 -7.7282093124193398e-05 0.024929214671182618 0 -7.3702637060890904e-05 0.024928845170105105 0 -7.7282093124193398e-05 0.024929214671182618 0 -6.9979171393160449e-05 0.024936464112415339 0 -7.8165554295630372e-05 0.024923048784797786 0 -7.3702637060890904e-05 0.024928845170105105 0 -7.7282093124193398e-05 0.024929214671182618 0 0.00020878983961976092 0.020583106103661854 0 0.00039065780602295935 0.021117259223731574 0 0.00093982160754848686 0.02100736594558435 0 -0.00017083443018682675 0.021119005753177551 0 0.00020878983961976092 0.020583106103661854 0 0.00039065780602295935 0.021117259223731574 0 0.0003132807174159399 0.021743098566880954 0 -0.00011341934033937148 0.023176570616697281 0 -7.7282093124193398e-05 0.024929214671182618 0 -6.8031806434599938e-05 0.02494125289806828 0 -6.9979171393160449e-05 0.024936464112415339 0 -6.8031806434599938e-05 0.02494125289806828 0 -6.9979171393160449e-05 0.024936464112415339 0 -6.218251738266668e-05 0.02494518317835431 0 -6.508223268407265e-05 0.024927061880331457 0 -6.9979171393160449e-05 0.024936464112415339 0 -6.218251738266668e-05 0.02494518317835431 0 -0.00011341934033937148 0.023176570616697281 0 0.00012595501713329199 0.02417828702375131 0 -7.7401796454535908e-05 0.02496688334419422 0 -4.6706460594692618e-05 0.024987037151555262 0 -4.6116751716779227e-05 0.02496615200337848 0 -7.7401796454535908e-05 0.02496688334419422 0 -6.218251738266668e-05 0.02494518317835431 0 -4.6116751716779227e-05 0.02496615200337848 0 -0.00011341934033937148 0.023176570616697281 0 -0.00031376350227510085 0.023667839528369851 0 -0.00012920190606833683 0.024847831629922806 0 -0.00011860600077963961 0.024895869266919439 0 -8.2398636324787126e-05 0.024880553807370691 0 -0.00011860600077963961 0.024895869266919439 0 -8.2564061718098694e-05 0.024916907871447298 0 -8.2398636324787126e-05 0.024880553807370691 0 -0.00011847785106445887 0.022870736761960046 0 -0.00011341934033937148 0.023176570616697281 0 0.0004557858785068751 0.021699810980395026 0 0.00039065780602295935 0.021117259223731574 0 0.00093982160754848686 0.02100736594558435 0 -0.00016536025255028302 0.024899188498399501 0 -0.00012920190606833683 0.024847831629922806 0 -0.00011860600077963961 0.024895869266919439 0 -0.00071291579285468636 0.02344040997147721 0 -0.00096315996497081723 0.023522103921112855 0 -0.00099823578114771258 0.023167543741426395 0 -0.00012675071852538076 0.023752199634753127 0 -0.00011847785106445887 0.022870736761960046 0 -0.00011817323669720624 0.024943410851301438 0 -0.00016536025255028302 0.024899188498399501 0 -0.00011860600077963961 0.024895869266919439 0 -0.00011817323669720624 0.024943410851301438 0 -0.00011860600077963961 0.024895869266919439 0 -8.2564061718098694e-05 0.024916907871447298 0 -5.307159447062503e-05 0.024949490142247403 0 -0.00011817323669720624 0.024943410851301438 0 -8.2564061718098694e-05 0.024916907871447298 0 -5.307159447062503e-05 0.024949490142247403 0 -8.2564061718098694e-05 0.024916907871447298 0 -4.1537074421565297e-05 0.024916532485857967 0 -5.307159447062503e-05 0.024949490142247403 0 -4.1537074421565297e-05 0.024916532485857967 0 -2.6575387269204541e-05 0.024945431088659056 0 -2.1387875368612276e-05 0.025000267534411352 0 -2.6183063954538408e-05 0.024976812565647738 0 -6.9599111111920548e-06 0.024992025923649023 0 9.7098368317859038e-05 0.024617072452483953 0 0.00012595501713329199 0.02417828702375131 0 -8.2564061718098694e-05 0.024916907871447298 0 -4.1537074421565297e-05 0.024916532485857967 0 -8.2398636324787126e-05 0.024880553807370691 0 -2.1387875368612276e-05 0.025000267534411352 0 -4.6706460594692618e-05 0.024987037151555262 0 -2.6183063954538408e-05 0.024976812565647738 0 -4.6706460594692618e-05 0.024987037151555262 0 -4.6116751716779227e-05 0.02496615200337848 0 -2.6183063954538408e-05 0.024976812565647738 0 -3.6430130105060652e-05 0.024941739879352973 0 -6.218251738266668e-05 0.02494518317835431 0 -4.6116751716779227e-05 0.02496615200337848 0 -3.6430130105060652e-05 0.024941739879352973 0 -4.6116751716779227e-05 0.02496615200337848 0 -2.6183063954538408e-05 0.024976812565647738 0 -2.8837825097657185e-05 0.02496378689189489 0 -1.3885980537986045e-05 0.024974890793805483 0 -3.6430130105060652e-05 0.024941739879352973 0 -2.6183063954538408e-05 0.024976812565647738 0 -9.956512882626044e-06 0.024968498130984128 0 -2.6183063954538408e-05 0.024976812565647738 0 -9.956512882626044e-06 0.024968498130984128 0 -6.9599111111920548e-06 0.024992025923649023 0 -9.956512882626044e-06 0.024968498130984128 0 4.0546060457452519e-07 0.024998542129623529 0 -6.9599111111920548e-06 0.024992025923649023 0 4.2388944837670075e-09 0.024999986724635093 0 1.8316232887960532e-07 0.02499696979098448 0 1.6465764263986801e-09 0.024999978579742472 0 -2.2365779686117374e-06 0.02499583013040451 0 1.8316232887960532e-07 0.02499696979098448 0 4.0546060457452519e-07 0.024998542129623529 0 -1.3885980537986045e-05 0.024974890793805483 0 -8.0273517302938362e-06 0.024980035229192558 0 1.8316232887960532e-07 0.02499696979098448 0 4.0546060457452519e-07 0.024998542129623529 0 1.6465764263986801e-09 0.024999978579742472 0 4.0546060457452519e-07 0.024998542129623529 0 1.6465764263986801e-09 0.024999978579742472 0 -9.4298052593684547e-10 0.024999995457683576 0 4.0546060457452519e-07 0.024998542129623529 0 -9.4298052593684547e-10 0.024999995457683576 0 -6.9599111111920548e-06 0.024992025923649023 0 -9.4298052593684547e-10 0.024999995457683576 0 -6.9599111111920548e-06 0.024992025923649023 0 -5.5605434091528918e-06 0.025003413606024243 0 -2.1387875368612276e-05 0.025000267534411352 0 -6.9599111111920548e-06 0.024992025923649023 0 -5.5605434091528918e-06 0.025003413606024243 0 -4.1537074421565297e-05 0.024916532485857967 0 -2.6575387269204541e-05 0.024945431088659056 0 -1.2168554981237325e-05 0.024956669264630377 0 9.7098368317859038e-05 0.024617072452483953 0 4.3518979438044258e-05 0.02484486845882607 0 -2.9920320259448564e-09 0.025000010603572105 0 -9.4298052593684547e-10 0.024999995457683576 0 -5.5605434091528918e-06 0.025003413606024243 0 0.00062748052865276764 0.01415718253329749 0 0.0018806665292468194 0.013900855709408331 0 0.0019363367195697754 0.015629984216028726 0 0.00062748052865276764 0.01415718253329749 0 -0.00023629657354152931 0.015620285024599192 0 0.0019363367195697754 0.015629984216028726 0 0.0018806665292468194 0.013900855709408331 0 0.0019363367195697754 0.015629984216028726 0 0.0031649547824103498 0.013818425874209233 0 -0.00026753205926787567 0.018627221015065639 0 0.00017134129613862064 0.017554554860366261 0 0.0018806665292468194 0.013900855709408331 0 0.0031649547824103498 0.013818425874209233 0 0.0024990739914125758 0.012549703041189878 0 0.0018806665292468194 0.013900855709408331 0 0.0013897511633034507 0.013390475844498911 0 0.0024990739914125758 0.012549703041189878 0 0.0013897511633034507 0.013390475844498911 0 0.00054051599605269408 0.012969419772641972 0 0.0024990739914125758 0.012549703041189878 0 0.00062748052865276764 0.01415718253329749 0 0.0018806665292468194 0.013900855709408331 0 0.0013897511633034507 0.013390475844498911 0 0.00062748052865276764 0.01415718253329749 0 0.0013897511633034507 0.013390475844498911 0 0.00054051599605269408 0.012969419772641972 0 0.00067154240559343375 0.013779297952480153 0 -0.0001212405516455936 0.013778292256581535 0 0.00062748052865276764 0.01415718253329749 0 0.00054051599605269408 0.012969419772641972 0 -0.0014554697106369606 0.01337514566280491 0 -0.0014554697106369606 0.01337514566280491 0 -0.00023629657354152931 0.015620285024599192 0 -0.0022403122812828355 0.015691349348442934 0 0.00062748052865276764 0.01415718253329749 0 -0.0014554697106369606 0.01337514566280491 0 -0.00023629657354152931 0.015620285024599192 0 -0.00023629657354152931 0.015620285024599192 0 -0.0010870014960616347 0.017290463074787314 0 0.00063064842561884945 0.017537393348262886 0 -0.00023629657354152931 0.015620285024599192 0 -0.0022403122812828355 0.015691349348442934 0 -0.0010870014960616347 0.017290463074787314 0 -0.0010029932509149745 0.019398814004698308 0 -0.0010870014960616347 0.017290463074787314 0 -0.0026595844229523225 0.017742034140907886 0 -0.0022403122812828355 0.015691349348442934 0 -0.0010870014960616347 0.017290463074787314 0 -0.0026595844229523225 0.017742034140907886 0 -0.0010029932509149745 0.019398814004698308 0 -0.0010870014960616347 0.017290463074787314 0 0.00063064842561884945 0.017537393348262886 0 -0.002064726855768056 0.021834988300375568 0 -0.0020452166847311532 0.021767106547444334 0 -0.0019567290071940326 0.021808912224524909 0 -0.0020452166847311532 0.021767106547444334 0 -0.0018884543198687935 0.021825488449216248 0 -0.0019567290071940326 0.021808912224524909 0 -0.00088199486411152841 0.01962412210550114 0 -0.00026753205926787567 0.018627221015065639 0 -0.00023629657354152931 0.015620285024599192 0 0.00063064842561884945 0.017537393348262886 0 0.0019363367195697754 0.015629984216028726 0 -0.0018884543198687935 0.021825488449216248 0 -0.0019567290071940326 0.021808912224524909 0 -0.0019247317788687651 0.021828995431839179 0 -0.0019567290071940326 0.021808912224524909 0 -0.0019083130799460286 0.021858394085722682 0 -0.0019247317788687651 0.021828995431839179 0 -0.0019083130799460286 0.021858394085722682 0 -0.0019247317788687651 0.021828995431839179 0 -0.0018911236402266998 0.021858545740462879 0 -0.001970275501186277 0.021847506246790629 0 -0.0019247317788687651 0.021828995431839179 0 -0.0018911236402266998 0.021858545740462879 0 -0.001970275501186277 0.021847506246790629 0 -0.0019247317788687651 0.021828995431839179 0 -0.0019287356984034252 0.021926939265400229 0 -0.0018884543198687935 0.021825488449216248 0 -0.0019247317788687651 0.021828995431839179 0 -0.0019287356984034252 0.021926939265400229 0 -0.0015142488931635355 0.022947212037786588 0 -0.0014110722476686408 0.022132952871076243 0 -0.0018179463433327589 0.021839643793685262 0 -0.0018425118121101641 0.021878305148804119 0 -0.0018418822549805052 0.021851373344295714 0 -0.0018425118121101641 0.021878305148804119 0 -0.0018911236402266998 0.021858545740462879 0 -0.0018418822549805052 0.021851373344295714 0 -0.0018911236402266998 0.021858545740462879 0 -0.0018683566062587206 0.021830447390532134 0 -0.0018418822549805052 0.021851373344295714 0 -0.001970275501186277 0.021847506246790629 0 -0.0018911236402266998 0.021858545740462879 0 -0.0018683566062587206 0.021830447390532134 0 -0.0020268250709810048 0.022321749069729634 0 -0.0019931193351671941 0.022431401154592211 0 -0.0016011969124756947 0.022847324803294072 0 -0.0019931193351671941 0.022431401154592211 0 -0.0018193686738915142 0.021836609959267152 0 -0.0018683566062587206 0.021830447390532134 0 -0.0018418822549805052 0.021851373344295714 0 -0.0026517533602281097 0.021746066960823995 0 -0.0023226455889974696 0.021784446235470822 0 -0.0024683156003186962 0.022057797778989939 0 -0.0016011969124756947 0.022847324803294072 0 -0.0019034206223602591 0.022680595591687815 0 -0.001970275501186277 0.021847506246790629 0 -0.0023226455889974696 0.021784446235470822 0 -0.0021505905566937713 0.021977380689201579 0 -0.0024683156003186962 0.022057797778989939 0 -0.0021505905566937713 0.021977380689201579 0 -0.0022580747989552875 0.022159257303791546 0 -0.0023226455889974696 0.021784446235470822 0 -0.0024683156003186962 0.022057797778989939 0 -0.0021505905566937713 0.021977380689201579 0 -0.0024683156003186962 0.022057797778989939 0 -0.0022580747989552875 0.022159257303791546 0 -0.0022587174011519922 0.022426823506045124 0 -0.0021505905566937713 0.021977380689201579 0 -0.0022580747989552875 0.022159257303791546 0 -0.002076445441120278 0.022119962257234456 0 -0.0021988880705804716 0.022280801352250457 0 -0.0022580747989552875 0.022159257303791546 0 -0.002076445441120278 0.022119962257234456 0 -0.0021988880705804716 0.022280801352250457 0 -0.0022580747989552875 0.022159257303791546 0 -0.0022587174011519922 0.022426823506045124 0 -0.0019034206223602591 0.022680595591687815 0 -0.0020117430774038245 0.022584761949440483 0 -0.0012893012002000328 0.02345983551790869 0 -0.001827361598498846 0.023497899981819288 0 -0.0016421172317099119 0.022749609370377628 0 -0.001827361598498846 0.023497899981819288 0 -0.0016421172317099119 0.022749609370377628 0 -0.0022587174011519922 0.022426823506045124 0 -0.0018884543198687935 0.021825488449216248 0 -0.0019287356984034252 0.021926939265400229 0 -0.0018474468610770929 0.022039897306329347 0 -0.001970275501186277 0.021847506246790629 0 -0.0021505905566937713 0.021977380689201579 0 -0.0019287356984034252 0.021926939265400229 0 -0.0021505905566937713 0.021977380689201579 0 -0.0019287356984034252 0.021926939265400229 0 -0.002076445441120278 0.022119962257234456 0 -0.002076445441120278 0.022119962257234456 0 -0.0018474468610770929 0.022039897306329347 0 -0.0020271242208301449 0.022374873893908291 0 -0.0021988880705804716 0.022280801352250457 0 -0.002076445441120278 0.022119962257234456 0 -0.002142122912769555 0.022291206881224754 0 0.00017134129613862064 0.017554554860366261 0 0.00047018525127002559 0.016015803279607027 0 -0.0019287356984034252 0.021926939265400229 0 -0.002076445441120278 0.022119962257234456 0 -0.0018474468610770929 0.022039897306329347 0 0.00047018525127002559 0.016015803279607027 0 0.0015646818190590526 0.014240339127490278 0 0.002119746774439971 0.012427814626625558 0 0.001727311204821885 0.012209985796151545 0 0.0014827468266176364 0.012587831641267708 0 0.0031649547824103498 0.013818425874209233 0 0.0043725383752278423 0.012112376287217059 0 0.0024990739914125758 0.012549703041189878 0 0.00047018525127002559 0.016015803279607027 0 -0.0003794390460012142 0.01666668999496513 0 -0.002076445441120278 0.022119962257234456 0 -0.002142122912769555 0.022291206881224754 0 -0.0020271242208301449 0.022374873893908291 0 -0.002142122912769555 0.022291206881224754 0 -0.0020271242208301449 0.022374873893908291 0 -0.0022307617076212705 0.022365838744702955 0 0.00045891498194173646 0.016391486179231293 0 0.00042030645759453698 0.016444116385864269 0 0.00036639023945883391 0.016413522162496003 0 0.002119746774439971 0.012427814626625558 0 0.0023531407489722866 0.012106984368938558 0 0.001727311204821885 0.012209985796151545 0 0.00066609354533354935 0.015968347652131558 0 0.00072346850201395884 0.013980478138365919 0 0.0021410106020112139 0.012049235964810797 0 0.001685655182360316 0.0117718851904395 0 0.0020469458617246002 0.011680199348862861 0 0.00047018525127002559 0.016015803279607027 0 0.00066609354533354935 0.015968347652131558 0 0.0023531407489722866 0.012106984368938558 0 0.001727311204821885 0.012209985796151545 0 0.0018560458021836101 0.01180192975492715 0 0.001727311204821885 0.012209985796151545 0 0.0018560458021836101 0.01180192975492715 0 0.0014515449624003681 0.011917334206873301 0 -0.0016421172317099119 0.022749609370377628 0 -0.001951618789693154 0.022375505475693339 0 -0.0022587174011519922 0.022426823506045124 0 -0.0014668086654193368 0.022316287132063215 0 -0.001951618789693154 0.022375505475693339 0 -0.0017795678971920454 0.022007543238273766 0 -0.0014668086654193368 0.022316287132063215 0 -0.0016421172317099119 0.022749609370377628 0 -0.001951618789693154 0.022375505475693339 0 -0.001951618789693154 0.022375505475693339 0 -0.002234514675882154 0.02230053631197719 0 -0.0017795678971920454 0.022007543238273766 0 -0.0020271242208301449 0.022374873893908291 0 -0.0022425077594350651 0.022344858840900591 0 -0.0022307617076212705 0.022365838744702955 0 -0.001951618789693154 0.022375505475693339 0 -0.0021377318483652504 0.022368992548304795 0 -0.002234514675882154 0.02230053631197719 0 -0.0021377318483652504 0.022368992548304795 0 -0.002234514675882154 0.02230053631197719 0 -0.0022307617076212705 0.022365838744702955 0 -0.002234514675882154 0.02230053631197719 0 -0.0022425077594350651 0.022344858840900591 0 -0.0022307617076212705 0.022365838744702955 0 -0.00037584303111415428 0.016683806165772488 0 -0.0003794390460012142 0.01666668999496513 0 -0.001951618789693154 0.022375505475693339 0 -0.0021377318483652504 0.022368992548304795 0 -0.0022587174011519922 0.022426823506045124 0 -0.0021377318483652504 0.022368992548304795 0 -0.0022587174011519922 0.022426823506045124 0 -0.0022307617076212705 0.022365838744702955 0 -0.0021988880705804716 0.022280801352250457 0 -0.0022587174011519922 0.022426823506045124 0 -0.0022307617076212705 0.022365838744702955 0 -0.0021988880705804716 0.022280801352250457 0 -0.002142122912769555 0.022291206881224754 0 -0.0022307617076212705 0.022365838744702955 0 -0.002234514675882154 0.02230053631197719 0 -0.0023016390469900077 0.022269297704259429 0 -0.0017795678971920454 0.022007543238273766 0 0.00066609354533354935 0.015968347652131558 0 -0.0003794390460012142 0.01666668999496513 0 -0.0029147417883695205 0.02185419577592404 0 -0.0024399611886733123 0.022137292253653677 0 -0.0024835440208704385 0.021824606663880284 0 -0.0029147417883695205 0.02185419577592404 0 -0.0024835440208704385 0.021824606663880284 0 -0.0023644490318715959 0.021505210246628499 0 -0.0029147417883695205 0.02185419577592404 0 -0.0023644490318715959 0.021505210246628499 0 -0.0024704547249270762 0.021231861340511995 0 0.00066609354533354935 0.015968347652131558 0 0.00054701100712384884 0.016128351559735264 0 -0.0024835440208704385 0.021824606663880284 0 -0.0023644490318715959 0.021505210246628499 0 -0.0022146158817999873 0.021798932262266053 0 -0.0024399611886733123 0.022137292253653677 0 -0.0024835440208704385 0.021824606663880284 0 -0.0022146158817999873 0.021798932262266053 0 -0.0011846058799034334 0.02135991096814745 0 -0.0018910019281899472 0.021566903568817741 0 -0.0017795678971920454 0.022007543238273766 0 -0.0024399611886733123 0.022137292253653677 0 -0.0022146158817999873 0.021798932262266053 0 -0.0017795678971920454 0.022007543238273766 0 -0.0003794390460012142 0.01666668999496513 0 -0.0011839098673461848 0.017382461277058333 0 -0.0022146158817999873 0.021798932262266053 0 -0.0018910019281899472 0.021566903568817741 0 -0.0017795678971920454 0.022007543238273766 0 -0.0023644490318715959 0.021505210246628499 0 -0.0022146158817999873 0.021798932262266053 0 -0.0018910019281899472 0.021566903568817741 0 -9.2172049898026003e-05 0.020537323998954412 0 0.00021840547603671498 0.01764714238587068 0 -0.0011846058799034334 0.02135991096814745 0 -0.0019016873107207276 0.021160700366331334 0 -0.0020131199272928162 0.020584650675210942 0 -0.0011846058799034334 0.02135991096814745 0 -0.0018910019281899472 0.021566903568817741 0 -0.0019016873107207276 0.021160700366331334 0 -0.00017083443018682675 0.021119005753177551 0 -0.0002975784421474583 0.020612984679862723 0 -0.00079996144484236311 0.020534468547888377 0 -0.0023644490318715959 0.021505210246628499 0 -0.0018910019281899472 0.021566903568817741 0 -0.0019016873107207276 0.021160700366331334 0 -0.0019016873107207276 0.021160700366331334 0 -0.0024750386691945844 0.021228030991013121 0 -0.0020131199272928162 0.020584650675210942 0 0.00054701100712384884 0.016128351559735264 0 0.00067135422714849444 0.013873272157824244 0 0.0024203872106837694 0.011661360795840655 0 0.0022397793222333831 0.011202966560166399 0 0.0020469458617246002 0.011680199348862861 0 0.00054701100712384884 0.016128351559735264 0 0.00021840547603671498 0.01764714238587068 0 -0.0023644490318715959 0.021505210246628499 0 -0.0019016873107207276 0.021160700366331334 0 -0.0024750386691945844 0.021228030991013121 0 0.00056874854071331581 0.016436901167755317 0 0.00054701100712384884 0.016128351559735264 0 0.00055413405348965321 0.012683268909896125 0 0.00021840547603671498 0.01764714238587068 0 0.00031622431467298812 0.014161533033909832 0 0.00050067131524374306 0.015227869400760312 0 0.0016315895481819769 0.015377203280322601 0 0.00094332522817139927 0.016331576895073044 0 0.00050067131524374306 0.015227869400760312 0 0.0016315895481819769 0.015377203280322601 0 -0.00052600586116817254 0.020156076391886719 0 -0.0002975784421474583 0.020612984679862723 0 -0.00079996144484236311 0.020534468547888377 0 0.00090030996081652797 0.015096675288694957 0 0.0017705041871201033 0.015429900339329302 0 0.0011791467262878379 0.016248846185818396 0 0.00010717782038878316 0.019202089796741952 0 0.00021840547603671498 0.01764714238587068 0 0.00072346850201395884 0.013980478138365919 0 0.00064188733664011233 0.012958899976150325 0 0.001685655182360316 0.0117718851904395 0 0.001531628417392337 0.011376429616874005 0 0.0012359082707519046 0.011492793654813292 0 0.001685655182360316 0.0117718851904395 0 0.001863027377533994 0.011375129247237631 0 0.001531628417392337 0.011376429616874005 0 0.001685655182360316 0.0117718851904395 0 0.0020469458617246002 0.011680199348862861 0 0.001863027377533994 0.011375129247237631 0 0.0022397793222333831 0.011202966560166399 0 0.0020469458617246002 0.011680199348862861 0 0.001863027377533994 0.011375129247237631 0 0.0021410106020112139 0.012049235964810797 0 0.0024203872106837694 0.011661360795840655 0 0.0020469458617246002 0.011680199348862861 0 0.0022397793222333831 0.011202966560166399 0 0.001863027377533994 0.011375129247237631 0 0.0019655924129931067 0.011095888403762058 0 0.0020591139003614096 0.01075022091163021 0 0.0022397793222333831 0.011202966560166399 0 0.0019655924129931067 0.011095888403762058 0 0.001863027377533994 0.011375129247237631 0 0.0019655924129931067 0.011095888403762058 0 0.0016791397888754782 0.011052047334545085 0 0.0016791397888754782 0.011052047334545085 0 0.001531628417392337 0.011376429616874005 0 0.0011364240309582403 0.011044919617240497 0 0.001863027377533994 0.011375129247237631 0 0.0016791397888754782 0.011052047334545085 0 0.001531628417392337 0.011376429616874005 0 0.0011364240309582403 0.011044919617240497 0 0.00079536459004122867 0.011215327261171158 0 0.0012359082707519046 0.011492793654813292 0 0.001531628417392337 0.011376429616874005 0 0.0011364240309582403 0.011044919617240497 0 0.0012359082707519046 0.011492793654813292 0 0.00063998864311247243 0.010931592363607572 0 0.0011364240309582403 0.011044919617240497 0 0.00079536459004122867 0.011215327261171158 0 0.00054102519535290583 0.012611430679246726 0 0.00064188733664011233 0.012958899976150325 0 0.00079536459004122867 0.011215327261171158 0 0.0013220456693835867 0.011496939770297322 0 0.00054682385007907191 0.011885983656070605 0 0.0018560458021836101 0.01180192975492715 0 0.0013220456693835867 0.011496939770297322 0 0.0014515449624003681 0.011917334206873301 0 0.0013220456693835867 0.011496939770297322 0 0.0014515449624003681 0.011917334206873301 0 0.0010541922337458163 0.012158434271810747 0 0.001727311204821885 0.012209985796151545 0 0.0014515449624003681 0.011917334206873301 0 0.0010541922337458163 0.012158434271810747 0 0.0013220456693835867 0.011496939770297322 0 0.0010541922337458163 0.012158434271810747 0 0.00054682385007907191 0.011885983656070605 0 0.0010541922337458163 0.012158434271810747 0 0.00081082032856450044 0.012709155145410239 0 0.00054682385007907191 0.011885983656070605 0 0.00067154240559343375 0.013779297952480153 0 0.0015646818190590526 0.014240339127490278 0 0.00050310833058494402 0.011801783162212221 0 0.00016803199444032809 0.010915631261547664 0 0.00066716526990161413 0.012790714569537839 0 0.00081082032856450044 0.012709155145410239 0 0.0014827468266176364 0.012587831641267708 0 0.0010541922337458163 0.012158434271810747 0 0.00081082032856450044 0.012709155145410239 0 0.0014827468266176364 0.012587831641267708 0 0.001727311204821885 0.012209985796151545 0 0.0010541922337458163 0.012158434271810747 0 0.0014827468266176364 0.012587831641267708 0 -0.0014554697106369606 0.01337514566280491 0 -0.0006157090559890298 0.011748442417506784 0 -0.0024616979614830595 0.011282419246104984 0 0.00066716526990161413 0.012790714569537839 0 -0.0014554697106369606 0.01337514566280491 0 -0.0006157090559890298 0.011748442417506784 0 0.00081082032856450044 0.012709155145410239 0 -0.0006157090559890298 0.011748442417506784 0 0.00011127896204933499 0.01017121435414561 0 0.00066716526990161413 0.012790714569537839 0 0.00081082032856450044 0.012709155145410239 0 -0.0006157090559890298 0.011748442417506784 0 -0.0006157090559890298 0.011748442417506784 0 0.00011127896204933499 0.01017121435414561 0 -0.0014325827585022649 0.010188132613838155 0 -0.0006157090559890298 0.011748442417506784 0 -0.0014325827585022649 0.010188132613838155 0 -0.0024616979614830595 0.011282419246104984 0 -0.0014325827585022649 0.010188132613838155 0 -0.0026021194351797216 0.0091528166011536401 0 -0.0024616979614830595 0.011282419246104984 0 -0.0014325827585022649 0.010188132613838155 0 -0.00075142130698836577 0.0075648444107114703 0 -0.0026021194351797216 0.0091528166011536401 0 0.00079536459004122867 0.011215327261171158 0 0.00054682385007907191 0.011885983656070605 0 0.00027536162285760686 0.011126682827439234 0 0.00011127896204933499 0.01017121435414561 0 -0.0014325827585022649 0.010188132613838155 0 -0.00075142130698836577 0.0075648444107114703 0 0.00016803199444032809 0.010915631261547664 0 -0.0004925054089052229 0.0093829868342653645 0 0.00063998864311247243 0.010931592363607572 0 0.00079536459004122867 0.011215327261171158 0 0.00027536162285760686 0.011126682827439234 0 -0.00075142130698836577 0.0075648444107114703 0 -0.002865373603895383 0.0075450746619142566 0 -0.0026021194351797216 0.0091528166011536401 0 -0.0024308701200255922 0.0062702141199483608 0 -0.00075142130698836577 0.0075648444107114703 0 -0.002865373603895383 0.0075450746619142566 0 -0.002865373603895383 0.0075450746619142566 0 -0.0040460192560043398 0.0073313748306407887 0 -0.0039857503550123977 0.0088095210537945494 0 -0.0034470806577640276 0.0062302226657291009 0 -0.002865373603895383 0.0075450746619142566 0 -0.0040460192560043398 0.0073313748306407887 0 -0.0050377460445762481 0.0063372021340985666 0 -0.0040460192560043398 0.0073313748306407887 0 -0.0052346938739073652 0.0081503852109271625 0 -0.0040460192560043398 0.0073313748306407887 0 -0.0039857503550123977 0.0088095210537945494 0 -0.0052346938739073652 0.0081503852109271625 0 -0.0039857503550123977 0.0088095210537945494 0 -0.0050207098596506648 0.0096452376228637875 0 -0.0052346938739073652 0.0081503852109271625 0 -0.0039857503550123977 0.0088095210537945494 0 -0.0050207098596506648 0.0096452376228637875 0 -0.0041000830035458867 0.01079476782064898 0 -0.002865373603895383 0.0075450746619142566 0 -0.0039857503550123977 0.0088095210537945494 0 -0.0026021194351797216 0.0091528166011536401 0 -0.0039857503550123977 0.0088095210537945494 0 -0.0026021194351797216 0.0091528166011536401 0 -0.0041000830035458867 0.01079476782064898 0 -0.0050377460445762481 0.0063372021340985666 0 -0.0067970230025298142 0.0073848437271092906 0 -0.0052346938739073652 0.0081503852109271625 0 -0.0067970230025298142 0.0073848437271092906 0 -0.0052346938739073652 0.0081503852109271625 0 -0.0065077047503516875 0.0093539529011352554 0 -0.0050207098596506648 0.0096452376228637875 0 -0.0052346938739073652 0.0081503852109271625 0 -0.0065077047503516875 0.0093539529011352554 0 -0.0065077047503516875 0.0093539529011352554 0 -0.0078674215341278681 0.010064149677698187 0 -0.0083178694864214295 0.0087589645094715476 0 -0.0067970230025298142 0.0073848437271092906 0 -0.0065077047503516875 0.0093539529011352554 0 -0.0083178694864214295 0.0087589645094715476 0 -0.0061448365707482619 0.01145968739739346 0 -0.008433353217983738 0.011559427950379828 0 -0.0078674215341278681 0.010064149677698187 0 -0.0065077047503516875 0.0093539529011352554 0 -0.0061448365707482619 0.01145968739739346 0 -0.0078674215341278681 0.010064149677698187 0 -0.0050207098596506648 0.0096452376228637875 0 -0.0065077047503516875 0.0093539529011352554 0 -0.0061448365707482619 0.01145968739739346 0 -0.0050207098596506648 0.0096452376228637875 0 -0.0061448365707482619 0.01145968739739346 0 -0.0041000830035458867 0.01079476782064898 0 -0.0061448365707482619 0.01145968739739346 0 -0.0041932854312231064 0.012453403418056577 0 -0.0057024807716219454 0.013050561287948148 0 -0.0061448365707482619 0.01145968739739346 0 -0.0077820605090348693 0.013104664515118167 0 -0.008433353217983738 0.011559427950379828 0 -0.0061448365707482619 0.01145968739739346 0 -0.0057024807716219454 0.013050561287948148 0 -0.0077820605090348693 0.013104664515118167 0 -0.0014554697106369606 0.01337514566280491 0 -0.0024616979614830595 0.011282419246104984 0 -0.0041932854312231064 0.012453403418056577 0 -0.0026021194351797216 0.0091528166011536401 0 -0.0024616979614830595 0.011282419246104984 0 -0.0041000830035458867 0.01079476782064898 0 -0.0061448365707482619 0.01145968739739346 0 -0.0041000830035458867 0.01079476782064898 0 -0.0041932854312231064 0.012453403418056577 0 -0.0024616979614830595 0.011282419246104984 0 -0.0041000830035458867 0.01079476782064898 0 -0.0041932854312231064 0.012453403418056577 0 -0.0014554697106369606 0.01337514566280491 0 -0.0041932854312231064 0.012453403418056577 0 -0.0037996497082978353 0.014322459630117343 0 -0.0014554697106369606 0.01337514566280491 0 -0.0022403122812828355 0.015691349348442934 0 -0.0037996497082978353 0.014322459630117343 0 -0.0022403122812828355 0.015691349348442934 0 -0.0037996497082978353 0.014322459630117343 0 -0.0043467623683325404 0.01618622327630664 0 -0.0037996497082978353 0.014322459630117343 0 -0.0060719711234901779 0.014633065713501975 0 -0.0043467623683325404 0.01618622327630664 0 -0.0041932854312231064 0.012453403418056577 0 -0.0037996497082978353 0.014322459630117343 0 -0.0057024807716219454 0.013050561287948148 0 -0.0037996497082978353 0.014322459630117343 0 -0.0057024807716219454 0.013050561287948148 0 -0.0060719711234901779 0.014633065713501975 0 -0.005905256687631995 0.014866697715632914 0 -0.0067729538919421069 0.014084593224581391 0 -0.0057024807716219454 0.013050561287948148 0 -0.0060719711234901779 0.014633065713501975 0 -0.0077820605090348693 0.013104664515118167 0 -0.0075709094829905267 0.015390835909209574 0 -0.0059996064695575441 0.014744591819089966 0 -0.0077820605090348693 0.013104664515118167 0 -0.005905256687631995 0.014866697715632914 0 -0.0043817032437804089 0.016255566972538334 0 -0.0059996064695575441 0.014744591819089966 0 -0.0061847115142409786 0.016584698286017031 0 -0.0043618752862032957 0.016359964759847755 0 -0.0075709094829905267 0.015390835909209574 0 -0.0061847115142409786 0.016584698286017031 0 -0.0084670130474354156 0.017224788447503438 0 -0.0075709094829905267 0.015390835909209574 0 -0.0059996064695575441 0.014744591819089966 0 -0.0061847115142409786 0.016584698286017031 0 -0.0061847115142409786 0.016584698286017031 0 -0.0084670130474354156 0.017224788447503438 0 -0.0066647172867506576 0.018273889280532224 0 -0.0061847115142409786 0.016584698286017031 0 -0.004714471567151008 0.018595462068896756 0 -0.0066647172867506576 0.018273889280532224 0 -0.0061847115142409786 0.016584698286017031 0 -0.0043618752862032957 0.016359964759847755 0 -0.004714471567151008 0.018595462068896756 0 -0.0028131722256209963 0.017896994064240085 0 -0.0043618752862032957 0.016359964759847755 0 -0.004714471567151008 0.018595462068896756 0 -0.0028561248834862657 0.017648382514463715 0 -0.0043817032437804089 0.016255566972538334 0 -0.0022403122812828355 0.015691349348442934 0 -0.0026595844229523225 0.017742034140907886 0 -0.0043467623683325404 0.01618622327630664 0 -0.010759456604792586 0.015971208460865808 0 -0.011020921768454105 0.017369870506438206 0 -0.0099869929927254818 0.016896169592473725 0 -0.010759456604792586 0.015971208460865808 0 -0.012230921827165703 0.015936917626719952 0 -0.011020921768454105 0.017369870506438206 0 -0.0065890969754153744 0.010646988395638279 0 -0.0069677248940965449 0.012127012382582469 0 -0.012062011248688489 0.015973148931250642 0 -0.011872960774220127 0.016407856330563519 0 -0.011020921768454105 0.017369870506438206 0 -0.0043578632930043699 0.0091648944207336214 0 -0.004485243772823614 0.0089991774155879396 0 -0.0046881939204008695 0.00929004079072384 0 -0.0065890969754153744 0.010646988395638279 0 -0.0059100174749304674 0.0082910226323425831 0 -0.0054561147482177002 0.0080516532386569889 0 -0.005687218680433228 0.0077543931492390274 0 -0.0055468714898446493 0.0077286017529571644 0 -0.0043578632930043699 0.0091648944207336214 0 -0.0043543074568656833 0.0094185962619529311 0 -0.0046881939204008695 0.00929004079072384 0 -0.012062011248688489 0.015973148931250642 0 -0.011872960774220127 0.016407856330563519 0 -0.012062009437372857 0.016746669949022571 0 -0.0065890969754153744 0.010646988395638279 0 -0.0069300871389595961 0.012668342927242188 0 -0.0070490397922629133 0.012834550837373376 0 -0.0069300871389595961 0.012668342927242188 0 -0.012071095899155613 0.01675582851753555 0 -0.011020921768454105 0.017369870506438206 0 -0.012044223684845468 0.019052218252221254 0 -0.0063309790751485025 0.013650827852575794 0 -0.0067220798341494871 0.014361928388245017 0 -0.0063177895109543256 0.014674072839557331 0 -0.011872960774220127 0.016407856330563519 0 -0.012071095899155613 0.01675582851753555 0 -0.011020921768454105 0.017369870506438206 0 -0.0043543074568656833 0.0094185962619529311 0 -0.0046881939204008695 0.00929004079072384 0 -0.0046387618063822734 0.0099427473793586574 0 -0.0069300871389595961 0.012668342927242188 0 -0.0061635171682327457 0.012402605129208573 0 -0.0069300871389595961 0.012668342927242188 0 -0.0076510568368883146 0.016467386592614763 0 -0.011020921768454105 0.017369870506438206 0 -0.0099869929927254818 0.016896169592473725 0 -0.010315867945553553 0.018575822284175841 0 -0.0099869929927254818 0.016896169592473725 0 -0.0084670130474354156 0.017224788447503438 0 -0.010315867945553553 0.018575822284175841 0 -0.0075709094829905267 0.015390835909209574 0 -0.0084670130474354156 0.017224788447503438 0 -0.0094125189184830829 0.015211155818187555 0 -0.0099869929927254818 0.016896169592473725 0 -0.0084670130474354156 0.017224788447503438 0 -0.0094125189184830829 0.015211155818187555 0 -0.010759456604792586 0.015971208460865808 0 -0.0099869929927254818 0.016896169592473725 0 -0.0094125189184830829 0.015211155818187555 0 -0.010759456604792586 0.015971208460865808 0 -0.0094125189184830829 0.015211155818187555 0 -0.010897414720172615 0.014244333651502978 0 -0.0094125189184830829 0.015211155818187555 0 -0.0096740510536397172 0.012929424337263238 0 -0.010897414720172615 0.014244333651502978 0 -0.0075709094829905267 0.015390835909209574 0 -0.0094125189184830829 0.015211155818187555 0 -0.0077820605090348693 0.013104664515118167 0 -0.0094125189184830829 0.015211155818187555 0 -0.0077820605090348693 0.013104664515118167 0 -0.0096740510536397172 0.012929424337263238 0 -0.0096740510536397172 0.012929424337263238 0 -0.010897414720172615 0.014244333651502978 0 -0.010995783762571232 0.012112013101035655 0 -0.010897414720172615 0.014244333651502978 0 -0.012314259147367581 0.013287357508802002 0 -0.010995783762571232 0.012112013101035655 0 -0.010759456604792586 0.015971208460865808 0 -0.012230921827165703 0.015936917626719952 0 -0.010897414720172615 0.014244333651502978 0 -0.012230921827165703 0.015936917626719952 0 -0.010897414720172615 0.014244333651502978 0 -0.012314259147367581 0.013287357508802002 0 -0.0054561147482177002 0.0080516532386569889 0 -0.0055468714898446493 0.0077286017529571644 0 -0.0054684320131761117 0.0065826908993785573 0 -0.0065890969754153744 0.010646988395638279 0 -0.0069430542251622367 0.009424260999461774 0 -0.0055468714898446493 0.0077286017529571644 0 -0.0054684320131761117 0.0065826908993785573 0 -0.0062244269481369109 0.0070560420352171194 0 -0.0056871722819347654 0.0077539916786709398 0 -0.0055468714898446493 0.0077286017529571644 0 -0.0062244269481369109 0.0070560420352171194 0 -0.0059100174749304674 0.0082910226323425831 0 -0.0059047908624419139 0.0082883582110499926 0 -0.0054684320131761117 0.0065826908993785573 0 -0.0061179758978548255 0.0057454619149396643 0 -0.0061418138341390637 0.006436418838588657 0 -0.0054684320131761117 0.0065826908993785573 0 -0.0054823040600960968 0.0051267462653162297 0 -0.0061179758978548255 0.0057454619149396643 0 -0.012314259147367581 0.013287357508802002 0 -0.010995783762571232 0.012112013101035655 0 -0.012361204516899545 0.010627295087342399 0 -0.0069430542251622367 0.009424260999461774 0 -0.0057109104529233018 0.0054534291341134201 0 -0.010995783762571232 0.012112013101035655 0 -0.01063101726123105 0.0105687584600821 0 -0.0098979106559853574 0.011329878178417484 0 -0.010995783762571232 0.012112013101035655 0 -0.01063101726123105 0.0105687584600821 0 -0.012361204516899545 0.010627295087342399 0 -0.01063101726123105 0.0105687584600821 0 -0.012361204516899545 0.010627295087342399 0 -0.010558002113421788 0.0088209831597351913 0 -0.00097648163106408171 -0.0013483138715570853 0 -0.00093477921397227095 -0.0013145961843902489 0 -0.0010260726771035779 -0.0015213176340873511 0 -0.005670142634824564 0.0052184460615152545 0 -0.0057109104529233018 0.0054534291341134201 0 -0.00097648163106408171 -0.0013483138715570853 0 -0.0011303819951497607 -0.001370503180914803 0 -0.0012244299170218842 -0.0011910443989793411 0 -0.00097648163106408171 -0.0013483138715570853 0 -0.0009689569160060967 -0.0011820585181934297 0 -0.0012244299170218842 -0.0011910443989793411 0 -0.0057109104529233018 0.0054534291341134201 0 -0.0041415782435425671 0.0037990999969092836 0 -0.0009689569160060967 -0.0011820585181934297 0 -0.001272095443073953 -0.00083679990684058932 0 -0.0012244299170218842 -0.0011910443989793411 0 -0.0077820605090348693 0.013104664515118167 0 -0.0096740510536397172 0.012929424337263238 0 -0.008433353217983738 0.011559427950379828 0 -0.0096740510536397172 0.012929424337263238 0 -0.008433353217983738 0.011559427950379828 0 -0.0098979106559853574 0.011329878178417484 0 -0.0096740510536397172 0.012929424337263238 0 -0.010995783762571232 0.012112013101035655 0 -0.0098979106559853574 0.011329878178417484 0 -0.008433353217983738 0.011559427950379828 0 -0.0098979106559853574 0.011329878178417484 0 -0.0093441455002974613 0.0099560465914059638 0 -0.01063101726123105 0.0105687584600821 0 -0.0098979106559853574 0.011329878178417484 0 -0.0093441455002974613 0.0099560465914059638 0 -0.008433353217983738 0.011559427950379828 0 -0.0093441455002974613 0.0099560465914059638 0 -0.0078674215341278681 0.010064149677698187 0 -0.0093441455002974613 0.0099560465914059638 0 -0.0078674215341278681 0.010064149677698187 0 -0.0083178694864214295 0.0087589645094715476 0 -0.0093441455002974613 0.0099560465914059638 0 -0.0083178694864214295 0.0087589645094715476 0 -0.010558002113421788 0.0088209831597351913 0 -0.01063101726123105 0.0105687584600821 0 -0.0093441455002974613 0.0099560465914059638 0 -0.010558002113421788 0.0088209831597351913 0 -0.0087832898244101718 0.0069656922091296952 0 -0.0083178694864214295 0.0087589645094715476 0 -0.010558002113421788 0.0088209831597351913 0 -0.0055428047981165192 0.0034992494570835319 0 -0.0056841298561843313 0.0042076624674951017 0 -0.002779827550875569 -0.00056283093639924726 0 -0.0012643211440610488 -0.0016636199515343325 0 -0.001384288448687043 -0.00090971912238873719 0 -0.0087832898244101718 0.0069656922091296952 0 -0.0067970230025298142 0.0073848437271092906 0 -0.0083178694864214295 0.0087589645094715476 0 -0.0010593504553186195 -0.0014804149051579109 0 -0.0010260726771035779 -0.0015213176340873511 0 -0.00078936693309661365 -0.0015256651228518158 0 -0.0010593504553186195 -0.0014804149051579109 0 -0.0010383663873491608 -0.0014389125847882815 0 -0.0010260726771035779 -0.0015213176340873511 0 -0.00097648163106408171 -0.0013483138715570853 0 -0.0011303819951497607 -0.001370503180914803 0 -0.0010383663873491608 -0.0014389125847882815 0 -0.0010593504553186195 -0.0014804149051579109 0 -0.0011303819951497607 -0.001370503180914803 0 -0.0010383663873491608 -0.0014389125847882815 0 -0.00097648163106408171 -0.0013483138715570853 0 -0.0010383663873491608 -0.0014389125847882815 0 -0.0010260726771035779 -0.0015213176340873511 0 -0.0057109104529233018 0.0054534291341134201 0 -0.0056841298561843313 0.0042076624674951017 0 -0.0012643211440610488 -0.0016636199515343325 0 -0.0010260726771035779 -0.0015213176340873511 0 -0.00078936693309661365 -0.0015256651228518158 0 -0.00093477921397227095 -0.0013145961843902489 0 -0.0012643211440610488 -0.0016636199515343325 0 -0.0010260726771035779 -0.0015213176340873511 0 -0.0012643211440610488 -0.0016636199515343325 0 -0.001384288448687043 -0.00090971912238873719 0 -0.00078936693309661365 -0.0015256651228518158 0 -0.0010593504553186195 -0.0014804149051579109 0 -0.00078936693309661365 -0.0015256651228518158 0 -0.0013804811917433196 -0.0020299057430746871 0 -0.0010593504553186195 -0.0014804149051579109 0 -0.0013804811917433196 -0.0020299057430746871 0 -0.0016214151705119442 -0.001688414461977164 0 -0.0010593504553186195 -0.0014804149051579109 0 -0.0014165095313143209 -0.0013523604723059369 0 -0.0016214151705119442 -0.001688414461977164 0 -0.0010593504553186195 -0.0014804149051579109 0 -0.0011303819951497607 -0.001370503180914803 0 -0.0014165095313143209 -0.0013523604723059369 0 -0.0016214151705119442 -0.001688414461977164 0 -0.0020743167070558341 -0.0016243836227143931 0 -0.0018624202726003885 -0.0011866447007289681 0 -0.0014165095313143209 -0.0013523604723059369 0 -0.0016214151705119442 -0.001688414461977164 0 -0.0018624202726003885 -0.0011866447007289681 0 -0.0020743167070558341 -0.0016243836227143931 0 -0.0022196132599853367 -0.0013027355602016561 0 -0.0018624202726003885 -0.0011866447007289681 0 -0.0016214151705119442 -0.001688414461977164 0 -0.0019310672407817134 -0.0020716637911732125 0 -0.0020743167070558341 -0.0016243836227143931 0 -0.0013804811917433196 -0.0020299057430746871 0 -0.0016214151705119442 -0.001688414461977164 0 -0.0019310672407817134 -0.0020716637911732125 0 -0.0019310672407817134 -0.0020716637911732125 0 -0.0024448684393044203 -0.0019455568823537525 0 -0.0020743167070558341 -0.0016243836227143931 0 -0.0024448684393044203 -0.0019455568823537525 0 -0.0027725703383136881 -0.0015671562784643803 0 -0.0023778719561194264 -0.0016085142115124951 0 -0.0024448684393044203 -0.0019455568823537525 0 -0.0020743167070558341 -0.0016243836227143931 0 -0.0023778719561194264 -0.0016085142115124951 0 -0.0024448684393044203 -0.0019455568823537525 0 -0.0027725703383136881 -0.0015671562784643803 0 -0.0031150004540238881 -0.0021492938199745345 0 -0.0027725703383136881 -0.0015671562784643803 0 -0.0031150004540238881 -0.0021492938199745345 0 -0.0030760422158784204 -0.0012170659480353117 0 -0.0027725703383136881 -0.0015671562784643803 0 -0.0024848546232459886 -0.00096229282653589843 0 -0.0030760422158784204 -0.0012170659480353117 0 -0.0033234941133066459 -0.00041778217825693504 0 -0.0032836885102747715 0.00020041377572458825 0 -0.0027725703383136881 -0.0015671562784643803 0 -0.0022196132599853367 -0.0013027355602016561 0 -0.0022616097989423302 -0.00094071399506243342 0 -0.0027725703383136881 -0.0015671562784643803 0 -0.0023778719561194264 -0.0016085142115124951 0 -0.0022196132599853367 -0.0013027355602016561 0 -0.0020743167070558341 -0.0016243836227143931 0 -0.0023778719561194264 -0.0016085142115124951 0 -0.0022196132599853367 -0.0013027355602016561 0 -0.0027725703383136881 -0.0015671562784643803 0 -0.0024848546232459886 -0.00096229282653589843 0 -0.0022370182719810877 -0.00088435935630719212 0 -0.0022196132599853367 -0.0013027355602016561 0 -0.0022616097989423302 -0.00094071399506243342 0 -0.0020519136095091157 -0.0010412099954629553 0 -0.0024848546232459886 -0.00096229282653589843 0 -0.0022370182719810877 -0.00088435935630719212 0 -0.0024643822917630866 -0.00047156022254512994 0 -0.0024175668080927194 -0.001880138001756862 0 -0.0025629320576188428 -0.0028775689794873277 0 -0.0024848546232459886 -0.00096229282653589843 0 -0.003037243895687661 -0.00028840979211101599 0 -0.0030760422158784204 -0.0012170659480353117 0 -0.0027645237610311986 -0.0012436899794605175 0 -0.0024175668080927194 -0.001880138001756862 0 -0.003114112798099034 -0.00020010014356998791 0 -0.0024643822917630866 -0.00047156022254512994 0 -0.002445514144196647 -0.00012896368060311611 0 -0.0024848546232459886 -0.00096229282653589843 0 -0.003114112798099034 -0.00020010014356998791 0 -0.0024643822917630866 -0.00047156022254512994 0 -0.0022370182719810877 -0.00088435935630719212 0 -0.0024643822917630866 -0.00047156022254512994 0 -0.0021283152075624273 -0.00010626524473472695 0 -0.0024643822917630866 -0.00047156022254512994 0 -0.002445514144196647 -0.00012896368060311611 0 -0.0021283152075624273 -0.00010626524473472695 0 -0.0017597155478783861 -0.00028237412817413765 0 -0.0019045822706749763 -0.00085002801300239675 0 -0.0015847613357536699 -0.00080305538371824544 0 -0.0034582180790785214 0.0020274301353941601 0 -0.0025932451172691671 0.00013632157835367174 0 -0.0022370182719810877 -0.00088435935630719212 0 -0.0021283152075624273 -0.00010626524473472695 0 -0.0016536090898906781 -0.00013242875196930147 0 -0.0016872609879080727 -0.00064104508775142367 0 -0.0015040784206159035 -0.00080715619689491851 0 -0.0015437982473257212 -0.0010460321518047674 0 -0.0032836885102747715 0.00020041377572458825 0 -0.0034582180790785214 0.0020274301353941601 0 -0.0022616097989423302 -0.00094071399506243342 0 -0.0017597155478783861 -0.00028237412817413765 0 -0.0019045822706749763 -0.00085002801300239675 0 -0.0016872609879080727 -0.00064104508775142367 0 -0.0015040784206159035 -0.00080715619689491851 0 -0.0015876591943670038 -0.00051392732067726324 0 -0.0061179758978548255 0.0057454619149396643 0 -0.0061418138341390637 0.006436418838588657 0 -0.0067551785944789389 0.0063629654218320805 0 -0.0041415782435425671 0.0037990999969092836 0 -0.0036362661741331185 0.0034340392367581034 0 -0.001272095443073953 -0.00083679990684058932 0 -0.0015040784206159035 -0.00080715619689491851 0 -0.0015876591943670038 -0.00051392732067726324 0 -0.001272095443073953 -0.00083679990684058932 0 -0.0015040784206159035 -0.00080715619689491851 0 -0.0015437982473257212 -0.0010460321518047674 0 -0.0014165095313143209 -0.0013523604723059369 0 -0.0012244299170218842 -0.0011910443989793411 0 -0.0015437982473257212 -0.0010460321518047674 0 -0.0023431492783852208 -0.00039541467615192895 0 -0.0025932451172691671 0.00013632157835367174 0 -0.001272095443073953 -0.00083679990684058932 0 -0.0012244299170218842 -0.0011910443989793411 0 -0.0015437982473257212 -0.0010460321518047674 0 -0.0011303819951497607 -0.001370503180914803 0 -0.0014165095313143209 -0.0013523604723059369 0 -0.0012244299170218842 -0.0011910443989793411 0 -0.0014165095313143209 -0.0013523604723059369 0 -0.0018624202726003885 -0.0011866447007289681 0 -0.0015847613357536699 -0.00080305538371824544 0 -0.0020519136095091157 -0.0010412099954629553 0 -0.0018624202726003885 -0.0011866447007289681 0 -0.0019045822706749763 -0.00085002801300239675 0 -0.0022196132599853367 -0.0013027355602016561 0 -0.0020519136095091157 -0.0010412099954629553 0 -0.0018624202726003885 -0.0011866447007289681 0 -0.0022616097989423302 -0.00094071399506243342 0 -0.0020519136095091157 -0.0010412099954629553 0 -0.0019045822706749763 -0.00085002801300239675 0 -0.0018624202726003885 -0.0011866447007289681 0 -0.0019045822706749763 -0.00085002801300239675 0 -0.0015847613357536699 -0.00080305538371824544 0 -0.0013355056972554141 -0.0047087811454429029 0 -0.0017567209591371623 -0.0047562012484417566 0 -0.0016352944696135033 -0.0042983510882674191 0 -0.0017567209591371623 -0.0047562012484417566 0 -0.0016352944696135033 -0.0042983510882674191 0 -0.0019892966524788468 -0.0045210221568227999 0 -0.0016352944696135033 -0.0042983510882674191 0 -0.0019500235341765558 -0.0042046570672315958 0 -0.0019892966524788468 -0.0045210221568227999 0 -0.0017567209591371623 -0.0047562012484417566 0 -0.0019892966524788468 -0.0045210221568227999 0 -0.0020394352655643674 -0.0049217608058873714 0 -0.0019892966524788468 -0.0045210221568227999 0 -0.0023895468494283143 -0.0047551865602067584 0 -0.0020394352655643674 -0.0049217608058873714 0 -0.0019892966524788468 -0.0045210221568227999 0 -0.0023895468494283143 -0.0047551865602067584 0 -0.002388325419492313 -0.0043415974045549217 0 -0.0023895468494283143 -0.0047551865602067584 0 -0.002388325419492313 -0.0043415974045549217 0 -0.0025826463948450786 -0.0045047527833897141 0 -0.0019854195722816327 -0.003931577298304941 0 -0.0021125417842573525 -0.0037688689497318178 0 -0.0020134352271025504 -0.0039904703554321103 0 -0.0019500235341765558 -0.0042046570672315958 0 -0.0020885697159959676 -0.0042610920466846555 0 -0.0019500235341765558 -0.0042046570672315958 0 -0.0019892966524788468 -0.0045210221568227999 0 -0.0020885697159959676 -0.0042610920466846555 0 -0.002388325419492313 -0.0043415974045549217 0 -0.0027733682413621304 -0.0041485411520738339 0 -0.0025826463948450786 -0.0045047527833897141 0 -0.0027733682413621304 -0.0041485411520738339 0 -0.0025826463948450786 -0.0045047527833897141 0 -0.0027784227671393239 -0.0047701741782852298 0 -0.0021125417842573525 -0.0037688689497318178 0 -0.0024169308952345266 -0.0033046147341189453 0 -0.0024169308952345266 -0.0033046147341189453 0 -0.0025629320576188428 -0.0028775689794873277 0 -0.0023895468494283143 -0.0047551865602067584 0 -0.0025826463948450786 -0.0045047527833897141 0 -0.0027784227671393239 -0.0047701741782852298 0 -0.0023895468494283143 -0.0047551865602067584 0 -0.0027784227671393239 -0.0047701741782852298 0 -0.0025147018315698276 -0.0050670221076804661 0 -0.0027559151499565245 -0.0053303560900250999 0 -0.0027784227671393239 -0.0047701741782852298 0 -0.0025147018315698276 -0.0050670221076804661 0 -0.0027559151499565245 -0.0053303560900250999 0 -0.0025147018315698276 -0.0050670221076804661 0 -0.0023306886556694146 -0.0053634841322045025 0 -0.0023306886556694146 -0.0053634841322045025 0 -0.0022534728890111983 -0.0051033232943662283 0 -0.0020288757532252416 -0.0052753643710594525 0 -0.0025147018315698276 -0.0050670221076804661 0 -0.0023306886556694146 -0.0053634841322045025 0 -0.0022534728890111983 -0.0051033232943662283 0 -0.0023895468494283143 -0.0047551865602067584 0 -0.0025147018315698276 -0.0050670221076804661 0 -0.0022534728890111983 -0.0051033232943662283 0 -0.0023895468494283143 -0.0047551865602067584 0 -0.0022534728890111983 -0.0051033232943662283 0 -0.0020394352655643674 -0.0049217608058873714 0 -0.0022534728890111983 -0.0051033232943662283 0 -0.0020394352655643674 -0.0049217608058873714 0 -0.0020288757532252416 -0.0052753643710594525 0 -0.0020394352655643674 -0.0049217608058873714 0 -0.0020288757532252416 -0.0052753643710594525 0 -0.0018715947495926771 -0.0050728371154921447 0 -0.0017567209591371623 -0.0047562012484417566 0 -0.0020394352655643674 -0.0049217608058873714 0 -0.0018715947495926771 -0.0050728371154921447 0 -0.0023306886556694146 -0.0053634841322045025 0 -0.0020288757532252416 -0.0052753643710594525 0 -0.0021113923951052715 -0.0055754875457092639 0 -0.0020288757532252416 -0.0052753643710594525 0 -0.0018240312082215473 -0.0052873989747822415 0 -0.0018715947495926771 -0.0050728371154921447 0 -0.0020288757532252416 -0.0052753643710594525 0 -0.0018240312082215473 -0.0052873989747822415 0 -0.0018956806243603714 -0.0054861541365823999 0 -0.0018240312082215473 -0.0052873989747822415 0 -0.0016426885543800399 -0.005063486554086118 0 -0.0018715947495926771 -0.0050728371154921447 0 -0.0013355056972554141 -0.0047087811454429029 0 -0.0017567209591371623 -0.0047562012484417566 0 -0.0016426885543800399 -0.005063486554086118 0 -0.0015676726113115736 -0.0052552815440061055 0 -0.0018240312082215473 -0.0052873989747822415 0 -0.0016426885543800399 -0.005063486554086118 0 -0.0017567209591371623 -0.0047562012484417566 0 -0.0016426885543800399 -0.005063486554086118 0 -0.0018715947495926771 -0.0050728371154921447 0 -0.0016846462534678432 -0.0056069460251615905 0 -0.0019008965978823454 -0.0056923112553553951 0 -0.0018192274286333542 -0.00590875615153128 0 -0.0014815544672128521 -0.0060757132825145039 0 -0.0016449154663237318 -0.0057460833375369714 0 -0.0016846462534678432 -0.0056069460251615905 0 -0.0018240312082215473 -0.0052873989747822415 0 -0.0018956806243603714 -0.0054861541365823999 0 -0.0016846462534678432 -0.0056069460251615905 0 -0.0019008965978823454 -0.0056923112553553951 0 -0.0018956806243603714 -0.0054861541365823999 0 -0.0019008965978823454 -0.0056923112553553951 0 -0.0018956806243603714 -0.0054861541365823999 0 -0.0021113923951052715 -0.0055754875457092639 0 -0.0020288757532252416 -0.0052753643710594525 0 -0.0018956806243603714 -0.0054861541365823999 0 -0.0021113923951052715 -0.0055754875457092639 0 -0.0019008965978823454 -0.0056923112553553951 0 -0.0021672277847783455 -0.0059174516633426167 0 -0.0018192274286333542 -0.00590875615153128 0 -0.0019008965978823454 -0.0056923112553553951 0 -0.0021113923951052715 -0.0055754875457092639 0 -0.0021672277847783455 -0.0059174516633426167 0 -0.0017462694729793043 -0.00086413029468183184 0 -0.001711342663182914 -0.0011605408663506562 0 -0.001489209961193306 -0.0011603314003506885 0 -0.0021113923951052715 -0.0055754875457092639 0 -0.0024367831988743364 -0.0056543120232945346 0 -0.0021672277847783455 -0.0059174516633426167 0 -0.0019720312620331707 -0.0029169296299837795 0 -0.001744374441258032 -0.0034080732022249375 0 -0.0023306886556694146 -0.0053634841322045025 0 -0.0021113923951052715 -0.0055754875457092639 0 -0.0024367831988743364 -0.0056543120232945346 0 -0.0024175668080927194 -0.001880138001756862 0 -0.0019720312620331707 -0.0029169296299837795 0 -0.0027559151499565245 -0.0053303560900250999 0 -0.0023306886556694146 -0.0053634841322045025 0 -0.0024367831988743364 -0.0056543120232945346 0 -0.0019882935924655848 -0.00057860383517827833 0 -0.0017462694729793043 -0.00086413029468183184 0 -0.001998074753537948 -0.00092096534198737639 0 -0.0017462694729793043 -0.00086413029468183184 0 -0.001877021190100691 -0.0011034406706340086 0 -0.001998074753537948 -0.00092096534198737639 0 -0.0017462694729793043 -0.00086413029468183184 0 -0.001877021190100691 -0.0011034406706340086 0 -0.001711342663182914 -0.0011605408663506562 0 -0.001877021190100691 -0.0011034406706340086 0 -0.001998074753537948 -0.00092096534198737639 0 -0.0020129862135403074 -0.0012907169945297174 0 -0.001877021190100691 -0.0011034406706340086 0 -0.0018471494241001885 -0.0013064137656966226 0 -0.001711342663182914 -0.0011605408663506562 0 -0.001877021190100691 -0.0011034406706340086 0 -0.0018471494241001885 -0.0013064137656966226 0 -0.0020129862135403074 -0.0012907169945297174 0 -0.0024014814303008163 0.0014423223842184238 0 -0.0025353496182490371 0.0015844998152954198 0 -0.0018471494241001885 -0.0013064137656966226 0 -0.0017485891315256877 -0.0015585554685604399 0 -0.0020212633583201393 -0.0012892274234730819 0 -0.0015157216692669895 -0.00036718018705303576 0 -0.0025353496182490371 0.0015844998152954198 0 -0.0018471494241001885 -0.0013064137656966226 0 -0.0017485891315256877 -0.0015585554685604399 0 -0.0016194610049967625 -0.0013642819648732843 0 -0.0017976575200724222 -0.0014756827182622414 0 -0.0021531083830614748 -0.0011238687557421929 0 -0.0021664575052940268 -0.001722182155101404 0 -0.0017485891315256877 -0.0015585554685604399 0 -0.0016194610049967625 -0.0013642819648732843 0 -0.0014744996922346934 -0.0015820283004320183 0 -0.0016194610049967625 -0.0013642819648732843 0 -0.001711342663182914 -0.0011605408663506562 0 -0.001489209961193306 -0.0011603314003506885 0 -0.0018471494241001885 -0.0013064137656966226 0 -0.0016194610049967625 -0.0013642819648732843 0 -0.001711342663182914 -0.0011605408663506562 0 -0.001744374441258032 -0.0034080732022249375 0 -0.0015322363884097499 -0.0037455630050716171 0 -0.0021672277847783455 -0.0059174516633426167 0 -0.0019398851832757261 -0.0061589971757353831 0 -0.0018192274286333542 -0.00590875615153128 0 -0.0016194610049967625 -0.0013642819648732843 0 -0.001489209961193306 -0.0011603314003506885 0 -0.0012252841109104138 -0.0014729539216371257 0 -0.0016194610049967625 -0.0013642819648732843 0 -0.0014744996922346934 -0.0015820283004320183 0 -0.0012252841109104138 -0.0014729539216371257 0 -0.0014744996922346934 -0.0015820283004320183 0 -0.0012252841109104138 -0.0014729539216371257 0 -0.0012972713174607766 -0.0016971621469862865 0 -0.0016589631006049804 -0.0061707491094618828 0 -0.0019398851832757261 -0.0061589971757353831 0 -0.0018192274286333542 -0.00590875615153128 0 -0.0016589631006049804 -0.0061707491094618828 0 -0.0017286357617471791 -0.0063997851554834168 0 -0.0019398851832757261 -0.0061589971757353831 0 -0.0034657897242973317 0.0030044177198550286 0 -0.0037795860215352008 0.0039739512386472216 0 -0.0041076010041193193 0.0044913591046816873 0 -0.0040602083688174541 0.0048793876106361361 0 -0.003840677500282275 0.0041879343039888123 0 -0.0042388898276536913 0.0046256826326160584 0 -0.0041076010041193193 0.0044913591046816873 0 -0.0040602083688174541 0.0048793876106361361 0 -0.0042388898276536913 0.0046256826326160584 0 -0.0041076010041193193 0.0044913591046816873 0 -0.0042893582978399142 0.0042742004371262715 0 -0.0048239130308633457 0.0043793230362531993 0 -0.0045456195631642781 0.0047280874004104077 0 -0.0042893582978399142 0.0042742004371262715 0 -0.0042388898276536913 0.0046256826326160584 0 -0.0045456195631642781 0.0047280874004104077 0 -0.0042893582978399142 0.0042742004371262715 0 -0.0059100174749304674 0.0082910226323425831 0 -0.0049035319120707887 0.0057924655714413527 0 -0.0049035319120707887 0.0057924655714413527 0 -0.0036362661741331185 0.0034340392367581034 0 -0.0042388898276536913 0.0046256826326160584 0 -0.0045456195631642781 0.0047280874004104077 0 -0.0042680861782993223 0.0050794234648115621 0 -0.0062244269481369109 0.0070560420352171194 0 -0.0061418138341390637 0.006436418838588657 0 -0.0067551785944789389 0.0063629654218320805 0 -0.0054684320131761117 0.0065826908993785573 0 -0.0062244269481369109 0.0070560420352171194 0 -0.0061418138341390637 0.006436418838588657 0 -0.0034582180790785214 0.0020274301353941601 0 -0.0036362661741331185 0.0034340392367581034 0 -0.0034582180790785214 0.0020274301353941601 0 -0.0034657897242973317 0.0030044177198550286 0 -0.0036362661741331185 0.0034340392367581034 0 -0.0034657897242973317 0.0030044177198550286 0 -0.0042388898276536913 0.0046256826326160584 0 -0.0042680861782993223 0.0050794234648115621 0 -0.0040602083688174541 0.0048793876106361361 0 -0.0033119125153220426 0.0039210728874152518 0 -0.0036328875287896193 0.0035094651151516389 0 -0.0029626040092478058 0.0028638023042217289 0 -0.0021283152075624273 -0.00010626524473472695 0 -0.0016536090898906781 -0.00013242875196930147 0 -0.001808103282278111 0.00033824440951889749 0 -0.0021283152075624273 -0.00010626524473472695 0 -0.001808103282278111 0.00033824440951889749 0 -0.0024112718873966913 0.00037557684806339341 0 -0.002445514144196647 -0.00012896368060311611 0 -0.0021283152075624273 -0.00010626524473472695 0 -0.0024112718873966913 0.00037557684806339341 0 -0.0024175668080927194 -0.001880138001756862 0 -0.0024878406976653984 -0.00017326494835216111 0 -0.003114112798099034 -0.00020010014356998791 0 -0.0024112718873966913 0.00037557684806339341 0 -0.0030837311535652132 0.00065251998837772131 0 -0.003114112798099034 -0.00020010014356998791 0 -0.002445514144196647 -0.00012896368060311611 0 -0.0024112718873966913 0.00037557684806339341 0 -0.0024112718873966913 0.00037557684806339341 0 -0.0030837311535652132 0.00065251998837772131 0 -0.0024018325078931481 0.00091491997248092504 0 -0.0030837311535652132 0.00065251998837772131 0 -0.0024018325078931481 0.00091491997248092504 0 -0.002995898439624679 0.0014934949289255102 0 -0.001808103282278111 0.00033824440951889749 0 -0.0024112718873966913 0.00037557684806339341 0 -0.0024018325078931481 0.00091491997248092504 0 -0.0034657897242973317 0.0030044177198550286 0 -0.0031181874216902055 0.0025824215269748224 0 -0.0039778780927372257 0.0046474583771881038 0 -0.00369623542568356 0.0043809560656906847 0 -0.003840677500282275 0.0041879343039888123 0 -0.00369623542568356 0.0043809560656906847 0 -0.0037741256046031823 0.0041596461181949724 0 -0.003393752351483338 0.0040937270631031123 0 -0.00369623542568356 0.0043809560656906847 0 -0.003840677500282275 0.0041879343039888123 0 -0.0037741256046031823 0.0041596461181949724 0 -0.0026906823973029607 0.0036182024384162448 0 -0.0027747353070222561 0.0036751426353918135 0 -0.002874730206224438 0.0036446708703635378 0 -0.0031181874216902055 0.0025824215269748224 0 -0.0028128457278873927 0.0021401586122744344 0 -0.0030837311535652132 0.00065251998837772131 0 -0.0030501985794640571 0.0015463828972119653 0 -0.002995898439624679 0.0014934949289255102 0 -0.0024878406976653984 -0.00017326494835216111 0 -0.0025353496182490371 0.0015844998152954198 0 -0.0044778689690569626 0.0054255121626676367 0 -0.0028128457278873927 0.0021401586122744344 0 -0.0027747353070222561 0.0036751426353918135 0 -0.0028878437336908257 0.003657334050813052 0 -0.002874730206224438 0.0036446708703635378 0 -0.0025353496182490371 0.0015844998152954198 0 -0.0028128457278873927 0.0021401586122744344 0 -0.0025353496182490371 0.0015844998152954198 0 -0.0023799794032423817 0.0011627176913113183 0 -0.0027747353070222561 0.0036751426353918135 0 -0.0028878437336908257 0.003657334050813052 0 -0.0027951496881566699 0.0038032232027442477 0 -0.0028878437336908257 0.003657334050813052 0 -0.0027951496881566699 0.0038032232027442477 0 -0.002873721788478768 0.0039083215510908259 0 -0.0026906823973029607 0.0036182024384162448 0 -0.0027747353070222561 0.0036751426353918135 0 -0.0026798474038691477 0.0038417404106872561 0 -0.0044778689690569626 0.0054255121626676367 0 -0.0041425072274463935 0.0066848282155689692 0 -0.0027747353070222561 0.0036751426353918135 0 -0.0027951496881566699 0.0038032232027442477 0 -0.0026798474038691477 0.0038417404106872561 0 -0.0056334503559402963 0.0092069061708882887 0 -0.0051429459712582391 0.0095978527464363386 0 -0.0056157328005176834 0.0099153145591175627 0 -0.0056334503559402963 0.0092069061708882887 0 -0.0051429459712582391 0.0095978527464363386 0 -0.0050585037243934755 0.0090977444406668238 0 -0.0044778689690569626 0.0054255121626676367 0 -0.0049438887553182268 0.0067892871286067396 0 -0.0041076010041193193 0.0044913591046816873 0 -0.003840677500282275 0.0041879343039888123 0 -0.0042893582978399142 0.0042742004371262715 0 -0.003840677500282275 0.0041879343039888123 0 -0.0037741256046031823 0.0041596461181949724 0 -0.0042893582978399142 0.0042742004371262715 0 -0.004485243772823614 0.0089991774155879396 0 -0.0050585037243934755 0.0090977444406668238 0 -0.0046881939204008695 0.00929004079072384 0 -0.0059100174749304674 0.0082910226323425831 0 -0.0049438887553182268 0.0067892871286067396 0 -0.0051429459712582391 0.0095978527464363386 0 -0.0050585037243934755 0.0090977444406668238 0 -0.0046881939204008695 0.00929004079072384 0 -0.0051429459712582391 0.0095978527464363386 0 -0.0046881939204008695 0.00929004079072384 0 -0.0046387618063822734 0.0099427473793586574 0 -0.0046387618063822734 0.0099427473793586574 0 -0.0049257920535795306 0.010481723124658646 0 -0.0052108418853154051 0.010179336482740211 0 -0.0061635171682327457 0.012402605129208573 0 -0.0059660235993817621 0.012895546041967144 0 -0.0051429459712582391 0.0095978527464363386 0 -0.0046387618063822734 0.0099427473793586574 0 -0.0052108418853154051 0.010179336482740211 0 -0.0067220798341494871 0.014361928388245017 0 -0.007112253497021769 0.015068774517129853 0 -0.0065900533689738821 0.015125310686311061 0 -0.007112253497021769 0.015068774517129853 0 -0.0069193532591453506 0.015580194854646887 0 -0.0065900533689738821 0.015125310686311061 0 -0.0053080198475430216 0.010608000866278574 0 -0.0052108418853154051 0.010179336482740211 0 -0.0056048123315517052 0.010633167100963035 0 -0.0049257920535795306 0.010481723124658646 0 -0.0053080198475430216 0.010608000866278574 0 -0.005224007333980399 0.011038557784209417 0 -0.0049257920535795306 0.010481723124658646 0 -0.0053080198475430216 0.010608000866278574 0 -0.0052108418853154051 0.010179336482740211 0 -0.0051429459712582391 0.0095978527464363386 0 -0.0052108418853154051 0.010179336482740211 0 -0.0056157328005176834 0.0099153145591175627 0 -0.0026798474038691477 0.0038417404106872561 0 -0.0027599587022037225 0.0039331464739014062 0 -0.0026679631582965263 0.0040634374988285501 0 -0.0041425072274463935 0.0066848282155689692 0 -0.0038199637157270154 0.0073102141243141456 0 -0.0052108418853154051 0.010179336482740211 0 -0.0056157328005176834 0.0099153145591175627 0 -0.0056048123315517052 0.010633167100963035 0 -0.0027951496881566699 0.0038032232027442477 0 -0.0026798474038691477 0.0038417404106872561 0 -0.0027599587022037225 0.0039331464739014062 0 -0.0027951496881566699 0.0038032232027442477 0 -0.0027599587022037225 0.0039331464739014062 0 -0.002873721788478768 0.0039083215510908259 0 -0.0023799794032423817 0.0011627176913113183 0 -0.0021112954686529151 0.0010806719322555179 0 -0.002873721788478768 0.0039083215510908259 0 -0.0027750181798113383 0.0040496885192422699 0 -0.0028543857985754584 0.0041546401925279582 0 -0.0021664575052940268 -0.001722182155101404 0 -0.0021683065345050518 -0.0023047978835337274 0 -0.0020731883666100515 -0.0022228113184148122 0 -0.0027599587022037225 0.0039331464739014062 0 -0.002873721788478768 0.0039083215510908259 0 -0.0027750181798113383 0.0040496885192422699 0 -0.0027599587022037225 0.0039331464739014062 0 -0.0027750181798113383 0.0040496885192422699 0 -0.0026679631582965263 0.0040634374988285501 0 -0.0053080198475430216 0.010608000866278574 0 -0.0056048123315517052 0.010633167100963035 0 -0.005573226592296969 0.010753911831966648 0 -0.0056048123315517052 0.010633167100963035 0 -0.005573226592296969 0.010753911831966648 0 -0.0055645034719391407 0.011693238378787274 0 -0.0038199637157270154 0.0073102141243141456 0 -0.0033220618119537714 0.00774310798286801 0 -0.005573226592296969 0.010753911831966648 0 -0.0054456646672227695 0.011285091443569201 0 -0.0055645034719391407 0.011693238378787274 0 -0.0026679631582965263 0.0040634374988285501 0 -0.0027449684061868363 0.0041670857744314496 0 -0.0026561244640390331 0.004279501891370145 0 -0.0027750181798113383 0.0040496885192422699 0 -0.0026679631582965263 0.0040634374988285501 0 -0.0027449684061868363 0.0041670857744314496 0 -0.0027750181798113383 0.0040496885192422699 0 -0.0027449684061868363 0.0041670857744314496 0 -0.0028543857985754584 0.0041546401925279582 0 -0.0027449684061868363 0.0041670857744314496 0 -0.0028543857985754584 0.0041546401925279582 0 -0.0027597476986539332 0.0042743802258762877 0 -0.0021683065345050518 -0.0023047978835337274 0 -0.0019712203938304319 -0.0024630960197889492 0 -0.0021752936786879127 -0.002821172406533855 0 -0.0021112954686529151 0.0010806719322555179 0 -0.0015216520912873671 0.0017645010620259917 0 -0.0028543857985754584 0.0041546401925279582 0 -0.0027597476986539332 0.0042743802258762877 0 -0.0028365462393798281 0.0043926574446520074 0 -0.0027597476986539332 0.0042743802258762877 0 -0.0027345329968942859 0.004374297790052723 0 -0.0028365462393798281 0.0043926574446520074 0 -0.0054456646672227695 0.011285091443569201 0 -0.0055645034719391407 0.011693238378787274 0 -0.0054001744388289764 0.011483297621208971 0 -0.0055645034719391407 0.011693238378787274 0 -0.0053283352600916808 0.011688509902353967 0 -0.0054001744388289764 0.011483297621208971 0 -0.0027449684061868363 0.0041670857744314496 0 -0.0027597476986539332 0.0042743802258762877 0 -0.0026561244640390331 0.004279501891370145 0 -0.0027597476986539332 0.0042743802258762877 0 -0.0027037605522068904 0.0043353366210139568 0 -0.0027345329968942859 0.004374297790052723 0 -0.0027597476986539332 0.0042743802258762877 0 -0.0026561244640390331 0.004279501891370145 0 -0.0027037605522068904 0.0043353366210139568 0 -0.005275896662822601 0.011945779649310578 0 -0.0049340528683598714 0.011994716262770468 0 -0.0052999539129643947 0.012318139724135898 0 -0.0053283352600916808 0.011688509902353967 0 -0.0049340528683598714 0.011994716262770468 0 -0.005022103322107372 0.01114677551178174 0 -0.0049340528683598714 0.011994716262770468 0 -0.0042718986712006286 0.01177226131658483 0 -0.005022103322107372 0.01114677551178174 0 -0.005275896662822601 0.011945779649310578 0 -0.0053283352600916808 0.011688509902353967 0 -0.0049340528683598714 0.011994716262770468 0 -0.0055645034719391407 0.011693238378787274 0 -0.005275896662822601 0.011945779649310578 0 -0.0052999539129643947 0.012318139724135898 0 -0.0055645034719391407 0.011693238378787274 0 -0.005275896662822601 0.011945779649310578 0 -0.0053283352600916808 0.011688509902353967 0 -0.0053283352600916808 0.011688509902353967 0 -0.0054001744388289764 0.011483297621208971 0 -0.0050551000932371635 0.011188244222340838 0 -0.0055833814960584809 0.013075828244351361 0 -0.0058064409674628377 0.013544294831009922 0 -0.0049340528683598714 0.011994716262770468 0 -0.0042718986712006286 0.01177226131658483 0 -0.0046782046193709365 0.012328799741108527 0 -0.0060540158528287176 0.015365658168692687 0 -0.0058064409674628377 0.013544294831009922 0 -0.0069026880294482925 0.016290162373880007 0 -0.0069193532591453506 0.015580194854646887 0 -0.0075062242939158913 0.015772128575908789 0 -0.007112253497021769 0.015068774517129853 0 -0.0069193532591453506 0.015580194854646887 0 -0.0075062242939158913 0.015772128575908789 0 -0.0069026880294482925 0.016290162373880007 0 -0.0069193532591453506 0.015580194854646887 0 -0.0064851322661415058 0.01564554165435526 0 -0.0059660235993817621 0.012895546041967144 0 -0.0058064409674628377 0.013544294831009922 0 -0.005573226592296969 0.010753911831966648 0 -0.0054456646672227695 0.011285091443569201 0 -0.0050551000932371635 0.011188244222340838 0 -0.0053080198475430216 0.010608000866278574 0 -0.005573226592296969 0.010753911831966648 0 -0.005224007333980399 0.011038557784209417 0 -0.0060206429302258491 0.013072231691369167 0 -0.0058064409674628377 0.013544294831009922 0 -0.0054456646672227695 0.011285091443569201 0 -0.0054001744388289764 0.011483297621208971 0 -0.0050551000932371635 0.011188244222340838 0 -0.0013204465776644962 -0.0040060870428318424 0 -0.0012118266657097968 -0.0030575982833515852 0 -0.00088859528217867501 -0.0019702667756479192 0 -0.0012773971607016724 -0.0022236902325798078 0 -0.0010782532411277516 -0.0022472863830319718 0 -0.0011036440766347406 -0.004373990455140489 0 -0.00092820506844910943 -0.0031739011500520331 0 -0.00096655790966544729 -0.0019808610771215795 0 -0.0013466917425728133 -0.0020135165830615291 0 -0.0013081033740578083 -0.0022071467410616232 0 -0.00096655790966544729 -0.0019808610771215795 0 -0.0010263704084527221 -0.0019072686996600913 0 -0.0013466917425728133 -0.0020135165830615291 0 -0.0013204465776644962 -0.0040060870428318424 0 -0.0015322363884097499 -0.0037455630050716171 0 -0.00096441856103953371 -0.0017935921689508467 0 -0.0012252841109104138 -0.0014729539216371257 0 -0.0012972713174607766 -0.0016971621469862865 0 -0.00096441856103953371 -0.0017935921689508467 0 -0.0012972713174607766 -0.0016971621469862865 0 -0.0012966649978762123 -0.0019121903485793592 0 -0.0012972713174607766 -0.0016971621469862865 0 -0.0014749483096420449 -0.0018244184442404599 0 -0.0012966649978762123 -0.0019121903485793592 0 -0.0014744996922346934 -0.0015820283004320183 0 -0.0012972713174607766 -0.0016971621469862865 0 -0.0014749483096420449 -0.0018244184442404599 0 -0.0013466917425728133 -0.0020135165830615291 0 -0.0016922012190973997 -0.0021192238293568843 0 -0.0013081033740578083 -0.0022071467410616232 0 -0.0014749483096420449 -0.0018244184442404599 0 -0.0012966649978762123 -0.0019121903485793592 0 -0.0016644830629895457 -0.0020594265937219215 0 -0.0012118266657097968 -0.0030575982833515852 0 -0.0014718782214913767 -0.0027241280506326128 0 -0.0016644830629895457 -0.0020594265937219215 0 -0.0017588342273312854 -0.0017759478394360764 0 -0.0019246657482239419 -0.0019421161053735851 0 -0.0014749483096420449 -0.0018244184442404599 0 -0.0016644830629895457 -0.0020594265937219215 0 -0.0017588342273312854 -0.0017759478394360764 0 -0.0017976575200724222 -0.0014756827182622414 0 -0.0014749483096420449 -0.0018244184442404599 0 -0.0017588342273312854 -0.0017759478394360764 0 -0.0017485891315256877 -0.0015585554685604399 0 -0.0014744996922346934 -0.0015820283004320183 0 -0.0014749483096420449 -0.0018244184442404599 0 -0.0015157216692669895 -0.00036718018705303576 0 -0.0012916791955910234 -0.00086201153909261027 0 -0.0017976575200724222 -0.0014756827182622414 0 -0.0021664575052940268 -0.001722182155101404 0 -0.0017588342273312854 -0.0017759478394360764 0 -0.0021664575052940268 -0.001722182155101404 0 -0.0017588342273312854 -0.0017759478394360764 0 -0.0019246657482239419 -0.0019421161053735851 0 -0.0021664575052940268 -0.001722182155101404 0 -0.0019246657482239419 -0.0019421161053735851 0 -0.0020731883666100515 -0.0022228113184148122 0 -0.0016644830629895457 -0.0020594265937219215 0 -0.0019246657482239419 -0.0019421161053735851 0 -0.0020731883666100515 -0.0022228113184148122 0 -0.0016922012190973997 -0.0021192238293568843 0 -0.0020731883666100515 -0.0022228113184148122 0 -0.0018520664405263494 -0.0023163472478342734 0 -0.0018520664405263494 -0.0023163472478342734 0 -0.0019712203938304319 -0.0024630960197889492 0 -0.0016776687011016945 -0.0024618568715434152 0 -0.0014718782214913767 -0.0027241280506326128 0 -0.0016435597298550147 -0.0026607229491687834 0 -0.0021683065345050518 -0.0023047978835337274 0 -0.0020731883666100515 -0.0022228113184148122 0 -0.0019712203938304319 -0.0024630960197889492 0 -0.0020731883666100515 -0.0022228113184148122 0 -0.0018520664405263494 -0.0023163472478342734 0 -0.0019712203938304319 -0.0024630960197889492 0 -0.0019712203938304319 -0.0024630960197889492 0 -0.0018610257750685615 -0.0026720549945455372 0 -0.0016776687011016945 -0.0024618568715434152 0 -0.0019712203938304319 -0.0024630960197889492 0 -0.0018610257750685615 -0.0026720549945455372 0 -0.0021752936786879127 -0.002821172406533855 0 -0.0016776687011016945 -0.0024618568715434152 0 -0.0015334684578250616 -0.0026167485182518823 0 -0.0013697983156930734 -0.0025393280355314437 0 -0.0018610257750685615 -0.0026720549945455372 0 -0.0016776687011016945 -0.0024618568715434152 0 -0.0016353446578933201 -0.0027193559171335121 0 -0.0016776687011016945 -0.0024618568715434152 0 -0.0016353446578933201 -0.0027193559171335121 0 -0.0015334684578250616 -0.0026167485182518823 0 -0.0016353446578933201 -0.0027193559171335121 0 -0.0015334684578250616 -0.0026167485182518823 0 -0.0014985451977331653 -0.0027115791933760782 0 -0.0016922012190973997 -0.0021192238293568843 0 -0.0016776687011016945 -0.0024618568715434152 0 -0.0013081033740578083 -0.0022071467410616232 0 -0.0016922012190973997 -0.0021192238293568843 0 -0.0018520664405263494 -0.0023163472478342734 0 -0.0016776687011016945 -0.0024618568715434152 0 -0.0011096891130898377 -0.0029981690645652366 0 -0.00092820506844910943 -0.0031739011500520331 0 -0.0016776687011016945 -0.0024618568715434152 0 -0.0013154551608362431 -0.0023848221455337877 0 -0.0013697983156930734 -0.0025393280355314437 0 -0.0016776687011016945 -0.0024618568715434152 0 -0.0012773971607016724 -0.0022236902325798078 0 -0.0013154551608362431 -0.0023848221455337877 0 -0.0013154551608362431 -0.0023848221455337877 0 -0.0013697983156930734 -0.0025393280355314437 0 -0.0011467477762876661 -0.0024405795256403529 0 -0.0015334684578250616 -0.0026167485182518823 0 -0.0013457670651453877 -0.0026862506568876778 0 -0.0013697983156930734 -0.0025393280355314437 0 -0.0015334684578250616 -0.0026167485182518823 0 -0.0014985451977331653 -0.0027115791933760782 0 -0.0013457670651453877 -0.0026862506568876778 0 -0.0013457670651453877 -0.0026862506568876778 0 -0.0013697983156930734 -0.0025393280355314437 0 -0.0011754763661829971 -0.0025942280374461608 0 -0.0013697983156930734 -0.0025393280355314437 0 -0.0011754763661829971 -0.0025942280374461608 0 -0.0011467477762876661 -0.0024405795256403529 0 -0.0011754763661829971 -0.0025942280374461608 0 -0.0010093396292151701 -0.0025348743630651239 0 -0.0011467477762876661 -0.0024405795256403529 0 -0.0013457670651453877 -0.0026862506568876778 0 -0.0011754763661829971 -0.0025942280374461608 0 -0.0010059718383382203 -0.0027705212519653307 0 -0.0011754763661829971 -0.0025942280374461608 0 -0.0010093396292151701 -0.0025348743630651239 0 -0.0010059718383382203 -0.0027705212519653307 0 -0.00094640486513842322 -0.0023238275153553449 0 -0.0010093396292151701 -0.0025348743630651239 0 -0.0011467477762876661 -0.0024405795256403529 0 -0.0013154551608362431 -0.0023848221455337877 0 -0.0011467477762876661 -0.0024405795256403529 0 -0.0010782532411277516 -0.0022472863830319718 0 -0.0012773971607016724 -0.0022236902325798078 0 -0.0013154551608362431 -0.0023848221455337877 0 -0.0010782532411277516 -0.0022472863830319718 0 -0.00094640486513842322 -0.0023238275153553449 0 -0.0011467477762876661 -0.0024405795256403529 0 -0.0010782532411277516 -0.0022472863830319718 0 -0.00094640486513842322 -0.0023238275153553449 0 -0.00091735677216116436 -0.002181610161607673 0 -0.0010782532411277516 -0.0022472863830319718 0 0.0011300971976718065 -0.0038772787924546909 0 0.0014093528753345982 -0.0039777218653479539 0 0.001381063662809865 -0.0037231237009692037 0 0.0014093528753345982 -0.0039777218653479539 0 0.001381063662809865 -0.0037231237009692037 0 0.0017851475880506875 -0.0036831132378273741 0 0.00083021612554925463 -0.0038647783980044477 0 0.00084947881049043743 -0.0037962377898200649 0 0.00071848149327086977 -0.0038018357158421819 0 0.00083021612554925463 -0.0038647783980044477 0 0.00071848149327086977 -0.0038018357158421819 0 0.00070316970717860573 -0.003828664561156281 0 -0.00016993825783859725 -0.0030319353671561054 0 -0.00047628301382254752 -0.00094926935797228136 0 0.0011231738145207051 -0.0024909549108538395 0 -9.6217415971707306e-05 -0.00079716793619668831 0 -0.0013457670651453877 -0.0026862506568876778 0 -0.0010059718383382203 -0.0027705212519653307 0 -0.0015142027875104515 -0.0028424669240070342 0 -0.0014985451977331653 -0.0027115791933760782 0 -0.0013457670651453877 -0.0026862506568876778 0 -0.0015142027875104515 -0.0028424669240070342 0 0.0014093528753345982 -0.0039777218653479539 0 0.0020430229963951129 -0.0041199054572020619 0 0.0017851475880506875 -0.0036831132378273741 0 -9.6217415971707306e-05 -0.00079716793619668831 0 0.00022071688658777881 -0.00068692704083219011 0 0.0020430229963951129 -0.0041199054572020619 0 0.0022897707181859786 -0.003668118356660669 0 0.0017851475880506875 -0.0036831132378273741 0 -0.00064254964727272518 0.00061079323458840837 0 -0.00029295539628362448 0.00053985847065684948 0 -0.00039260430176295556 0.0010890898672139603 0 -0.00047628301382254752 -0.00094926935797228136 0 -0.00094286499066755143 0.00060058489901074121 0 -0.0016353446578933201 -0.0027193559171335121 0 -0.0015142027875104515 -0.0028424669240070342 0 -0.0018453034474738739 -0.0028934265621306135 0 -0.00032555593479524463 8.6310333842316346e-05 0 -0.00037092837783982011 5.9994672156015542e-07 0 -0.00057765089549087771 4.633074877027793e-05 0 -0.00047628301382254752 -0.00094926935797228136 0 -9.6217415971707306e-05 -0.00079716793619668831 0 -0.0016353446578933201 -0.0027193559171335121 0 -0.0014985451977331653 -0.0027115791933760782 0 -0.0015142027875104515 -0.0028424669240070342 0 -0.0018610257750685615 -0.0026720549945455372 0 -0.0016353446578933201 -0.0027193559171335121 0 -0.0018453034474738739 -0.0028934265621306135 0 -9.6217415971707306e-05 -0.00079716793619668831 0 -0.00094286499066755143 0.00060058489901074121 0 -0.00080352032094488683 0.0013605492590585608 0 -0.0022450986565235027 0.0016652559667067082 0 -0.002264383092098538 0.0011115160785068222 0 -0.00029295539628362448 0.00053985847065684948 0 -9.6964286916278146e-05 0.00088221149488310719 0 0.00013499327693028469 0.00061765349212782581 0 -0.00094286499066755143 0.00060058489901074121 0 -0.0014184101797762741 0.0028814207132154966 0 -0.00094286499066755143 0.00060058489901074121 0 -0.0015216520912873671 0.0017645010620259917 0 -0.0018610257750685615 -0.0026720549945455372 0 -0.0018453034474738739 -0.0028934265621306135 0 -0.0021752936786879127 -0.002821172406533855 0 -0.00029295539628362448 0.00053985847065684948 0 -9.6964286916278146e-05 0.00088221149488310719 0 -0.00039260430176295556 0.0010890898672139603 0 -0.00014084110874423262 0.0015683017693074925 0 -0.00039260430176295556 0.0010890898672139603 0 0.00016254288187957515 0.001282770211124639 0 -9.6964286916278146e-05 0.00088221149488310719 0 -0.00039260430176295556 0.0010890898672139603 0 0.00016254288187957515 0.001282770211124639 0 0.00037348394778033981 3.8589702817201022e-05 0 0.00022071688658777881 -0.00068692704083219011 0 0.0020607006164014615 -0.0030210479321384305 0 0.0025399997278686211 -0.0032128352756483499 0 0.002129092738758023 -0.0033701790670072943 0 0.0020607006164014615 -0.0030210479321384305 0 0.002129092738758023 -0.0033701790670072943 0 0.0018148829227222299 -0.003328138331313687 0 0.0022897707181859786 -0.003668118356660669 0 0.002129092738758023 -0.0033701790670072943 0 0.0017851475880506875 -0.0036831132378273741 0 0.0025399997278686211 -0.0032128352756483499 0 0.0022897707181859786 -0.003668118356660669 0 0.002129092738758023 -0.0033701790670072943 0 0.0017851475880506875 -0.0036831132378273741 0 0.0018148829227222299 -0.003328138331313687 0 0.0014605334234168148 -0.0034741311891194416 0 0.002129092738758023 -0.0033701790670072943 0 0.0017851475880506875 -0.0036831132378273741 0 0.0018148829227222299 -0.003328138331313687 0 0.0020607006164014615 -0.0030210479321384305 0 0.0018148829227222299 -0.003328138331313687 0 0.0015682214990931399 -0.0031181753565437008 0 0.0011115288272543738 -0.003308437019471019 0 0.0015682214990931399 -0.0031181753565437008 0 0.0014605334234168148 -0.0034741311891194416 0 0.0018148829227222299 -0.003328138331313687 0 0.0015682214990931399 -0.0031181753565437008 0 0.0014605334234168148 -0.0034741311891194416 0 0.001381063662809865 -0.0037231237009692037 0 0.0017851475880506875 -0.0036831132378273741 0 0.0014605334234168148 -0.0034741311891194416 0 0.0011597929974037464 -0.0035859941530061667 0 0.001381063662809865 -0.0037231237009692037 0 0.0014605334234168148 -0.0034741311891194416 0 -0.0039445832665282298 0.01109022440779692 0 -0.0023898709857282578 0.0074442044074266335 0 -0.0039445832665282298 0.01109022440779692 0 -0.0019472181313376275 0.0077757297911527409 0 -0.0023982085451136536 0.0091525566088273419 0 -0.0019745800477906079 0.009204606806131126 0 -0.0019889290745352278 0.0086487396867322344 0 -0.002551962851574466 0.012290352460439632 0 -0.0023569175211826283 0.012470901127382738 0 -0.0023456781024470469 0.012253569785650802 0 -0.0040263140014949678 0.013617877101957001 0 -0.0040065102590889296 0.01318223551434373 0 -0.0046479340954572622 0.013023595152658043 0 -0.0041023343401350772 0.014388062227501365 0 -0.0039445832665282298 0.01109022440779692 0 -0.0040065102590889296 0.01318223551434373 0 -0.0046379846495756688 0.01302737563615651 0 -0.0042599282522606391 0.012562357665993933 0 -0.0039292620814754568 0.011236981532161594 0 -0.0039445832665282298 0.01109022440779692 0 -0.0042718986712006286 0.01177226131658483 0 -0.0042599282522606391 0.012562357665993933 0 -0.0034845872945372656 0.012424553592758692 0 -0.0039445832665282298 0.01109022440779692 0 -0.0041137921173350816 0.01136168716224522 0 -0.0042718986712006286 0.01177226131658483 0 -0.0042599282522606391 0.012562357665993933 0 -0.0046782046193709365 0.012328799741108527 0 -0.0046138667966738479 0.012988044377746236 0 -0.0042599282522606391 0.012562357665993933 0 -0.0046782046193709365 0.012328799741108527 0 -0.0046315411091539796 0.012935730346528901 0 -0.0052999539129643947 0.012318139724135898 0 -0.0055254269731938241 0.012823160764959615 0 -0.0049340528683598714 0.011994716262770468 0 -0.0046782046193709365 0.012328799741108527 0 -0.0052999539129643947 0.012318139724135898 0 -0.0046138667966738479 0.012988044377746236 0 -0.0046782046193709365 0.012328799741108527 0 -0.0052999539129643947 0.012318139724135898 0 -0.0039445832665282298 0.01109022440779692 0 -0.0040793984778559724 0.011352200298929953 0 -0.0027037605522068904 0.0043353366210139568 0 -0.0027345329968942859 0.004374297790052723 0 -0.0026485300307181854 0.0044856495897929614 0 -0.0055645034719391407 0.011693238378787274 0 -0.0052999539129643947 0.012318139724135898 0 -0.0055254269731938241 0.012823160764959615 0 -0.0033220618119537714 0.00774310798286801 0 -0.0023898709857282578 0.0074442044074266335 0 -0.0026561244640390331 0.004279501891370145 0 -0.0027037605522068904 0.0043353366210139568 0 -0.0026485300307181854 0.0044856495897929614 0 -0.0014184101797762741 0.0028814207132154966 0 -0.0023898709857282578 0.0074442044074266335 0 -0.0027345329968942859 0.004374297790052723 0 -0.0028238040565107458 0.0044463265998939483 0 -0.0026485300307181854 0.0044856495897929614 0 -0.0027345329968942859 0.004374297790052723 0 -0.002824872967036143 0.0043924910225416327 0 -0.0028238040565107458 0.0044463265998939483 0 -0.0018655685226024081 0.0019800011381848758 0 -0.0015216520912873671 0.0017645010620259917 0 -0.0015216520912873671 0.0017645010620259917 0 -0.0014184101797762741 0.0028814207132154966 0 -0.0014184101797762741 0.0028814207132154966 0 -0.00055292418904401579 0.0030388518165061973 0 -0.0006586003328143211 0.0054095512995002678 0 -0.00087127739274373115 0.0051306270741874422 0 -0.00066945041948911134 0.0049503696221194849 0 -9.6964286916278146e-05 0.00088221149488310719 0 0.00013499327693028469 0.00061765349212782581 0 0.00016254288187957515 0.001282770211124639 0 -0.0006586003328143211 0.0054095512995002678 0 -0.0010248524723149338 0.0053516494948205274 0 -0.00087127739274373115 0.0051306270741874422 0 -0.0010248524723149338 0.0053516494948205274 0 -0.00087127739274373115 0.0051306270741874422 0 -0.0010366220972788966 0.0049226677539239349 0 -0.0023898709857282578 0.0074442044074266335 0 -0.0019472181313376275 0.0077757297911527409 0 -0.00087127739274373115 0.0051306270741874422 0 -0.0010366220972788966 0.0049226677539239349 0 -0.00066945041948911134 0.0049503696221194849 0 0.00019184555406850809 0.0019531026025533789 0 -0.00014084110874423262 0.0015683017693074925 0 0.00016254288187957515 0.001282770211124639 0 7.6301050159902775e-05 0.0027877066695365629 0 -0.00055292418904401579 0.0030388518165061973 0 -0.00067796176489318257 0.0044798730944004073 0 -0.00066945041948911134 0.0049503696221194849 0 -0.00085887425053254331 0.0047015845314697163 0 -0.0013551202242331091 0.0080324488663151301 0 -0.0019472181313376275 0.0077757297911527409 0 -0.0010366220972788966 0.0049226677539239349 0 -0.00066945041948911134 0.0049503696221194849 0 -0.00085887425053254331 0.0047015845314697163 0 -0.0014524950116799361 0.0049864914105166016 0 -0.0014086163544191881 0.0066530196224138796 0 -0.00070486106951834885 0.0057858565908861575 0 -0.0019472181313376275 0.0077757297911527409 0 -0.00089851356510535702 0.0052528343144147508 0 -0.0020510626838953854 0.011680737572545528 0 -0.0020435187751775921 0.012086801072161625 0 -0.0024113077462924919 0.011975897614609437 0 -0.0023569175211826283 0.012470901127382738 0 -0.0020435187751775921 0.012086801072161625 0 -0.0023456781024470469 0.012253569785650802 0 -0.0020435187751775921 0.012086801072161625 0 -0.0023456781024470469 0.012253569785650802 0 -0.0024113077462924919 0.011975897614609437 0 -0.002551962851574466 0.012290352460439632 0 -0.0023456781024470469 0.012253569785650802 0 -0.0024113077462924919 0.011975897614609437 0 -0.002551962851574466 0.012290352460439632 0 -0.0024113077462924919 0.011975897614609437 0 -0.0027302055369680571 0.012126798807611975 0 -0.0024546451490926663 0.011649498517496366 0 -0.002729867851182617 0.011778661121671672 0 -0.0024113077462924919 0.011975897614609437 0 -0.0034038259325102514 0.017592730434155549 0 -0.0036313948344982795 0.017566660392245494 0 -0.0035413526865280408 0.018264577036284868 0 -0.002729867851182617 0.011778661121671672 0 -0.0024113077462924919 0.011975897614609437 0 -0.0027302055369680571 0.012126798807611975 0 -0.0031773102297916358 0.015562426335142737 0 -0.0042390260226164416 0.01785747064455908 0 -0.0034038259325102514 0.017592730434155549 0 -0.0035413526865280408 0.018264577036284868 0 -0.0034107449427721349 0.018389141284639091 0 -0.0037485192828561752 0.019434830442038187 0 -0.0043198055330827267 0.0195423405770613 0 -0.0045909291809157543 0.022665459730698431 0 -0.0043198055330827267 0.0195423405770613 0 -0.0059718663372530277 0.024561598157965266 0 -0.0065674712505201099 0.023990431759823832 0 -0.0060588217405871236 0.02401901163634608 0 -0.0059101858701196362 0.024457534594334873 0 -0.0064660403881661426 0.024416702956402626 0 -0.0065472188651041919 0.023821873647285483 0 -0.0062327583663595717 0.023835450023125409 0 -0.0063836488048730723 0.023647648471431595 0 -0.0059657890857190005 0.023681399474854922 0 -0.0062327583663595717 0.023835450023125409 0 -0.0065674712505201099 0.023990431759823832 0 -0.0060588217405871236 0.02401901163634608 0 -0.0062327583663595717 0.023835450023125409 0 -0.0063836488048730723 0.023647648471431595 0 -0.0065674712505201099 0.023990431759823832 0 -0.0043198055330827267 0.0195423405770613 0 -0.0045679796454797684 0.021603853461844683 0 -0.0042390260226164416 0.01785747064455908 0 -0.0050630858871396588 0.01814618547510469 0 -0.0065462674002300086 0.023787650718123412 0 -0.0066211705695122481 0.023720869036083243 0 -0.0066459543995749564 0.023389110771091851 0 -0.0040263140014949678 0.013617877101957001 0 -0.0034562030283095215 0.014161000822734053 0 -0.003466438712277883 0.013282560558604521 0 -0.0063836488048730723 0.023647648471431595 0 -0.0065674712505201099 0.023990431759823832 0 -0.0066384952240733618 0.023343737349725304 0 -0.0043198055330827267 0.0195423405770613 0 -0.0042390260226164416 0.01785747064455908 0 -0.0041023343401350772 0.014388062227501365 0 -0.0042390260226164416 0.01785747064455908 0 -0.0065462674002300086 0.023787650718123412 0 -0.0066384952240733618 0.023343737349725304 0 -0.0066459543995749564 0.023389110771091851 0 -0.0040065102590889296 0.01318223551434373 0 -0.003466438712277883 0.013282560558604521 0 -0.0034845872945372656 0.012424553592758692 0 -0.0040263140014949678 0.013617877101957001 0 -0.0040065102590889296 0.01318223551434373 0 -0.003466438712277883 0.013282560558604521 0 -0.0066384952240733618 0.023343737349725304 0 -0.0066459543995749564 0.023389110771091851 0 -0.0066558636663288121 0.022962365227103695 0 -0.0063836488048730723 0.023647648471431595 0 -0.0061406291297770067 0.023400558496515501 0 -0.0059657890857190005 0.023681399474854922 0 -0.0063836488048730723 0.023647648471431595 0 -0.0066384952240733618 0.023343737349725304 0 -0.0061406291297770067 0.023400558496515501 0 -0.0066384952240733618 0.023343737349725304 0 -0.0061406291297770067 0.023400558496515501 0 -0.0066558636663288121 0.022962365227103695 0 -0.0061406291297770067 0.023400558496515501 0 -0.0061277608579674665 0.022880065590775038 0 -0.0066466791149811114 0.022970962372032683 0 -0.0050959501431444487 0.020114784356853783 0 -0.005889993388303291 0.018219149050459699 0 -0.0040065102590889296 0.01318223551434373 0 -0.0042599282522606391 0.012562357665993933 0 -0.0034845872945372656 0.012424553592758692 0 -0.0050630858871396588 0.01814618547510469 0 -0.005889993388303291 0.018219149050459699 0 -0.0055906171785642302 0.023302613538747467 0 -0.0051462306699800687 0.02296262455076227 0 -0.0056563197698887725 0.022781038996585182 0 -0.0061406291297770067 0.023400558496515501 0 -0.0061277608579674665 0.022880065590775038 0 -0.0055906171785642302 0.023302613538747467 0 -0.0061277608579674665 0.022880065590775038 0 -0.0055906171785642302 0.023302613538747467 0 -0.0056563197698887725 0.022781038996585182 0 -0.0061406291297770067 0.023400558496515501 0 -0.0055906171785642302 0.023302613538747467 0 -0.0059657890857190005 0.023681399474854922 0 -0.0055906171785642302 0.023302613538747467 0 -0.0056051728118488445 0.023838655863743671 0 -0.0059657890857190005 0.023681399474854922 0 -0.0055906171785642302 0.023302613538747467 0 -0.0056051728118488445 0.023838655863743671 0 -0.0052010981945422854 0.023716971680366346 0 -0.0056051728118488445 0.023838655863743671 0 -0.0053077365494572882 0.024119103211147633 0 -0.0052010981945422854 0.023716971680366346 0 -0.0056051728118488445 0.023838655863743671 0 -0.0059657890857190005 0.023681399474854922 0 -0.0060588217405871236 0.02401901163634608 0 -0.0056051728118488445 0.023838655863743671 0 -0.0060588217405871236 0.02401901163634608 0 -0.0056972296119128128 0.024243169420350312 0 -0.0062327583663595717 0.023835450023125409 0 -0.0059657890857190005 0.023681399474854922 0 -0.0060588217405871236 0.02401901163634608 0 -0.0059718663372530277 0.024561598157965266 0 -0.0060588217405871236 0.02401901163634608 0 -0.0056972296119128128 0.024243169420350312 0 -0.0055766454963906663 0.024615330556323218 0 -0.0059718663372530277 0.024561598157965266 0 -0.0056972296119128128 0.024243169420350312 0 -0.0056051728118488445 0.023838655863743671 0 -0.0056972296119128128 0.024243169420350312 0 -0.0053077365494572882 0.024119103211147633 0 -0.0053503952452947081 0.024495248843171523 0 -0.0055766454963906663 0.024615330556323218 0 -0.0056972296119128128 0.024243169420350312 0 -0.0053503952452947081 0.024495248843171523 0 -0.0056972296119128128 0.024243169420350312 0 -0.0053077365494572882 0.024119103211147633 0 -0.0053503952452947081 0.024495248843171523 0 -0.0053077365494572882 0.024119103211147633 0 -0.0049780142562026947 0.024401093900655226 0 -0.0053077365494572882 0.024119103211147633 0 -0.0049780142562026947 0.024401093900655226 0 -0.0049539697713077016 0.024026995656050258 0 -0.0049780142562026947 0.024401093900655226 0 -0.0045797685362889209 0.02422826047575315 0 -0.0049539697713077016 0.024026995656050258 0 -0.0045817134598893283 0.024729333603970227 0 -0.0049780142562026947 0.024401093900655226 0 -0.0045797685362889209 0.02422826047575315 0 -0.0045817134598893283 0.024729333603970227 0 -0.0045797685362889209 0.02422826047575315 0 -0.0040628068853138339 0.024492559238956262 0 -0.0047203484055851341 0.023749011367492964 0 -0.0041470464705412489 0.023943090323869654 0 -0.0044003981222331488 0.023492474215604433 0 -0.0045797685362889209 0.02422826047575315 0 -0.0047203484055851341 0.023749011367492964 0 -0.0049539697713077016 0.024026995656050258 0 -0.0045797685362889209 0.02422826047575315 0 -0.0047203484055851341 0.023749011367492964 0 -0.0041470464705412489 0.023943090323869654 0 -0.0047203484055851341 0.023749011367492964 0 -0.0052010981945422854 0.023716971680366346 0 -0.0049539697713077016 0.024026995656050258 0 -0.0053077365494572882 0.024119103211147633 0 -0.0052010981945422854 0.023716971680366346 0 -0.0049539697713077016 0.024026995656050258 0 -0.0033875236671582535 0.024302440588245731 0 -0.0040628068853138339 0.024492559238956262 0 -0.0041470464705412489 0.023943090323869654 0 -0.0036660286596094552 0.024750928452604931 0 -0.0033875236671582535 0.024302440588245731 0 -0.0040628068853138339 0.024492559238956262 0 -0.0045797685362889209 0.02422826047575315 0 -0.0040628068853138339 0.024492559238956262 0 -0.0041470464705412489 0.023943090323869654 0 -0.0033875236671582535 0.024302440588245731 0 -0.0041470464705412489 0.023943090323869654 0 -0.0034724575257355107 0.023548184060202346 0 -0.0025161392715639078 0.023749511244119025 0 -0.0027804861597705145 0.023643368637908661 0 -0.0034724575257355107 0.023548184060202346 0 -0.004210155766673062 0.023202073128028137 0 -0.003529620322578374 0.02305420009629278 0 -0.0041470464705412489 0.023943090323869654 0 -0.0034724575257355107 0.023548184060202346 0 -0.0044003981222331488 0.023492474215604433 0 -0.0034724575257355107 0.023548184060202346 0 -0.0044003981222331488 0.023492474215604433 0 -0.004210155766673062 0.023202073128028137 0 -0.004210155766673062 0.023202073128028137 0 -0.003529620322578374 0.02305420009629278 0 -0.0039971887220390532 0.022602960583053128 0 -0.0044003981222331488 0.023492474215604433 0 -0.004210155766673062 0.023202073128028137 0 -0.0047244059367361202 0.023117666192207779 0 -0.0055906171785642302 0.023302613538747467 0 -0.0052010981945422854 0.023716971680366346 0 -0.0049756002857178168 0.02333485905181874 0 -0.0047203484055851341 0.023749011367492964 0 -0.0052010981945422854 0.023716971680366346 0 -0.0049756002857178168 0.02333485905181874 0 -0.0047203484055851341 0.023749011367492964 0 -0.0044003981222331488 0.023492474215604433 0 -0.0049756002857178168 0.02333485905181874 0 -0.0044003981222331488 0.023492474215604433 0 -0.0049756002857178168 0.02333485905181874 0 -0.0047244059367361202 0.023117666192207779 0 -0.0047244059367361202 0.023117666192207779 0 -0.0051462306699800687 0.02296262455076227 0 -0.0047517454630573424 0.022714021991075348 0 -0.004210155766673062 0.023202073128028137 0 -0.0047244059367361202 0.023117666192207779 0 -0.0047517454630573424 0.022714021991075348 0 -0.0049756002857178168 0.02333485905181874 0 -0.0047244059367361202 0.023117666192207779 0 -0.0051462306699800687 0.02296262455076227 0 -0.0055906171785642302 0.023302613538747467 0 -0.0049756002857178168 0.02333485905181874 0 -0.0051462306699800687 0.02296262455076227 0 -0.0072718726227655973 0.022536607941613811 0 -0.0047517454630573424 0.022714021991075348 0 -0.00605610178416955 0.021712923420552067 0 -0.0051462306699800687 0.02296262455076227 0 -0.005272513426267853 0.022596949818343717 0 -0.0047517454630573424 0.022714021991075348 0 -0.0062459766261533508 0.021691959233557774 0 -0.00556191217851625 0.022052834268543601 0 -0.0047517454630573424 0.022714021991075348 0 -0.0048077842424933672 0.022237538480532084 0 -0.00605610178416955 0.021712923420552067 0 -0.0048077842424933672 0.022237538480532084 0 -0.00605610178416955 0.021712923420552067 0 -0.0057393358217483455 0.02023631997778131 0 -0.0050542834934720737 0.021849742480521153 0 -0.0056664714293125562 0.020443641631577757 0 -0.0049299226939880578 0.02220734733662276 0 -0.0047702621361615273 0.021351161680629678 0 -0.0058888780232602498 0.020463309480392152 0 -0.00605610178416955 0.021712923420552067 0 -0.0057393358217483455 0.02023631997778131 0 -0.0077792092774183388 0.020550923037836823 0 -0.0072718726227655973 0.022536607941613811 0 -0.00605610178416955 0.021712923420552067 0 -0.0077792092774183388 0.020550923037836823 0 -0.003529620322578374 0.02305420009629278 0 -0.0033081247734252626 0.0224402795536667 0 -0.0039971887220390532 0.022602960583053128 0 -0.0033081247734252626 0.0224402795536667 0 -0.0039971887220390532 0.022602960583053128 0 -0.0041397364102641176 0.0219217104739346 0 -0.0047499222663759709 0.022516565287347714 0 -0.0050542834934720737 0.021849742480521153 0 -0.004210155766673062 0.023202073128028137 0 -0.0049299226939880578 0.02220734733662276 0 -0.0039971887220390532 0.022602960583053128 0 -0.004210155766673062 0.023202073128028137 0 -0.0047517454630573424 0.022714021991075348 0 -0.0048077842424933672 0.022237538480532084 0 -0.0049299226939880578 0.02220734733662276 0 -0.0039971887220390532 0.022602960583053128 0 -0.0041397364102641176 0.0219217104739346 0 -0.0047702621361615273 0.021351161680629678 0 -0.0041397364102641176 0.0219217104739346 0 -0.0041677187985117801 0.020752838806737936 0 -0.0049299226939880578 0.02220734733662276 0 -0.0047702621361615273 0.021351161680629678 0 -0.0041397364102641176 0.0219217104739346 0 -0.0026585054548352001 0.021659663060676033 0 -0.0033081247734252626 0.0224402795536667 0 -0.0041397364102641176 0.0219217104739346 0 -0.0026585054548352001 0.021659663060676033 0 -0.0041397364102641176 0.0219217104739346 0 -0.0041677187985117801 0.020752838806737936 0 -0.0026585054548352001 0.021659663060676033 0 -0.0030009711731212234 0.01977731613330452 0 -0.0041677187985117801 0.020752838806737936 0 -0.0030009711731212234 0.01977731613330452 0 -0.0041677187985117801 0.020752838806737936 0 -0.004714471567151008 0.018595462068896756 0 -0.0041677187985117801 0.020752838806737936 0 -0.004714471567151008 0.018595462068896756 0 -0.0058888780232602498 0.020463309480392152 0 -0.0047702621361615273 0.021351161680629678 0 -0.0041677187985117801 0.020752838806737936 0 -0.0058888780232602498 0.020463309480392152 0 -0.0028131722256209963 0.017896994064240085 0 -0.0030009711731212234 0.01977731613330452 0 -0.004714471567151008 0.018595462068896756 0 -0.0057393358217483455 0.02023631997778131 0 -0.0066647172867506576 0.018273889280532224 0 -0.0077792092774183388 0.020550923037836823 0 -0.0056664714293125562 0.020443641631577757 0 -0.0060493617229685215 0.01951714417234315 0 -0.004714471567151008 0.018595462068896756 0 -0.0058888780232602498 0.020463309480392152 0 -0.0066647172867506576 0.018273889280532224 0 -0.0084670130474354156 0.017224788447503438 0 -0.0066647172867506576 0.018273889280532224 0 -0.008775049011410227 0.019065860136820607 0 -0.0066647172867506576 0.018273889280532224 0 -0.008775049011410227 0.019065860136820607 0 -0.0077792092774183388 0.020550923037836823 0 -0.008775049011410227 0.019065860136820607 0 -0.0077792092774183388 0.020550923037836823 0 -0.010156891596978903 0.020190812020131579 0 -0.0084670130474354156 0.017224788447503438 0 -0.008775049011410227 0.019065860136820607 0 -0.010315867945553553 0.018575822284175841 0 -0.008775049011410227 0.019065860136820607 0 -0.010156891596978903 0.020190812020131579 0 -0.010315867945553553 0.018575822284175841 0 -0.010156891596978903 0.020190812020131579 0 -0.010315867945553553 0.018575822284175841 0 -0.012044223684845468 0.019052218252221254 0 -0.011020921768454105 0.017369870506438206 0 -0.010315867945553553 0.018575822284175841 0 -0.012044223684845468 0.019052218252221254 0 -0.0067220798341494871 0.014361928388245017 0 -0.0063177895109543256 0.014674072839557331 0 -0.0065900533689738821 0.015125310686311061 0 -0.0076510568368883146 0.016467386592614763 0 -0.0073500035910351261 0.018688125744295247 0 -0.0063177895109543256 0.014674072839557331 0 -0.0065900533689738821 0.015125310686311061 0 -0.0063070385378321122 0.015692311660081532 0 -0.010156891596978903 0.020190812020131579 0 -0.012044223684845468 0.019052218252221254 0 -0.012016255378099286 0.021382907620838183 0 -0.0073500035910351261 0.018688125744295247 0 -0.007275811669700376 0.020652442189902157 0 -0.010156891596978903 0.020190812020131579 0 -0.012016255378099286 0.021382907620838183 0 -0.0096951367762134061 0.021974504047936435 0 -0.0069026880294482925 0.016290162373880007 0 -0.0064851322661415058 0.01564554165435526 0 -0.0063050668066337206 0.015692046389595416 0 -0.0069193532591453506 0.015580194854646887 0 -0.0065900533689738821 0.015125310686311061 0 -0.0064851322661415058 0.01564554165435526 0 -0.0065900533689738821 0.015125310686311061 0 -0.0064851322661415058 0.01564554165435526 0 -0.0063070385378321122 0.015692311660081532 0 -0.0073364074357343415 0.018659045423077787 0 -0.0073500035910351261 0.018688125744295247 0 -0.005889993388303291 0.018219149050459699 0 -0.0073500035910351261 0.018688125744295247 0 -0.0060540158528287176 0.015365658168692687 0 -0.005889993388303291 0.018219149050459699 0 -0.0069026880294482925 0.016290162373880007 0 -0.0062934090779806218 0.016808987115905394 0 -0.0063050668066337206 0.015692046389595416 0 -0.0061277608579674665 0.022880065590775038 0 -0.0066549865035418262 0.022192598953978154 0 -0.0059539671077482124 0.022383671473591375 0 -0.0061277608579674665 0.022880065590775038 0 -0.0066466791149811114 0.022970962372032683 0 -0.0066549865035418262 0.022192598953978154 0 -0.0061277608579674665 0.022880065590775038 0 -0.0056563197698887725 0.022781038996585182 0 -0.0059539671077482124 0.022383671473591375 0 -0.005272513426267853 0.022596949818343717 0 -0.0056563197698887725 0.022781038996585182 0 -0.0059539671077482124 0.022383671473591375 0 -0.0062459766261533508 0.021691959233557774 0 -0.007275811669700376 0.020652442189902157 0 -0.0051462306699800687 0.02296262455076227 0 -0.005272513426267853 0.022596949818343717 0 -0.0056563197698887725 0.022781038996585182 0 -0.0072718726227655973 0.022536607941613811 0 -0.0077792092774183388 0.020550923037836823 0 -0.0096951367762134061 0.021974504047936435 0 -0.0077792092774183388 0.020550923037836823 0 -0.010156891596978903 0.020190812020131579 0 -0.0096951367762134061 0.021974504047936435 0 
</DataArray>
</PointData>
<CellData Scalars="region_id,cross_section_updated," Vectors="" Tensors="stress,">
<DataArray type="Float64" Name="region_id" format="ascii">
5 5 6 5 5 5 5 6 5 5 5 5 5 5 5 5 5 5 5 5 6 5 5 5 5 6 5 5 5 5 5 5 5 6 5 5 5 5 5 5 5 5 6 5 5 5 5 5 5 5 5 5 5 5 6 6 5 5 5 5 5 5 5 5 6 5 5 5 5 5 5 5 5 5 5 5 5 5 5 5 5 5 5 5 5 5 5 6 5 5 5 5 5 5 5 5 5 5 5 6 5 5 5 6 5 5 5 5 5 5 5 5 5 5 5 5 5 5 5 5 5 5 5 5 5 5 5 5 5 5 5 5 5 5 5 5 5 5 5 5 5 5 5 5 5 5 5 5 5 6 5 6 5 5 5 5 5 5 5 5 5 5 5 5 5 5 5 5 5 5 5 5 5 5 5 5 5 5 6 5 5 6 5 6 5 5 5 5 5 5 5 5 5 5 5 5 5 5 6 5 6 5 5 5 5 5 5 5 6 5 6 5 5 5 5 5 5 6 5 5 6 5 5 5 5 5 5 6 6 5 5 6 5 6 5 6 6 5 5 5 6 5 5 5 5 5 5 5 5 5 5 5 5 5 6 5 5 5 5 5 5 5 6 5 5 5 5 5 5 5 6 5 5 5 5 6 5 5 5 5 5 5 6 5 5 5 6 5 5 5 5 5 5 5 6 5 5 5 5 5 5 6 5 5 5 5 5 5 6 5 5 5 5 5 5 5 6 5 5 5 5 5 5 5 5 5 5 5 5 5 5 5 5 5 5 5 5 5 6 6 5 5 5 5 5 6 5 5 5 5 5 5 5 6 5 6 5 5 5 6 5 5 5 6 5 6 5 5 5 5 5 5 5 6 5 5 5 5 5 5 5 6 5 5 5 6 5 5 5 5 5 5 5 5 5 5 5 5 5 5 5 5 5 5 5 5 5 5 5 5 5 5 5 5 5 5 5 5 6 5 5 5 5 5 5 5 5 5 5 5 5 5 5 5 5 5 5 5 5 5 5 5 5 5 5 5 5 5 5 5 5 6 5 5 5 5 5 5 5 5 5 5 5 5 5 5 5 5 5 5 5 5 6 5 5 5 5 5 5 5 6 5 5 5 5 5 6 5 5 6 5 6 5 5 5 5 6 5 5 6 5 5 5 5 5 5 6 5 5 5 5 5 5 5 5 5 5 5 5 5 5 5 5 5 5 5 6 5 5 5 5 5 5 5 5 5 5 5 6 6 5 5 5 5 5 5 5 5 5 5 5 5 5 5 5 5 5 5 5 5 5 6 5 6 6 5 5 6 5 5 5 5 5 5 5 5 5 5 5 5 5 6 5 5 5 5 5 5 5 6 6 5 5 5 5 5 5 5 5 6 6 5 5 5 6 5 5 5 5 5 5 5 5 5 5 5 5 5 5 5 5 5 5 5 5 5 5 5 5 5 5 5 5 5 5 5 5 5 5 5 6 5 5 6 5 5 5 5 6 5 5 5 6 5 5 5 6 5 5 6 5 5 5 5 5 5 5 5 5 5 5 5 5 5 5 5 5 5 5 5 5 6 5 5 5 6 5 5 5 5 5 6 5 5 5 5 5 5 6 5 5 5 5 5 5 5 5 5 5 5 5 5 5 5 5 5 5 6 5 5 5 5 5 5 5 5 5 5 5 5 5 5 5 5 5 5 5 5 5 6 5 5 5 5 5 5 5 5 5 5 5 5 5 5 5 6 5 5 5 5 5 5 5 5 5 5 5 5 5 5 5 5 5 5 6 5 5 5 5 5 5 5 6 5 5 5 5 5 5 5 5 5 5 5 5 5 5 5 5 5 5 5 5 5 6 5 5 5 5 5 5 5 5 5 6 5 5 5 5 5 5 5 5 6 5 5 5 5 5 5 5 5 5 5 5 5 5 5 5 5 5 5 5 6 5 5 5 5 5 6 5 5 5 6 5 5 5 5 5 5 6 5 5 5 5 5 5 5 5 5 5 6 5 5 5 5 5 5 5 5 5 5 5 5 6 5 6 5 5 5 5 5 5 5 6 5 6 5 5 5 5 5 5 5 5 5 5 5 5 5 5 5 5 5 5 5 5 5 5 5 5 5 5 5 5 5 5 5 5 5 5 5 5 5 5 5 5 5 5 5 5 5 6 6 5 5 6 5 5 5 5 5 5 5 5 5 5 5 5 5 5 5 5 6 5 5 5 5 6 5 5 6 5 5 5 5 5 5 6 5 6 5 5 6 5 5 5 5 5 5 5 5 5 5 6 5 5 5 5 5 6 6 5 5 5 5 6 5 5 6 5 6 5 5 5 5 5 6 5 5 6 5 5 5 5 5 5 5 5 5 5 5 5 6 5 5 5 5 5 5 5 5 5 5 5 5 5 5 5 6 5 6 5 6 6 5 6 5 5 6 5 5 5 5 5 5 6 5 6 5 5 6 5 5 5 6 5 5 6 5 5 5 5 5 6 5 5 6 5 5 5 5 5 6 5 6 5 5 6 5 5 6 5 5 5 5 5 5 5 5 6 5 5 5 5 5 5 5 5 5 5 6 5 5 5 5 6 5 5 6 5 5 5 5 5 6 5 5 5 5 5 6 5 6 5 5 5 5 5 5 6 5 5 5 5 5 5 5 5 6 6 6 5 5 5 5 6 5 6 5 5 5 6 6 5 5 5 6 5 5 5 6 5 6 5 6 6 5 6 5 5 5 5 6 5 5 5 6 5 6 5 6 5 5 5 5 5 5 5 6 5 5 5 5 6 5 5 5 5 5 5 5 5 6 5 6 6 5 5 5 6 5 5 5 5 6 6 5 5 6 6 5 5 5 5 5 6 5 5 5 5 5 5 5 5 6 5 6 5 5 5 5 5 5 5 5 5 5 5 5 5 5 5 5 5 6 5 5 5 5 5 5 5 5 5 5 5 5 5 5 5 5 5 5 5 5 5 5 5 5 5 6 5 6 5 5 5 5 5 6 6 5 5 5 5 6 6 5 6 5 5 6 5 5 6 5 5 5 5 6 6 5 5 5 5 5 5 5 5 6 5 5 6 5 5 5 6 5 5 6 5 5 5 5 5 5 6 5 5 5 5 5 5 6 5 5 5 5 5 6 5 5 6 6 5 5 6 5 5 6 5 5 5 5 5 5 5 5 5 5 5 5 6 5 6 5 5 6 5 5 5 5 5 5 6 5 5 5 6 6 6 5 5 5 6 6 5 6 6 5 5 6 5 5 6 5 6 5 6 5 5 5 6 6 5 5 6 6 6 6 5 5 5 6 6 5 5 6 6 6 5 6 6 5 5 6 5 6 6 5 6 5 5 6 5 6 6 5 5 5 5 6 6 5 5 6 5 5 5 6 5 5 5 5 5 5 5 5 5 5 5 5 5 5 5 5 5 5 5 5 5 5 5 5 5 5 5 5 5 5 5 5 5 5 5 5 5 5 5 5 5 5 5 5 5 5 5 5 5 5 5 5 5 5 5 5 5 5 6 5 6 5 5 5 5 5 5 5 5 5 5 5 5 5 5 6 5 5 5 5 5 5 5 5 5 5 6 5 5 5 5 5 5 5 5 5 5 5 5 5 5 5 5 5 5 5 5 5 5 5 5 5 5 5 5 5 5 5 5 5 5 5 5 5 5 5 5 5 5 5 5 5 5 6 5 5 5 6 5 6 5 5 5 5 5 6 5 6 5 5 5 5 5 5 5 5 5 5 5 5 5 5 5 5 5 5 5 5 5 5 5 5 5 6 5 5 5 5 5 5 6 5 6 5 5 5 6 5 5 6 5 5 5 5 5 5 5 5 5 5 5 5 5 5 5 5 5 5 5 5 5 5 5 5 5 5 5 5 5 5 5 5 5 5 5 5 5 6 5 6 5 5 5 5 5 5 5 5 5 5 6 5 5 5 5 5 5 5 5 5 5 5 5 5 5 5 5 5 6 5 5 5 6 6 5 6 5 5 5 5 5 5 5 5 6 5 5 5 5 6 5 5 5 5 5 5 5 6 5 5 6 5 6 5 5 6 5 5 6 6 5 5 5 5 5 5 5 5 5 5 5 5 5 5 5 6 5 6 5 5 5 6 5 6 5 5 5 5 5 5 5 5 5 5 5 5 6 5 6 5 5 5 5 5 5 5 5 6 5 5 6 5 5 5 6 6 5 5 5 5 5 5 5 5 5 5 5 5 5 5 5 5 5 5 5 5 5 6 5 5 5 5 5 6 5 6 5 5 5 5 6 5 5 6 5 5 5 5 5 6 5 5 5 5 6 5 5 5 5 5 5 5 6 5 5 5 6 5 5 5 5 5 5 5 5 5 5 5 6 5 5 5 5 5 5 5 5 6 5 5 5 5 5 5 6 5 5 5 5 5 5 6 5 5 5 5 5 5 5 5 5 5 5 6 5 5 5 6 5 5 5 6 5 6 5 5 5 5 5 5 6 5 5 5 5 5 5 5 5 5 5 5 5 5 5 5 6 5 5 5 5 5 6 5 5 5 5 5 5 5 5 6 5 5 5 5 5 5 5 5 5 5 5 5 5 5 5 5 6 5 5 5 5 6 5 5 5 5 5 5 5 5 5 5 5 5 5 5 5 5 5 5 5 5 5 5 5 5 5 5 6 5 5 5 6 5 6 5 5 5 5 6 5 6 5 5 5 5 5 6 5 5 5 5 5 5 5 5 5 6 5 5 5 5 5 5 5 5 5 5 5 5 5 5 5 5 5 5 5 5 5 5 5 5 6 6 5 5 5 5 5 6 5 5 5 6 5 5 5 6 5 5 6 5 6 5 5 5 5 6 5 5 5 5 6 6 5 5 5 5 5 5 5 5 5 5 5 5 6 5 5 5 5 6 5 5 5 5 5 6 5 5 6 5 5 5 5 5 5 5 5 5 5 5 5 5 5 5 5 6 5 5 6 5 5 5 6 5 5 5 5 5 5 5 5 5 5 5 6 5 5 5 5 5 5 5 5 5 5 5 5 5 5 5 5 6 5 5 6 5 6 5 5 6 5 6 5 6 5 5 5 5 5 5 5 5 5 5 5 5 5 6 5 6 6 5 5 6 6 5 5 6 6 5 5 5 6 5 6 5 5 6 5 5 5 5 6 6 5 6 5 5 6 6 5 5 6 5 5 5 6 5 5 5 6 6 6 5 5 6 5 6 6 5 5 5 5 5 5 5 5 5 5 5 6 6 5 6 5 6 5 6 5 5 5 6 5 5 5 5 5 6 5 5 5 5 5 5 5 5 5 5 5 5 5 5 5 5 5 5 5 5 5 5 5 5 6 5 5 5 5 5 5 5 5 5 5 5 5 5 5 5 5 5 5 6 5 5 5 5 5 5 5 5 5 5 5 6 5 5 5 5 5 6 5 5 5 5 5 5 5 5 5 5 5 5 5 5 6 5 5 5 5 5 5 5 5 5 5 5 5 5 5 6 5 6 5 5 5 5 6 5 5 5 5 5 5 5 5 5 5 5 5 6 5 6 5 5 5 5 6 5 5 5 5 5 5 5 6 5 5 5 5 5 5 5 6 5 5 5 6 5 6 5 5 5 5 5 5 5 5 5 6 5 5 5 5 5 5 5 5 5 5 5 5 5 5 5 5 5 5 5 5 5 5 5 5 5 5 5 5 5 5 5 5 5 5 5 5 5 5 5 5 5 5 5 6 5 5 6 5 5 5 5 5 5 5 5 5 5 6 5 5 5 5 5 6 5 5 6 5 5 5 5 5 5 6 5 5 5 5 6 5 5 6 5 6 5 5 5 5 5 5 5 5 5 5 5 6 5 6 5 5 5 5 6 5 5 5 5 5 5 5 5 5 5 5 5 5 5 5 5 5 5 5 5 5 6 5 5 5 5 6 5 5 5 5 5 5 5 6 5 5 5 5 5 6 5 5 5 6 5 5 5 6 5 5 6 5 5 5 6 5 5 6 5 5 5 5 5 5 5 5 5 5 5 5 5 5 5 5 5 5 5 5 5 5 5 5 5 5 5 5 5 5 5 6 5 5 5 5 5 5 5 5 5 5 5 6 5 5 5 5 5 5 5 5 5 5 5 5 5 5 5 6 6 5 5 5 6 5 5 5 5 6 5 5 6 5 5 5 5 5 5 5 5 5 5 5 5 5 6 6 5 5 5 5 5 5 5 5 5 5 5 6 5 5 6 5 5 5 5 5 5 5 5 5 5 5 5 5 5 5 5 5 5 5 6 5 5 5 6 5 5 5 5 5 6 5 5 5 5 5 5 5 5 5 5 5 5 5 5 5 5 5 5 5 5 6 5 5 6 5 5 5 5 5 5 5 5 5 5 5 5 5 5 5 5 5 5 5 6 5 5 5 5 5 5 5 5 5 5 5 5 5 5 5 5 5 5 5 5 5 5 5 5 5 5 5 5 5 5 5 5 6 5 5 5 5 5 5 6 5 5 5 5 5 6 5 5 5 5 6 5 5 5 5 5 5 5 5 5 5 5 5 5 5 5 5 5 5 5 5 5 5 6 5 5 5 5 5 5 5 6 5 5 6 5 5 6 5 5 5 5 5 5 6 5 5 5 5 5 5 5 5 5 5 6 5 6 5 5 5 5 5 5 5 5 6 5 5 6 5 5 5 6 5 5 5 6 5 5 5 6 6 5 5 6 5 5 6 5 5 6 5 5 5 5 5 5 5 5 5 6 5 5 5 6 5 5 5 6 5 5 5 6 5 6 5 5 6 5 5 5 5 5 5 5 5 6 5 5 6 5 5 5 5 5 5 5 5 5 5 5 5 5 6 5 6 5 5 5 6 6 5 6 5 5 5 5 6 5 6 5 5 5 5 5 5 5 5 5 6 5 5 5 5 5 5 5 5 5 5 5 5 5 5 5 5 5 5 5 5 5 5 5 5 5 5 5 5 6 5 5 5 5 5 5 6 5 5 5 5 5 5 6 5 5 5 5 5 5 6 5 5 5 6 5 5 5 6 5 5 6 5 5 5 5 5 5 6 5 5 5 6 6 5 5 5 5 5 5 5 5 5 5 5 5 5 5 5 5 5 6 5 5 5 5 5 5 5 6 5 5 5 5 5 6 5 5 5 5 5 6 5 5 6 5 5 5 5 6 5 5 5 5 5 5 6 5 6 5 6 6 5 6 5 5 5 6 5 5 5 5 5 6 5 5 5 6 5 5 5 5 6 6 6 5 5 5 5 6 6 5 6 5 5 5 5 5 5 6 5 6 5 5 6 5 5 5 6 5 5 6 5 5 5 5 5 5 5 5 5 5 5 5 6 5 5 5 5 6 5 5 5 5 6 5 5 5 5 5 5 5 5 5 6 6 6 5 5 5 6 6 5 5 6 5 6 5 5 5 5 5 5 5 6 5 5 5 5 5 5 5 5 5 5 5 5 5 5 5 5 6 5 5 5 5 5 5 5 5 5 6 5 5 6 5 6 5 6 5 5 6 5 5 5 6 6 5 5 6 5 5 5 6 5 5 5 5 6 5 5 5 5 5 5 5 5 5 5 5 6 6 5 5 5 5 5 5 5 5 5 5 5 5 5 5 5 5 5 5 5 5 5 5 5 5 5 5 5 5 5 5 5 5 6 5 5 5 5 5 5 5 5 5 5 5 5 5 5 5 5 5 5 5 6 5 5 5 5 5 5 6 6 5 5 6 6 5 5 5 6 5 5 5 5 5 5 5 5 5 5 5 5 5 5 5 5 5 5 5 5 5 5 5 6 5 6 5 6 5 5 5 5 5 5 6 5 6 6 5 5 6 5 5 5 5 5 5 6 6 5 5 6 6 5 5 6 6 5 5 5 5 5 5 5 5 6 5 5 5 5 5 6 5 5 6 5 5 5 6 5 5 5 5 5 5 5 5 5 5 5 5 5 5 5 5 5 5 5 5 5 5 5 5 5 5 5 5 5 5 5 5 5 5 6 5 5 6 5 6 6 5 5 5 5 5 5 5 5 5 6 5 5 5 5 5 6 5 5 5 5 5 5 5 6 5 5 5 5 5 5 5 5 6 5 5 5 5 5 6 5 5 5 5 5 5 5 5 5 5 5 5 5 5 5 5 5 5 5 5 5 5 5 5 5 5 5 5 5 5 6 6 5 5 5 5 5 5 5 6 5 5 5 6 5 6 5 5 5 5 5 5 5 5 5 5 5 5 5 5 5 5 5 5 5 5 5 6 5 5 5 5 5 5 6 5 5 5 5 5 5 5 6 5 5 6 5 5 5 5 5 5 6 5 5 5 6 5 5 6 6 5 5 5 5 5 5 5 5 5 5 5 5 5 5 5 5 5 5 5 5 5 5 5 5 5 5 5 5 6 5 5 5 5 5 5 5 5 5 5 5 5 5 5 5 5 5 5 5 6 5 5 5 6 6 5 5 5 5 5 6 5 5 5 6 5 5 5 5 5 6 5 5 5 5 5 5 5 5 5 5 5 5 5 5 5 5 5 5 5 5 5 6 5 5 5 5 5 5 6 5 5 5 5 5 5 5 5 5 5 5 5 6 5 5 5 5 6 5 6 5 5 5 5 5 5 5 5 5 5 5 5 5 6 5 5 5 5 5 6 5 5 5 5 5 5 6 5 5 5 5 5 5 5 5 5 5 5 5 6 5 5 6 5 5 6 5 5 6 5 5 5 5 5 5 5 5 5 5 6 5 5 5 5 5 5 5 5 6 5 5 5 6 5 5 5 6 5 5 6 5 5 5 6 5 5 5 5 5 6 5 6 5 5 5 5 6 6 5 5 5 6 5 5 5 5 6 5 5 5 5 5 5 5 5 5 5 5 5 5 5 5 6 5 5 6 6 5 5 5 5 6 5 5 5 5 5 5 6 5 5 5 5 5 5 6 5 5 5 5 5 5 5 5 6 5 5 5 5 5 5 5 5 5 5 6 5 5 6 5 5 6 5 5 5 5 5 6 6 5 5 6 6 5 6 5 6 5 6 6 5 5 6 5 6 5 6 5 6 5 6 5 5 6 5 6 5 6 5 5 5 5 5 5 6 5 5 5 6 5 5 5 5 5 5 5 5 5 6 5 5 6 5 6 5 6 5 5 5 6 6 5 5 5 5 5 5 5 5 5 5 5 6 5 5 5 5 5 6 5 5 5 5 5 5 5 5 5 5 5 5 5 5 5 5 5 6 5 5 5 5 5 5 6 5 5 5 6 5 5 6 5 5 5 6 5 6 6 5 5 5 5 5 5 5 5 5 6 5 5 5 5 5 5 5 6 5 6 5 6 5 5 5 5 5 5 5 5 5 5 5 5 5 5 5 5 5 5 5 5 5 5 5 5 5 5 5 5 5 5 5 5 5 5 5 5 5 6 5 5 6 6 5 5 5 5 6 5 5 5 5 5 6 5 5 6 6 5 5 5 5 5 5 6 5 6 5 5 6 6 5 6 5 5 5 6 5 5 5 5 6 5 5 5 6 5 5 6 6 5 5 5 6 5 5 5 5 6 5 5 6 5 5 5 6 5 5 6 5 5 5 6 5 6 5 5 6 5 5 6 6 5 5 6 5 6 6 5 5 5 5 6 5 5 5 5 6 5 5 5 5 5 5 5 5 5 5 5 5 6 5 5 5 5 6 5 6 5 5 5 5 5 6 6 6 5 5 5 5 5 5 5 5 6 5 5 5 5 5 5 6 5 5 5 5 6 5 5 5 5 5 5 5 5 5 5 5 5 5 5 5 5 5 5 6 5 6 5 5 6 6 5 6 5 5 6 5 6 5 6 5 6 5 5 5 5 6 5 5 5 6 5 5 5 5 5 5 5 5 5 5 5 5 5 5 5 5 5 5 5 5 5 5 5 5 5 6 5 5 5 5 5 6 5 5 5 5 5 5 5 5 5 5 5 6 5 5 5 5 5 6 5 5 6 6 5 5 5 6 5 5 6 6 5 6 5 5 5 5 5 5 5 5 5 5 5 5 5 5 5 5 6 5 5 5 5 6 5 5 5 5 5 5 5 5 6 6 5 5 6 5 5 5 5 5 5 5 5 5 6 6 5 5 6 5 5 5 6 5 5 5 5 5 5 5 5 5 5 5 5 5 5 5 5 5 5 5 5 5 5 5 5 5 5 6 5 5 5 5 5 5 5 5 5 5 5 5 5 5 5 5 5 5 5 5 6 5 5 5 6 6 5 5 5 6 5 5 6 5 5 5 5 5 6 5 6 5 5 5 5 5 5 5 5 6 5 5 5 6 5 5 6 5 6 5 5 5 6 5 5 5 6 5 5 5 5 5 5 5 5 5 5 5 5 5 5 5 5 5 6 5 5 5 5 5 5 5 5 5 6 5 5 5 5 5 5 5 5 6 5 5 5 5 5 5 5 5 5 5 5 5 5 6 5 5 5 6 5 5 5 5 5 5 5 5 5 5 5 5 5 5 5 5 5 5 5 6 5 5 5 6 5 6 5 5 5 6 5 5 5 6 6 5 5 5 5 5 5 5 5 5 5 5 5 5 5 5 5 5 5 5 5 5 5 6 5 5 5 5 6 5 5 5 5 6 5 5 5 5 5 5 5 6 5 5 5 5 6 5 5 5 5 5 5 6 5 5 5 5 5 5 6 5 5 5 6 5 5 5 5 5 5 5 5 5 6 5 5 5 5 5 5 6 5 5 5 5 5 5 5 5 5 5 5 6 5 5 6 5 5 5 5 5 6 5 5 6 5 5 5 5 5 5 5 6 6 5 5 5 5 6 5 5 5 5 5 5 6 5 5 5 5 5 5 5 5 5 5 6 5 5 5 5 5 5 5 5 5 5 5 5 6 5 6 5 5 5 6 5 5 6 5 5 5 5 6 5 5 5 5 5 6 5 5 5 5 5 5 5 5 6 5 5 5 5 6 5 5 5 5 5 5 5 6 5 5 5 5 5 5 5 5 5 5 6 5 5 5 6 5 6 5 5 5 5 5 5 6 5 6 5 6 5 5 5 5 6 5 5 5 5 5 5 5 5 5 5 5 5 5 5 6 5 6 5 5 5 5 5 5 5 6 5 5 5 5 5 5 5 5 5 5 5 5 5 6 5 5 5 5 6 5 5 5 5 5 5 5 5 5 5 5 5 5 5 5 5 5 5 5 5 5 5 5 5 6 5 5 5 5 6 5 5 5 6 5 5 6 5 5 6 5 5 5 5 5 5 5 5 5 5 5 5 5 5 5 6 5 5 6 5 5 5 5 5 5 5 6 5 5 5 5 5 6 5 5 5 6 5 5 5 6 5 5 5 5 5 5 5 6 5 5 5 6 5 6 6 5 5 5 5 5 6 5 5 5 5 5 5 5 5 5 5 6 5 5 5 5 5 5 5 5 5 5 5 5 5 5 5 5 5 5 5 5 5 5 5 5 5 5 5 5 5 5 5 5 5 5 5 5 5 6 5 5 5 5 5 5 5 5 5 5 5 5 5 5 5 5 6 5 5 5 5 5 5 5 5 5 6 5 5 5 5 5 5 5 6 5 5 5 5 5 5 5 5 5 5 5 5 5 5 5 5 5 5 5 5 5 6 5 5 5 5 5 5 5 5 5 5 5 5 5 5 5 5 5 6 5 5 5 5 5 5 5 5 5 5 5 5 5 5 5 5 5 5 5 5 5 5 5 5 5 5 5 5 5 5 5 5 5 5 5 5 5 5 5 5 5 5 5 5 5 5 6 5 5 5 5 5 5 5 5 5 5 5 5 5 6 5 6 5 5 5 5 5 6 5 5 5 5 5 6 6 5 5 5 5 5 5 5 5 5 5 5 5 5 5 5 5 5 6 6 5 5 5 5 5 5 6 5 6 5 5 5 5 5 5 5 5 5 6 5 5 5 5 5 5 5 5 5 5 5 5 5 5 5 5 5 5 5 6 5 5 5 5 5 6 5 6 5 5 5 5 5 5 5 6 5 5 5 6 5 5 5 6 5 5 6 5 5 5 6 5 5 6 5 6 5 6 5 5 6 5 5 5 5 5 5 5 5 5 5 5 5 5 5 5 5 5 5 5 5 5 6 5 6 5 5 5 5 5 5 5 6 5 5 5 5 5 5 5 5 5 5 5 5 5 5 5 5 5 5 5 6 5 5 5 6 5 5 5 5 5 5 5 5 5 5 6 5 5 5 5 6 5 5 6 5 5 5 5 5 6 5 5 5 5 6 5 6 5 5 6 5 5 5 5 5 5 5 6 5 5 6 5 6 5 5 5 5 5 5 5 5 5 5 5 5 5 5 5 5 5 5 6 5 5 5 5 5 5 5 6 5 5 5 5 6 5 5 5 5 5 5 5 5 5 6 5 5 5 5 6 5 5 5 5 5 5 5 5 5 5 5 5 6 5 5 5 5 5 5 5 5 5 6 5 5 5 5 5 5 5 5 5 5 5 5 6 5 5 6 5 5 5 5 5 5 5 5 5 6 6 6 5 5 5 6 5 5 5 5 5 5 6 5 5 5 6 6 5 5 5 5 5 5 5 5 5 5 5 5 6 5 5 5 6 6 5 5 5 5 5 6 5 5 5 5 6 5 5 5 5 6 5 5 5 5 5 6 6 6 5 5 5 6 6 5 5 5 5 5 5 5 5 5 6 6 5 5 5 6 6 5 5 5 5 5 5 5 5 5 5 5 5 5 5 5 5 5 6 5 6 5 5 5 5 6 5 5 5 5 5 5 5 6 5 5 5 5 5 5 5 6 5 5 6 5 6 6 5 5 5 6 6 5 5 5 6 6 5 5 5 5 5 5 5 5 5 5 6 5 5 5 5 5 5 5 6 5 5 5 5 6 5 5 5 5 5 5 6 5 5 5 5 6 5 6 5 5 5 5 5 5 5 5 5 5 5 5 5 5 6 5 5 5 5 5 5 5 6 5 5 5 5 6 5 5 5 6 5 5 5 5 5 5 5 5 5 5 5 5 5 5 5 5 5 5 5 5 5 5 6 5 6 5 5 6 5 5 5 6 5 5 6 5 5 5 5 5 5 5 5 5 5 5 5 5 5 5 5 5 5 5 5 6 6 6 5 5 5 5 5 5 5 5 5 5 5 5 5 6 5 5 5 6 5 5 6 5 5 5 5 6 5 5 6 6 5 5 5 5 6 5 5 6 5 6 5 5 5 5 5 5 5 5 5 5 5 5 6 5 5 5 5 5 5 5 6 5 6 5 5 5 5 6 5 5 5 5 5 5 5 5 5 5 5 5 5 5 5 5 5 5 5 5 5 5 5 6 5 5 5 6 5 6 5 5 5 6 5 5 5 5 5 6 5 5 6 5 5 5 5 5 5 5 5 6 5 5 5 5 5 6 5 5 5 5 5 5 5 5 5 5 5 5 5 5 6 5 5 5 5 6 5 5 5 5 5 5 5 5 5 5 5 5 6 5 5 5 5 6 5 5 5 5 5 5 5 5 5 5 5 5 5 6 5 5 6 5 5 5 6 5 5 5 5 5 5 5 5 5 5 5 5 5 6 6 5 6 6 5 5 5 6 6 5 6 5 6 5 6 5 5 5 6 5 6 5 5 5 5 6 5 5 5 5 5 5 6 5 5 5 5 5 6 5 5 6 5 5 6 5 5 6 5 5 5 5 5 6 5 6 5 5 5 5 5 5 5 5 5 5 5 5 5 6 5 5 6 5 5 5 5 5 5 5 5 5 6 5 5 5 5 5 5 5 5 5 6 5 5 6 5 6 5 5 5 5 5 5 5 6 5 5 5 5 5 5 5 6 5 6 5 5 6 5 5 5 6 5 5 5 5 6 5 5 5 5 5 6 5 5 5 5 5 5 5 5 5 5 5 5 5 5 5 5 5 5 5 5 5 6 5 5 6 5 5 5 6 5 5 5 5 6 5 5 5 5 5 5 5 5 5 5 5 5 5 5 5 5 5 5 5 5 5 5 5 6 5 5 5 5 5 5 6 5 5 5 5 5 5 5 5 5 5 5 5 5 6 5 6 5 5 6 5 5 5 5 6 6 5 6 5 6 5 5 5 5 5 6 5 5 6 6 5 5 5 5 5 6 5 5 6 5 5 5 5 5 5 5 5 6 6 5 5 5 6 5 6 5 5 5 5 5 6 5 6 5 5 5 5 5 6 6 5 5 5 5 6 5 5 5 5 6 5 5 5 5 5 5 5 5 5 5 5 5 5 5 5 5 5 6 5 5 6 5 5 5 6 5 5 5 5 5 5 5 5 5 5 5 5 5 5 5 5 5 5 5 6 5 5 5 5 5 5 5 5 5 5 5 5 5 5 6 6 5 5 5 6 5 5 5 5 5 6 5 5 5 5 5 5 5 5 5 5 5 6 5 5 6 5 5 5 5 5 5 5 5 5 5 6 5 5 5 6 5 6 5 6 5 5 5 6 6 5 6 5 5 6 5 5 6 6 5 5 5 6 5 5 6 5 6 5 5 5 6 5 5 6 6 5 6 5 5 6 5 6 5 5 5 5 5 5 5 5 5 6 5 5 5 5 5 6 5 5 5 5 5 5 5 5 5 5 6 5 5 5 5 6 6 5 5 6 5 6 5 5 5 5 5 6 5 5 6 5 6 5 5 5 5 5 5 5 6 5 5 5 5 5 5 5 5 5 6 5 6 5 6 5 6 5 5 5 5 6 5 5 5 5 5 6 6 5 5 5 5 5 5 6 5 5 5 5 5 6 5 5 5 5 6 5 5 6 5 6 5 5 5 6 5 6 5 5 6 6 6 5 5 5 5 5 5 6 6 6 5 5 5 5 6 5 6 5 6 5 5 5 5 5 5 6 5 5 5 5 5 5 5 5 5 5 5 5 5 5 5 5 5 5 5 5 5 5 5 5 5 5 5 5 5 5 5 5 5 5 5 5 5 5 5 5 5 5 5 5 5 5 5 5 5 6 5 5 5 6 6 5 5 5 5 5 5 5 5 5 5 5 5 5 5 5 5 5 5 5 6 5 5 5 5 5 5 5 6 5 5 6 5 5 6 5 5 6 5 6 5 5 6 5 5 5 6 5 6 5 6 6 5 5 5 6 6 5 5 6 5 5 6 5 5 5 5 5 5 5 5 5 5 5 5 6 5 5 5 5 6 5 5 5 5 6 5 5 5 5 5 5 5 5 5 6 5 6 5 5 5 5 6 5 5 5 6 5 5 5 5 5 5 6 5 5 6 5 5 5 6 5 5 5 5 5 5 5 6 5 5 5 5 5 6 5 5 5 5 5 5 5 5 5 5 5 5 5 5 5 6 5 5 5 5 5 6 5 5 6 5 6 5 5 5 5 6 6 5 5 6 5 5 5 5 5 5 5 5 5 5 5 6 5 6 5 5 5 5 5 6 5 5 5 6 5 5 5 6 5 5 5 5 5 5 5 5 5 5 5 5 5 6 5 5 5 5 5 5 5 6 5 6 5 5 5 5 5 5 5 6 6 5 5 5 5 5 5 5 5 5 6 5 5 5 5 5 5 6 6 6 5 6 5 5 5 5 5 5 6 5 6 5 6 5 6 5 5 5 5 5 5 6 5 5 6 5 5 5 5 6 5 5 5 5 5 5 5 5 5 5 5 5 5 5 5 5 5 5 5 5 5 6 5 6 5 5 5 5 5 5 5 5 5 5 5 5 5 5 5 5 5 5 5 5 5 5 5 5 5 5 5 5 5 5 5 5 5 5 5 5 5 5 5 5 5 5 5 5 5 5 5 5 5 5 5 5 5 5 5 5 5 5 6 5 5 5 5 5 5 5 5 5 5 5 5 5 5 5 5 5 5 5 5 5 5 5 6 5 5 5 6 5 6 5 5 5 5 5 5 5 5 5 5 5 5 5 5 5 5 5 5 5 5 5 5 5 5 5 5 5 5 5 5 5 5 5 5 5 5 5 5 5 6 5 6 5 5 5 5 5 5 5 5 5 5 5 5 5 5 5 5 5 5 5 5 5 5 5 5 5 6 5 5 5 5 5 5 5 5 5 5 5 5 5 5 5 5 5 5 5 5 5 5 5 5 5 5 5 5 5 5 5 5 5 5 5 5 5 5 5 5 5 5 5 5 5 5 5 5 5 5 5 5 5 5 5 5 5 5 5 5 5 5 5 5 5 5 5 5 5 6 5 5 5 5 5 5 5 6 5 5 6 5 5 5 5 5 5 5 5 5 5 5 5 5 5 5 5 5 5 5 5 6 5 5 5 5 5 5 5 5 5 5 5 5 5 5 5 5 5 5 5 5 5 5 5 5 5 5 5 5 5 5 5 5 6 5 5 5 5 6 5 6 5 5 5 5 5 5 6 5 5 6 5 5 6 6 5 6 5 5 5 6 5 5 5 5 5 5 5 5 5 5 5 5 5 5 5 6 5 5 5 5 5 5 5 5 6 5 5 5 5 5 5 5 5 5 5 5 5 5 5 5 5 5 5 5 5 5 5 5 5 5 5 5 5 5 5 5 5 5 5 5 5 6 5 5 5 5 5 5 5 6 5 5 6 5 6 5 5 5 5 5 5 5 5 5 5 5 6 6 5 5 6 5 5 6 6 5 5 5 5 6 5 6 5 5 6 5 6 6 5 6 5 6 5 5 5 5 5 5 5 6 5 6 5 5 5 5 5 6 5 5 5 6 5 5 6 5 6 5 6 6 5 5 6 5 5 5 5 5 5 6 5 5 5 5 5 5 5 5 6 6 5 5 5 6 5 5 5 5 6 6 5 6 5 5 5 6 5 5 5 5 5 5 5 5 5 5 5 5 5 5 5 5 6 5 5 5 5 5 5 6 5 6 5 5 5 6 6 5 5 6 5 6 5 5 5 5 5 5 5 5 5 5 5 5 6 6 5 5 5 5 5 6 5 5 5 5 5 5 5 6 5 5 5 6 5 6 5 5 6 5 5 5 5 5 5 5 5 5 6 5 5 6 5 5 5 5 5 5 5 5 5 5 5 6 5 5 5 5 5 5 5 5 5 5 5 5 5 5 5 5 5 5 5 5 5 5 6 5 5 5 5 5 5 5 5 5 5 5 6 5 5 5 5 6 5 5 5 5 5 5 5 5 5 5 5 6 5 5 5 5 5 6 5 6 5 5 5 5 5 5 5 5 5 6 5 5 6 5 5 6 5 5 5 5 6 5 5 5 5 5 5 5 5 5 5 5 5 5 5 5 5 5 5 5 5 5 6 5 5 6 5 6 5 5 5 5 5 5 5 5 5 6 5 5 6 6 6 5 5 5 6 5 5 5 5 5 5 6 6 5 6 5 5 6 5 5 6 5 5 5 5 6 5 5 5 5 6 5 5 5 5 5 5 5 5 5 5 5 6 5 5 6 5 6 6 5 5 6 6 6 5 5 5 5 5 5 5 5 5 5 6 5 5 5 5 5 5 5 5 5 6 5 5 5 5 5 6 5 5 5 5 5 5 5 5 5 5 6 5 5 5 5 5 5 5 5 5 5 5 5 5 5 5 5 5 5 5 5 5 5 5 5 6 6 5 5 5 5 5 5 5 5 6 5 5 5 5 5 5 5 5 5 5 5 5 5 5 5 5 6 5 5 5 5 6 5 5 5 6 6 5 5 5 5 5 5 6 5 6 5 5 5 6 5 5 5 5 5 5 5 5 6 5 6 6 5 5 5 5 5 5 5 5 5 5 5 5 6 5 5 6 5 6 5 5 5 5 5 5 5 5 5 5 5 5 5 5 5 5 5 5 5 5 5 5 5 6 5 5 5 5 5 6 5 5 5 5 5 5 5 5 5 5 6 5 5 5 6 5 5 5 5 5 5 5 5 5 5 5 6 6 5 5 5 5 5 6 5 5 5 6 5 5 5 5 5 5 5 5 5 5 6 5 5 5 5 5 5 5 6 6 5 6 5 5 5 5 6 5 5 5 5 5 6 5 5 5 5 5 5 5 5 5 5 6 5 5 5 5 5 5 5 5 5 5 6 5 5 5 5 5 5 5 6 5 5 5 5 5 5 5 5 5 5 5 5 5 5 5 5 5 5 5 5 6 5 5 5 6 5 5 5 5 5 5 5 5 5 5 5 5 5 6 5 6 6 5 6 6 5 5 5 5 5 6 5 5 5 5 5 5 5 6 5 5 6 5 5 6 5 5 6 5 5 6 6 6 6 5 5 6 6 5 5 6 5 5 6 5 5 5 5 6 6 6 6 5 5 5 6 5 6 5 6 5 6 6 5 5 5 5 5 5 5 6 5 5 6 5 6 5 5 6 6 5 5 5 5 5 5 5 5 5 5 5 5 5 5 5 5 5 6 5 5 5 5 5 5 5 5 5 5 5 5 5 5 5 5 5 6 5 5 5 5 5 5 5 5 5 5 5 5 5 5 6 6 5 5 5 5 6 5 6 5 5 5 6 6 5 6 5 5 5 5 5 5 5 5 5 5 5 5 5 5 5 5 5 5 5 6 5 6 5 5 5 5 6 5 5 5 5 5 5 5 5 5 5 5 5 5 5 5 5 5 5 5 5 6 5 5 5 5 5 5 5 5 5 5 5 5 5 5 6 5 5 5 5 5 5 5 5 5 5 5 5 5 5 5 5 5 5 5 5 5 5 5 5 5 5 5 5 5 5 5 5 5 5 5 5 5 5 5 5 5 5 5 5 5 5 5 5 5 5 5 5 5 5 5 5 5 5 5 5 5 5 6 5 5 5 6 5 5 6 5 5 5 5 5 5 5 5 5 5 5 6 5 5 5 5 6 5 5 5 5 5 5 5 5 5 5 5 5 5 5 5 5 5 5 5 5 5 5 5 5 5 5 5 5 5 6 5 5 5 5 6 5 5 5 5 5 5 5 5 5 5 6 5 5 6 5 5 5 5 5 5 5 5 5 5 5 5 6 5 5 5 5 5 5 5 5 6 5 5 5 5 5 5 5 5 5 5 6 5 6 5 5 5 6 5 5 5 6 5 6 5 6 6 5 5 5 5 5 6 5 5 5 5 5 5 5 5 5 5 5 5 5 5 5 5 5 5 5 5 5 5 5 6 5 5 6 5 5 5 6 5 6 5 5 5 5 5 5 5 5 5 5 5 5 6 5 5 5 5 5 5 5 5 5 5 5 5 5 5 5 5 5 5 5 6 5 5 5 5 5 5 5 5 5 5 5 5 5 5 5 5 5 5 5 5 5 5 5 5 5 5 5 6 5 5 5 5 5 5 5 5 5 5 5 5 5 5 5 5 5 5 6 5 5 5 6 5 5 5 6 6 5 5 5 5 5 6 5 5 5 5 5 5 5 6 6 5 5 5 6 5 6 5 5 5 5 5 5 6 6 5 5 6 6 5 5 5 5 5 5 5 5 5 5 6 5 5 5 5 5 5 6 5 5 5 5 5 5 5 5 5 5 5 5 5 5 5 5 5 6 5 5 5 5 6 5 5 6 5 5 5 5 5 5 5 5 5 5 5 6 5 6 5 6 5 5 5 5 5 5 5 5 5 5 5 5 5 5 5 5 5 5 5 6 5 5 6 5 5 5 6 5 5 6 5 5 5 5 6 5 5 5 5 5 5 5 6 5 5 5 5 5 5 5 5 5 5 5 5 5 5 5 5 5 5 5 5 5 5 5 5 5 5 5 5 5 6 5 5 5 5 5 5 5 5 5 5 5 5 5 5 5 5 5 5 5 5 5 5 5 5 5 5 5 5 5 5 5 5 5 5 5 5 5 6 6 6 5 5 6 5 5 5 6 5 6 5 5 5 5 5 6 5 5 5 5 5 5 5 6 5 5 5 5 5 5 5 5 5 5 5 5 5 5 6 5 5 5 6 5 6 5 5 5 5 5 5 5 5 6 5 5 5 5 5 5 5 6 5 6 5 6 5 5 5 5 5 5 5 5 6 5 5 6 6 6 5 6 5 6 5 5 5 5 5 5 5 5 5 5 5 5 5 5 5 5 5 5 5 5 5 6 5 5 6 6 5 5 5 6 5 5 5 5 5 5 5 6 5 6 5 5 5 5 6 5 5 6 5 5 5 5 5 5 5 6 5 5 6 5 5 5 6 5 5 5 5 5 5 5 5 5 6 5 5 5 5 5 5 6 5 5 6 5 5 5 5 6 5 5 5 5 5 5 6 6 6 5 5 5 6 5 6 5 6 5 5 5 5 5 5 6 5 5 5 6 5 5 5 6 5 5 5 5 5 5 5 5 5 5 5 5 6 5 5 5 6 5 5 5 5 5 6 6 5 5 6 5 6 6 6 5 5 5 6 5 5 5 5 5 6 5 5 5 5 5 5 5 5 5 5 5 5 6 5 5 5 5 5 5 6 5 5 6 5 5 6 5 5 5 5 5 6 5 5 6 5 6 5 6 5 5 5 5 5 5 6 5 5 5 5 6 5 5 5 5 5 5 5 5 5 5 6 5 5 5 5 5 6 5 5 5 5 5 5 5 5 5 5 5 5 5 5 5 6 5 5 5 5 5 6 5 6 5 5 5 5 5 6 5 5 5 5 5 6 5 5 5 5 5 6 5 5 5 5 5 5 5 5 5 5 6 5 6 5 6 5 5 6 5 5 5 5 5 5 5 5 6 5 6 5 5 5 5 5 5 5 5 5 5 6 5 5 5 5 5 5 5 5 5 5 6 5 5 5 6 5 6 6 5 5 5 6 5 5 5 6 6 5 5 5 5 5 5 5 5 5 5 6 6 5 5 5 5 5 6 5 5 5 5 5 5 5 5 5 5 6 5 6 6 6 5 5 5 5 5 5 5 5 6 5 5 5 5 5 5 5 5 5 5 5 5 5 5 5 5 5 5 5 5 5 5 5 5 5 5 5 5 5 6 5 5 5 5 6 5 5 5 5 5 5 5 5 6 5 5 5 5 5 5 5 5 6 5 5 5 5 5 5 5 5 5 5 5 5 5 5 5 5 5 5 5 5 5 5 5 5 5 5 6 5 5 5 5 5 5 6 5 6 5 5 6 5 5 5 6 5 6 5 5 5 6 5 5 5 6 5 5 5 5 5 5 6 5 5 5 5 5 5 5 5 5 5 5 5 5 5 5 5 5 5 5 5 5 5 5 5 5 5 5 6 5 6 5 5 5 5 6 5 5 5 5 5 5 5 5 5 5 5 5 5 6 5 5 6 5 5 6 5 5 5 5 5 6 5 5 5 5 5 5 5 5 6 5 6 5 5 5 5 5 6 6 5 5 6 5 5 5 6 5 5 5 5 5 5 5 6 5 5 5 5 5 5 5 5 5 5 5 5 5 5 5 5 6 5 5 5 5 5 6 5 6 5 5 5 5 5 5 5 5 5 5 5 5 6 5 6 5 5 5 5 5 5 6 6 5 5 5 5 5 5 5 5 5 5 5 5 5 5 5 5 5 5 5 5 5 6 5 5 6 5 5 5 5 5 6 5 5 5 5 5 5 6 5 5 5 5 5 5 5 5 5 5 5 5 5 5 5 5 6 5 5 6 5 5 5 5 6 5 5 5 5 5 5 5 5 5 5 5 6 5 5 5 5 5 5 5 5 5 5 5 5 5 5 5 5 5 5 5 6 5 5 5 5 5 5 5 5 5 5 5 5 6 5 5 5 5 5 5 5 5 5 5 5 5 5 6 6 5 5 5 5 5 5 6 5 5 5 5 5 5 5 5 5 5 5 5 5 5 5 5 5 5 5 5 5 5 5 5 5 5 5 5 5 5 5 5 5 5 5 6 5 5 5 5 5 5 5 5 6 5 5 5 5 5 5 5 5 5 5 5 5 6 5 5 5 5 6 5 6 5 5 5 5 5 5 5 5 6 5 5 5 5 5 5 5 5 5 5 6 5 5 5 6 5 5 6 5 5 5 5 6 5 5 6 5 5 5 5 5 5 5 5 6 5 5 5 6 5 5 5 5 5 5 5 6 5 6 5 6 5 6 6 5 5 5 6 6 6 5 5 6 5 5 5 6 5 5 5 5 6 5 5 5 5 5 5 5 5 5 5 5 5 5 5 5 5 5 5 5 5 5 5 5 5 5 5 5 5 5 5 5 5 5 5 5 5 5 5 6 5 5 5 5 5 5 5 5 6 5 5 5 5 6 5 5 6 5 5 6 5 5 5 5 6 5 5 5 5 5 6 5 5 5 5 5 5 5 5 5 5 5 5 5 6 6 5 5 5 6 5 5 5 5 5 5 5 5 5 5 5 5 5 5 6 5 5 5 5 5 5 6 5 5 6 5 5 5 5 5 5 5 5 5 5 6 5 5 5 5 5 6 5 5 5 5 5 5 5 5 5 5 6 5 5 5 5 5 5 5 5 5 5 5 5 5 5 5 6 5 5 5 5 5 5 5 5 5 5 5 5 5 5 5 5 5 5 5 5 5 5 5 6 5 6 5 5 5 6 5 5 5 5 5 5 5 5 5 6 5 5 5 6 5 5 5 5 5 5 5 5 5 5 5 5 5 5 5 5 6 5 5 5 5 5 6 5 5 5 6 5 6 5 5 5 5 5 5 6 5 5 5 5 5 5 5 5 5 5 5 5 5 5 5 5 5 5 5 5 5 5 5 5 5 5 5 6 5 5 6 5 5 5 5 5 5 5 6 5 5 5 5 6 5 5 6 5 5 5 5 5 5 6 5 5 5 6 5 5 5 6 5 5 5 5 5 6 5 5 5 5 5 6 5 5 5 5 5 5 5 5 6 5 5 6 5 5 5 5 6 5 5 5 5 6 5 5 5 5 6 5 5 5 6 5 6 5 5 5 5 5 5 5 5 5 5 6 5 5 5 5 5 5 5 6 6 5 5 5 5 5 6 5 5 5 5 5 6 5 5 5 6 5 5 6 5 5 6 5 5 5 6 5 5 5 5 5 5 6 5 5 5 5 5 6 5 5 5 5 5 6 5 5 5 5 5 5 6 5 5 5 5 6 5 5 5 5 5 6 5 5 5 5 5 5 5 5 5 5 6 5 5 5 5 5 5 5 6 5 5 5 5 6 6 5 5 6 5 5 5 5 5 5 5 6 5 5 5 5 5 5 5 6 5 6 5 5 6 5 5 5 5 6 5 6 5 5 5 5 5 5 5 5 5 5 6 5 5 5 5 5 6 5 5 5 6 5 5 5 5 6 5 5 6 5 5 5 5 5 6 5 6 5 6 6 5 5 5 5 6 6 5 5 5 5 5 5 5 5 5 5 5 5 5 6 5 5 5 5 5 5 6 6 5 5 5 5 5 5 5 5 5 5 5 5 5 6 5 5 5 5 5 5 5 5 5 5 5 5 5 5 5 5 5 5 5 5 5 5 5 5 5 5 5 5 5 5 5 5 5 6 5 5 6 5 5 5 5 5 5 5 6 5 5 5 6 5 5 6 5 5 5 6 6 5 5 5 5 6 6 5 5 5 5 5 5 5 5 5 5 5 5 5 5 6 5 5 6 5 5 5 6 5 5 5 5 6 5 5 6 5 5 5 5 5 5 5 5 5 5 5 6 5 5 5 5 5 5 5 6 5 5 5 5 5 5 5 5 5 5 5 5 5 5 5 5 5 5 6 5 5 5 5 5 5 6 5 6 5 5 5 5 5 6 5 5 6 5 5 5 6 5 5 5 6 5 5 5 5 5 5 5 5 5 5 5 5 5 5 6 5 5 5 5 6 6 5 5 5 5 5 5 5 5 5 5 5 5 5 5 5 5 5 5 5 6 5 5 5 5 5 5 5 5 6 5 6 5 5 5 5 5 5 5 6 5 6 5 5 5 5 5 6 5 5 5 5 5 5 6 5 5 5 5 5 6 6 5 5 5 6 6 6 5 5 5 5 5 6 5 5 5 5 5 6 5 5 5 5 6 5 6 6 5 6 6 5 5 5 6 5 5 5 6 5 5 5 6 5 5 5 6 5 5 5 5 5 5 5 5 6 5 5 5 6 5 5 5 5 5 5 6 5 5 5 5 5 5 6 5 5 5 5 5 5 5 5 5 5 5 5 5 5 6 5 6 5 5 5 6 5 5 6 5 6 5 6 5 5 6 5 5 5 5 5 5 6 5 5 5 5 6 5 5 5 5 5 5 6 5 5 5 5 5 5 5 5 5 5 6 5 5 5 5 5 5 5 5 5 5 5 5 5 5 5 5 5 5 5 6 6 5 5 5 6 5 5 6 5 5 6 5 5 6 5 5 6 6 5 5 5 5 6 5 5 5 5 5 5 5 5 5 5 5 6 6 5 5 5 6 5 6 5 6 5 5 5 5 5 6 5 5 6 5 6 5 5 6 6 6 5 5 5 5 6 5 5 6 5 6 5 5 6 5 5 5 5 5 5 5 5 6 5 6 6 5 5 5 5 5 6 6 5 5 5 6 6 5 5 5 5 5 5 5 5 6 5 6 5 5 5 5 5 5 5 5 5 5 5 5 5 5 5 5 5 5 5 5 5 5 5 5 5 5 5 5 5 6 5 5 5 5 5 5 5 5 5 5 5 5 5 5 5 6 5 5 6 5 5 5 5 5 6 5 5 5 5 5 5 5 5 5 5 5 5 5 6 5 5 5 5 5 5 5 5 5 6 5 5 6 5 5 5 5 6 6 6 5 5 5 5 5 6 5 5 5 
</DataArray>
<DataArray type="Float64" Name="stress" NumberOfComponents="9" format="ascii">
-92707.528366528597 260568934.35628891 0 260568934.35628891 -1566495450.3267052 0 0 0 0 -292077.86811866652 437698.3777217865 0 437698.3777217865 -92816755.32270813 0 0 0 0 34886.223315193238 423211.1093700286 0 423211.1093700286 -793935.0830289647 0 0 0 0 223057568.89879856 -174335948.00171471 0 -174335948.00171471 -427817424.6032486 0 0 0 0 240424182.36072695 213125802.77601433 0 213125802.77601433 -1572313385.3629684 0 0 0 0 -71122881.663058475 433047270.67125511 0 433047270.67125511 -510929669.64940643 0 0 0 0 -116449904.20973739 450446688.50568008 0 450446688.50568008 -349610948.54260397 0 0 0 0 19435.726915110343 477294.07848312147 0 477294.07848312147 -829174.10753061622 0 0 0 0 -181227145.06469274 601051202.20618629 0 601051202.20618629 -631328843.47732544 0 0 0 0 100063.81404611468 281206524.57509232 0 281206524.57509232 -886198399.87582207 0 0 0 0 -312797.95512913214 233457999.17915797 0 233457999.17915797 -415068326.51320648 0 0 0 0 42918600.76156339 156949616.73012161 0 156949616.73012161 -546927782.92316437 0 0 0 0 -47267493.381596401 100063967.15910339 0 100063967.15910339 -481646832.92712402 0 0 0 0 -45124700.493247107 91343775.938381195 0 91343775.938381195 -523209192.7009964 0 0 0 0 -1134358.8692726379 78359428.649263382 0 78359428.649263382 -610379990.75452042 0 0 0 0 149571118.46453333 338943227.99972534 0 338943227.99972534 -706608022.33961678 0 0 0 0 38226165.175328225 156590020.10870361 0 156590020.10870361 -460920991.81172609 0 0 0 0 114756350.24747604 54674783.397632599 0 54674783.397632599 -474382909.09513378 0 0 0 0 270863277.98319292 -112162244.74948406 0 -112162244.74948406 -187473657.36957932 0 0 0 0 687547925.92149568 110642639.16151237 0 110642639.16151237 -630009437.43153381 0 0 0 0 22377.900433392118 794259.81518680044 0 794259.81518680044 -1443501.842675928 0 0 0 0 -180951795.19384488 367380639.87797165 0 367380639.87797165 110030378.12437057 0 0 0 0 -26432014.993728295 417649195.13740158 0 417649195.13740158 -651142525.44315338 0 0 0 0 238325207.68158427 434918686.99285889 0 434918686.99285889 -650017592.28415918 0 0 0 0 238255934.61937737 647184621.23065186 0 647184621.23065186 -1571760989.7438965 0 0 0 0 147378.80176662572 1024771.5120797814 0 1024771.5120797814 -1373075.6256660745 0 0 0 0 653292670.09807742 -307941860.37034035 0 -307941860.37034035 -1127105717.482132 0 0 0 0 -125350856.46579459 829744787.16491318 0 829744787.16491318 -551941612.0195694 0 0 0 0 585695453.40943265 -8384679.2682819366 0 -8384679.2682819366 -1571463085.5677948 0 0 0 0 31658181.565399669 76076842.503084183 0 76076842.503084183 -893499397.61082458 0 0 0 0 31454447.96625701 261649146.79921439 0 261649146.79921439 -1222401818.9175949 0 0 0 0 222491158.63697717 -352700352.18056297 0 -352700352.18056297 -360831588.89915466 0 0 0 0 -628420664.08196878 704983252.31378078 0 704983252.31378078 -2444613766.579834 0 0 0 0 150456.6634467429 -581021.80656907242 0 -581021.80656907242 -2072478.3934400007 0 0 0 0 -665474551.41736317 692712961.74582863 0 692712961.74582863 -1061603407.3450317 0 0 0 0 -155118592.78280935 547122478.59632111 0 547122478.59632111 -1576028675.5941455 0 0 0 0 -483226272.78033859 402645547.55918694 0 402645547.55918694 -651905175.8261528 0 0 0 0 -497541376.97800636 597107266.55307388 0 597107266.55307388 -672438810.53935289 0 0 0 0 -47794788.855459988 -251110119.27014542 0 -251110119.27014542 485199327.07279205 0 0 0 0 159306857.82700691 -1176098086.5208054 0 -1176098086.5208054 9131188.4429550171 0 0 0 0 90834103.799259365 -82525459.016891479 0 -82525459.016891479 -85035075.362178802 0 0 0 0 468611255.76914978 110922541.31113577 0 110922541.31113577 -104360308.92782593 0 0 0 0 979706.37182824267 -1103207.1592778005 0 -1103207.1592778005 -5127078.4365892485 0 0 0 0 601417709.86405909 -380272712.44970536 0 -380272712.44970536 74152827.405536652 0 0 0 0 310379635.98912454 -19609361.544322968 0 -19609361.544322968 -6216709.7061843872 0 0 0 0 182249816.89480472 -43423447.18711853 0 -43423447.18711853 -2366571.5877494812 0 0 0 0 298659538.32737851 -25305079.319723129 0 -25305079.319723129 -33318049.003128052 0 0 0 0 205448530.85355079 1603340.0811462402 0 1603340.0811462402 -179965261.30750275 0 0 0 0 -100602508.16836435 241207633.98771095 0 241207633.98771095 -168370467.2677269 0 0 0 0 95409774.234575033 723599472.53720093 0 723599472.53720093 -471553442.17726135 0 0 0 0 -242529305.23532492 582174020.99244308 0 582174020.99244308 115649852.80016899 0 0 0 0 -339025641.89398116 636810402.54458618 0 636810402.54458618 -459139887.47324824 0 0 0 0 -332148728.19377083 352607848.7897625 0 352607848.7897625 -458124343.08851624 0 0 0 0 392706196.42549276 -150433947.30905724 0 -150433947.30905724 45350999.403450012 0 0 0 0 1563390.8157603145 -1002132.2710474581 0 -1002132.2710474581 -6327245.1447884142 0 0 0 0 1035088.3627562129 723438.24662685394 0 723438.24662685394 -1123644.2961086631 0 0 0 0 254204133.92943758 741482841.5202508 0 741482841.5202508 -734352311.23071289 0 0 0 0 288139357.45826292 330386568.80315018 0 330386568.80315018 -589293345.21387482 0 0 0 0 -171183861.39817977 -38847692.100196838 0 -38847692.100196838 21359060.951488495 0 0 0 0 -8825347.4095318317 59506015.52828598 0 59506015.52828598 -119093112.05879593 0 0 0 0 437832573.02485216 24519006.88986969 0 24519006.88986969 -194774440.58108521 0 0 0 0 400396533.28432077 -7473507.0613994598 0 -7473507.0613994598 -134211203.33493042 0 0 0 0 396361842.1381014 237977368.83831024 0 237977368.83831024 164214957.15913391 0 0 0 0 361575565.69861269 149903902.58263588 0 149903902.58263588 -50098622.775665283 0 0 0 0 768486.48266683123 1926407.343983185 0 1926407.343983185 -7152567.637500748 0 0 0 0 277953015.66327918 113776927.88295364 0 113776927.88295364 73726790.655685425 0 0 0 0 198040177.1009326 -47265929.213336945 0 -47265929.213336945 3189356.5808734894 0 0 0 0 189194604.21411398 -79923490.425136566 0 -79923490.425136566 -61375691.238433838 0 0 0 0 247746276.9219529 24175704.316293716 0 24175704.316293716 -185290738.66306305 0 0 0 0 -175752026.0280875 156438109.0198555 0 156438109.0198555 -128721974.89687729 0 0 0 0 11384712.181349635 196716852.41604996 0 196716852.41604996 -194359455.99594116 0 0 0 0 155119822.94513488 4035841.2853221893 0 4035841.2853221893 -69673717.659873962 0 0 0 0 307952483.52046967 -1209678.0041618347 0 -1209678.0041618347 -145147978.62949371 0 0 0 0 85215930.926378489 226097377.53810883 0 226097377.53810883 -77823049.009969711 0 0 0 0 56025686.34540689 170225657.95753479 0 170225657.95753479 -158248162.30679131 0 0 0 0 183049250.14432955 -6046254.2565727234 0 -6046254.2565727234 52333359.944187164 0 0 0 0 47407593.415408656 140625645.21919441 0 140625645.21919441 -251634058.19158173 0 0 0 0 -230625732.82276171 244615158.5243988 0 244615158.5243988 -71370540.485466003 0 0 0 0 -206841396.23113155 164200051.98169327 0 164200051.98169327 12612151.417991638 0 0 0 0 -107365722.27649337 266008942.21344757 0 266008942.21344757 -104390293.64771271 0 0 0 0 5803290.2369893789 140741024.77729797 0 140741024.77729797 154925.33350372314 0 0 0 0 -114670829.78965259 107425702.15784454 0 107425702.15784454 64708973.712867737 0 0 0 0 -104042323.737463 252743958.34237671 0 252743958.34237671 -80079506.099578857 0 0 0 0 -109339069.13748434 226176588.88867188 0 226176588.88867188 -3431956.6487396955 0 0 0 0 -109266069.38332732 170246923.97878343 0 170246923.97878343 24073413.859100342 0 0 0 0 414512677.42116463 25201343.548908234 0 25201343.548908234 -94563401.497692108 0 0 0 0 304231177.41583657 86802759.764820099 0 86802759.764820099 -76867457.502944946 0 0 0 0 368903.46729005093 1536685.8228310212 0 1536685.8228310212 -5164010.2954970524 0 0 0 0 140635488.97498035 -133230828.00482178 0 -133230828.00482178 -31985530.496936798 0 0 0 0 107700355.57400703 -146593352.66717529 0 -146593352.66717529 -73908841.275586128 0 0 0 0 155695255.55289543 -62505891.305312634 0 -62505891.305312634 -95244478.727684021 0 0 0 0 136663969.84666681 -9462334.7350730896 0 -9462334.7350730896 53268920.05556488 0 0 0 0 14697212.015387595 -59205352.341058731 0 -59205352.341058731 -126120104.01754761 0 0 0 0 44014521.45455879 -110647847.0690155 0 -110647847.0690155 -68863394.466182709 0 0 0 0 -14187940.401990801 -120678002.5272522 0 -120678002.5272522 -232316306.11771393 0 0 0 0 -34026958.925100207 -119123426.30963135 0 -119123426.30963135 -83927379.042102814 0 0 0 0 -59900957.832028508 -74545533.041576385 0 -74545533.041576385 -48104959.157085419 0 0 0 0 -120286703.43822064 -7450856.4382324219 0 -7450856.4382324219 2707615.6539382935 0 0 0 0 -113819558.04923828 -132980099.01725769 0 -132980099.01725769 -102432937.90355682 0 0 0 0 227584.48066475653 36326.11635502975 0 36326.11635502975 -1544499.4947782606 0 0 0 0 -29092.728133390741 -32680161.974143982 0 -32680161.974143982 110433837.56687164 0 0 0 0 30313657.755929325 -10473476.796961784 0 -10473476.796961784 3176265.3491821289 0 0 0 0 -13226575.989613891 -21755977.882463455 0 -21755977.882463455 -32815812.288978577 0 0 0 0 38966.028067915344 -141952.29757335503 0 -141952.29757335503 -619267.26374232396 0 0 0 0 -265947498.53146008 -134264782.55226135 0 -134264782.55226135 -22807881.643214226 0 0 0 0 85030802.700725645 47718071.022169113 0 47718071.022169113 -360411354.43482208 0 0 0 0 -327961903.69833624 -265645350.83465958 0 -265645350.83465958 -237725922.83950043 0 0 0 0 -69769834.163687348 -101098661.86483765 0 -101098661.86483765 -124758517.73211288 0 0 0 0 -106331010.56826156 -202401412.05455017 0 -202401412.05455017 -335930548.2817688 0 0 0 0 -16131888.712816447 -91615994.284240723 0 -91615994.284240723 -405709954.60604858 0 0 0 0 -59150096.026037633 -178929233.03536987 0 -178929233.03536987 -725663780.15317535 0 0 0 0 -37375629.342978239 -70591682.46647644 0 -70591682.46647644 -352462919.78122282 0 0 0 0 -125597487.5333288 102777966.06972504 0 102777966.06972504 -559175882.06843185 0 0 0 0 231500.39291612274 -156309874.48260117 0 -156309874.48260117 -749537571.29767609 0 0 0 0 -190464503.28863341 26844474.055883408 0 26844474.055883408 -522147624.09785461 0 0 0 0 -109776414.89605123 16563061.880554199 0 16563061.880554199 -541874027.40367126 0 0 0 0 50359245.476604223 132046226.28198242 0 132046226.28198242 -502902608.84797287 0 0 0 0 -18254400.945363432 55551314.358604431 0 55551314.358604431 -457845471.77295685 0 0 0 0 -25402248.536843687 86010364.363506317 0 86010364.363506317 -575667956.64205933 0 0 0 0 246703937.68686914 183755146.17521858 0 183755146.17521858 -481426697.21880341 0 0 0 0 60340079.582366288 78511904.062774658 0 78511904.062774658 -317427507.89611816 0 0 0 0 59986624.220707178 171609692.82389069 0 171609692.82389069 -480821722.9774971 0 0 0 0 -287292576.01062924 429360334.55536604 0 429360334.55536604 -288441578.7444458 0 0 0 0 75987426.070306182 136496575.22142792 0 136496575.22142792 -222477401.55615044 0 0 0 0 27840654.413555682 171241517.99494743 0 171241517.99494743 -223357319.62332916 0 0 0 0 96828261.888697267 39612306.490634918 0 39612306.490634918 -148322729.25370789 0 0 0 0 45394327.608487338 -11295707.313856602 0 -11295707.313856602 -195875728.74103546 0 0 0 0 40374115.432452545 34697205.22413826 0 34697205.22413826 -357072669.9758606 0 0 0 0 -4330403.2813110352 -18035058.945083618 0 -18035058.945083618 -215137443.59846401 0 0 0 0 60323358.152075469 82437770.485363007 0 82437770.485363007 -476426991.42668152 0 0 0 0 -77230849.356141835 52688732.335036278 0 52688732.335036278 57966233.646987915 0 0 0 0 -20902819.326391339 133640863.61299706 0 133640863.61299706 -240447249.8421936 0 0 0 0 27088401.036518067 90370118.544734955 0 90370118.544734955 -285020470.98524475 0 0 0 0 -39317477.699491918 54215282.22889328 0 54215282.22889328 -343822833.04803085 0 0 0 0 -14349118.648233898 158305403.78384352 0 158305403.78384352 -499592355.73612976 0 0 0 0 -50056887.294116393 358119118.12244797 0 358119118.12244797 -701032305.13863373 0 0 0 0 36126467.900975876 255486558.48662186 0 255486558.48662186 -707230637.69760132 0 0 0 0 -201558501.91675365 242507807.2610054 0 242507807.2610054 -243042301.74376678 0 0 0 0 125530969.16960581 438256823.94198132 0 438256823.94198132 -1575603329.3742771 0 0 0 0 218924028.90447551 250432764.96473026 0 250432764.96473026 -1236070534.8817253 0 0 0 0 179384908.45057771 248784334.37444782 0 248784334.37444782 -1235581949.5609303 0 0 0 0 133602086.35573131 243056417.03846931 0 243056417.03846931 -965756969.60039139 0 0 0 0 239320280.38852137 78476003.361515045 0 78476003.361515045 -1269339350.3313084 0 0 0 0 300528644.73949301 206502051.3483305 0 206502051.3483305 -1574744310.8069592 0 0 0 0 237374652.17774749 134555268.07994035 0 134555268.07994035 -1256795696.5124359 0 0 0 0 49974035.921293795 67485698.594465733 0 67485698.594465733 -649703856.27341843 0 0 0 0 107642223.61110568 -29276262.344556808 0 -29276262.344556808 -811375000.74096966 0 0 0 0 -26804252.424408674 -88264572.724834442 0 -88264572.724834442 -228992076.9413681 0 0 0 0 44881713.375734508 -146086911.97574043 0 -146086911.97574043 -611664172.96427965 0 0 0 0 -317299.1951924134 -488130.26675516553 0 -488130.26675516553 -442552.5234301351 0 0 0 0 -126082204.11974275 -321244846.20392036 0 -321244846.20392036 -586424856.34152031 0 0 0 0 -348471.25371142861 431502.19267828763 0 431502.19267828763 -1681994.8835253231 0 0 0 0 49037252.596866719 123911788.4811821 0 123911788.4811821 -1163037104.8717098 0 0 0 0 53962504.237894975 -182416339.51764679 0 -182416339.51764679 -1058707672.0637856 0 0 0 0 69814971.146833003 -106603858.17560196 0 -106603858.17560196 -1574603320.6213379 0 0 0 0 36054093.61091572 -91408601.422196865 0 -91408601.422196865 -1168974544.2283173 0 0 0 0 -110670036.01577409 -381115243.98832703 0 -381115243.98832703 -1574642629.77001 0 0 0 0 -548122285.72011745 -55141480.373310089 0 -55141480.373310089 -1092299597.37397 0 0 0 0 -488652841.69939113 -363403149.03198242 0 -363403149.03198242 -762375066.17683029 0 0 0 0 -232085596.68190306 -559805638.40523911 0 -559805638.40523911 -1145769846.6647301 0 0 0 0 -69500244.471024752 -608397862.80257797 0 -608397862.80257797 -1136568729.3870735 0 0 0 0 62200096.270235911 -523789317.35398865 0 -523789317.35398865 -1822254723.3106174 0 0 0 0 -1012010765.3935026 -323129519.38994598 0 -323129519.38994598 -1575496766.7262557 0 0 0 0 147090465.01696286 -1053391149.1333504 0 -1053391149.1333504 -1222910081.4182549 0 0 0 0 -80893707.933887959 -440786153.86972809 0 -440786153.86972809 -565500728.58116341 0 0 0 0 -244544835.58332345 -621123266.85027695 0 -621123266.85027695 -421216193.84128571 0 0 0 0 -14509570.243511617 158807561.2954216 0 158807561.2954216 -575083756.82413483 0 0 0 0 -279019596.03496999 -185161971.56586838 0 -185161971.56586838 -223168269.69356537 0 0 0 0 -288422607.37544358 -313226317.18366432 0 -313226317.18366432 -980726960.66556931 0 0 0 0 -348358114.30501407 386068209.98972893 0 386068209.98972893 -844693150.93081903 0 0 0 0 -730180991.01089954 368063738.07404709 0 368063738.07404709 -148791687.3561058 0 0 0 0 -136105232.62085164 186387625.27346802 0 186387625.27346802 -178454231.21162605 0 0 0 0 -324708851.7404716 259048743.78938103 0 259048743.78938103 -182174935.76506805 0 0 0 0 -170302986.46685144 193499129.52330995 0 193499129.52330995 -355620515.66283417 0 0 0 0 -487352875.34882057 229235777.69282532 0 229235777.69282532 -105175443.35165977 0 0 0 0 -389541530.20329469 337939134.71280479 0 337939134.71280479 -204229915.33174896 0 0 0 0 -185641653.83911014 23366892.3879776 0 23366892.3879776 13963391.312019348 0 0 0 0 78060031.6219666 39904453.729686737 0 39904453.729686737 -147707181.81433678 0 0 0 0 -1033163.3608859782 503084.85180653818 0 503084.85180653818 -3794838.7865021126 0 0 0 0 -84728427.476639748 -5058475.7965812683 0 -5058475.7965812683 63093146.687110901 0 0 0 0 -707535970.46193016 112450287.30489731 0 112450287.30489731 -18317938.874313354 0 0 0 0 -130884.18722752528 -70308.203009173274 0 -70308.203009173274 -92580.171556378249 0 0 0 0 -629390998.50706911 349114393.57740021 0 349114393.57740021 -135617926.15499115 0 0 0 0 -350853.56246692012 386056.05032549286 0 386056.05032549286 -282706.35522607341 0 0 0 0 -232612141.64178526 156726645.15039766 0 156726645.15039766 -140686846.72231293 0 0 0 0 -308790399.38857365 273126993.8766861 0 273126993.8766861 -103766668.30565071 0 0 0 0 -71396804.506164074 -80123819.767303467 0 -80123819.767303467 -35322901.637748718 0 0 0 0 -490648325.51298881 54966633.251083374 0 54966633.251083374 101972665.81393433 0 0 0 0 -300904752.76242352 -177694317.60549927 0 -177694317.60549927 74119711.758703232 0 0 0 0 -197834424.27188182 90351510.772964478 0 90351510.772964478 55122546.72252655 0 0 0 0 -185235971.91962302 96299367.627267838 0 96299367.627267838 41509255.916610718 0 0 0 0 -172710821.95306587 196616188.73378372 0 196616188.73378372 25371530.146261215 0 0 0 0 -68097578.964772701 101089341.46802139 0 101089341.46802139 26712692.286907196 0 0 0 0 -113184810.20745277 152860970.50551224 0 152860970.50551224 -7850418.863319397 0 0 0 0 -100185332.31666803 52937524.636342049 0 52937524.636342049 74633504.503051758 0 0 0 0 -25950508.473924994 60861906.986913681 0 60861906.986913681 -5482234.7116622925 0 0 0 0 -9417584.3559069633 4970326.1661663055 0 4970326.1661663055 2499909.1649703979 0 0 0 0 -3329096.2520437241 3879297.1084041595 0 3879297.1084041595 473921.19901275635 0 0 0 0 -1611211.4299654332 2224479.6021097647 0 2224479.6021097647 2080686.1392550506 0 0 0 0 3030455.8744702339 8050765.8309421539 0 8050765.8309421539 -1841911.8049087524 0 0 0 0 -1598527.0376099215 3362900.8901062272 0 3362900.8901062272 -3654930.5698108673 0 0 0 0 -4928172.51030159 10405655.415514946 0 10405655.415514946 -80958.231117248535 0 0 0 0 3193257.122543335 -4881252.6699714661 0 -4881252.6699714661 -9660604.7575435638 0 0 0 0 -5854348.5171146393 4517383.9376888275 0 4517383.9376888275 -1120216.7560310364 0 0 0 0 -5552541.5675349236 3982810.7901477814 0 3982810.7901477814 -8830907.0941009521 0 0 0 0 285329.82042551041 279283.06963348389 0 279283.06963348389 -6294373.3463191986 0 0 0 0 -4483564.7642221451 1388935.7228450775 0 1388935.7228450775 -4950126.2080574036 0 0 0 0 -14316088.916492224 3892404.454284668 0 3892404.454284668 10270335.460327148 0 0 0 0 -3442811.1105278968 481686.60167605244 0 481686.60167605244 -4709134.5452622548 0 0 0 0 -27854944.654633284 81296711.867353439 0 81296711.867353439 -123308029.24288177 0 0 0 0 -1058055.3080898728 1681553.915163334 0 1681553.915163334 -4198490.4479552805 0 0 0 0 15448294.3007163 18267131.343021393 0 18267131.343021393 -5462804.2233581543 0 0 0 0 -6010908.1851984262 1641106.3301887512 0 1641106.3301887512 1426415.0352144241 0 0 0 0 -47950924.389754839 32763361.196849823 0 32763361.196849823 736863.22919082642 0 0 0 0 -50216317.757425234 -20076809.064493358 0 -20076809.064493358 -8212084.6497383118 0 0 0 0 -58428249.757461131 -16415974.473611832 0 -16415974.473611832 -77743335.630119324 0 0 0 0 13711407.76436162 97348061.833316803 0 97348061.833316803 -64156705.966603279 0 0 0 0 -2338920.4345545648 -1678468.9812284457 0 -1678468.9812284457 44393.43237795867 0 0 0 0 30244125.983091354 24066455.956298828 0 24066455.956298828 -159330204.64749813 0 0 0 0 -13002254.949852467 -9247277.147441864 0 -9247277.147441864 3753742.4132003784 0 0 0 0 -6933227.3474166812 -45520.025883160532 0 -45520.025883160532 -4021955.4279321828 0 0 0 0 -8963271.785618782 1897823.5078582764 0 1897823.5078582764 -8194734.709625721 0 0 0 0 -4882009.5671288967 20506.580995559692 0 20506.580995559692 -8946418.2285842896 0 0 0 0 -7388674.0231108665 5984239.361456871 0 5984239.361456871 -9288750.3985328674 0 0 0 0 -13420898.415987015 6113010.6533203125 0 6113010.6533203125 -12368032.08201009 0 0 0 0 -8773795.1595153809 2836142.73021698 0 2836142.73021698 -14975109.011329651 0 0 0 0 -8317240.0470604897 2249018.5724458694 0 2249018.5724458694 -12513661.109027863 0 0 0 0 -5075974.9969447479 948194.37844835781 0 948194.37844835781 -6498842.711718509 0 0 0 0 -1188464.1720626 -1313602.569150615 0 -1313602.569150615 -13921252.566767532 0 0 0 0 1632047.8544216156 -17522747.496744633 0 -17522747.496744633 -3128936.1270723343 0 0 0 0 -155013806.53923035 109333587.63276291 0 109333587.63276291 49327589.565958023 0 0 0 0 1727342.1836604178 -1445132.5222867243 0 -1445132.5222867243 -3993952.5665156152 0 0 0 0 -8432730.8652658463 -154628756.54117966 0 -154628756.54117966 -144443565.01821423 0 0 0 0 -2973429.3363071019 -2103787.652039852 0 -2103787.652039852 -6072874.4890481681 0 0 0 0 -170872121.1445868 112346497.87736177 0 112346497.87736177 122582001.3935318 0 0 0 0 -27568.689056339208 -512506.53486903012 0 -512506.53486903012 -1247409.0025855079 0 0 0 0 -3598070.1651391303 -1138992.556942001 0 -1138992.556942001 -4036874.8110359567 0 0 0 0 -26978312.654715538 25598437.755411148 0 25598437.755411148 48365869.327404976 0 0 0 0 -982303.1670498848 -914566.1147146225 0 -914566.1147146225 -2488715.7819194794 0 0 0 0 -79680363.631712988 -37049085.896324158 0 -37049085.896324158 -10930931.494827271 0 0 0 0 -2991498.04373712 -3180763.7553504929 0 -3180763.7553504929 -6995022.1833927371 0 0 0 0 34376422.789890893 -87380162.774395943 0 -87380162.774395943 -80455547.858535767 0 0 0 0 -163251523.46422672 -11090430.179986954 0 -11090430.179986954 -13778426.840431213 0 0 0 0 -41562805.572267056 -50322058.818858862 0 -50322058.818858862 -16157521.613711357 0 0 0 0 -21362007.947008133 -45216370.731946468 0 -45216370.731946468 -30319397.930998802 0 0 0 0 -2502887.898812294 -40705456.881458282 0 -40705456.881458282 -29867285.923711777 0 0 0 0 -1904654.1787092686 -35905788.199883431 0 -35905788.199883431 -12645118.826738358 0 0 0 0 -22861709.320525169 -42894642.654577732 0 -42894642.654577732 -2118507.0505771637 0 0 0 0 -37497369.27255249 -40523961.512614727 0 -40523961.512614727 -585760.34714031219 0 0 0 0 -48610209.229676247 -30702234.974418163 0 -30702234.974418163 19737937.532810211 0 0 0 0 -71656504.129868984 -35319174.998371124 0 -35319174.998371124 19850316.749383926 0 0 0 0 -37034846.810229301 -4088123.4075593948 0 -4088123.4075593948 2918253.4352855682 0 0 0 0 27812214.567954063 -35266700.833486557 0 -35266700.833486557 -1046287.7011196613 0 0 0 0 -10444293.42176199 -23459727.673799872 0 -23459727.673799872 4618219.4253797531 0 0 0 0 64147.065142394044 -3195300.1055296399 0 -3195300.1055296399 -17788835.715963729 0 0 0 0 -6221756.5778217316 10991315.801177979 0 10991315.801177979 -19050176.059631348 0 0 0 0 -1873785.8676919937 11893295.281427383 0 11893295.281427383 -19030405.144676208 0 0 0 0 -6332612.4105434418 9558553.9423446655 0 9558553.9423446655 -11408403.725738525 0 0 0 0 -11135448.324109077 18007140.313392639 0 18007140.313392639 -14573034.325775146 0 0 0 0 2531688.7188034058 14474217.159358978 0 14474217.159358978 -23423057.463790894 0 0 0 0 -4675486.8801460266 15723467.045097351 0 15723467.045097351 -23628759.970672607 0 0 0 0 108578234.35303164 23176322.929128647 0 23176322.929128647 -39078472.283920288 0 0 0 0 124794.27729300549 -5237297.9790165182 0 -5237297.9790165182 -21099764.759170063 0 0 0 0 -3948784.1923046112 104394777.283535 0 104394777.283535 34137010.041103363 0 0 0 0 38817815.677735329 -25666213.534385204 0 -25666213.534385204 -17715759.553370953 0 0 0 0 49389405.166530132 -50277933.816422224 0 -50277933.816422224 -4922292.048078537 0 0 0 0 32041461.401567459 -29236975.606894016 0 -29236975.606894016 -25715630.19582653 0 0 0 0 32277918.366769791 -23773148.551839828 0 -23773148.551839828 -40671293.111487389 0 0 0 0 68531752.374700546 -36658644.861805201 0 -36658644.861805201 -30549706.490169525 0 0 0 0 48983719.153722763 -17865365.818761349 0 -17865365.818761349 -18497384.129386187 0 0 0 0 43983.373619082384 -7108591.940913951 0 -7108591.940913951 -24062178.829888724 0 0 0 0 36081636.278199196 -8490232.315662384 0 -8490232.315662384 -295643128.98929596 0 0 0 0 270124501.60369015 -177442811.94205093 0 -177442811.94205093 -391939055.50910568 0 0 0 0 -200784598.25056124 879092.42363452911 0 879092.42363452911 73292579.918411255 0 0 0 0 -148453277.89674377 64594688.236106873 0 64594688.236106873 76722359.884513855 0 0 0 0 -328950.13917459315 1063585.5240731686 0 1063585.5240731686 -508886.53315604478 0 0 0 0 59780489.456266403 -45949379.368244171 0 -45949379.368244171 -236814645.61253452 0 0 0 0 15975855.420105934 -40463753.75668335 0 -40463753.75668335 -106938505.38897467 0 0 0 0 55474716.56283164 -35462733.797939301 0 -35462733.797939301 -119841594.14770508 0 0 0 0 15414497.399142265 -12593672.969581604 0 -12593672.969581604 -130620070.08360291 0 0 0 0 -85066435.823395014 -32499769.20315361 0 -32499769.20315361 142413947.8756218 0 0 0 0 225862160.16198349 32990929.669652939 0 32990929.669652939 -210885637.75317383 0 0 0 0 -518005.08359961351 750001.89854583144 0 750001.89854583144 466423.11883351952 0 0 0 0 99688122.141825676 16454672.179069519 0 16454672.179069519 -109530019.70310974 0 0 0 0 -82956018.796827316 -4734815.4794197083 0 -4734815.4794197083 -27947921.246932983 0 0 0 0 567507.42476844788 46864937.745307922 0 46864937.745307922 -22933719.280804634 0 0 0 0 -736337.41703370376 2254250.1849370981 0 2254250.1849370981 -1650828.9182670638 0 0 0 0 -49351979.426980019 26635372.205839157 0 26635372.205839157 -6849770.9586372375 0 0 0 0 -2653636.2074832916 7439563.1632270813 0 7439563.1632270813 -7676239.9421691895 0 0 0 0 -9798149.1853358746 12087480.915676117 0 12087480.915676117 -3955986.7913665771 0 0 0 0 -4497057.3262319565 6139690.4322414398 0 6139690.4322414398 -7103698.5572738647 0 0 0 0 -7529603.1469917297 9674145.9312019348 0 9674145.9312019348 -8378015.9937505722 0 0 0 0 26272319.030468941 26941725.288923264 0 26941725.288923264 -2441758.1051559448 0 0 0 0 -38721179.84889698 36701076.187099457 0 36701076.187099457 39493696.048446655 0 0 0 0 -1061107.5634871537 2792702.2586776144 0 2792702.2586776144 -2728517.7045225017 0 0 0 0 -51243358.717067719 -3045553.7246017456 0 -3045553.7246017456 26691742.974067688 0 0 0 0 57048544.759048343 -6733694.8646550179 0 -6733694.8646550179 -72443188.729072571 0 0 0 0 -83172700.116959095 115178530.18013382 0 115178530.18013382 79631243.747821808 0 0 0 0 168775071.63763809 -66098786.826835632 0 -66098786.826835632 -234373807.47599792 0 0 0 0 14061596.713938236 6704230.4163589478 0 6704230.4163589478 39350880.811965942 0 0 0 0 124972288.12984538 120831921.02072811 0 120831921.02072811 19414881.356468201 0 0 0 0 -1122420.069477981 1604864.3562211273 0 1604864.3562211273 1165354.6179087758 0 0 0 0 -5531253.3897352219 68284522.792514801 0 68284522.792514801 -13020950.029312611 0 0 0 0 -41932794.603442192 49332861.822317123 0 49332861.822317123 54676894.514167786 0 0 0 0 -90727738.203665257 -14647997.496234894 0 -14647997.496234894 33524355.709513664 0 0 0 0 -3040382.7268947884 -80530823.845083237 0 -80530823.845083237 72098089.991352081 0 0 0 0 -156789940.70193994 12607988.001643181 0 12607988.001643181 -107064407.05296326 0 0 0 0 26690988.317186117 44521931.514228821 0 44521931.514228821 -397688995.97150421 0 0 0 0 -532292.53555742744 -435619.23442695104 0 -435619.23442695104 -131525.68901740361 0 0 0 0 -15366053.89783287 -109821256.87542725 0 -109821256.87542725 -174089393.24063873 0 0 0 0 -1691635.894638896 -5399200.8421993256 0 -5399200.8421993256 -122116703.45940399 0 0 0 0 -16854494.097710133 -11725629.212287903 0 -11725629.212287903 -94072230.055496216 0 0 0 0 3513194.1200876236 -18084872.214859009 0 -18084872.214859009 -94565536.496072769 0 0 0 0 -14424658.143520355 -25064557.913230896 0 -25064557.913230896 -105030167.4810257 0 0 0 0 -39956292.944418192 -30287001.947275162 0 -30287001.947275162 -50900081.550262451 0 0 0 0 42587702.859068036 20414540.285514832 0 20414540.285514832 -61311825.677963257 0 0 0 0 -45402.125303379609 17337.969519748352 0 17337.969519748352 137979.65807448328 0 0 0 0 -35717448.155234337 -10579913.463500977 0 -10579913.463500977 7823967.3685417175 0 0 0 0 -11212142.981761694 496970.71226882935 0 496970.71226882935 42675722.250305176 0 0 0 0 -13105779.169148445 -10963232.640018463 0 -10963232.640018463 -51343974.127304077 0 0 0 0 -16389583.438503265 -10438514.847229004 0 -10438514.847229004 -51138240.588558197 0 0 0 0 14983199.653845787 4766707.8519363403 0 4766707.8519363403 -58897980.653594971 0 0 0 0 -4773096.9272432327 836075.56590270996 0 836075.56590270996 -58263359.469460487 0 0 0 0 -8888464.3347091675 4125694.2570343018 0 4125694.2570343018 -8197133.0295257568 0 0 0 0 -16646800.45464325 -2312973.7195968628 0 -2312973.7195968628 -13015263.192977905 0 0 0 0 -34309965.66915381 -19436974.173307419 0 -19436974.173307419 -13024199.565032959 0 0 0 0 -21380243.292238235 -12153869.406723022 0 -12153869.406723022 -7440130.270362854 0 0 0 0 -29734552.981930733 -4323508.0376663208 0 -4323508.0376663208 7561188.5588226318 0 0 0 0 -23956048.084406853 -6897237.7302093506 0 -6897237.7302093506 8646493.3565101624 0 0 0 0 -18024750.83168745 -8040613.1234893799 0 -8040613.1234893799 14442445.226745605 0 0 0 0 -27453446.435331345 -6609546.54088974 0 -6609546.54088974 24078173.449996948 0 0 0 0 -2453499.4844703674 -17901339.693496704 0 -17901339.693496704 20970515.499961853 0 0 0 0 -18623946.069185257 -3224185.5772094727 0 -3224185.5772094727 3113605.3064422607 0 0 0 0 -21804215.940912485 -8585454.6686725616 0 -8585454.6686725616 31472535.257843018 0 0 0 0 -16791070.318709612 -15353795.347964287 0 -15353795.347964287 29958703.182723999 0 0 0 0 6279844.328379631 -26420301.325889587 0 -26420301.325889587 16698788.482192993 0 0 0 0 -15612154.416497231 -11577610.767883301 0 -11577610.767883301 19477443.478374481 0 0 0 0 4877698.9266471863 -628715.0423784256 0 -628715.0423784256 2990104.4078369141 0 0 0 0 656682.06183595944 -1627004.2167008966 0 -1627004.2167008966 -247471.97606019676 0 0 0 0 103074.13794448227 -215786.48321259394 0 -215786.48321259394 214231.65972779691 0 0 0 0 5558081.0064651966 -19216754.530799866 0 -19216754.530799866 -19996551.468063354 0 0 0 0 -16239756.841389179 -3326742.4258155823 0 -3326742.4258155823 15434778.079437256 0 0 0 0 16595549.024643421 -12392325.910504341 0 -12392325.910504341 -35436302.358139038 0 0 0 0 -30375688.370359421 1713797.3947982788 0 1713797.3947982788 15763699.497577667 0 0 0 0 1224042.4797509909 -61525237.974826813 0 -61525237.974826813 22654088.493942261 0 0 0 0 927647.09531535767 -1776020.8217033073 0 -1776020.8217033073 -2052175.9642986767 0 0 0 0 493291.7031199038 2540883.2797813416 0 2540883.2797813416 659761.71909713745 0 0 0 0 5733285.2664040178 1500028.4285202026 0 1500028.4285202026 -2098205.9848480225 0 0 0 0 9466810.5818938799 5433655.6007537842 0 5433655.6007537842 -4194952.433013916 0 0 0 0 4605921.9445096701 6581232.3690490723 0 6581232.3690490723 -3143189.8378601074 0 0 0 0 134712.98956561089 1303967.0188446045 0 1303967.0188446045 -1699971.1506729126 0 0 0 0 24683792.937822819 -8775260.6102790833 0 -8775260.6102790833 -22568108.369094849 0 0 0 0 436189.70678138733 -5806042.2660293579 0 -5806042.2660293579 -4599235.2443389893 0 0 0 0 1714568.0802340433 824592.95180898951 0 824592.95180898951 -6305242.1340556368 0 0 0 0 10644951.953193188 -17802719.068603516 0 -17802719.068603516 -13388253.582698822 0 0 0 0 3641493.9859725758 -5676422.8467365652 0 -5676422.8467365652 -3690192.8093059249 0 0 0 0 -6180183.2991704941 -9751367.7757339478 0 -9751367.7757339478 -5566747.2246551514 0 0 0 0 10713627.057317734 -23564176.542053223 0 -23564176.542053223 -6357454.7346420288 0 0 0 0 13975808.204507828 -23217205.228118896 0 -23217205.228118896 -6373987.478219986 0 0 0 0 6450745.593191376 4297596.2301614136 0 4297596.2301614136 -14700110.292734131 0 0 0 0 12946056.255000353 12053777.199424744 0 12053777.199424744 1182735.3469314575 0 0 0 0 16723643.456923485 -3146641.0338401794 0 -3146641.0338401794 -18528424.691478729 0 0 0 0 12689567.078285217 11280688.625152588 0 11280688.625152588 478880.50275468826 0 0 0 0 -640310.5232375362 -318853.81715034507 0 -318853.81715034507 107769.9015047811 0 0 0 0 120427.94112730026 -5232312.9855251312 0 -5232312.9855251312 -25647333.772262573 0 0 0 0 112196.26811634777 -43505.438867292367 0 -43505.438867292367 -5520.0560383982956 0 0 0 0 371945.46726435423 -10877894.375694275 0 -10877894.375694275 -30207252.064407349 0 0 0 0 1034160.5855948925 -3495101.6696586609 0 -3495101.6696586609 -34204903.775177002 0 0 0 0 41638305.459098816 41655613.096443176 0 41655613.096443176 38140300.412811279 0 0 0 0 11368852.796406269 8491816.7163085938 0 8491816.7163085938 695916.26337432861 0 0 0 0 10960819.253599167 11434716.975227356 0 11434716.975227356 4716068.3057551384 0 0 0 0 11170699.102024257 9755081.6066064835 0 9755081.6066064835 4747232.7308959961 0 0 0 0 27870394.732446671 -2783467.5537343025 0 -2783467.5537343025 -32563730.759784698 0 0 0 0 3640146.2069217083 -27164.574763194658 0 -27164.574763194658 -22551241.176238962 0 0 0 0 26085167.56883955 5919734.8851245642 0 5919734.8851245642 -28885536.167236328 0 0 0 0 12696560.1181674 12829043.977905273 0 12829043.977905273 2559412.7415618896 0 0 0 0 35239208.882125854 -4300849.432559967 0 -4300849.432559967 -32962426.92749691 0 0 0 0 34103959.724216461 -2459804.9088134766 0 -2459804.9088134766 -35798216.722755432 0 0 0 0 40470650.368402481 -9052447.9722428322 0 -9052447.9722428322 -35472173.397222519 0 0 0 0 35533680.627668381 -7542406.0664224625 0 -7542406.0664224625 -33823000.284241199 0 0 0 0 95923605.108878613 -137278667.51534653 0 -137278667.51534653 93010698.816368103 0 0 0 0 1355312.04503718 -7974299.9205917958 0 -7974299.9205917958 -27247186.978734948 0 0 0 0 37104616.370094299 -6248370.3545913696 0 -6248370.3545913696 -37223100.873716831 0 0 0 0 35509556.644269899 -9604273.8923824653 0 -9604273.8923824653 -34331281.249582291 0 0 0 0 36062512.774066925 -6853427.859380722 0 -6853427.859380722 -33166018.033742487 0 0 0 0 2422977.3229345442 -1853838.8887233604 0 -1853838.8887233604 -3603306.8828160428 0 0 0 0 79447106.857975006 -22704724.62890625 0 -22704724.62890625 -32320916.521217346 0 0 0 0 79839074.415192604 -52991400.150100708 0 -52991400.150100708 54426075.612304688 0 0 0 0 34399081.583161831 -55075697.888050079 0 -55075697.888050079 33631276.633422852 0 0 0 0 -4666700.0197887421 -18823222.873497009 0 -18823222.873497009 49791798.618947983 0 0 0 0 60772627.923735619 -67545267.769981384 0 -67545267.769981384 68919020.818725586 0 0 0 0 -32831402.079247475 12433393.890663147 0 12433393.890663147 45534760.042840958 0 0 0 0 1601470.9634113312 12484571.839439392 0 12484571.839439392 -3264201.6003646851 0 0 0 0 -933690.58206176758 199938.40350341797 0 199938.40350341797 -4443905.3425750732 0 0 0 0 19448941.467163086 36016190.253837585 0 36016190.253837585 -80061475.519737244 0 0 0 0 25216806.389163971 98590530.454986572 0 98590530.454986572 -212449729.33983135 0 0 0 0 21528098.532681942 57110718.931617737 0 57110718.931617737 3593209.1786499023 0 0 0 0 -161172693.65752029 135696739.14818192 0 135696739.14818192 144645582.59482574 0 0 0 0 -12114632.703234911 -101888649.49478531 0 -101888649.49478531 187539528.63097382 0 0 0 0 46290101.525175095 -31916736.199697018 0 -31916736.199697018 -20085647.364365339 0 0 0 0 36449763.593753815 -13718563.913928032 0 -13718563.913928032 -25747132.941948175 0 0 0 0 41176535.597293854 -12585923.728106976 0 -12585923.728106976 -40153108.31054306 0 0 0 0 50954507.383657455 -20174485.64906764 0 -20174485.64906764 -45869064.640958786 0 0 0 0 36766573.278187752 -4550116.7870268822 0 -4550116.7870268822 -58070331.482860565 0 0 0 0 40313977.167544842 -19410763.715232611 0 -19410763.715232611 -66632126.940593243 0 0 0 0 45519278.568532944 -414886.28970861435 0 -414886.28970861435 -47513882.220379353 0 0 0 0 43900527.323997498 -4413333.1146440506 0 -4413333.1146440506 -52097648.587462425 0 0 0 0 47630617.938473701 -17708826.846173286 0 -17708826.846173286 -44039088.752035141 0 0 0 0 43526779.352287292 -6085965.9763851166 0 -6085965.9763851166 -43344198.420222402 0 0 0 0 38093366.397497177 1127990.291441679 0 1127990.291441679 -38557759.034910202 0 0 0 0 40213695.757602692 521773.1420507431 0 521773.1420507431 -42673411.760131478 0 0 0 0 42338973.483037949 1091697.4561709166 0 1091697.4561709166 -47230563.011890888 0 0 0 0 41761416.705280304 14528486.632929564 0 14528486.632929564 -40683543.317705154 0 0 0 0 42804564.812286377 8889739.7662587166 0 8889739.7662587166 -48842861.177583218 0 0 0 0 36695226.71408844 4747668.3434791565 0 4747668.3434791565 -37841167.642433643 0 0 0 0 38387118.234096527 8371311.594098568 0 8371311.594098568 -36796457.723469734 0 0 0 0 40033959.575439453 13784648.848638058 0 13784648.848638058 -36549623.765742302 0 0 0 0 46681199.485458374 33475789.59057498 0 33475789.59057498 -23019552.796916962 0 0 0 0 1813197.1656396706 3587341.6464742729 0 3587341.6464742729 -21333611.708254226 0 0 0 0 34731068.291099548 25410391.006903887 0 25410391.006903887 -14270649.01242125 0 0 0 0 30564895.707548141 12095633.167978287 0 12095633.167978287 -20461247.116044044 0 0 0 0 43407558.234962463 22432444.312996626 0 22432444.312996626 -34051317.661286548 0 0 0 0 39967173.655653 19243186.859710097 0 19243186.859710097 -32498599.890418053 0 0 0 0 38447614.756679535 12111386.849382401 0 12111386.849382401 -33367772.200284958 0 0 0 0 37137302.914203644 28631143.914519787 0 28631143.914519787 -39144716.46479708 0 0 0 0 36241096.574131012 29720547.246194363 0 29720547.246194363 -28054260.298870802 0 0 0 0 38236337.284452438 24408072.791660547 0 24408072.791660547 -41630434.880927563 0 0 0 0 34453207.333276749 25285442.657982588 0 25285442.657982588 -45902798.790308952 0 0 0 0 35039372.069137573 21745429.923933506 0 21745429.923933506 -38198127.988009036 0 0 0 0 42218796.983799934 16906416.228512049 0 16906416.228512049 -59957928.51231432 0 0 0 0 41320729.823326111 13132519.45316124 0 13132519.45316124 -44283243.022151351 0 0 0 0 45533254.599557668 28816.766553007066 0 28816.766553007066 -68321550.808210373 0 0 0 0 41919091.608720779 10213692.410917521 0 10213692.410917521 -55536151.76158762 0 0 0 0 35716889.586574554 27437450.45343554 0 27437450.45343554 -66038772.492897034 0 0 0 0 43065271.630672455 11409230.914646864 0 11409230.914646864 -91067889.628464341 0 0 0 0 33830374.319369793 22805158.700110197 0 22805158.700110197 -54813728.803333759 0 0 0 0 16152455.816644669 44842741.960370302 0 44842741.960370302 -40344938.852256835 0 0 0 0 25012745.857699156 62341535.49975127 0 62341535.49975127 -116284091.54972172 0 0 0 0 21223267.77518177 71689501.99793911 0 71689501.99793911 -54315299.794855416 0 0 0 0 30835835.703398705 34181445.539509773 0 34181445.539509773 -132355999.69141054 0 0 0 0 32240183.462141514 15884424.620480657 0 15884424.620480657 -89238813.03188324 0 0 0 0 10558997.078502655 -40901281.550764084 0 -40901281.550764084 -128252123.66087675 0 0 0 0 30283000.243150711 -16375503.09645462 0 -16375503.09645462 -79461513.974416256 0 0 0 0 30144466.904307365 -13774810.10339427 0 -13774810.10339427 -91065946.06983757 0 0 0 0 15319414.544340134 -31288364.532990426 0 -31288364.532990426 -58210209.178595543 0 0 0 0 15798943.356026649 -27273031.209730864 0 -27273031.209730864 -39230977.955069065 0 0 0 0 -7319388.3746910095 -51796642.76540041 0 -51796642.76540041 -76332823.916734457 0 0 0 0 -12784507.761119127 -43064946.042248011 0 -43064946.042248011 -52949026.704212189 0 0 0 0 -23963687.570327759 -55640548.673575163 0 -55640548.673575163 -56305233.615351677 0 0 0 0 -11497236.322942778 -1119205.5173377991 0 -1119205.5173377991 -182764649.74712372 0 0 0 0 -8395035.5055255946 24696989.57859993 0 24696989.57859993 -161897449.86991119 0 0 0 0 29210.057760418829 12308.476874686778 0 12308.476874686778 -659510.33481065137 0 0 0 0 8556389.1206012517 -3396280.2121276855 0 -3396280.2121276855 -212389873.92464447 0 0 0 0 16630177.893653512 16094935.440341949 0 16094935.440341949 -233125606.61646652 0 0 0 0 10590850.930367276 23735603.775306702 0 23735603.775306702 -200186428.84554291 0 0 0 0 1452804.2558975667 18151908.319791794 0 18151908.319791794 -182160515.66818237 0 0 0 0 11143028.016491249 38067388.425270081 0 38067388.425270081 -178287676.48532867 0 0 0 0 -4103935.2925947718 31181472.914237976 0 31181472.914237976 -107870842.63347626 0 0 0 0 -7548367.6790867485 29987767.749088287 0 29987767.749088287 -110745217.71274567 0 0 0 0 2590987.8919244884 31796884.206903458 0 31796884.206903458 -147779655.20352936 0 0 0 0 4212579.7345651612 30941981.720703125 0 30941981.720703125 -155300628.39520073 0 0 0 0 -5797504.7095734999 25485294.236286163 0 25485294.236286163 -152476407.59189606 0 0 0 0 -2910239.041165933 14205825.236671448 0 14205825.236671448 -110514897.29785538 0 0 0 0 2673258.5425586421 19044331.096988678 0 19044331.096988678 -136353520.86657429 0 0 0 0 3047409.5496895909 15453135.382904053 0 15453135.382904053 -155526267.77054977 0 0 0 0 1466569.5089763328 14573949.852668762 0 14573949.852668762 -135918073.00570488 0 0 0 0 -2056703.5324842911 24483186.802650452 0 24483186.802650452 -126354221.21603966 0 0 0 0 -8980977.7918451019 7840965.8236351013 0 7840965.8236351013 -133475312.54891968 0 0 0 0 21608.838034847522 23734593.131471634 0 23734593.131471634 -149959938.88877869 0 0 0 0 -27581848.255581859 38706901.325653076 0 38706901.325653076 -63968724.062255859 0 0 0 0 607632.30429225415 8866124.151714325 0 8866124.151714325 -159427206.30633545 0 0 0 0 9037119.7162384149 8437635.5676498413 0 8437635.5676498413 -160387813.43752289 0 0 0 0 32114.011745658314 -49960.672807557508 0 -49960.672807557508 -202449.30626003104 0 0 0 0 9341780.0821883716 19023190.101242065 0 19023190.101242065 -176869606.920039 0 0 0 0 8948872.3265455253 9789739.3141326904 0 9789739.3141326904 -165661814.15164185 0 0 0 0 6659752.8846811587 23418509.166805267 0 23418509.166805267 -161388833.16659546 0 0 0 0 -2633035.5423346907 8517536.191986084 0 8517536.191986084 -7722823.7092437744 0 0 0 0 3673925.5960214585 3075885.2521286011 0 3075885.2521286011 -13777866.29114306 0 0 0 0 -5467426.5164905488 1720450.8715229034 0 1720450.8715229034 4114795.3435287476 0 0 0 0 1230227.4047962427 -532147.63105010986 0 -532147.63105010986 -3020994.5577087402 0 0 0 0 -18422.688103842251 50538.941934417468 0 50538.941934417468 -61069.219654381275 0 0 0 0 9142777.5802446716 -8805375.0436248779 0 -8805375.0436248779 -38892933.408905029 0 0 0 0 1269.241371289768 4714054.8170814514 0 4714054.8170814514 14223426.900444031 0 0 0 0 -10800332.027712036 4803393.6940231323 0 4803393.6940231323 4503794.630531311 0 0 0 0 -1415826.8354317984 -2367604.3021774292 0 -2367604.3021774292 4234759.5013198853 0 0 0 0 2757425.633113429 -1850015.8262214661 0 -1850015.8262214661 2754890.7026634216 0 0 0 0 -56370.002927414265 175655.70484932978 0 175655.70484932978 -153435.14657555893 0 0 0 0 -1208269.2311702892 568228.49324798584 0 568228.49324798584 3780302.5328521729 0 0 0 0 2719964.1448867056 830273.98633289337 0 830273.98633289337 -460641.7200012207 0 0 0 0 311842.36864162772 -40081.302779803053 0 -40081.302779803053 -1814561.7577152979 0 0 0 0 -60825673.315508634 -12143863.215673447 0 -12143863.215673447 -6054621.3399009705 0 0 0 0 231589.20389774852 639137.52856057882 0 639137.52856057882 -1568689.9162670821 0 0 0 0 -33640877.641437799 -67330694.484202385 0 -67330694.484202385 -56470599.977554321 0 0 0 0 -18151111.502378315 -73986226.680099487 0 -73986226.680099487 -91107595.956787109 0 0 0 0 -19856116.594466805 -71143130.993717194 0 -71143130.993717194 -76999065.494766235 0 0 0 0 -19756642.19257617 -61266195.581237793 0 -61266195.581237793 -74648557.272169113 0 0 0 0 -210574.94909409792 987202.41359774768 0 987202.41359774768 -1274154.309948286 0 0 0 0 -157743.10715028271 4835102.9319872856 0 4835102.9319872856 -1033645.9648132324 0 0 0 0 -5997207.7533474863 -2075836.7172698975 0 -2075836.7172698975 -2147536.6095504761 0 0 0 0 -838077.46487813466 1169932.280895276 0 1169932.280895276 -961063.40811930969 0 0 0 0 58544320.593243062 11575011.703660965 0 11575011.703660965 -84941400.618869781 0 0 0 0 2292030.0135390162 1298732.5779819489 0 1298732.5779819489 -5174081.7284965515 0 0 0 0 51267000.226748943 -77315881.98372364 0 -77315881.98372364 -158900175.67058563 0 0 0 0 47831384.488106847 -98992999.094783783 0 -98992999.094783783 -88455765.994415283 0 0 0 0 -15485438.739024282 -61726030.477844238 0 -61726030.477844238 -88938641.740478516 0 0 0 0 147236210.68990707 -112417910.09364319 0 -112417910.09364319 -178544287.46179962 0 0 0 0 57217.765390903805 707434.41407492559 0 707434.41407492559 -1895145.3123009652 0 0 0 0 189337716.47381759 -138150431.61920929 0 -138150431.61920929 -333429399.69953918 0 0 0 0 -187045836.41119337 247337103.73330307 0 247337103.73330307 307959064.03158951 0 0 0 0 118825264.59159279 185786638.27011871 0 185786638.27011871 -633233302.67734528 0 0 0 0 -258369596.38473821 471660037.80687332 0 471660037.80687332 -5502523.2576065063 0 0 0 0 137262583.3435874 -27867427.794271469 0 -27867427.794271469 -135386984.20769691 0 0 0 0 136459505.79892325 -17087275.979164124 0 -17087275.979164124 -256685797.93137932 0 0 0 0 152848321.64455932 46108480.048068047 0 46108480.048068047 -63493797.911994934 0 0 0 0 5370649.3704570532 138592265.8318634 0 138592265.8318634 -88612140.226510763 0 0 0 0 -27463004.118965566 108357143.75992584 0 108357143.75992584 -84014463.730651855 0 0 0 0 -290981917.99852812 257430601.38269711 0 257430601.38269711 -62100364.198554993 0 0 0 0 -86243672.769707859 315412997.69343185 0 315412997.69343185 -424674508.28604889 0 0 0 0 80761375.160650969 -148106963.59517288 0 -148106963.59517288 -492457116.22659302 0 0 0 0 -237282191.30703211 -180437234.55515289 0 -180437234.55515289 424337787.04682541 0 0 0 0 -146677792.10517883 -427121863.86380768 0 -427121863.86380768 -24605414.968093872 0 0 0 0 114237173.99475767 -7047561.5511322021 0 -7047561.5511322021 -96896229.425279617 0 0 0 0 26299940.506980136 51350387.704652786 0 51350387.704652786 86926022.290847778 0 0 0 0 -21527112.39267993 30102573.021728516 0 30102573.021728516 -157880895.64006042 0 0 0 0 -9218432.4928483963 71774363.116260529 0 71774363.116260529 -265679953.84896851 0 0 0 0 28434053.597805738 63957674.800827026 0 63957674.800827026 -304556459.52796936 0 0 0 0 -1436805.56535193 -349507.04448669404 0 -349507.04448669404 -375253.80486201023 0 0 0 0 11435377.572738171 -42102196.851226807 0 -42102196.851226807 -336036209.05950928 0 0 0 0 37879567.624325633 88350758.628059387 0 88350758.628059387 -356147178.48726654 0 0 0 0 -60725291.136387587 -16271996.394329071 0 -16271996.394329071 -125932949.46691895 0 0 0 0 -169302.68156385422 -25387031.278945923 0 -25387031.278945923 -125193720.68000746 0 0 0 0 5706544.5791652203 11841952.362850189 0 11841952.362850189 -254153012.01108551 0 0 0 0 6282138.9452193826 -5153209.1414831877 0 -5153209.1414831877 -158249168.96144104 0 0 0 0 -6813832.2287490368 20676804.803146362 0 20676804.803146362 -118735323.60125351 0 0 0 0 29017235.809465408 -14975990.823440552 0 -14975990.823440552 -146857677.2766161 0 0 0 0 -17378643.267921478 4915528.3472137451 0 4915528.3472137451 -192843005.22912598 0 0 0 0 -637866.49522122741 28290440.274707794 0 28290440.274707794 -207430270.62812805 0 0 0 0 9000093.7891556621 -30722296.945957184 0 -30722296.945957184 -307581880.12094116 0 0 0 0 -455065.28600889089 20452.94638874568 0 20452.94638874568 45284.830986831337 0 0 0 0 -1180951.1984986619 469948.31162492 0 469948.31162492 -833277.49626451836 0 0 0 0 28847184.673253894 23909337.785942078 0 23909337.785942078 -455565787.78060913 0 0 0 0 -63088637.325907707 25655455.640083313 0 25655455.640083313 -10743887.074916959 0 0 0 0 -148880232.6819647 -18558676.818019867 0 -18558676.818019867 -222980237.60227203 0 0 0 0 -44262690.227516316 87970502.464852333 0 87970502.464852333 -191499819.42193604 0 0 0 0 -11111820.38765192 13982939.366043091 0 13982939.366043091 -219406432.84315968 0 0 0 0 -23629728.691246986 -29252257.702354431 0 -29252257.702354431 -141029545.95948029 0 0 0 0 -34588554.235632896 25970157.72543335 0 25970157.72543335 -91071125.746170044 0 0 0 0 26927382.857138872 16956730.717201233 0 16956730.717201233 -131529303.23677063 0 0 0 0 -8031742.3693025708 66645399.999980927 0 66645399.999980927 -85653869.35647583 0 0 0 0 22293210.340294689 44802644.078941345 0 44802644.078941345 -215422192.08574677 0 0 0 0 6292223.6960043609 54102909.855213165 0 54102909.855213165 -110912001.634758 0 0 0 0 -3999982.9367853813 46451543.980766773 0 46451543.980766773 -62926688.086624146 0 0 0 0 -6217860.6789863557 21943847.585881948 0 21943847.585881948 10460858.116424561 0 0 0 0 42652120.615188122 -3837316.3924331665 0 -3837316.3924331665 -25131661.338207245 0 0 0 0 47299706.800603032 56248171.290077209 0 56248171.290077209 -85556354.622268677 0 0 0 0 10126435.563382864 64283832.092124939 0 64283832.092124939 -68467816.25567627 0 0 0 0 26217826.764143109 -2985260.6456165314 0 -2985260.6456165314 23464594.026397705 0 0 0 0 6421606.9078653455 -38191702.071040869 0 -38191702.071040869 -29438416.031234741 0 0 0 0 -15159239.769694328 30573094.042900085 0 30573094.042900085 11247071.837203979 0 0 0 0 48169160.718204573 10961406.684875131 0 10961406.684875131 13723436.944519043 0 0 0 0 46716249.489723206 21093397.612606049 0 21093397.612606049 8901543.3445625305 0 0 0 0 -5016.7199398687517 -66953.528419688344 0 -66953.528419688344 3210.4860272668302 0 0 0 0 1921346.6710865498 -7683009.8080596924 0 -7683009.8080596924 22879422.040145874 0 0 0 0 -18170.673708036775 -50910.493862011703 0 -50910.493862011703 32872.802618905902 0 0 0 0 -222184.67820619792 -568616.87965359166 0 -568616.87965359166 1549.4185124747455 0 0 0 0 370329.60526564158 -313071.78829574585 0 -313071.78829574585 -560797.11759185791 0 0 0 0 35292924.947398789 3101726.8547298908 0 3101726.8547298908 -14104952.134124756 0 0 0 0 389273.88221239566 2934.5904000324663 0 2934.5904000324663 -345488.06174582615 0 0 0 0 26909812.806270987 -2599712.862903595 0 -2599712.862903595 719317.96960067749 0 0 0 0 25814807.879353814 -7788075.3107213974 0 -7788075.3107213974 -22185632.050102234 0 0 0 0 4597118.1927580386 7308059.6756362915 0 7308059.6756362915 -13837688.695640564 0 0 0 0 -10793389.052219152 -32065013.064861298 0 -32065013.064861298 -69134189.549072266 0 0 0 0 -8260498.8407526016 158994.80946350098 0 158994.80946350098 2831968.1359977722 0 0 0 0 -12492197.504342079 -16962841.752159119 0 -16962841.752159119 1823267.5159301758 0 0 0 0 -3781155.1033277512 3186820.9879188538 0 3186820.9879188538 -36061818.118881226 0 0 0 0 -3944612.0572514534 -16753308.455905914 0 -16753308.455905914 -30734165.122039795 0 0 0 0 -19344963.939142704 5835950.585395813 0 5835950.585395813 539352.54901885986 0 0 0 0 -30167364.034946561 973975.80312156677 0 973975.80312156677 -39830574.708442688 0 0 0 0 7384969.4675815105 23718324.463737488 0 23718324.463737488 7557382.7407474518 0 0 0 0 -36887466.00231123 -3107673.4655151367 0 -3107673.4655151367 13702741.751235962 0 0 0 0 -10329946.246005535 28897226.343719482 0 28897226.343719482 25864534.86665535 0 0 0 0 175878.83454889723 -770794.29176130891 0 -770794.29176130891 -187903.0422347784 0 0 0 0 264528.60374557972 -534002.00381469727 0 -534002.00381469727 -909820.53023910522 0 0 0 0 246372.19371473789 -140710.55403518677 0 -140710.55403518677 -331277.34460449219 0 0 0 0 4326975.8995387852 -13250147.083813429 0 -13250147.083813429 15459443.573883057 0 0 0 0 -11532635.223605394 3954896.5139770508 0 3954896.5139770508 28958013.018379211 0 0 0 0 -358073.55872035027 -1010411.3776473999 0 -1010411.3776473999 13032739.648944855 0 0 0 0 -2340262.4265811443 -15993401.444599152 0 -15993401.444599152 8268359.9469871521 0 0 0 0 1224521.7390035316 -795614.6561050415 0 -795614.6561050415 1976263.185131073 0 0 0 0 1031489.4802507312 -165037.6985979937 0 -165037.6985979937 -596902.99755557626 0 0 0 0 733595.94887708302 25366.387708697468 0 25366.387708697468 -379935.91111200303 0 0 0 0 283470.3078039512 -3763858.2472133636 0 -3763858.2472133636 2227949.7290267944 0 0 0 0 -5627871.8969801068 3207379.6893348694 0 3207379.6893348694 -378184.40770554543 0 0 0 0 1925504.1791380309 349920.9396481514 0 349920.9396481514 -273231.19316101074 0 0 0 0 1886242.415791586 -4945918.34973526 0 -4945918.34973526 -2960460.4225311279 0 0 0 0 29942350.160333522 -18827747.79911232 0 -18827747.79911232 -10655341.494995117 0 0 0 0 8087998.0720656365 -12150339.786937714 0 -12150339.786937714 -2119836.5956840515 0 0 0 0 25283713.585047901 -7850284.2681732178 0 -7850284.2681732178 -4343281.6998710632 0 0 0 0 689714.39362287521 -25250.906673431396 0 -25250.906673431396 -558244.52665710449 0 0 0 0 379661.36336322298 -36333.3719998874 0 -36333.3719998874 -386171.05033072829 0 0 0 0 239061.69913860862 -140.1621584634413 0 -140.1621584634413 -219279.96090992168 0 0 0 0 530415.04505947232 -1168233.7184677124 0 -1168233.7184677124 -5873591.9015083313 0 0 0 0 7005815.1290859729 -1185216.3605003357 0 -1185216.3605003357 -1024276.880651474 0 0 0 0 22226884.646316387 -22831737.281045914 0 -22831737.281045914 15146186.858379364 0 0 0 0 289391.40544866986 -59994.377316292375 0 -59994.377316292375 -231819.18539500982 0 0 0 0 -1065019.2294542864 -422496.28679656982 0 -422496.28679656982 7698713.7706871033 0 0 0 0 25665076.443716213 -6309309.8339614868 0 -6309309.8339614868 -12525895.439491272 0 0 0 0 10782854.815895643 -60854348.449066162 0 -60854348.449066162 32017787.74971199 0 0 0 0 -10628382.715405462 12246757.638399124 0 12246757.638399124 -28721121.698455811 0 0 0 0 -3944437.6394150723 -11474631.252140045 0 -11474631.252140045 -18275864.12461853 0 0 0 0 5569792.7787737846 5738805.4622879028 0 5738805.4622879028 -14374481.176827908 0 0 0 0 -14456201.331039242 16866541.758270264 0 16866541.758270264 -30256514.327056885 0 0 0 0 -3366258.3128296882 24583453.298027039 0 24583453.298027039 -55743881.77141571 0 0 0 0 408327.42877939716 -3546563.3461647034 0 -3546563.3461647034 -29232392.15965271 0 0 0 0 -797136.44662891328 824980.03281402588 0 824980.03281402588 -21513628.554100037 0 0 0 0 -10724375.434869576 5057002.3242034912 0 5057002.3242034912 -44533536.023628235 0 0 0 0 -14839750.710458692 19661568.497053146 0 19661568.497053146 -50104383.053627014 0 0 0 0 -6939615.2040749304 11338149.623577118 0 11338149.623577118 -62205390.985527039 0 0 0 0 -11093949.653511345 32570235.516868591 0 32570235.516868591 -74716070.479881287 0 0 0 0 -3144833.737520678 18503739.432179451 0 18503739.432179451 -106289641.44161224 0 0 0 0 -1867896.4589138627 43203953.214729309 0 43203953.214729309 -100348140.12106705 0 0 0 0 -2203786.1864688694 26801780.30519104 0 26801780.30519104 -93590053.991397858 0 0 0 0 -9840927.9616910014 18712249.230708122 0 18712249.230708122 -60579660.907791138 0 0 0 0 -16197.702226847236 5821560.3919239044 0 5821560.3919239044 -96763188.948913574 0 0 0 0 -6684679.0459210053 12319732.960041046 0 12319732.960041046 -83829156.574117661 0 0 0 0 -8631940.0277807042 28972983.775156021 0 28972983.775156021 -92454772.560905457 0 0 0 0 -11945331.090230048 8161722.0537776947 0 8161722.0537776947 -56412122.078887939 0 0 0 0 -7741358.8296453413 15919740.371929169 0 15919740.371929169 -80842892.448272705 0 0 0 0 -14588077.964473717 -2466232.8283615112 0 -2466232.8283615112 -42645801.838951111 0 0 0 0 -14087.901464836788 -910307.19679018552 0 -910307.19679018552 -53212575.167037964 0 0 0 0 -14736465.942998547 -3032937.1133155823 0 -3032937.1133155823 -38112045.978782654 0 0 0 0 -14462211.095391598 14543820.36788559 0 14543820.36788559 -46906342.75875473 0 0 0 0 -12708153.629111968 1941815.9953746796 0 1941815.9953746796 -30777275.140487671 0 0 0 0 -21299896.756435387 -5295204.1260757446 0 -5295204.1260757446 -25866423.500225067 0 0 0 0 1197.0918748676831 -9248242.6064338684 0 -9248242.6064338684 -40688332.371499062 0 0 0 0 -14808660.775133032 -17072936.028194427 0 -17072936.028194427 -36603667.08744812 0 0 0 0 9103634.1010779478 -4229504.8691215515 0 -4229504.8691215515 -30811441.879154205 0 0 0 0 10456081.419308068 13778369.89956212 0 13778369.89956212 1327681.2087554932 0 0 0 0 -20337.920289224585 -11249157.306282043 0 -11249157.306282043 -14257738.476982117 0 0 0 0 7145283.2230910603 -3561785.78556633 0 -3561785.78556633 -85521316.94834137 0 0 0 0 49803.545036569492 -17547.120563738048 0 -17547.120563738048 -52315.427134661004 0 0 0 0 6396672.9121597521 -34109312.156734467 0 -34109312.156734467 -79307159.209407806 0 0 0 0 -17369461.66584634 -66776040.859764099 0 -66776040.859764099 -44406401.502342224 0 0 0 0 21636.817680210261 21169.30747895129 0 21169.30747895129 -101193.44487412274 0 0 0 0 -1397222.3567569554 -15092334.187004089 0 -15092334.187004089 -2713071.3276848793 0 0 0 0 -28122630.206850767 -38885047.415725708 0 -38885047.415725708 -66814641.199800491 0 0 0 0 -8904528.8178423494 -13961801.333766937 0 -13961801.333766937 -39738665.455329895 0 0 0 0 8561311.1990177631 7052591.0820364952 0 7052591.0820364952 -17638597.583202362 0 0 0 0 33030.311760542638 64768.220757026225 0 64768.220757026225 -217997.80088340491 0 0 0 0 -26935486.636031065 951726.61238479614 0 951726.61238479614 -10846676.367073059 0 0 0 0 16108237.244808398 -2888722.7994384766 0 -2888722.7994384766 -39604228.623451233 0 0 0 0 8347103.9631307498 -16655973.511133194 0 -16655973.511133194 -32117900.794281006 0 0 0 0 38632.468689625413 -4646.1808938682079 0 -4646.1808938682079 -60908.090892650187 0 0 0 0 -4246158.6523551103 -5877307.2580566406 0 -5877307.2580566406 -43985788.28481102 0 0 0 0 -3515920.6881348863 -15831849.646202087 0 -15831849.646202087 -51049278.545619965 0 0 0 0 -13805601.650575787 -50377299.747550964 0 -50377299.747550964 -55088239.041164398 0 0 0 0 28626.118976838639 5611.4113784618676 0 5611.4113784618676 -40839.423720518127 0 0 0 0 -2092803.8827872649 -15050903.609516144 0 -15050903.609516144 -76420446.483718872 0 0 0 0 -1441812.4967146479 -16507697.310121536 0 -16507697.310121536 -73705645.319396973 0 0 0 0 11928.214113665421 -13433.266504572704 0 -13433.266504572704 -53815.475846683607 0 0 0 0 -3684183.2640883098 -6186181.8184127808 0 -6186181.8184127808 -25119776.052042007 0 0 0 0 -1333199.7854424156 -16749290.993644714 0 -16749290.993644714 -19058701.254505157 0 0 0 0 -6053027.7011111453 -1038174.5691108704 0 -1038174.5691108704 -21741357.911125183 0 0 0 0 1504582.3664167207 -7610003.2516479492 0 -7610003.2516479492 -52722167.385902405 0 0 0 0 -405520.32631898113 -6744054.9590759277 0 -6744054.9590759277 -52697532.516284585 0 0 0 0 1785.5659294391808 -583136.66046142578 0 -583136.66046142578 -45932991.233009338 0 0 0 0 2010979.2283791397 -7344428.4189529419 0 -7344428.4189529419 -52082806.605815887 0 0 0 0 3970.9824815913857 611243.64713478088 0 611243.64713478088 -62644121.229084015 0 0 0 0 2219700.5382016092 402658.65450191498 0 402658.65450191498 -65937761.458473206 0 0 0 0 -1438702.7597526331 5559031.8838806152 0 5559031.8838806152 -70159183.766609192 0 0 0 0 2103174.5453306641 -3597268.6139945984 0 -3597268.6139945984 -65240521.803897858 0 0 0 0 2763760.5780552812 -1820482.9212048054 0 -1820482.9212048054 -63633670.378005981 0 0 0 0 756826.03770230617 -4637392.0539865494 0 -4637392.0539865494 -66648243.099449158 0 0 0 0 490043.05933362246 -5470265.0980606079 0 -5470265.0980606079 -67237202.636360168 0 0 0 0 1418050.1968483869 1339943.0531616211 0 1339943.0531616211 -76125084.94644165 0 0 0 0 -2041379.2828901708 -9063598.5347204208 0 -9063598.5347204208 -85852733.466064453 0 0 0 0 -2344337.521448791 -8947326.759262085 0 -8947326.759262085 -70858117.271930695 0 0 0 0 3849036.6174487174 -3102889.5290145874 0 -3102889.5290145874 -81312758.904289246 0 0 0 0 1008183.3546233922 -2572474.4309015274 0 -2572474.4309015274 -79868541.710449219 0 0 0 0 2522108.8251152299 2328030.6781225204 0 2328030.6781225204 -102141194.8873291 0 0 0 0 -12939184.624816827 -258740.58827590942 0 -258740.58827590942 -74633298.388378143 0 0 0 0 -81785.918840547645 336.03433134034276 0 336.03433134034276 -103883.52318175789 0 0 0 0 202628.90201934427 7061771.468536377 0 7061771.468536377 -89867235.68901062 0 0 0 0 -1538255.4995781034 8240702.0496444702 0 8240702.0496444702 -86053230.57724762 0 0 0 0 3217208.5261753649 4658913.3407096863 0 4658913.3407096863 -80091319.560142517 0 0 0 0 -58975.778989741106 -19517.894861370325 0 -19517.894861370325 -139068.69827289507 0 0 0 0 497081.03359504044 2000886.210231781 0 2000886.210231781 -75532395.965503693 0 0 0 0 -17520829.377868935 -3642551.2901916504 0 -3642551.2901916504 -91965085.090636253 0 0 0 0 20747946.644940153 19126127.547822952 0 19126127.547822952 -135897522.2949295 0 0 0 0 -6245458.7049094141 -50962442.060718536 0 -50962442.060718536 -148194207.82437468 0 0 0 0 12396984.924602523 -5381600.7234306335 0 -5381600.7234306335 -6459254.9305815697 0 0 0 0 -98072.276352753397 -100394.19404009357 0 -100394.19404009357 -374200.69446411729 0 0 0 0 14606960.985472851 30035283.456257612 0 30035283.456257612 -66344693.509101868 0 0 0 0 14565534.981617078 34373324.145389557 0 34373324.145389557 -2066592.0298919678 0 0 0 0 -7971577.8137366958 2512640.2154941559 0 2512640.2154941559 -33907322.948516846 0 0 0 0 1565837.747924149 -5650112.0906143188 0 -5650112.0906143188 -40289367.482307434 0 0 0 0 -2193906.1353057586 4584754.3322982788 0 4584754.3322982788 -63120788.319337845 0 0 0 0 12272433.911466628 11279392.813550949 0 11279392.813550949 -114250397.90438843 0 0 0 0 -11898.459149306036 -19320.333488620818 0 -19320.333488620818 -153530.05022759829 0 0 0 0 -11232.507815368554 -8583559.7656517029 0 -8583559.7656517029 -71659867.418546677 0 0 0 0 7330414.318343604 -4194934.8162002563 0 -4194934.8162002563 -99499388.996078491 0 0 0 0 6135896.0074178427 -9293557.5055885315 0 -9293557.5055885315 -64760300.533748627 0 0 0 0 6469152.4170041978 -5405824.7583122253 0 -5405824.7583122253 -49121107.453736186 0 0 0 0 11647608.875859909 -10872397.652861595 0 -10872397.652861595 -69578443.948143005 0 0 0 0 4270425.767760545 -11936399.694156647 0 -11936399.694156647 -49233125.956138611 0 0 0 0 4107076.0927349031 -10706390.934829712 0 -10706390.934829712 -28017661.368629456 0 0 0 0 2818924.3382507563 -6441008.2179260254 0 -6441008.2179260254 -33657253.396362305 0 0 0 0 -1565544.7004893646 -10365148.225986481 0 -10365148.225986481 -34218133.961593628 0 0 0 0 1188730.8192281574 -12592226.865213394 0 -12592226.865213394 -48444832.381713867 0 0 0 0 -9323292.0519104302 -10680995.69467926 0 -10680995.69467926 -47790759.776337624 0 0 0 0 -9987202.2776273899 -19725936.749771118 0 -19725936.749771118 -30606408.566612244 0 0 0 0 -10600050.567131666 -14823711.820846558 0 -14823711.820846558 -49112802.510289192 0 0 0 0 -7831827.6438660249 -15054565.432285309 0 -15054565.432285309 -49193315.630802155 0 0 0 0 3728703.0082078427 9342.1889686584473 0 9342.1889686584473 -93713050.732639313 0 0 0 0 -17401638.552806713 -29939025.044618607 0 -29939025.044618607 -75152220.757263184 0 0 0 0 1957397.5764029324 2432655.1442184448 0 2432655.1442184448 -64282486.829744339 0 0 0 0 -3807209.9748221561 -5462374.6559791565 0 -5462374.6559791565 -67856207.981647491 0 0 0 0 -37085.71901847019 8412.6997457500547 0 8412.6997457500547 -43144.702387677971 0 0 0 0 -8234288.2720833495 4004112.9941182137 0 4004112.9941182137 -62728982.931983948 0 0 0 0 -4700895.2837331295 576695.68106460571 0 576695.68106460571 -107789433.67939663 0 0 0 0 -2533691.2154574245 10961157.234050751 0 10961157.234050751 -93775726.262817383 0 0 0 0 -722083.35101467371 -16576866.16570282 0 -16576866.16570282 -76752415.123176575 0 0 0 0 5882834.0404075384 -16484308.094680786 0 -16484308.094680786 -94141887.361507416 0 0 0 0 7250694.6808733791 -20445685.108371735 0 -20445685.108371735 -140408380.75511551 0 0 0 0 5746235.9968591332 -20503942.25982666 0 -20503942.25982666 -85501278.117988586 0 0 0 0 10870463.741006494 19867904.218635559 0 19867904.218635559 -88049367.267879486 0 0 0 0 -29758416.170061707 7608211.2976036072 0 7608211.2976036072 -108115117.9292717 0 0 0 0 -12838881.48918657 -12963776.395080566 0 -12963776.395080566 -92815860.017356873 0 0 0 0 12575254.703066699 7452618.4333286285 0 7452618.4333286285 -88143663.341556549 0 0 0 0 -14437308.70835717 -19832072.598111153 0 -19832072.598111153 -69746100.087371826 0 0 0 0 32891215.309196129 20072967.058713913 0 20072967.058713913 -54630797.160995483 0 0 0 0 17824632.32298363 -2217165.8162994385 0 -2217165.8162994385 -78789551.92539978 0 0 0 0 15995486.857534736 873146.09928131104 0 873146.09928131104 -78361829.773085117 0 0 0 0 -785712.05578307435 3986075.5955581665 0 3986075.5955581665 -54745865.743225098 0 0 0 0 1176679.1370710954 -2301946.4788188934 0 -2301946.4788188934 -53907032.744415283 0 0 0 0 -4191683.6643832773 -15444210.882896423 0 -15444210.882896423 -43853503.31526947 0 0 0 0 1068634.1497693807 -9432829.0958557129 0 -9432829.0958557129 -52802565.495412827 0 0 0 0 5970966.10306748 -16468752.234134674 0 -16468752.234134674 -43104639.39806366 0 0 0 0 -3927534.9120550752 -42329022.579071045 0 -42329022.579071045 -99944490.635406494 0 0 0 0 12837.268080054717 39838.486452419311 0 39838.486452419311 -124764.79251940548 0 0 0 0 -11172906.735033333 20534645.899703979 0 20534645.899703979 16730076.829269409 0 0 0 0 7037284.809074074 44123413.781242371 0 44123413.781242371 -11838890.675109863 0 0 0 0 -3787178.7376425713 20647433.463062286 0 20647433.463062286 -16312550.870620728 0 0 0 0 9826915.4674784988 35861226.121166229 0 35861226.121166229 -46215745.991439819 0 0 0 0 -10459775.510407954 8700270.5323638916 0 8700270.5323638916 -37699333.000102997 0 0 0 0 -9005371.9266189635 6487916.6663360596 0 6487916.6663360596 -34634941.333129883 0 0 0 0 -19408822.8675524 -10848239.643440247 0 -10848239.643440247 -35687287.965629578 0 0 0 0 -29797559.194794267 -11142038.606201172 0 -11142038.606201172 -30978304.557364941 0 0 0 0 -12145065.206703365 -9686870.8581085205 0 -9686870.8581085205 -15258403.693177938 0 0 0 0 -12075357.235337541 -2022299.6792755127 0 -2022299.6792755127 -30339299.212417603 0 0 0 0 11528976.235676162 -23140811.090213776 0 -23140811.090213776 -26827460.049114227 0 0 0 0 -12736758.496206462 -2620011.9042816162 0 -2620011.9042816162 16268453.853621125 0 0 0 0 13668106.79497008 -18973304.972316742 0 -18973304.972316742 -58510550.5286026 0 0 0 0 9407969.4077341259 -25594977.149185181 0 -25594977.149185181 -68588236.345474243 0 0 0 0 3343633.2733865976 -2193408.8934192657 0 -2193408.8934192657 -63771517.824134827 0 0 0 0 71617.255805391498 -6329.9301020776038 0 -6329.9301020776038 -88401.961811993271 0 0 0 0 -21350511.830146782 -34758293.966857553 0 -34758293.966857553 -40350261.413658142 0 0 0 0 -258469.72736442415 20230333.740906119 0 20230333.740906119 -33099756.071777344 0 0 0 0 -11187584.054742068 -5450851.3673171997 0 -5450851.3673171997 -2986221.6987895966 0 0 0 0 5675245.6266916431 796451.25200843811 0 796451.25200843811 -55270263.126678467 0 0 0 0 4439908.4839004464 -6871447.9665870667 0 -6871447.9665870667 -44112622.530647278 0 0 0 0 1680107.5023636222 -5322256.9302501678 0 -5322256.9302501678 -29975752.754478455 0 0 0 0 -19484420.846307699 -27355039.256449699 0 -27355039.256449699 -51517907.232345581 0 0 0 0 8785003.6822841018 -7953318.3869590759 0 -7953318.3869590759 -71080817.471412659 0 0 0 0 -1685215.551224038 9054043.3558979034 0 9054043.3558979034 -26154200.707695007 0 0 0 0 -7281904.6174868643 2912963.4251289368 0 2912963.4251289368 -1207351.7663497925 0 0 0 0 -2859066.7315929234 -542091.88088989258 0 -542091.88088989258 -7813804.4657592773 0 0 0 0 -1285448.0756326001 4792714.8804197311 0 4792714.8804197311 -7970037.1440811157 0 0 0 0 4514604.8374468237 -1170746.7011489868 0 -1170746.7011489868 -19972485.794380188 0 0 0 0 2803380.6572680697 -1364330.3821058273 0 -1364330.3821058273 -3481560.4144058228 0 0 0 0 2699997.3149114586 -121051.67759990692 0 -121051.67759990692 -15316720.23513031 0 0 0 0 -3266110.2782938182 -9732162.3805885315 0 -9732162.3805885315 -17754871.471630096 0 0 0 0 37047706.586267352 19440188.280600548 0 19440188.280600548 -15554385.034606934 0 0 0 0 10718703.176333576 -2225153.1697807312 0 -2225153.1697807312 -15930892.588115692 0 0 0 0 392759.06663875852 1509161.1103514014 0 1509161.1103514014 -4223837.5641926266 0 0 0 0 659002.5766518116 13424896.925796509 0 13424896.925796509 5312568.5257911682 0 0 0 0 -5223055.2171069607 -9707542.1195373535 0 -9707542.1195373535 -19643557.224838257 0 0 0 0 -1526814.7747019529 -9594719.4872360229 0 -9594719.4872360229 -20815306.970733643 0 0 0 0 -6276883.872120142 5545728.9013328552 0 5545728.9013328552 -6721764.7065124512 0 0 0 0 2786285.2388668954 -1123698.1811444759 0 -1123698.1811444759 -26517968.991424561 0 0 0 0 1902840.2999285758 6974602.358997345 0 6974602.358997345 -3326130.7662200928 0 0 0 0 8529239.892619133 -9801774.7742767334 0 -9801774.7742767334 -102842463.66947937 0 0 0 0 -473396.69823898259 -302270.59377915412 0 -302270.59377915412 307644.87394919619 0 0 0 0 -10154049.284799576 -19619839.504981995 0 -19619839.504981995 -56100979.631896973 0 0 0 0 -12272262.859844208 -15897013.704601288 0 -15897013.704601288 -36691369.877029419 0 0 0 0 -4313752.0400385857 -5865975.5190582275 0 -5865975.5190582275 -25705589.143098831 0 0 0 0 -9818350.2023067474 9846587.861328125 0 9846587.861328125 -29975368.267616272 0 0 0 0 -6154279.9106631279 5330959.9492492676 0 5330959.9492492676 -25740997.738761902 0 0 0 0 -13859816.314228058 17769661.805335999 0 17769661.805335999 -21664213.865646362 0 0 0 0 -5881773.205488205 9271262.1568450928 0 9271262.1568450928 -62732448.638143539 0 0 0 0 3850704.0997166634 15358710.151004791 0 15358710.151004791 -12950395.1913414 0 0 0 0 -15435339.393915415 13048298.220716476 0 13048298.220716476 -10865250.673423767 0 0 0 0 -14699530.622075081 15301357.18762207 0 15301357.18762207 -10357987.163959503 0 0 0 0 -9568570.3472411633 8801423.0433998108 0 8801423.0433998108 -2278386.2852783203 0 0 0 0 1434225.6927406788 3352393.3940353394 0 3352393.3940353394 6368536.2630653381 0 0 0 0 25295408.924443588 126895.58641815186 0 126895.58641815186 -12323791.378173828 0 0 0 0 -1870905.3879467249 12458653.786090851 0 12458653.786090851 -11712471.414073944 0 0 0 0 -280370.80069309473 6174085.2120895386 0 6174085.2120895386 -4798621.065284729 0 0 0 0 13636003.131025314 18889555.826068878 0 18889555.826068878 -3474863.6351585388 0 0 0 0 -13860878.436300039 30921766.900886536 0 30921766.900886536 -26142637.250350952 0 0 0 0 -21452383.921287298 18029542.902282715 0 18029542.902282715 297725.46147727966 0 0 0 0 5100742.8815567493 34623116.607299805 0 34623116.607299805 -25420451.839202881 0 0 0 0 -11724189.427256465 59586208.580307007 0 59586208.580307007 -60735113.788711548 0 0 0 0 2402989.7163014412 46911087.880889893 0 46911087.880889893 -60987070.456012368 0 0 0 0 -138234.64724903455 575593.00737288268 0 575593.00737288268 -800932.45233422518 0 0 0 0 -136523103.77391827 86029604.735908508 0 86029604.735908508 -37157889.17621994 0 0 0 0 -67078594.374321043 19411901.368303299 0 19411901.368303299 10038191.03276825 0 0 0 0 5973185.045326367 -30518018.515144348 0 -30518018.515144348 -47266899.231607437 0 0 0 0 -128312913.27395058 -160684180.77307892 0 -160684180.77307892 -173167096.65687943 0 0 0 0 25357891.498192016 -15160688.12776947 0 -15160688.12776947 -64170504.431137085 0 0 0 0 10678836.95291356 -40921729.572078705 0 -40921729.572078705 -107683712.44115448 0 0 0 0 -6793805.9401572496 -21503191.235023499 0 -21503191.235023499 -26643255.958395004 0 0 0 0 7597114.3397332504 -23042689.233108521 0 -23042689.233108521 -65297085.836616516 0 0 0 0 -14310203.163080022 -33728513.314638138 0 -33728513.314638138 -46517690.957054138 0 0 0 0 -80570.667254698448 1268177.2006639685 0 1268177.2006639685 -2495357.5858297832 0 0 0 0 -20080268.432152748 26638304.855423689 0 26638304.855423689 3535089.8733648062 0 0 0 0 1552911.2170622349 21035714.240042269 0 21035714.240042269 -4566409.6592981219 0 0 0 0 189819.99733161926 34073865.809215158 0 34073865.809215158 -1136484.6379002952 0 0 0 0 12850654.854668617 44667296.596342564 0 44667296.596342564 -929205.19879078865 0 0 0 0 12712552.606334686 25690515.528949916 0 25690515.528949916 -3754164.8538517356 0 0 0 0 22514866.029440403 21355923.705395296 0 21355923.705395296 -4424246.7037627697 0 0 0 0 8947625.4601917267 31724487.462228715 0 31724487.462228715 -5084897.140555039 0 0 0 0 36963912.808166027 38483637.209496036 0 38483637.209496036 -7425852.9128443003 0 0 0 0 1486317.7291741981 5671092.8928949572 0 5671092.8928949572 -22666993.86452347 0 0 0 0 29820158.705705643 20854990.216842651 0 20854990.216842651 -25877855.634941101 0 0 0 0 24305815.689067841 32903702.589121461 0 32903702.589121461 -13733488.287126541 0 0 0 0 24608482.434690475 27968329.674731374 0 27968329.674731374 868366.99251580238 0 0 0 0 22525259.361555099 31007208.897169113 0 31007208.897169113 -12940630.942607164 0 0 0 0 36103750.637180328 66403795.824188232 0 66403795.824188232 -29740025.726867676 0 0 0 0 47124332.098560333 20046288.836860955 0 20046288.836860955 -19904390.165548205 0 0 0 0 -2469068.8843717575 -14115500.341846466 0 -14115500.341846466 9313085.929901123 0 0 0 0 -3418218.3118877411 45559692.964263916 0 45559692.964263916 -89790787.841070175 0 0 0 0 -37860712.491477013 65393611.897441864 0 65393611.897441864 42482307.561836243 0 0 0 0 -4889463.8549003601 14403484.531394958 0 14403484.531394958 -22993198.475170135 0 0 0 0 4022604.4691758156 16522930.556964874 0 16522930.556964874 -22208407.784126282 0 0 0 0 30974069.614238739 2591715.0293331146 0 2591715.0293331146 -19927190.260398865 0 0 0 0 19973537.199029922 16978547.520996094 0 16978547.520996094 -35966903.56873703 0 0 0 0 22364468.516195059 23360680.854842186 0 23360680.854842186 -45344628.281066895 0 0 0 0 15128696.659234047 38227910.872112274 0 38227910.872112274 -55765610.051574707 0 0 0 0 31555318.878653526 3015433.8564243317 0 3015433.8564243317 -36917900.441299438 0 0 0 0 37610459.259363174 24554501.947063446 0 24554501.947063446 -71470217.887840271 0 0 0 0 49603399.35925293 7081671.9670677185 0 7081671.9670677185 -56926818.87752533 0 0 0 0 44249488.053515434 5606707.1125936508 0 5606707.1125936508 -50224389.279655457 0 0 0 0 2714212.3527509896 -9579782.5321680214 0 -9579782.5321680214 -22985969.013617203 0 0 0 0 31886437.796213627 -2686520.1159095764 0 -2686520.1159095764 -34767767.446310043 0 0 0 0 12360611.425908089 1319238.6379985809 0 1319238.6379985809 -35379400.890949249 0 0 0 0 21131800.312208176 13437203.315326691 0 13437203.315326691 -25444759.189851522 0 0 0 0 8378561.1652559042 24976249.129422266 0 24976249.129422266 -4609798.0646475554 0 0 0 0 8595063.5288743973 26084368.518431902 0 26084368.518431902 -5008744.0330910683 0 0 0 0 2212779.1430571992 6909615.4339635931 0 6909615.4339635931 -25401890.265268814 0 0 0 0 287416200.28240538 266865060.12160516 0 266865060.12160516 -273007828.56378096 0 0 0 0 -15760466.899604559 75092858.366644144 0 75092858.366644144 -52131919.886274815 0 0 0 0 871159636.32902908 13491449.525373995 0 13491449.525373995 -219196961.27407956 0 0 0 0 905642.67921724147 -696176.46217319462 0 -696176.46217319462 -1271102.9615095169 0 0 0 0 -505430335.47657776 -143222701.40802658 0 -143222701.40802658 59872733.189814687 0 0 0 0 -14529302.870259285 -73636286.877263963 0 -73636286.877263963 -158259204.17176503 0 0 0 0 41157757.475561142 5967259.4428435564 0 5967259.4428435564 -230065446.75792152 0 0 0 0 29106003.256276608 -488620.40350878239 0 -488620.40350878239 -85481521.894017816 0 0 0 0 -26577539.112482071 -200503911.43629158 0 -200503911.43629158 22641885.002864107 0 0 0 0 97959024.33324337 39192438.253309995 0 39192438.253309995 -101842536.25870848 0 0 0 0 4304264.5612049084 4205786.1913286718 0 4205786.1913286718 -10034608.491751244 0 0 0 0 -4340857.989461422 -6746252.640919745 0 -6746252.640919745 -39253625.663650975 0 0 0 0 -6087698.2938241959 -1244970.2283410951 0 -1244970.2283410951 -44138107.062722072 0 0 0 0 -17007815.643127441 -6402496.0540897846 0 -6402496.0540897846 -33145572.921986639 0 0 0 0 -16473331.466025114 -20397916.045508668 0 -20397916.045508668 -40549318.443478823 0 0 0 0 15582717.530379295 -17838677.724948555 0 -17838677.724948555 -56052702.414462566 0 0 0 0 -54481857.249913692 -45923189.482538432 0 -45923189.482538432 -38860975.833444715 0 0 0 0 -20337923.051412344 -9971444.7830801308 0 -9971444.7830801308 -29637720.609559536 0 0 0 0 -24227343.088560104 -18092179.218851149 0 -18092179.218851149 -43439458.472735405 0 0 0 0 -37419084.511594772 -22157950.278859228 0 -22157950.278859228 -19873364.918058634 0 0 0 0 -12993775.532649994 3900054.6590666175 0 3900054.6590666175 -24015568.694366246 0 0 0 0 -155587.00880470034 403807.26663670735 0 403807.26663670735 -2756741.7098384285 0 0 0 0 -34054215.35761261 -9695099.4880663157 0 -9695099.4880663157 -14347178.20633924 0 0 0 0 -21716902.961942673 3866178.2885518968 0 3866178.2885518968 -2942923.1707445383 0 0 0 0 -4786703.1280941963 17868698.569640368 0 17868698.569640368 -9543441.1636161804 0 0 0 0 17957047.867582321 12525671.294774115 0 12525671.294774115 -31672146.835649557 0 0 0 0 10645497.67864418 9347282.6301790476 0 9347282.6301790476 -31555454.940150857 0 0 0 0 -17601938.820190668 1364147.5555096716 0 1364147.5555096716 -25368031.914790988 0 0 0 0 -3588198.3986053467 5972810.06604743 0 5972810.06604743 -33158798.547927439 0 0 0 0 -6817061.6855678558 5567671.5653751493 0 5567671.5653751493 -33204580.495187625 0 0 0 0 -4783494.2727775574 2043868.0919238329 0 2043868.0919238329 -34239155.270329133 0 0 0 0 -2930616.02382195 2160183.3830037341 0 2160183.3830037341 -34258790.638936043 0 0 0 0 14870848.194485664 203097.43638664484 0 203097.43638664484 -39402799.326307446 0 0 0 0 10638341.003318787 433585.58984059095 0 433585.58984059095 -39231324.795391947 0 0 0 0 124227.54444630677 -1667756.3130555064 0 -1667756.3130555064 -11933483.308917886 0 0 0 0 15765640.676533699 1587341.2653240561 0 1587341.2653240561 -38387993.232698321 0 0 0 0 1693127.1243950722 1442418.713275515 0 1442418.713275515 -11805131.803823762 0 0 0 0 18633307.90265274 5371093.805113256 0 5371093.805113256 -34891025.589741051 0 0 0 0 10151914.438301086 -66026.037609577179 0 -66026.037609577179 -38153235.727815866 0 0 0 0 49835441.402791023 65413971.583020687 0 65413971.583020687 -85143210.568480492 0 0 0 0 -129667915.99300456 -49053078.632769823 0 -49053078.632769823 -26570501.371011734 0 0 0 0 74269398.219614029 -96787197.070407867 0 -96787197.070407867 -12806756.825042725 0 0 0 0 44242217.054689884 -28815871.978382111 0 -28815871.978382111 12228437.898284912 0 0 0 0 59265263.154669046 -9058707.5841693878 0 -9058707.5841693878 -93150032.629348755 0 0 0 0 3130112.2325922069 -10102162.325472821 0 -10102162.325472821 -22215550.754746623 0 0 0 0 -13262226.84197107 -923987.07256746292 0 -923987.07256746292 -36599503.72111702 0 0 0 0 -792825.78099859192 7752044.4092707057 0 7752044.4092707057 -21647111.085222073 0 0 0 0 8281580.8071465492 3804733.1185437441 0 3804733.1185437441 -43392284.18650198 0 0 0 0 -5729627.0326089263 22465874.579578221 0 22465874.579578221 -29445803.119992733 0 0 0 0 -11038530.785299063 11373387.499543816 0 11373387.499543816 15276588.282647133 0 0 0 0 29743989.947853088 -18090288.532868147 0 -18090288.532868147 -15187768.611677408 0 0 0 0 5561657.8883209229 2150759.9019417763 0 2150759.9019417763 -27671720.955461979 0 0 0 0 9267078.4427485764 3408191.9596557617 0 3408191.9596557617 -40811290.25864315 0 0 0 0 19251523.58173275 4008103.3874807358 0 4008103.3874807358 -41414506.154722214 0 0 0 0 30089774.175323486 -7003563.6793575287 0 -7003563.6793575287 -37226666.768264294 0 0 0 0 36761742.122507572 2809419.5148898363 0 2809419.5148898363 -58308314.777059555 0 0 0 0 44085904.317668915 11653550.035702705 0 11653550.035702705 -50815438.215705872 0 0 0 0 18110436.473744392 14931487.468577385 0 14931487.468577385 -48565346.860245705 0 0 0 0 -8265197.6206493378 58764964.081550598 0 58764964.081550598 -44263063.73750782 0 0 0 0 9908698.5460968018 29594583.687092781 0 29594583.687092781 -22287144.11745739 0 0 0 0 47439976.04497385 46582861.353437006 0 46582861.353437006 -87851450.217997551 0 0 0 0 43225505.990888596 -141062913.32564008 0 -141062913.32564008 156842950.05607885 0 0 0 0 82966984.400712967 36933274.478136539 0 36933274.478136539 -85390593.766137123 0 0 0 0 3797340.80900383 -12191987.158679724 0 -12191987.158679724 48448161.926025391 0 0 0 0 142920767.47685623 -55663103.905641556 0 -55663103.905641556 -101711008.20254934 0 0 0 0 88585900.896154404 16547628.832581043 0 16547628.832581043 -121543246.18504333 0 0 0 0 30216985.420228958 -18798540.851564646 0 -18798540.851564646 -28269552.085590363 0 0 0 0 83870094.052217484 -26676487.2227211 0 -26676487.2227211 -40863505.69847393 0 0 0 0 75725310.759202957 -85464109.423324347 0 -85464109.423324347 38959948.313017368 0 0 0 0 140962888.67232132 -25800055.850147247 0 -25800055.850147247 -175564175.57330132 0 0 0 0 468926058.01126862 -502287798.77289295 0 -502287798.77289295 -115879990.70763019 0 0 0 0 278932402.9180069 267898265.94864607 0 267898265.94864607 -540616113.05219841 0 0 0 0 1141385733.1389694 -373143611.48973131 0 -373143611.48973131 -1247544673.3542497 0 0 0 0 -419830053.21463585 511617142.94980788 0 511617142.94980788 -408641534.65127659 0 0 0 0 1221969797.5042505 127997755.72240195 0 127997755.72240195 -1957655446.6868534 0 0 0 0 207549368.51213312 826365826.65041602 0 826365826.65041602 -1330596324.0392628 0 0 0 0 -112136613.59269524 192393846.4052043 0 192393846.4052043 -102977152.5812254 0 0 0 0 -87492771.877529144 180048196.03884792 0 180048196.03884792 -101380852.74307108 0 0 0 0 48767419.053394318 119400318.56382036 0 119400318.56382036 -209313618.29979992 0 0 0 0 146357386.25939178 359081852.76616573 0 359081852.76616573 -602560738.45288658 0 0 0 0 238137750.22340393 20059002.429087639 0 20059002.429087639 -172331720.6447525 0 0 0 0 -71933360.682186127 106553782.90874004 0 106553782.90874004 -49817346.605683327 0 0 0 0 -20962059.192708969 105232940.74501753 0 105232940.74501753 -52307640.219545364 0 0 0 0 -9373203.5430271626 47291759.313335061 0 47291759.313335061 6032330.458902359 0 0 0 0 -60385300.167930603 34100192.307509422 0 34100192.307509422 34870303.271687508 0 0 0 0 -205883672.59817886 94164101.430334091 0 94164101.430334091 1231922.6997089386 0 0 0 0 -60933620.475537777 30439842.309452295 0 30439842.309452295 28574930.359651566 0 0 0 0 26808451.509145737 -31112773.502724648 0 -31112773.502724648 -664853.6193189621 0 0 0 0 -86422044.63143158 -22151198.428227901 0 -22151198.428227901 8527324.3394956589 0 0 0 0 43577292.185640335 -13008451.82899785 0 -13008451.82899785 11907541.532151222 0 0 0 0 -86546005.067138672 -135055721.40758896 0 -135055721.40758896 -134680836.97049224 0 0 0 0 -462208411.39749432 439715859.69057 0 439715859.69057 -155535987.1533072 0 0 0 0 -1526968.9455469474 -270613.26723001554 0 -270613.26723001554 -4770714.1528998157 0 0 0 0 -1315737.8884807089 1332767.7335687317 0 1332767.7335687317 -122273.33812032838 0 0 0 0 -282276414.9353075 91797597.084674776 0 91797597.084674776 -54094563.458127975 0 0 0 0 24977904.347964287 -18565816.668838501 0 -18565816.668838501 -133218605.06822968 0 0 0 0 46287.513147066187 -349298.10077390261 0 -349298.10077390261 -3170871.2638049913 0 0 0 0 -65643763.458376393 163026471.46238327 0 163026471.46238327 193613065.68473434 0 0 0 0 7480399.9342090487 -31491395.979076385 0 -31491395.979076385 -99775565.849006653 0 0 0 0 1636649.4218511879 -6162586.9615402222 0 -6162586.9615402222 -71784013.602493286 0 0 0 0 65251464.379129589 -6855424.5317726135 0 -6855424.5317726135 -98136030.11895752 0 0 0 0 32096745.254558116 -19336355.264055252 0 -19336355.264055252 4080447.2352828979 0 0 0 0 106373632.04583687 15589877.693658829 0 15589877.693658829 -327304785.87190247 0 0 0 0 34863649.69233337 262388526.80090714 0 262388526.80090714 -133105326.40118027 0 0 0 0 -45575764.030357361 131556988.22851944 0 131556988.22851944 -207647435.95909119 0 0 0 0 69166384.901763678 -25308164.368164062 0 -25308164.368164062 -359144378.57061386 0 0 0 0 -237548479.81237182 -305747571.16503143 0 -305747571.16503143 -26755212.870407104 0 0 0 0 96048930.230905056 -81764667.388031006 0 -81764667.388031006 -44469803.586784363 0 0 0 0 42305693.839869559 43608390.165962219 0 43608390.165962219 -150412104.96116638 0 0 0 0 48946984.581372023 -38971958.388576508 0 -38971958.388576508 -76032907.324584961 0 0 0 0 99087049.144991875 -36262033.44525528 0 -36262033.44525528 -89093003.438991547 0 0 0 0 -139105634.45183083 -55056148.439432144 0 -55056148.439432144 267547598.06058121 0 0 0 0 -30402955.315623388 -25533881.617477417 0 -25533881.617477417 -67013919.374990463 0 0 0 0 949705.44068325765 -396884.99650282413 0 -396884.99650282413 -11750843.651411394 0 0 0 0 3553115.0075478614 -24306586.341037512 0 -24306586.341037512 -122939364.22350311 0 0 0 0 -135182091.22848547 -22431739.424995422 0 -22431739.424995422 85785948.936599731 0 0 0 0 -73855183.173361063 56441168.201187134 0 56441168.201187134 -40006632.316619873 0 0 0 0 11613963.600223929 16074838.420028687 0 16074838.420028687 -139571677.04336166 0 0 0 0 3051604.2243849067 -10045191.836913563 0 -10045191.836913563 -25201659.834611468 0 0 0 0 61303848.396412402 33852832.171989441 0 33852832.171989441 -181125676.13154602 0 0 0 0 8136678.7363220602 -13342419.952636719 0 -13342419.952636719 -41523134.710342884 0 0 0 0 3172182.364216764 1128130.9279702175 0 1128130.9279702175 -6789457.5484675243 0 0 0 0 -15891643.527816139 978342.27449822426 0 978342.27449822426 -35361132.083125114 0 0 0 0 706830.83811688423 -4981672.3462181091 0 -4981672.3462181091 -42232960.739827991 0 0 0 0 -14076176.496203184 7152640.3560391665 0 7152640.3560391665 -38222286.765469551 0 0 0 0 -7863816.1052265167 5603404.9533615112 0 5603404.9533615112 -37944173.674967527 0 0 0 0 10745461.586873285 19564260.46039772 0 19564260.46039772 -8353619.6898956299 0 0 0 0 34719443.956775069 -28789002.673690796 0 -28789002.673690796 -16717983.006250381 0 0 0 0 2681276.4645252358 -8375516.8433134928 0 -8375516.8433134928 -22501526.691513669 0 0 0 0 -28587656.942370594 -96038625.822029114 0 -96038625.822029114 61321911.009897232 0 0 0 0 3001662.1168213137 -7072532.9202255309 0 -7072532.9202255309 -21786509.411253449 0 0 0 0 4530704.5207462311 -19432260.839332581 0 -19432260.839332581 25150051.402656555 0 0 0 0 -4441421.2791473269 -1694892.247795105 0 -1694892.247795105 -8629338.8668556213 0 0 0 0 916032.27973022545 531932.87513526902 0 531932.87513526902 -5462396.9071457051 0 0 0 0 -3589777.7204764038 -2882792.3020973206 0 -2882792.3020973206 -9074399.0504608154 0 0 0 0 7819065.3856594861 -6720757.450969696 0 -6720757.450969696 -52649437.965827942 0 0 0 0 4043271.5941016674 11203510.879766464 0 11203510.879766464 -59837794.9139328 0 0 0 0 9627575.0506742522 1128252.2849931717 0 1128252.2849931717 -68505749.059127808 0 0 0 0 4774897.7854479477 -6887489.3073248863 0 -6887489.3073248863 -105029531.35587311 0 0 0 0 18549451.535039425 -12067066.654716492 0 -12067066.654716492 -103096624.71543884 0 0 0 0 16645649.393462747 -19869300.288124084 0 -19869300.288124084 -55925690.236021042 0 0 0 0 15447970.177719593 6697595.1532516479 0 6697595.1532516479 -45051740.02469635 0 0 0 0 10794969.902444046 -1463986.0961636901 0 -1463986.0961636901 -28492350.483383179 0 0 0 0 10466134.634770043 -9202675.4924705029 0 -9202675.4924705029 -28735200.799194336 0 0 0 0 414751.88806835626 -1913461.7154844441 0 -1913461.7154844441 -5281227.0626588184 0 0 0 0 4606099.0131212175 -4943028.9702377319 0 -4943028.9702377319 -19902399.270370483 0 0 0 0 4623.8058452606201 803047.86792755127 0 803047.86792755127 -3135545.2213759422 0 0 0 0 -752853.89021849632 1000332.9777679443 0 1000332.9777679443 -2811967.603263855 0 0 0 0 -2027081.6873862743 716429.70449352264 0 716429.70449352264 -12249869.308898926 0 0 0 0 -981371.51611340046 2515021.8210411072 0 2515021.8210411072 -15231578.85484314 0 0 0 0 -337866.42980044463 169268.31277068332 0 169268.31277068332 -4023409.8202255089 0 0 0 0 22324.326067338232 -653087.32409615442 0 -653087.32409615442 -2226259.7120517702 0 0 0 0 924581.37801635265 1229136.50938797 0 1229136.50938797 -9060313.235270977 0 0 0 0 -1129054.5865320563 2771246.8943595886 0 2771246.8943595886 -15624418.005825043 0 0 0 0 -1982929.3858272135 3302451.1707077026 0 3302451.1707077026 -14473309.98317337 0 0 0 0 1208380.0105997622 1204421.0267572403 0 1204421.0267572403 -27492625.63256073 0 0 0 0 537118.38313248253 -690823.53084890172 0 -690823.53084890172 -12258735.189965092 0 0 0 0 191522.80551505089 4396969.1881942749 0 4396969.1881942749 -31726010.267562866 0 0 0 0 922958.26769676805 1140216.7383623123 0 1140216.7383623123 -6483789.9710388184 0 0 0 0 2296806.8137932434 102915.83987673651 0 102915.83987673651 -16441406.820363149 0 0 0 0 1118142.3277289867 1656461.7854042053 0 1656461.7854042053 -10696713.523674011 0 0 0 0 -2824625.2099489588 6251383.5402621869 0 6251383.5402621869 -9542423.7201512121 0 0 0 0 -1871951.3250284195 3185725.2115497589 0 3185725.2115497589 -10167282.77066803 0 0 0 0 -8756838.3325488567 3580491.4944410324 0 3580491.4944410324 -38912409.605575085 0 0 0 0 -5005434.3637686968 4331521.6887359619 0 4331521.6887359619 -9872565.1387081146 0 0 0 0 -1975075.5515309572 -1452512.9308681488 0 -1452512.9308681488 -37145503.446187019 0 0 0 0 -315675.61519308016 1192763.7138978243 0 1192763.7138978243 -19741444.849868774 0 0 0 0 -615549.83513088617 -1304079.21705175 0 -1304079.21705175 -4593779.8866551537 0 0 0 0 8698743.380376339 2593846.6913452148 0 2593846.6913452148 -29194903.038503647 0 0 0 0 -6535776.0240497887 2477354.3331184387 0 2477354.3331184387 -20005152.020973206 0 0 0 0 17270.935148963559 -348258.13293114863 0 -348258.13293114863 -701498.66146402876 0 0 0 0 3333009.807510376 697324.28875732422 0 697324.28875732422 -30036072.643507242 0 0 0 0 -1522140.7357648611 1106410.3307552338 0 1106410.3307552338 -8966642.0048065186 0 0 0 0 327559.79024744034 5833180.6277008057 0 5833180.6277008057 -30378182.080924988 0 0 0 0 7350478.9521865845 8794245.0578079224 0 8794245.0578079224 -29510847.24936676 0 0 0 0 -1438179.8960368335 10466971.080601692 0 10466971.080601692 -29957763.604118347 0 0 0 0 35675466.297284603 33649676.302520752 0 33649676.302520752 -49171123.527114868 0 0 0 0 17201174.607671738 3569062.1951179504 0 3569062.1951179504 -35099332.876487732 0 0 0 0 -2139866.0550787449 12021518.069972038 0 12021518.069972038 -27575488.273010254 0 0 0 0 7482801.4018988609 9293822.3133583069 0 9293822.3133583069 -37116720.173681259 0 0 0 0 -5063376.4200228453 2737862.7615485191 0 2737862.7615485191 -19854340.650848389 0 0 0 0 -42831327.557435989 18764506.966259003 0 18764506.966259003 -23524618.378116608 0 0 0 0 14610229.522603512 3259078.4509391785 0 3259078.4509391785 -22770529.880142212 0 0 0 0 639207.6741726778 -2044014.2655371623 0 -2044014.2655371623 565568.16000251472 0 0 0 0 2492013.8173942566 -421592.76790237427 0 -421592.76790237427 -21073916.222114563 0 0 0 0 9746698.8105802536 7174125.3278446198 0 7174125.3278446198 -26915517.676994324 0 0 0 0 3043640.2659227848 6306713.570728302 0 6306713.570728302 -18394739.268011093 0 0 0 0 4432778.7872382402 11225440.858123779 0 11225440.858123779 -20453025.952041626 0 0 0 0 997031.79339289665 5694545.53099823 0 5694545.53099823 -26271792.662502289 0 0 0 0 1461128.5447335243 6563457.2995462418 0 6563457.2995462418 -30339597.845916748 0 0 0 0 2177326.5213029385 18285121.18309021 0 18285121.18309021 -12772547.495972633 0 0 0 0 -16205333.639052033 10045027.777542114 0 10045027.777542114 -15589915.768508911 0 0 0 0 -13816415.750803947 11440152.738358498 0 11440152.738358498 -19841448.287857056 0 0 0 0 -2464966.8925719261 1135873.6414756775 0 1135873.6414756775 -9492859.0534133911 0 0 0 0 -1604828.1687147021 3495275.9243621826 0 3495275.9243621826 -12731170.397357941 0 0 0 0 -11424168.956765711 6904006.4987106323 0 6904006.4987106323 -13180082.3695755 0 0 0 0 -84793.316477775574 -238458.969871521 0 -238458.969871521 -20870103.586090088 0 0 0 0 -58630.867125988007 301241.20589447021 0 301241.20589447021 -1864582.0755004883 0 0 0 0 95298.761819139123 -3749461.1265528798 0 -3749461.1265528798 -5021508.9044265747 0 0 0 0 231376.98901932116 -1120353.9566124324 0 -1120353.9566124324 -4299741.4073245432 0 0 0 0 -328280.10971593857 3334261.7116394043 0 3334261.7116394043 -10393044.506835938 0 0 0 0 32201.887402207591 91930.723684772849 0 91930.723684772849 -645105.83477756009 0 0 0 0 -2010782.7710075378 1849880.025177002 0 1849880.025177002 -7047882.2503204346 0 0 0 0 -970663.79324195615 524149.11662883684 0 524149.11662883684 -5719483.1946497858 0 0 0 0 422181.16273979691 -437423.49405332375 0 -437423.49405332375 -2544344.764056284 0 0 0 0 -1634094.5028452873 595110.08285522461 0 595110.08285522461 -16012395.925058365 0 0 0 0 -343579.58696131327 -1181796.5956684332 0 -1181796.5956684332 -5221566.1429232303 0 0 0 0 -4438775.9173544645 4584012.7255897522 0 4584012.7255897522 -26104963.506256104 0 0 0 0 -11074007.839254618 6743133.7293281555 0 6743133.7293281555 -19990409.854017258 0 0 0 0 8328.7654901104688 -135381.89834485389 0 -135381.89834485389 -1205828.8666337794 0 0 0 0 -1965471.5348000526 1639330.0864219666 0 1639330.0864219666 -13931823.815838814 0 0 0 0 2697703.2083160877 2013805.9892892838 0 2013805.9892892838 -12104500.878541946 0 0 0 0 3617856.3079679012 322035.89807462692 0 322035.89807462692 -11353334.413293839 0 0 0 0 17476442.172786713 556914.3286895752 0 556914.3286895752 -21187831.117593765 0 0 0 0 2815875.1329746246 16388527.117437124 0 16388527.117437124 -2014177.8118171692 0 0 0 0 2482844.8709311485 -1046670.613173008 0 -1046670.613173008 -7904161.1331939697 0 0 0 0 3599606.7360546635 1516627.4676192869 0 1516627.4676192869 -10228387.491103023 0 0 0 0 -5207927.5320186615 28082066.666930199 0 28082066.666930199 -12192596.067264557 0 0 0 0 2657446.2913498478 1288199.5761224935 0 1288199.5761224935 -3545673.4590112367 0 0 0 0 -15629095.262710571 -17607503.334670067 0 -17607503.334670067 45557799.710250616 0 0 0 0 -5833206.9352235794 28496798.558205605 0 28496798.558205605 -11511216.598283768 0 0 0 0 2504128.7454312951 4366025.4092018194 0 4366025.4092018194 -9836940.4907861333 0 0 0 0 4987020.1174492836 -3536972.4479417801 0 -3536972.4479417801 -10555618.116887093 0 0 0 0 1710541.0894908905 602827.20823955536 0 602827.20823955536 -9682416.571352005 0 0 0 0 52951146.095762253 -26040554.870048523 0 -26040554.870048523 -21561118.431343079 0 0 0 0 4006926.6628450197 -2070313.4215669488 0 -2070313.4215669488 -12260394.121434433 0 0 0 0 97130515.393984795 -11091267.457616806 0 -11091267.457616806 -126554562.07342148 0 0 0 0 8635976.0011329651 -9820029.2241210938 0 -9820029.2241210938 18962731.070739746 0 0 0 0 -228589.11266009277 -283793.03784508817 0 -283793.03784508817 580849.96222741157 0 0 0 0 97697859.279678345 15630669.106897354 0 15630669.106897354 -53352094.075639725 0 0 0 0 -1600643.1082725525 11081771.013948441 0 11081771.013948441 4243316.6305894852 0 0 0 0 13858178.531186223 22752304.560915947 0 22752304.560915947 -34715943.952997208 0 0 0 0 -1101875.0087583065 11259372.120863914 0 11259372.120863914 -26395425.899772644 0 0 0 0 5817347.8321847916 8185173.480670929 0 8185173.480670929 -31292764.202252388 0 0 0 0 -1345271.9400695879 4613370.9958720272 0 4613370.9958720272 -5013311.8365870547 0 0 0 0 -328535.29019200802 2986497.1741529703 0 2986497.1741529703 -34637140.618936539 0 0 0 0 -280199.37439493835 737276.67288714647 0 737276.67288714647 -18543683.607429504 0 0 0 0 -589028.47243174072 -1374056.759284813 0 -1374056.759284813 -6502885.2441674527 0 0 0 0 -135861608.06147385 -18231890.817245483 0 -18231890.817245483 -79095526.038864136 0 0 0 0 -5856305.506731987 82906047.356956482 0 82906047.356956482 -53587771.684391975 0 0 0 0 58595097.843440056 -30174005.960140228 0 -30174005.960140228 -15720698.831682205 0 0 0 0 -58434545.139846325 -38109163.337006569 0 -38109163.337006569 30484564.066307068 0 0 0 0 -52860155.974347115 74550181.320804596 0 74550181.320804596 -23038368.396385193 0 0 0 0 568802.86219764734 -150219.86073049484 0 -150219.86073049484 -267366.76363169402 0 0 0 0 -9169225.2741758823 -28079591.688746452 0 -28079591.688746452 29230145.682518005 0 0 0 0 3058626.118302953 -1089736.3915925398 0 -1089736.3915925398 -10792578.913512932 0 0 0 0 3625335.8596622944 1559531.63717556 0 1559531.63717556 -12977276.070463657 0 0 0 0 5207285.2598702908 -4965946.6864538193 0 -4965946.6864538193 -11260460.402674437 0 0 0 0 2747957.1968423799 -1909627.1105199899 0 -1909627.1105199899 -10678592.362805652 0 0 0 0 2932174.6562591791 1626883.3561164141 0 1626883.3561164141 -11855547.188562393 0 0 0 0 428331.61879062653 -1088738.4248886108 0 -1088738.4248886108 -14749945.188666344 0 0 0 0 2364578.6663178783 -3477870.7564609498 0 -3477870.7564609498 -7276366.7618402168 0 0 0 0 47412.943197131157 4966443.6048333943 0 4966443.6048333943 -18978703.360111237 0 0 0 0 -6959742.9642562866 7001673.4289588928 0 7001673.4289588928 -23483613.690470695 0 0 0 0 165273018.59044743 43756750.207056999 0 43756750.207056999 -60285139.567021906 0 0 0 0 60693248.706221581 63546200.935332298 0 63546200.935332298 15822581.898065567 0 0 0 0 71447458.683814049 13640301.77443409 0 13640301.77443409 -54130516.264671326 0 0 0 0 84095608.798761368 20056583.733525276 0 20056583.733525276 -61482341.782308161 0 0 0 0 57064218.477248192 -24071906.323335528 0 -24071906.323335528 -42547249.519758701 0 0 0 0 21061292.936074138 11326791.453917503 0 11326791.453917503 -52854868.674695969 0 0 0 0 3103972.871666905 -3084557.8883757885 0 -3084557.8883757885 -7356549.218557151 0 0 0 0 866741.10306787491 5791051.5711402893 0 5791051.5711402893 -19855394.736598015 0 0 0 0 28827313.224679768 21692480.768023849 0 21692480.768023849 -55777651.933127403 0 0 0 0 16474661.140367091 9979441.8387628794 0 9979441.8387628794 -52232032.464915276 0 0 0 0 22972740.138590813 25919120.798382282 0 25919120.798382282 -22529091.058959007 0 0 0 0 19506757.513646126 13532986.331103325 0 13532986.331103325 -25320010.651314497 0 0 0 0 -9111358.5089886189 18416416.338181496 0 18416416.338181496 -41122969.143493176 0 0 0 0 -98075.139333024621 -919058.23068463802 0 -919058.23068463802 -14372648.995544434 0 0 0 0 5314390.7765153795 -4391941.1538612843 0 -4391941.1538612843 -12165049.857133865 0 0 0 0 -610924.56737369299 1237410.2308101654 0 1237410.2308101654 -11181984.279575348 0 0 0 0 2595657.9317830801 3857434.0796718597 0 3857434.0796718597 -17847765.008706093 0 0 0 0 3404826.9229420284 -2122552.4803770883 0 -2122552.4803770883 -8257168.0810271315 0 0 0 0 -5100351.4368682653 10056215.001881808 0 10056215.001881808 -30805942.561263084 0 0 0 0 -708479.46908354759 6300066.104924202 0 6300066.104924202 -11980833.683410645 0 0 0 0 4251573.0123925209 5179453.9673423767 0 5179453.9673423767 -21481595.618359089 0 0 0 0 4425263.0042037964 7502131.7520589828 0 7502131.7520589828 -16146330.897371292 0 0 0 0 37892.580816156464 2333636.2267445484 0 2333636.2267445484 -1933260.1646674625 0 0 0 0 2839385.6122260094 17529913.126943588 0 17529913.126943588 -16451321.604484558 0 0 0 0 18809645.592489243 13744506.275807381 0 13744506.275807381 -26810325.245109081 0 0 0 0 1995785.7636034808 1822924.7565939538 0 1822924.7565939538 -888129.61212772084 0 0 0 0 3636358.097255758 -3871049.5628023148 0 -3871049.5628023148 -15979303.37342453 0 0 0 0 9420474.8243130445 -7629630.5758895874 0 -7629630.5758895874 -13598339.390975952 0 0 0 0 -306833.1828007102 -7129819.281457901 0 -7129819.281457901 -7184953.3878231049 0 0 0 0 -8933586.3069544435 45556054.141982317 0 45556054.141982317 -13365981.452512741 0 0 0 0 -2226844.1569479108 -3404283.5415878296 0 -3404283.5415878296 -10405173.9575634 0 0 0 0 1214705.06561479 -503614.13320623757 0 -503614.13320623757 -6547182.9495985126 0 0 0 0 3358458.5827606916 53452263.657110691 0 53452263.657110691 -18963240.294174194 0 0 0 0 27199248.426336288 46866115.715381622 0 46866115.715381622 -29261523.352258682 0 0 0 0 56302448.573709488 -84087073.921440125 0 -84087073.921440125 -63889912.352340698 0 0 0 0 37945288.306730866 52583900.636687875 0 52583900.636687875 -26993939.305145264 0 0 0 0 101759223.75745201 32474992.288778305 0 32474992.288778305 -25923616.785419464 0 0 0 0 18027.635869762395 -41657.965296571143 0 -41657.965296571143 -118855.48206207145 0 0 0 0 -36622405.795992851 12791124.491257668 0 12791124.491257668 6374209.6560707092 0 0 0 0 756399.08883466059 1091087.4803368305 0 1091087.4803368305 -785403.43396793492 0 0 0 0 258309184.71798992 -50045432.580156326 0 -50045432.580156326 482300.87040376663 0 0 0 0 302961075.33079195 62451388.144073486 0 62451388.144073486 -48259624.80380249 0 0 0 0 -52427284.265702844 63765168.649513245 0 63765168.649513245 -21657040.519462585 0 0 0 0 4806902.3625622988 -8832983.4917564392 0 -8832983.4917564392 42134544.590007782 0 0 0 0 22404989.172392488 1097745.527141571 0 1097745.527141571 -113914424.72396088 0 0 0 0 -40771034.231992841 92439233.468387604 0 92439233.468387604 -84535302.670852661 0 0 0 0 -348766.28623257612 46140.565394723788 0 46140.565394723788 -237834.15572576225 0 0 0 0 -15981300.430763066 -50821296.315483093 0 -50821296.315483093 15192037.992116928 0 0 0 0 5039890.1554145515 28529661.555326939 0 28529661.555326939 -13028535.280914307 0 0 0 0 -80829461.13566649 9043947.2519702911 0 9043947.2519702911 3925682.6254119873 0 0 0 0 -22109361.027777135 1376888.3128509521 0 1376888.3128509521 -1442710.9613456726 0 0 0 0 -29620117.769331902 25744769.858915806 0 25744769.858915806 -6645470.275604248 0 0 0 0 323490.67888379097 16943914.604919434 0 16943914.604919434 -12214587.716766357 0 0 0 0 5823215.3475017548 11829022.726869583 0 11829022.726869583 -11374525.893692017 0 0 0 0 52307460.578093052 -13374733.43390274 0 -13374733.43390274 -10695990.541592598 0 0 0 0 2186260.7053426751 -2880094.5326568326 0 -2880094.5326568326 -3822851.0247183889 0 0 0 0 1660366.3767735858 -351173.07065367326 0 -351173.07065367326 -6160368.866969524 0 0 0 0 3218863.6460126811 -333805.64807971613 0 -333805.64807971613 -10776386.507557811 0 0 0 0 8401362.2373834848 -6073574.9519386292 0 -6073574.9519386292 -937813.26761627197 0 0 0 0 3645411.3385202885 -2470701.8624134064 0 -2470701.8624134064 -9746950.4086380005 0 0 0 0 754119.97328019142 2361434.6090488434 0 2361434.6090488434 -10749795.659340382 0 0 0 0 29383912.746489048 40245657.542007446 0 40245657.542007446 -22008073.878883362 0 0 0 0 2617957.9856322771 -1569940.7207439141 0 -1569940.7207439141 -4400974.1522241347 0 0 0 0 4047252.9565882683 -3956412.1894035339 0 -3956412.1894035339 2893763.4092941284 0 0 0 0 432931.63090082456 2036656.8050763533 0 2036656.8050763533 -8873481.787393555 0 0 0 0 5921794.1171481013 -4122784.5753421783 0 -4122784.5753421783 -3661616.284450531 0 0 0 0 231503.42239022255 1972077.7557830811 0 1972077.7557830811 -9264714.8565979004 0 0 0 0 3396947.8664207458 28646199.359321594 0 28646199.359321594 -56261135.497976303 0 0 0 0 5423480.69599606 -168821.88996487297 0 -168821.88996487297 -10471382.828437557 0 0 0 0 174140.51623897348 886410.26704112627 0 886410.26704112627 -2169310.5385080194 0 0 0 0 -4218832.3697854877 17604899.364449888 0 17604899.364449888 -40731459.939189911 0 0 0 0 -17070128.21937561 15713971.3235569 0 15713971.3235569 -35033463.90970993 0 0 0 0 -9494321.8561286926 6176074.2452630997 0 6176074.2452630997 -28205996.320987701 0 0 0 0 -2246367.35600548 3984089.4998455318 0 3984089.4998455318 -4347618.8129193848 0 0 0 0 -7075037.1595840454 9710899.783908844 0 9710899.783908844 -28472823.150515556 0 0 0 0 -1863538.5019125938 5679336.8810501099 0 5679336.8810501099 -11495680.716937542 0 0 0 0 836527.74892222881 2688749.0939102173 0 2688749.0939102173 -6516852.9490213394 0 0 0 0 697826.07299508899 2804188.8818264971 0 2804188.8818264971 -6361932.6229635887 0 0 0 0 46203.902741551399 -806925.14733123779 0 -806925.14733123779 -9917342.6998176575 0 0 0 0 -668017.6005337243 2737055.2658626009 0 2737055.2658626009 -6825369.7688219259 0 0 0 0 451547.08979034424 1485493.2576370239 0 1485493.2576370239 -2966193.2976474762 0 0 0 0 1121035.7113190957 997085.44988889247 0 997085.44988889247 -5587514.7387323175 0 0 0 0 4405050.1719360529 1290483.3621645402 0 1290483.3621645402 -9146209.9023529887 0 0 0 0 1330242.2411072254 4261341.2362384796 0 4261341.2362384796 -11268479.728507996 0 0 0 0 40300.294640516455 -57390.037098694593 0 -57390.037098694593 -985986.59539038921 0 0 0 0 1466466.3163805008 2820896.4192504883 0 2820896.4192504883 -12683387.384040833 0 0 0 0 175412.27363014221 4220299.5250892639 0 4220299.5250892639 -10851373.783167839 0 0 0 0 82632668.650761485 -115117210.08291626 0 -115117210.08291626 -28707571.385322571 0 0 0 0 94987238.405783549 25496144.877981067 0 25496144.877981067 -90345658.966239929 0 0 0 0 999335.29255771998 -1402385.7272278871 0 -1402385.7272278871 -4563123.9935999177 0 0 0 0 -113144256.59976318 7415605.2290859222 0 7415605.2290859222 -30480746.420818329 0 0 0 0 -12857800.703701913 -28816431.641998291 0 -28816431.641998291 -51562668.306381226 0 0 0 0 40282612.61088413 24485998.381640434 0 24485998.381640434 -94331552.782554626 0 0 0 0 -179761.30673454457 56960.725360335782 0 56960.725360335782 -194599.63785881177 0 0 0 0 -82575218.785536468 -74915840.285856247 0 -74915840.285856247 136123589.33356857 0 0 0 0 1168672.3050046212 577568.94228797965 0 577568.94228797965 -10646123.278948389 0 0 0 0 453061.3689699173 1847653.3281555176 0 1847653.3281555176 -13617701.859146118 0 0 0 0 114772.57825201482 819674.9244993804 0 819674.9244993804 -8775317.1347612776 0 0 0 0 4785965.1662754118 -208710.11214447021 0 -208710.11214447021 -15726807.574464798 0 0 0 0 -904216.26026311517 -5071178.2778587341 0 -5071178.2778587341 -12614208.905612946 0 0 0 0 3849386.2788829654 -4381558.7918663025 0 -4381558.7918663025 -20968410.270324707 0 0 0 0 -6612375.2217142582 4221248.9534568787 0 4221248.9534568787 -2628241.4737548828 0 0 0 0 -3648402.9476758242 103584641.30703735 0 103584641.30703735 414698.98970794678 0 0 0 0 -29029211.545297384 -114602778.15542603 0 -114602778.15542603 6225874.7147836685 0 0 0 0 -129414407.65926221 -70811376.295572281 0 -70811376.295572281 34441281.156723022 0 0 0 0 -24400.8058046273 -96361.511224485585 0 -96361.511224485585 -136393.11748020351 0 0 0 0 6881104.601870954 5052498.0278263092 0 5052498.0278263092 -9139020.4789886475 0 0 0 0 10979055.318661928 -17857974.928405762 0 -17857974.928405762 -35814234.74401474 0 0 0 0 -41700923.377720118 -7149339.6030349731 0 -7149339.6030349731 -24710889.157440186 0 0 0 0 85346077.635910362 -52609892.812300682 0 -52609892.812300682 -43950946.13381958 0 0 0 0 -830670.58894828497 1860955.3702113796 0 1860955.3702113796 -7165828.1762284189 0 0 0 0 18069827.982915401 4566260.9120292664 0 4566260.9120292664 18488926.112487793 0 0 0 0 72218926.181115821 18728246.799289465 0 18728246.799289465 -28243692.728225708 0 0 0 0 2524618.9393088222 10793667.962913513 0 10793667.962913513 -10717302.715835571 0 0 0 0 23279208.13356328 9457883.7161140442 0 9457883.7161140442 -5296509.6953811646 0 0 0 0 9151270.8850396872 -14159472.069486618 0 -14159472.069486618 -9623803.4820861816 0 0 0 0 4049911.6154808998 -3567184.5813140869 0 -3567184.5813140869 -8724082.0467252731 0 0 0 0 17985794.244210601 507687.09758758545 0 507687.09758758545 -9906274.7382354736 0 0 0 0 1897251.8846006393 1196850.0678405762 0 1196850.0678405762 -6477442.4501571655 0 0 0 0 163851.43961903994 222207.84409403801 0 222207.84409403801 -926029.00415247027 0 0 0 0 -1859975.9949717522 -7227878.9199066162 0 -7227878.9199066162 303337.91449737549 0 0 0 0 -18587.614126871667 -526236.29223682953 0 -526236.29223682953 -489807.13802767918 0 0 0 0 -23444.652690151706 -344481.31975367852 0 -344481.31975367852 -1045854.5475739017 0 0 0 0 -27319252.120757908 -22783386.39026022 0 -22783386.39026022 -4496707.9179382324 0 0 0 0 -6121401.616147995 -8830236.6466217041 0 -8830236.6466217041 -6426027.019449234 0 0 0 0 -1605.0097113847733 -352128.70877075195 0 -352128.70877075195 -3101653.4735488892 0 0 0 0 -135801.41222296236 919224.13554699533 0 919224.13554699533 -2557724.2519358201 0 0 0 0 -1469133.0770259276 1209294.39702034 0 1209294.39702034 -8493277.4716873169 0 0 0 0 262927.04154229164 106204.80051422119 0 106204.80051422119 -2959210.3067932129 0 0 0 0 261079.39189761877 -50648.401691436768 0 -50648.401691436768 -3091235.0708007812 0 0 0 0 1313347.0040161163 2071351.4672164917 0 2071351.4672164917 -10132363.414442062 0 0 0 0 -140631.14990323823 1158288.4856010955 0 1158288.4856010955 -3457346.5298865717 0 0 0 0 -68441.558811197698 195395.92255155556 0 195395.92255155556 -2050219.3550041541 0 0 0 0 86637.576419234276 -101660.85101318359 0 -101660.85101318359 -2923304.7284851074 0 0 0 0 1509704.7327344716 1835979.024887085 0 1835979.024887085 7401955.3776092529 0 0 0 0 491226.91568859864 1069708.0778366793 0 1069708.0778366793 -8930666.7717899531 0 0 0 0 1041799.183910604 1135180.503974501 0 1135180.503974501 -3078730.0289856642 0 0 0 0 4710829.0386281535 2978930.7027168274 0 2978930.7027168274 -7173876.5246887207 0 0 0 0 1864729.7749031447 1541874.1676712036 0 1541874.1676712036 -5236830.2411346436 0 0 0 0 2032005.5304650664 7719923.4658126831 0 7719923.4658126831 -15089326.642631531 0 0 0 0 -2296821.422437638 4571405.9103126526 0 4571405.9103126526 -3317434.666967392 0 0 0 0 320438.7726444751 3099312.4192695618 0 3099312.4192695618 -9405623.1746444702 0 0 0 0 162601.78314918181 320428.28492354229 0 320428.28492354229 -769469.71987389028 0 0 0 0 -2776062.4407370612 -2618072.134967804 0 -2618072.134967804 -6840193.3008747101 0 0 0 0 -1969320.6826742655 -5610933.2019143105 0 -5610933.2019143105 -19139847.998657227 0 0 0 0 1093901.2349835336 185420.62643432617 0 185420.62643432617 -33018192.837769508 0 0 0 0 -8115061.479667753 8260127.692073822 0 8260127.692073822 -20785350.156745911 0 0 0 0 -3080520.7887260914 11983172.462200165 0 11983172.462200165 -30596475.428871155 0 0 0 0 2616493.2743090913 1802446.2564754486 0 1802446.2564754486 -32359491.118305206 0 0 0 0 -2813760.7952620238 -2585720.5673589706 0 -2585720.5673589706 -23847367.637405396 0 0 0 0 -2017497.1290867142 -4511907.6188373566 0 -4511907.6188373566 1160868.4905700684 0 0 0 0 -7287.6165431089175 -23384.020572880283 0 -23384.020572880283 -21934.108757551759 0 0 0 0 -437339.99724656343 2825953.8575439453 0 2825953.8575439453 -5094488.644115448 0 0 0 0 -13445.888836284234 -44806.769949458539 0 -44806.769949458539 -43091.129125433043 0 0 0 0 -1800451.870099321 -5338041.0588035583 0 -5338041.0588035583 -9899738.631778717 0 0 0 0 -1140969.1661824957 1014132.367351532 0 1014132.367351532 -15256391.390985489 0 0 0 0 826054.43586366996 4831188.4242687225 0 4831188.4242687225 -19793023.697288513 0 0 0 0 -1604324.495537516 634975.22463417053 0 634975.22463417053 -7630220.465511322 0 0 0 0 2389194.5607071314 -1450705.8237361908 0 -1450705.8237361908 -24834822.866622925 0 0 0 0 3332469.5660351738 147257.09466743469 0 147257.09466743469 -22978340.357749939 0 0 0 0 4262880.6950886101 -339233.83280944824 0 -339233.83280944824 -23027430.600059509 0 0 0 0 4331042.3032630458 -14846.900810241699 0 -14846.900810241699 -31853851.192237854 0 0 0 0 1087412.9168023225 2171144.2774734497 0 2171144.2774734497 -17413970.776848793 0 0 0 0 -1236054.4280368888 4171494.239739418 0 4171494.239739418 -6239918.2437896729 0 0 0 0 668814.70829074224 88794.771663665771 0 88794.771663665771 -16471433.689047694 0 0 0 0 -1119981.877164253 922870.79029273987 0 922870.79029273987 -16425924.071121216 0 0 0 0 -3178351.6326807407 -3518416.8948249817 0 -3518416.8948249817 -24765565.109390259 0 0 0 0 -6757945.0732719768 423005.37063980103 0 423005.37063980103 -21382706.503978729 0 0 0 0 -2695356.335422649 4902369.527671814 0 4902369.527671814 -17660998.981396675 0 0 0 0 6876.044062056887 2880686.4908686331 0 2880686.4908686331 -26913225.718429565 0 0 0 0 -652946.26540157199 -9257101.6207466125 0 -9257101.6207466125 -18630696.85061264 0 0 0 0 43063.423854372151 71587.237838404253 0 71587.237838404253 -262469.04513268173 0 0 0 0 81831.395378010347 -4284813.7870025635 0 -4284813.7870025635 -2301666.9834671021 0 0 0 0 -631336.20549260266 -846174.8537940979 0 -846174.8537940979 -39169602.584594727 0 0 0 0 -2183805.1126589179 2624849.0687103271 0 2624849.0687103271 -23825830.477369308 0 0 0 0 -8916758.4843580369 4762415.2477264404 0 4762415.2477264404 -16821172.111694336 0 0 0 0 -9710423.6257943269 17951782.43057251 0 17951782.43057251 -37322977.973954678 0 0 0 0 2226949.4809696563 2456219.9041531086 0 2456219.9041531086 -3768725.863571167 0 0 0 0 2397329.4274107986 914061.11345767975 0 914061.11345767975 -4922099.2209777832 0 0 0 0 1914293.4691826925 1013586.2860412598 0 1013586.2860412598 -4478925.9729232788 0 0 0 0 -1115819.8418762488 -55236.905565261841 0 -55236.905565261841 -4915534.594909668 0 0 0 0 46033.49046225287 1418686.2873382568 0 1418686.2873382568 -4260979.1528701782 0 0 0 0 1048656.9175289236 1207509.6652832031 0 1207509.6652832031 -4846932.6583991051 0 0 0 0 -4961.9748531568912 2268244.2689037323 0 2268244.2689037323 -5782469.3968353271 0 0 0 0 1668391.8366992464 775296.52223968506 0 775296.52223968506 -12390113.055973053 0 0 0 0 -246046.3700825721 476392.31689453125 0 476392.31689453125 -12681852.11492157 0 0 0 0 164764.5752350837 2193919.5612258911 0 2193919.5612258911 -11191386.704788208 0 0 0 0 3427464.4900082275 1736584.991399765 0 1736584.991399765 -21036501.167480469 0 0 0 0 3208616.8454812188 1202012.9834327698 0 1202012.9834327698 -21434396.288604736 0 0 0 0 3192171.2063190266 1941123.6959152222 0 1941123.6959152222 -23581201.080705643 0 0 0 0 932402.08815553039 -1600463.2577285767 0 -1600463.2577285767 -28657170.520675659 0 0 0 0 1421470.2339742109 8305460.6379928589 0 8305460.6379928589 -25743143.086688995 0 0 0 0 1680592.7614840418 4771241.7910232544 0 4771241.7910232544 -16861864.809890747 0 0 0 0 3502860.4307360351 7665974.7135696411 0 7665974.7135696411 -14647726.051116943 0 0 0 0 380605.79752919637 2601771.1024589539 0 2601771.1024589539 -11216187.98008728 0 0 0 0 -853817.23978818208 9519867.1324996948 0 9519867.1324996948 -2805626.9145355225 0 0 0 0 -4715268.9228215069 4702577.2046203613 0 4702577.2046203613 -10700478.997879028 0 0 0 0 112853.86189704796 30977.255086204037 0 30977.255086204037 -688481.09883430973 0 0 0 0 -2252817.9921977445 1916761.5737533569 0 1916761.5737533569 -1210856.9727993011 0 0 0 0 225474.60196253308 216736.29725718684 0 216736.29725718684 -924686.43254014105 0 0 0 0 4343895.2455025613 11797114.784332275 0 11797114.784332275 -5678984.4130554199 0 0 0 0 6973419.5964120068 2100539.4300918579 0 2100539.4300918579 -19890917.008178711 0 0 0 0 5402608.459321212 14166433.053596497 0 14166433.053596497 -11732293.018421173 0 0 0 0 954828.52825708687 -17808.549430847168 0 -17808.549430847168 -5417950.9296264648 0 0 0 0 467428.74152097106 -184137.43032073975 0 -184137.43032073975 -3767115.1875915527 0 0 0 0 16667.394727339248 -4428.2344491612166 0 -4428.2344491612166 -151526.8355499208 0 0 0 0 -76995.691996140362 50464.076264318079 0 50464.076264318079 123099.04810078815 0 0 0 0 713128.39590637386 -4893112.1503219604 0 -4893112.1503219604 -9953912.5418548584 0 0 0 0 -19673492.154513478 -2748566.4981689453 0 -2748566.4981689453 -4421826.2435302734 0 0 0 0 -2181689.3329520822 3470656.6498184204 0 3470656.6498184204 125300.43921661377 0 0 0 0 14775619.399962947 3754606.9250183105 0 3754606.9250183105 -4864234.8765459061 0 0 0 0 486509.71299209329 -769925.1733631026 0 -769925.1733631026 -717974.30087136477 0 0 0 0 -118931.14468329427 808781.70968754403 0 808781.70968754403 -1440093.0637601148 0 0 0 0 91272.65248914063 151870.82690429688 0 151870.82690429688 -1142908.3547973633 0 0 0 0 592247.95496244438 -749069.02891666815 0 -749069.02891666815 -3602821.3691362254 0 0 0 0 -726003.49494154751 3748266.7116928101 0 3748266.7116928101 -6285633.8080596924 0 0 0 0 -289940.26676797867 2174403.3926086426 0 2174403.3926086426 -11051360.575408936 0 0 0 0 -211726.08684991114 874509.68862127885 0 874509.68862127885 -3366128.2998524979 0 0 0 0 1015049.6425470412 1484531.8213500977 0 1484531.8213500977 -8576381.3069763184 0 0 0 0 -466594.54237807915 4543433.9443569183 0 4543433.9443569183 -9655658.8202362061 0 0 0 0 302501.06540763716 -383510.8983928524 0 -383510.8983928524 -2921116.5328427907 0 0 0 0 970733.43938845396 -2240666.1643180847 0 -2240666.1643180847 2849025.1775360107 0 0 0 0 -508510.31520123035 3124835.5255279541 0 3124835.5255279541 -17692465.129066467 0 0 0 0 659207.19645982236 -3298411.2774333954 0 -3298411.2774333954 744036.17942810059 0 0 0 0 -361812.7496266067 1706444.1224861145 0 1706444.1224861145 -6627623.8935394287 0 0 0 0 -343648.36672634666 -512016.63727616146 0 -512016.63727616146 500486.57886053622 0 0 0 0 146327.8895871577 -30144.716739550233 0 -30144.716739550233 -2406289.6021826388 0 0 0 0 609516.69249338657 -1092049.930557251 0 -1092049.930557251 -2473166.9376068115 0 0 0 0 14469267.569717504 -13438633.318534851 0 -13438633.318534851 -17567669.344336987 0 0 0 0 2080057.6267467532 -9043653.5013599396 0 -9043653.5013599396 -18087042.164264679 0 0 0 0 8762927.2628804892 -1118715.6431846619 0 -1118715.6431846619 -23567286.577251434 0 0 0 0 2274132.3116864339 1487354.4307250977 0 1487354.4307250977 -19625974.232364655 0 0 0 0 5310199.1397684813 -74451.414276123047 0 -74451.414276123047 -18866872.18107605 0 0 0 0 17477768.132477582 -3654375.2505493164 0 -3654375.2505493164 -30188766.132415771 0 0 0 0 -9673235.7561212853 14216144.279701233 0 14216144.279701233 -30464839.628112793 0 0 0 0 -12783.294203847025 -112321.24387264811 0 -112321.24387264811 -688213.70485452749 0 0 0 0 -1507893.4499520781 648465.13645935059 0 648465.13645935059 263057.67994689941 0 0 0 0 314168.9582367228 -795903.32492446899 0 -795903.32492446899 -2346092.877117157 0 0 0 0 8211.8755303924154 -103897.05474687554 0 -103897.05474687554 -893208.0152176423 0 0 0 0 596993.784324117 1419405.7787246704 0 1419405.7787246704 -3915223.3144950867 0 0 0 0 -5249790.7538216598 -9792954.254691124 0 -9792954.254691124 -15162999.605995178 0 0 0 0 314168.95823655039 -53617.136974334717 0 -53617.136974334717 -1806334.3032741547 0 0 0 0 81941.730645107731 -270939.94624998048 0 -270939.94624998048 -523792.33393625543 0 0 0 0 -2394.6435127129112 217746.13663864136 0 217746.13663864136 -602036.04538726807 0 0 0 0 1526.8409754223105 219324.3550453186 0 219324.3550453186 -603008.21856689453 0 0 0 0 -79701.525036475345 -145266.80118805543 0 -145266.80118805543 -188803.61935014278 0 0 0 0 -16316418.462417588 -23140478.595306396 0 -23140478.595306396 -28406135.516014099 0 0 0 0 -14494317.26407353 -14835894.351595402 0 -14835894.351595402 -8479935.4317092896 0 0 0 0 2298899.5297927298 569920.3837890625 0 569920.3837890625 -21127135.608886719 0 0 0 0 -5500288.1348239761 -10490423.556531906 0 -10490423.556531906 -34726137.693763733 0 0 0 0 -44398.002188051469 -9847888.3302978091 0 -9847888.3302978091 -42116516.375137329 0 0 0 0 -8055908.4247092642 -8131240.5297470093 0 -8131240.5297470093 -31819176.020290375 0 0 0 0 40441.195525254472 -34179.732193602249 0 -34179.732193602249 -748081.76818117977 0 0 0 0 10648289.589939207 -13929101.275161743 0 -13929101.275161743 -8015631.7452301979 0 0 0 0 7215470.2010009699 -5791615.6587371826 0 -5791615.6587371826 -16668102.658340454 0 0 0 0 16401211.606190693 -13411299.049413681 0 -13411299.049413681 -22315008.236709595 0 0 0 0 10328154.69600068 4019640.3287124634 0 4019640.3287124634 -30155205.100597382 0 0 0 0 14593449.974250302 -6146217.9414520264 0 -6146217.9414520264 -12789305.969779968 0 0 0 0 1137674.528048858 -5654393.1256637573 0 -5654393.1256637573 -12543951.835624695 0 0 0 0 -226782.05448358724 -366043.98557044379 0 -366043.98557044379 -1349531.3459923305 0 0 0 0 5541485.564031966 4788102.2062339783 0 4788102.2062339783 -3453262.2538146973 0 0 0 0 747269.39733761549 -6338530.840171814 0 -6338530.840171814 -8823062.1821174622 0 0 0 0 -46542678.25475201 -33955904.05569458 0 -33955904.05569458 7110988.6449103355 0 0 0 0 8386560.689798288 16424779.524763107 0 16424779.524763107 -48996410.19393158 0 0 0 0 6489883.2966831028 -2934302.6853065491 0 -2934302.6853065491 -22756109.29863739 0 0 0 0 152379.52792572445 -210746.88616624475 0 -210746.88616624475 -2549000.6089617214 0 0 0 0 73753.470104336739 -1804869.7304229736 0 -1804869.7304229736 -22013516.05721283 0 0 0 0 -2922275.9606577456 -689415.23805236816 0 -689415.23805236816 -12435434.252685547 0 0 0 0 -223921.27879548402 -1895705.1950634848 0 -1895705.1950634848 -2171586.7364820838 0 0 0 0 310203.45876728109 -724286.44668276422 0 -724286.44668276422 -3693833.3770982474 0 0 0 0 12058127.645514488 17808801.630661011 0 17808801.630661011 -1230674.5586166382 0 0 0 0 58552.108637236059 -1192937.8481287956 0 -1192937.8481287956 -12500405.250366211 0 0 0 0 517784.89628860453 1448453.1024415828 0 1448453.1024415828 -4312377.7599757947 0 0 0 0 1492783.0078888526 628797.07710897923 0 628797.07710897923 -13759419.161170959 0 0 0 0 1779871.4364870191 -4987059.4020690918 0 -4987059.4020690918 -22672479.837306976 0 0 0 0 68877.442880366303 41750.0676519759 0 41750.0676519759 -526581.00237949565 0 0 0 0 -7937989.6039476246 -10094301.828819275 0 -10094301.828819275 -18794971.998062134 0 0 0 0 -4134524.1398116052 -9343840.4747161865 0 -9343840.4747161865 -18916571.887539864 0 0 0 0 -641033.80483797193 -13546378.024284363 0 -13546378.024284363 -33893348.111739635 0 0 0 0 -1204907.9637136161 -9892055.7922134399 0 -9892055.7922134399 -23099240.429718018 0 0 0 0 4194413.7318566442 -13595878.820350647 0 -13595878.820350647 -22733920.902665138 0 0 0 0 2301284.6708990335 -14964111.358352661 0 -14964111.358352661 -29031164.045574188 0 0 0 0 116640.22419214249 -13021973.309776306 0 -13021973.309776306 -18228535.533218384 0 0 0 0 -278610.26972467452 -11620057.216274261 0 -11620057.216274261 -10293400.615783691 0 0 0 0 2987210.835636735 -10454477.577014923 0 -10454477.577014923 -22148016.592582703 0 0 0 0 2993999.2156900764 -10715689.167919159 0 -10715689.167919159 -25557755.006092072 0 0 0 0 544840.00624963641 -7347233.7912826538 0 -7347233.7912826538 -17251870.717247009 0 0 0 0 374415.69744312763 -6623650.6602783203 0 -6623650.6602783203 -14986392.787918091 0 0 0 0 198359.13489551569 -1431004.4342623483 0 -1431004.4342623483 -4974884.7232240718 0 0 0 0 -2445899.0833096802 -6514569.2774467468 0 -6514569.2774467468 -1679798.6786193848 0 0 0 0 327144.22148289549 -664033.76314280718 0 -664033.76314280718 -1683641.8641615063 0 0 0 0 1150378.4161856174 -684701.25314331055 0 -684701.25314331055 -1372276.7490682602 0 0 0 0 1059289.3031876087 -876242.13021850586 0 -876242.13021850586 -1421123.614074707 0 0 0 0 655113.53015122912 -1132089.9726727223 0 -1132089.9726727223 -2176808.3169880696 0 0 0 0 920755.34884977341 336226.98630523682 0 336226.98630523682 -3013584.4456558228 0 0 0 0 -1710561.5855236053 -2072606.037322998 0 -2072606.037322998 -4777733.8678035736 0 0 0 0 96950.431682348251 366297.52604675293 0 366297.52604675293 -5082344.9324569702 0 0 0 0 -3680588.9013611972 -11705356.000705719 0 -11705356.000705719 -11736577.157180786 0 0 0 0 -3733839.4867163897 -10082131.80696106 0 -10082131.80696106 -10494801.006311417 0 0 0 0 5205465.454169631 -3009617.0809898376 0 -3009617.0809898376 -9787545.2947540283 0 0 0 0 514265.21089774335 -677489.24675543513 0 -677489.24675543513 -776462.89341297001 0 0 0 0 958013.74488975108 -5337375.219316721 0 -5337375.219316721 -11721115.028808594 0 0 0 0 825316.3763713357 -487715.79467314482 0 -487715.79467314482 -4464536.113861084 0 0 0 0 855264.57162815332 -785920.07022857666 0 -785920.07022857666 -2979028.8043780327 0 0 0 0 496405.24905040039 -930108.28442322463 0 -930108.28442322463 -3995634.8953941539 0 0 0 0 -127672.49041342581 -1505601.3030459508 0 -1505601.3030459508 -4582511.8808354288 0 0 0 0 20332.721038168616 -36108.289355976507 0 -36108.289355976507 -39485.855575472116 0 0 0 0 7604730.7342791259 -882292.25291442871 0 -882292.25291442871 -17439167.900146484 0 0 0 0 5445167.7366296649 -1748677.0972900391 0 -1748677.0972900391 -10993837.597442627 0 0 0 0 1346928.877705574 -343584.54555511475 0 -343584.54555511475 -2658531.5027999878 0 0 0 0 1718411.2928452925 337412.21478939895 0 337412.21478939895 -5732788.6275722645 0 0 0 0 685440.7661781332 -378070.49124351703 0 -378070.49124351703 -3373457.9322520681 0 0 0 0 -102332.71588294208 692832.45619773865 0 692832.45619773865 -5064567.1771697998 0 0 0 0 545044.63524775789 -2123484.0784059148 0 -2123484.0784059148 -3527273.7945753932 0 0 0 0 -238203.17339542738 -1444523.0053021256 0 -1444523.0053021256 -4962782.7348028645 0 0 0 0 5620491.5427119732 -6331817.2767562866 0 -6331817.2767562866 -8156331.5021743774 0 0 0 0 8149254.0813085437 -5706856.0562973022 0 -5706856.0562973022 -14126402.428909302 0 0 0 0 -603594.95088929776 972140.86908341944 0 972140.86908341944 -3147396.260205999 0 0 0 0 411140.29983568192 -247362.00257110596 0 -247362.00257110596 -784303.57367706299 0 0 0 0 -149909.99974632263 576270.49243164062 0 576270.49243164062 -1201320.5406494141 0 0 0 0 -21675.381643802626 -592531.45269492269 0 -592531.45269492269 -6421028.2416725401 0 0 0 0 -8842.8450841903687 609136.38165283203 0 609136.38165283203 -2927535.7679901123 0 0 0 0 274161.22875204601 -614909.74999322556 0 -614909.74999322556 -5661892.9167057257 0 0 0 0 2866.8935574293137 516299.35254049301 0 516299.35254049301 -2436807.1118621826 0 0 0 0 219096.48490261612 1178375.2883258369 0 1178375.2883258369 -4038907.7266258132 0 0 0 0 828878.31370449066 18674.301055908203 0 18674.301055908203 -2243589.9809112549 0 0 0 0 709318.5912283659 -525468.6985244751 0 -525468.6985244751 -1931537.4124603271 0 0 0 0 576387.86699104309 -722646.6572265625 0 -722646.6572265625 -4427930.0084686279 0 0 0 0 603952.31758492393 -1746979.7901546871 0 -1746979.7901546871 -1434679.6312046163 0 0 0 0 593719.92119331402 -2031012.8042219598 0 -2031012.8042219598 -2337950.9922977425 0 0 0 0 1516360.0593144894 -1869252.8081932068 0 -1869252.8081932068 -1327756.626953125 0 0 0 0 1412033.8355956078 -616018.50352478027 0 -616018.50352478027 -2470619.2855987549 0 0 0 0 978127.25727386167 -1206124.8932358241 0 -1206124.8932358241 -3122347.4345298484 0 0 0 0 810330.79593727854 -1386792.7525156792 0 -1386792.7525156792 -3457473.5090600606 0 0 0 0 111839.18674181883 679483.56880880147 0 679483.56880880147 -3007401.4829861717 0 0 0 0 195797.12466596073 1010330.702195758 0 1010330.702195758 -4551019.3823138922 0 0 0 0 784498.08359980583 -1141823.5334472656 0 -1141823.5334472656 -1595393.0994110107 0 0 0 0 939696.28120088577 -966420.76313400269 0 -966420.76313400269 -1654606.0663299561 0 0 0 0 1180857.5837001801 -252326.92086029053 0 -252326.92086029053 -1673891.1912918091 0 0 0 0 562570.38968490029 520407.97624220513 0 520407.97624220513 -5673269.2880597264 0 0 0 0 386991.91342554154 -1861063.2148595839 0 -1861063.2148595839 -1244265.658498954 0 0 0 0 624288.53452396393 -289879.34355926514 0 -289879.34355926514 -1606416.7445678711 0 0 0 0 1947166.5076131225 -1912851.9458217621 0 -1912851.9458217621 -1634953.208190918 0 0 0 0 584441.54221838911 -2153834.4111977331 0 -2153834.4111977331 -2416376.4783145897 0 0 0 0 97974.655602442799 494826.31676648743 0 494826.31676648743 -7301970.6164117828 0 0 0 0 -471746.53469387465 66768.643789080903 0 66768.643789080903 -1117389.8488211557 0 0 0 0 1449026.8886038065 -6737688.6919708252 0 -6737688.6919708252 -5871873.0578947067 0 0 0 0 631043.17288360605 -2313028.7379074059 0 -2313028.7379074059 -723086.03867357969 0 0 0 0 522081.43286265514 -1223955.2759176483 0 -1223955.2759176483 -2469649.9344035313 0 0 0 0 -9844549.5554437637 -8791813.4574432373 0 -8791813.4574432373 -921679.72802734375 0 0 0 0 3301313.8221610785 -927783.54888343811 0 -927783.54888343811 -1363975.2327880859 0 0 0 0 541335.61955602455 -915332.29954093904 0 -915332.29954093904 -3260184.6139444746 0 0 0 0 6940796.9171433449 -20236221.777788162 0 -20236221.777788162 -11463079.304028332 0 0 0 0 -18768.517580743326 871432.81148767658 0 871432.81148767658 -1939561.6017471664 0 0 0 0 121450.23678981262 -826453.21380275954 0 -826453.21380275954 -2585190.4252722412 0 0 0 0 354676.03704726696 931963.84299659729 0 931963.84299659729 -3333692.581993103 0 0 0 0 -19938.34739532214 349258.98555922136 0 349258.98555922136 -5191567.0388981737 0 0 0 0 356995.817281425 345930.81634521484 0 345930.81634521484 -3307469.4694366455 0 0 0 0 1512472.8815741539 -329656.70651245117 0 -329656.70651245117 -6775321.030670166 0 0 0 0 219838.56079949441 547154.26939867437 0 547154.26939867437 -3597219.6548963515 0 0 0 0 470760.86222344637 859913.31734418869 0 859913.31734418869 -3129828.4663391113 0 0 0 0 -41139.318690813248 -1024559.9031359274 0 -1024559.9031359274 -3551426.0835442524 0 0 0 0 -20430.942950530851 507870.11465065181 0 507870.11465065181 -3626499.0641279202 0 0 0 0 -2563877.7924622297 4075900.1783065796 0 4075900.1783065796 -7425606.2871170044 0 0 0 0 3036793.5869016349 3706917.9207611084 0 3706917.9207611084 23067730.960891724 0 0 0 0 -3389555.6050115824 -10784900.193824768 0 -10784900.193824768 5804015.7846374512 0 0 0 0 2283.6191082298756 -166816.9939956665 0 -166816.9939956665 -1323071.2040100098 0 0 0 0 32015.545912688176 148808.5845258832 0 148808.5845258832 -2411744.7723504193 0 0 0 0 99332.376747947186 -303577.90619973838 0 -303577.90619973838 -6100242.8251654981 0 0 0 0 3741617.0114434659 -7645402.7207260132 0 -7645402.7207260132 4374799.2670135498 0 0 0 0 48501.229305148125 629306.8677520752 0 629306.8677520752 -6772020.6655769348 0 0 0 0 545736.67849498556 -376567.83708842471 0 -376567.83708842471 -805191.22139396518 0 0 0 0 -11697945.668359384 -19100102.214157104 0 -19100102.214157104 17272067.96321106 0 0 0 0 -12393525.928797841 1731411.8469238281 0 1731411.8469238281 2836070.5262298584 0 0 0 0 -4375068.0740419012 29602130.116862297 0 29602130.116862297 -44275967.280662537 0 0 0 0 -129062.03103290494 -152947.10752673075 0 -152947.10752673075 154024.35412695631 0 0 0 0 6732349.6901213527 7910777.760559082 0 7910777.760559082 4730277.2059061527 0 0 0 0 33420242.691031426 25394994.969587326 0 25394994.969587326 -79562747.942596436 0 0 0 0 -26759444.092504069 -29450254.195472717 0 -29450254.195472717 -4613167.7899017334 0 0 0 0 -1674022.7492097616 -35588895.862449646 0 -35588895.862449646 -41309556.8164711 0 0 0 0 11575666.912853763 -11640255.934625626 0 -11640255.934625626 -11587253.177566528 0 0 0 0 -9086755.2986918688 -17421941.0311203 0 -17421941.0311203 7686376.9774398804 0 0 0 0 -2942807.6352010965 -12481902.157722473 0 -12481902.157722473 -1476014.0595550537 0 0 0 0 -40792338.874176979 -26200929.048203468 0 -26200929.048203468 -59423407.696407318 0 0 0 0 -40578032.436826706 -40193993.668684959 0 -40193993.668684959 -50313514.233804703 0 0 0 0 -55595175.582255363 -18579157.243565798 0 -18579157.243565798 -38984094.577283859 0 0 0 0 -62064183.689249039 -10392771.080251694 0 -10392771.080251694 -58672422.623642921 0 0 0 0 -30551608.129787445 -3219463.1192188263 0 -3219463.1192188263 -57482854.489770889 0 0 0 0 -48936042.962340832 -3678817.6811914444 0 -3678817.6811914444 -39014679.442459106 0 0 0 0 -48776719.683508635 25283414.333064318 0 25283414.333064318 -75538755.27557373 0 0 0 0 -82935481.290998459 6693309.746055603 0 6693309.746055603 -68423127.472897053 0 0 0 0 -100929980.00542641 21729494.048874855 0 21729494.048874855 -98221471.717166424 0 0 0 0 -64419449.124874592 7968797.0981144905 0 7968797.0981144905 -94897659.59127903 0 0 0 0 -90576472.085054398 -15037268.234390259 0 -15037268.234390259 -93139057.325160742 0 0 0 0 -69333222.443311095 -33030180.803192973 0 -33030180.803192973 -59540443.478808403 0 0 0 0 -59093542.502742767 -6420655.749437809 0 -6420655.749437809 -91500546.215093613 0 0 0 0 -54577369.788354397 -9760938.4492530823 0 -9760938.4492530823 -87848541.929715157 0 0 0 0 -68995804.756946564 -43929332.631231308 0 -43929332.631231308 -49997732.27939415 0 0 0 0 -32151133.323629379 -37264604.643177986 0 -37264604.643177986 -54475508.723822594 0 0 0 0 17326565.467336655 -46629505.675401688 0 -46629505.675401688 -55140946.680253029 0 0 0 0 1393198.9763846397 -59754787.85367775 0 -59754787.85367775 -34347651.78143692 0 0 0 0 -36625226.950228333 -56952167.447559834 0 -56952167.447559834 -22671030.621831894 0 0 0 0 -31621420.457681179 -59655091.797719955 0 -59655091.797719955 -23518002.975227356 0 0 0 0 6645111.8857550621 -82631218.247239113 0 -82631218.247239113 -37100902.052879333 0 0 0 0 7160740.706631422 -91243302.987264872 0 -91243302.987264872 -77514087.916793823 0 0 0 0 -12787639.139649868 -53357647.511741638 0 -53357647.511741638 -44006651.703741431 0 0 0 0 -53394787.059372663 -42641145.156542063 0 -42641145.156542063 -45341284.897266388 0 0 0 0 -28983358.215885639 -62942296.502015114 0 -62942296.502015114 -42318836.413733006 0 0 0 0 -30697851.966227055 -29324195.44756484 0 -29324195.44756484 -38526044.460859299 0 0 0 0 -17188092.675824881 -61207773.77593255 0 -61207773.77593255 -56302192.768415451 0 0 0 0 15524654.946771622 -51177718.368914604 0 -51177718.368914604 -53613603.548267841 0 0 0 0 18500948.144816697 -66653862.645597577 0 -66653862.645597577 -80167067.580760956 0 0 0 0 21509353.621419668 2474833.2073874474 0 2474833.2073874474 -20481145.622823715 0 0 0 0 -7006348.0928843021 -16877250.944105744 0 -16877250.944105744 -9295079.5802602768 0 0 0 0 912228.62580966949 -35162545.109069347 0 -35162545.109069347 -63564005.105595112 0 0 0 0 -24966450.026687145 -4859658.5459210873 0 -4859658.5459210873 4168555.4655246735 0 0 0 0 -3503243.2795462608 -23122627.767969131 0 -23122627.767969131 -27971175.800413132 0 0 0 0 -35811482.413174629 -34887249.269906044 0 -34887249.269906044 -31077524.885519743 0 0 0 0 -14104608.878949165 -17251275.842241764 0 -17251275.842241764 -39306562.809165955 0 0 0 0 -14758097.649374485 -1168821.3647174835 0 -1168821.3647174835 -38845494.373910904 0 0 0 0 -10701039.004310608 -14468419.06374836 0 -14468419.06374836 -18386407.868444204 0 0 0 0 -33434765.490540504 -8547029.4523730278 0 -8547029.4523730278 -19613195.523588181 0 0 0 0 -29575931.531064987 -4291971.6455974579 0 -4291971.6455974579 -18159675.062541962 0 0 0 0 -13637853.176420987 10533827.860348105 0 10533827.860348105 -10630306.441898346 0 0 0 0 2284664.6845855713 -11476103.673622131 0 -11476103.673622131 5700937.3750538826 0 0 0 0 2781469.1218409538 24731860.009655952 0 24731860.009655952 19306390.614510536 0 0 0 0 -19373076.817664623 16225411.60163784 0 16225411.60163784 59501944.749321461 0 0 0 0 -541879761.27370274 763892101.54082012 0 763892101.54082012 27750892.783729553 0 0 0 0 -4903676.0846033096 15724214.825217247 0 15724214.825217247 -10401148.793912888 0 0 0 0 -14119101.062876701 -6178858.1520023346 0 -6178858.1520023346 9523189.1777553558 0 0 0 0 736133.64465141296 -5982700.0360183716 0 -5982700.0360183716 20399110.751155853 0 0 0 0 17069865.520729065 -18020021.64600563 0 -18020021.64600563 23379414.949611187 0 0 0 0 713332301.41165042 -237333644.19025993 0 -237333644.19025993 643917530.78341484 0 0 0 0 -26482706.936786652 24252103.509196281 0 24252103.509196281 13361026.670735359 0 0 0 0 -2552676.869902858 956629.71592626441 0 956629.71592626441 -181790.98583702277 0 0 0 0 -6016144.7478137016 39226795.808088303 0 39226795.808088303 12650240.278124809 0 0 0 0 -745277.27501772856 75097.540993268602 0 75097.540993268602 -177628.11227068779 0 0 0 0 41822975.496206284 10333709.287637234 0 10333709.287637234 -6350331.6896743774 0 0 0 0 14556726.80951333 27251211.738541842 0 27251211.738541842 -13629508.360218048 0 0 0 0 -1602882.671462059 15012276.132266998 0 15012276.132266998 -20090844.354446411 0 0 0 0 -907999.80221557617 32130574.980563164 0 32130574.980563164 -40074214.796482086 0 0 0 0 -5255143.4271888733 6934902.2611818314 0 6934902.2611818314 -54258278.329197884 0 0 0 0 -1485004.5287059024 41269850.725995407 0 41269850.725995407 -20171894.656539917 0 0 0 0 -11118529.962406158 48617621.482366562 0 48617621.482366562 -78939876.719197273 0 0 0 0 -4141867.2633639574 46031791.982664049 0 46031791.982664049 -82081327.255657196 0 0 0 0 -493139.66420674324 19778323.542589009 0 19778323.542589009 -52781071.791816711 0 0 0 0 -24572335.789374352 45842801.098820686 0 45842801.098820686 -66283817.810630322 0 0 0 0 -9084857.591588974 18617162.048377991 0 18617162.048377991 -43096635.095284462 0 0 0 0 -35162131.673305511 17395501.131263733 0 17395501.131263733 -42023635.426246643 0 0 0 0 -5812681.4021550417 1572362.2653126121 0 1572362.2653126121 -18352529.542541504 0 0 0 0 -61294078.866899967 -22411491.210729122 0 -22411491.210729122 391782020.37603045 0 0 0 0 -2291583.2053263299 499020.49032550631 0 499020.49032550631 -695556.3666137933 0 0 0 0 30852502.212445378 10482692.724271774 0 10482692.724271774 399698449.33101559 0 0 0 0 -96431396.083024979 226771675.13646126 0 226771675.13646126 837025332.46679497 0 0 0 0 -16993843.30208683 3545349.8993186951 0 3545349.8993186951 -1665793.1127576828 0 0 0 0 6445120.0761828423 67332444.604717255 0 67332444.604717255 -114278636.85892296 0 0 0 0 -19788586.160529137 99394241.798583031 0 99394241.798583031 -151036309.54528332 0 0 0 0 -32573773.810749054 96190510.942204475 0 96190510.942204475 -132883186.86407089 0 0 0 0 26682861.753232479 -12568540.218780041 0 -12568540.218780041 -132175172.46138 0 0 0 0 -76944128.750801086 176557582.43070602 0 176557582.43070602 -260807383.19799519 0 0 0 0 2938272.3088793755 54520000.281106949 0 54520000.281106949 -314623874.33767223 0 0 0 0 -203621271.92868233 185027583.20165586 0 185027583.20165586 -123019271.31875992 0 0 0 0 -1065241.685088393 201707.70532290684 0 201707.70532290684 74014.064847367816 0 0 0 0 -102153224.89500391 81313241.714707851 0 81313241.714707851 -39045946.819591522 0 0 0 0 -74622106.905197144 133277534.47962666 0 133277534.47962666 -123112959.8595283 0 0 0 0 -49763169.424449921 100918344.48164499 0 100918344.48164499 -80992313.46269989 0 0 0 0 -50319206.265869617 97804613.104447961 0 97804613.104447961 -98323588.485343933 0 0 0 0 -19172657.579739571 93845191.835566521 0 93845191.835566521 -120390357.78904629 0 0 0 0 -51752403.82635498 87045244.897704601 0 87045244.897704601 -89806320.734034538 0 0 0 0 -52279479.033248425 88109863.930806637 0 88109863.930806637 -91667458.804736137 0 0 0 0 -47923880.140425205 72200654.945178032 0 72200654.945178032 -65388971.910301208 0 0 0 0 -58622555.115656555 64742011.52637732 0 64742011.52637732 -43990462.409124374 0 0 0 0 -53315264.39709568 42610329.989364624 0 42610329.989364624 -79829560.35495472 0 0 0 0 -38229795.4566679 48487775.472236633 0 48487775.472236633 -77851018.794660568 0 0 0 0 -53097777.240948677 17902690.857615471 0 17902690.857615471 -57892596.049982071 0 0 0 0 -25128661.335837364 20279991.234338284 0 20279991.234338284 -58320194.228534698 0 0 0 0 -11129351.820419788 30032027.67324543 0 30032027.67324543 -69676357.358278275 0 0 0 0 -8095422.0837445259 58299189.731654167 0 58299189.731654167 -96349954.851600647 0 0 0 0 -29925810.624113083 64100900.044896126 0 64100900.044896126 -87065051.186263084 0 0 0 0 -34784163.829575539 72682505.352244377 0 72682505.352244377 -94630876.308525085 0 0 0 0 -53115391.248027205 69701472.260029554 0 69701472.260029554 -92262558.613447189 0 0 0 0 -43969015.834100723 91833704.805145264 0 91833704.805145264 -92714215.917935371 0 0 0 0 -57369746.294084549 80618285.362819672 0 80618285.362819672 -97568278.622745514 0 0 0 0 -56389945.480515003 83162656.020771027 0 83162656.020771027 -108996298.67485332 0 0 0 0 -79408153.083255768 74675619.614592552 0 74675619.614592552 -92426235.525570393 0 0 0 0 -65083528.904331207 51091717.33787632 0 51091717.33787632 -101705771.37969398 0 0 0 0 -71816836.578597069 57173350.077168465 0 57173350.077168465 -89658121.62117672 0 0 0 0 -87183615.274312019 16636918.473721504 0 16636918.473721504 -77071677.203869343 0 0 0 0 -91772736.74614048 42515158.960763931 0 42515158.960763931 -136447052.21112251 0 0 0 0 -121662722.59911537 54423526.048517227 0 54423526.048517227 -100000000.20110321 0 0 0 0 -139619064.07816696 51342609.61465168 0 51342609.61465168 -137635195.19690228 0 0 0 0 -67317099.893510103 64259089.270401716 0 64259089.270401716 -105594605.00202179 0 0 0 0 -68447357.565837383 72629078.143750191 0 72629078.143750191 -144425414.79371262 0 0 0 0 -42413949.587382793 48104178.557118416 0 48104178.557118416 -226535982.3966794 0 0 0 0 -114112857.23263276 -21982961.076493144 0 -21982961.076493144 -130571031.92877388 0 0 0 0 -30262453.895096779 7538228.8479876518 0 7538228.8479876518 -113538611.68539929 0 0 0 0 -113892872.81355 9272068.8397040367 0 9272068.8397040367 -485759283.45691395 0 0 0 0 -259760569.38584185 43784819.104764938 0 43784819.104764938 -178651129.23231983 0 0 0 0 -147322493.31871492 14604579.685663104 0 14604579.685663104 -174668735.97464752 0 0 0 0 -138515065.52449799 79955311.171679497 0 79955311.171679497 -142642411.98202181 0 0 0 0 -32127442.039193511 46381876.090514541 0 46381876.090514541 -69286336.989216805 0 0 0 0 -1401978.8314433098 30724950.158202648 0 30724950.158202648 -70034415.633481026 0 0 0 0 -44892890.947681904 69824820.03095746 0 69824820.03095746 -138507915.95888233 0 0 0 0 -31559856.210997581 44167339.351458073 0 44167339.351458073 -91503826.081925526 0 0 0 0 -22714970.179200888 11999232.239752293 0 11999232.239752293 -111565551.29106236 0 0 0 0 -5369842.3066091537 -13497410.657743931 0 -13497410.657743931 -74129997.255057156 0 0 0 0 -9555065.5952792168 -23468370.975934505 0 -23468370.975934505 -43342944.800117493 0 0 0 0 -4928903.2823989391 -32163948.22794044 0 -32163948.22794044 -45549916.572519302 0 0 0 0 -40504349.108361006 -62366335.863086224 0 -62366335.863086224 -92148443.375921726 0 0 0 0 145730.70247172029 -88553.215774066397 0 -88553.215774066397 -109415.25402975176 0 0 0 0 -22873399.008979321 -13756266.986124516 0 -13756266.986124516 -43436405.550942421 0 0 0 0 -114178683.122612 -102007717.17713261 0 -102007717.17713261 -47698718.076426029 0 0 0 0 -10188686.743619442 -32389924.497892857 0 -32389924.497892857 -40578019.755624294 0 0 0 0 415215.71923609078 -275030.99319290125 0 -275030.99319290125 -187884.79516895348 0 0 0 0 -185445329.88316631 -75168886.463597775 0 -75168886.463597775 -22123987.206529617 0 0 0 0 -101662.5403565412 45687.732515446143 0 45687.732515446143 -433096.92987480853 0 0 0 0 -301118169.49612617 -210732600.87850666 0 -210732600.87850666 -170710351.65130901 0 0 0 0 -71764274.455463886 -111358001.9468956 0 -111358001.9468956 -216325692.48559046 0 0 0 0 -35770982.392761707 -21363246.871865273 0 -21363246.871865273 -35996874.37306881 0 0 0 0 -89981459.47958523 -62878640.574447989 0 -62878640.574447989 -43315884.325180054 0 0 0 0 -88048723.725128174 -56529856.911792278 0 -56529856.911792278 -37078464.924926758 0 0 0 0 -287977.20303853508 204493.17096995586 0 204493.17096995586 -1131852.3255261891 0 0 0 0 24663129.254361928 19426745.783219635 0 19426745.783219635 -2391900.562306881 0 0 0 0 -1258778.5465294188 305298.01634366915 0 305298.01634366915 -804864.97797909309 0 0 0 0 -1767812.1724114418 4517359.9302444458 0 4517359.9302444458 -33966834.1842345 0 0 0 0 26605223.646030903 12051119.052226067 0 12051119.052226067 -53666924.806276321 0 0 0 0 5148350.818244338 46951709.287514329 0 46951709.287514329 -387980297.64523125 0 0 0 0 25596831.505414248 -3036106.4775333405 0 -3036106.4775333405 -276656208.17315006 0 0 0 0 -55884974.783123016 -2291219.2823448181 0 -2291219.2823448181 -34781345.008572578 0 0 0 0 -13420915.401253954 143788043.18965763 0 143788043.18965763 -276851831.73351574 0 0 0 0 21073194.19334507 -26692602.630914211 0 -26692602.630914211 -375031902.26922679 0 0 0 0 -177605571.4070363 -75972520.57049942 0 -75972520.57049942 -245106928.57817173 0 0 0 0 -14001542.541399002 53464911.80117178 0 53464911.80117178 -307668895.95443201 0 0 0 0 -61483103.839441061 78836522.268004417 0 78836522.268004417 -217710053.41618156 0 0 0 0 -80307191.051569939 8345572.7805681229 0 8345572.7805681229 -142861129.50201702 0 0 0 0 -64875609.409697533 3409768.9989686012 0 3409768.9989686012 -168917307.71472931 0 0 0 0 -76960871.958756834 -18098511.6772478 0 -18098511.6772478 -90923571.174943924 0 0 0 0 -75982944.790863082 12002715.986424327 0 12002715.986424327 -141099507.04332352 0 0 0 0 -84196664.075130939 -9343900.6019411087 0 -9343900.6019411087 -216586954.38217759 0 0 0 0 -114166344.83993816 347807.28141784668 0 347807.28141784668 -120186897.63365841 0 0 0 0 -152756121.61465168 6101501.6176023483 0 6101501.6176023483 -120771364.75712967 0 0 0 0 -33149374.877265453 -11632290.468030155 0 -11632290.468030155 -86987194.707941055 0 0 0 0 -39138108.091011226 -37306761.755898178 0 -37306761.755898178 -43435844.252461433 0 0 0 0 -59002438.22343874 -30133451.176227093 0 -30133451.176227093 -99927892.152911186 0 0 0 0 -106451198.70248604 32013869.50440979 0 32013869.50440979 -123186621.47985363 0 0 0 0 -159659946.85327339 67846548.882344961 0 67846548.882344961 -107982976.07091188 0 0 0 0 -86700442.335865974 125800992.09577787 0 125800992.09577787 -301068855.7075882 0 0 0 0 -62494060.103210807 -52259008.445951939 0 -52259008.445951939 -123683826.89157534 0 0 0 0 17339503.42617178 129951884.19876623 0 129951884.19876623 -225038926.00833988 0 0 0 0 -629059.47862187354 36236.287155402824 0 36236.287155402824 -124358.02747552097 0 0 0 0 -122361806.14630961 135019706.5327642 0 135019706.5327642 -90240350.005291939 0 0 0 0 -60283308.45238018 21704376.905459642 0 21704376.905459642 39051750.964791775 0 0 0 0 -49016198.871058464 214404376.15550756 0 214404376.15550756 -125327325.9167006 0 0 0 0 -4466622.0198714733 278335135.76381946 0 278335135.76381946 -21685721.017218739 0 0 0 0 21040629.64885664 233977233.06718421 0 233977233.06718421 -285491914.4145751 0 0 0 0 58882362.978491336 16630870.994911015 0 16630870.994911015 -134637.69193315506 0 0 0 0 507765.45027601579 1029935.4595601193 0 1029935.4595601193 -4802072.3349053869 0 0 0 0 267197467.42094088 99883932.114352703 0 99883932.114352703 -60760826.781592369 0 0 0 0 168741.07262328255 286753.25700683467 0 286753.25700683467 -1731274.813331686 0 0 0 0 -377951707.54642999 -474769352.65707421 0 -474769352.65707421 -338214542.89375877 0 0 0 0 -84524725.485773563 -81454229.64661932 0 -81454229.64661932 -88149454.307926178 0 0 0 0 14333857.913681507 -117677818.49727321 0 -117677818.49727321 -135425769.2385819 0 0 0 0 -4289517.3474548161 4656317.2776166657 0 4656317.2776166657 -4408991.0346139083 0 0 0 0 12824517.30043596 -93060030.449542984 0 -93060030.449542984 -230834899.35761952 0 0 0 0 -22183489.872833729 -112094489.18215156 0 -112094489.18215156 -130212406.17918158 0 0 0 0 744423.21034528629 2071634.090548465 0 2071634.090548465 -7087172.8777263463 0 0 0 0 46214169.078204632 23664837.904579401 0 23664837.904579401 -63221263.794832945 0 0 0 0 -8136761.0810451508 11978581.573852777 0 11978581.573852777 -182361371.77130222 0 0 0 0 2524665.4325184822 -26879479.389803529 0 -26879479.389803529 -71952515.790886879 0 0 0 0 -12009971.103996277 58047494.973064423 0 58047494.973064423 406731.27672529221 0 0 0 0 183851122.03716707 30051551.748142958 0 30051551.748142958 -30872439.574376106 0 0 0 0 140517880.3228159 -33939721.710105896 0 -33939721.710105896 -56144256.064955711 0 0 0 0 46822884.38299942 -47032522.210827351 0 -47032522.210827351 -94084470.72461462 0 0 0 0 78479166.110248089 -794950.934445858 0 -794950.934445858 -40319428.680754662 0 0 0 0 51653569.630564213 30601785.115121365 0 30601785.115121365 -84122870.83028698 0 0 0 0 65293378.430791855 -7304196.4687700272 0 -7304196.4687700272 -673775.75342559814 0 0 0 0 112012690.62798405 117454375.80387783 0 117454375.80387783 22470773.13079834 0 0 0 0 57660804.976728439 65590801.219507217 0 65590801.219507217 5128390.6549773216 0 0 0 0 -19117836.824625015 115403600.59677505 0 115403600.59677505 -5231993.3443565369 0 0 0 0 49003760.115080833 94509311.617165565 0 94509311.617165565 -86471260.34303093 0 0 0 0 13719486.639417171 113592612.73375034 0 113592612.73375034 -8843923.8962249756 0 0 0 0 22732596.628845692 94740478.824335098 0 94740478.824335098 -19769062.517307281 0 0 0 0 92487210.511707306 125025458.64840126 0 125025458.64840126 -24628240.764043808 0 0 0 0 26933004.405182838 91039388.430295944 0 91039388.430295944 -17972880.377008438 0 0 0 0 -16505213.002319336 67508330.265447617 0 67508330.265447617 -4742898.254218936 0 0 0 0 -17790535.867559433 110823666.28486395 0 110823666.28486395 -4092874.7703056335 0 0 0 0 4572046.7758731842 85417275.123586655 0 85417275.123586655 -3483074.4428253174 0 0 0 0 -15367589.821464539 58973819.232620239 0 58973819.232620239 31868970.956861019 0 0 0 0 -40314787.870059967 87979072.753633499 0 87979072.753633499 28824284.651924014 0 0 0 0 -37379972.18611145 93866853.092710495 0 93866853.092710495 14080783.576989174 0 0 0 0 -32538667.275073051 148075030.76206064 0 148075030.76206064 -84739788.34743309 0 0 0 0 -102990259.6905117 104608016.99048424 0 104608016.99048424 27599420.102169991 0 0 0 0 -38126851.681586854 34508036.666569337 0 34508036.666569337 86881923.411632538 0 0 0 0 -37688283.175132751 172489506.39120579 0 172489506.39120579 46910421.669711709 0 0 0 0 72285323.534687042 29443790.178164482 0 29443790.178164482 29618414.643317223 0 0 0 0 79331105.331110954 89904483.398062706 0 89904483.398062706 53165358.36151123 0 0 0 0 -108991189.41311836 -17214256.586673737 0 -17214256.586673737 -149923102.12291002 0 0 0 0 -164809235.73273945 -71562489.35060811 0 -71562489.35060811 -147859285.29540539 0 0 0 0 -53136344.238861084 -69966310.10146749 0 -69966310.10146749 -209454527.31069183 0 0 0 0 -68670513.73513031 -4639468.74187994 0 -4639468.74187994 17162326.218225956 0 0 0 0 -65332800.554959297 68016177.51946497 0 68016177.51946497 -85474988.880727768 0 0 0 0 68030261.499022484 -21397493.402715206 0 -21397493.402715206 3361236.4900827408 0 0 0 0 -71163609.250582099 -54677440.954494506 0 -54677440.954494506 50742541.537799835 0 0 0 0 -936799.19648228085 896895.30277210008 0 896895.30277210008 1762083.0200216714 0 0 0 0 307114100.75164223 468095946.92102146 0 468095946.92102146 231441775.68507552 0 0 0 0 -1567013.9247457851 1498037.3317126618 0 1498037.3317126618 -1403398.5916996878 0 0 0 0 -18059937.40888381 -409454653.26451617 0 -409454653.26451617 -723662152.01179695 0 0 0 0 858669954.71776199 524380123.17025375 0 524380123.17025375 -720943321.61565495 0 0 0 0 -1176049380.0731831 137272335.7211585 0 137272335.7211585 534705459.2032547 0 0 0 0 -37990922.900308609 191854997.69112062 0 191854997.69112062 -196102967.84746742 0 0 0 0 -17930630.504728317 39290469.292361259 0 39290469.292361259 -654306049.09065819 0 0 0 0 -17455809.711462751 141662094.70135015 0 141662094.70135015 -186716068.16462517 0 0 0 0 6075929.2407455444 86602884.72063446 0 86602884.72063446 -116329822.28987598 0 0 0 0 -75838288.00788641 -231441324.80810404 0 -231441324.80810404 -472891639.80240822 0 0 0 0 -560577901.79885483 -708136159.69741344 0 -708136159.69741344 -827331823.66339564 0 0 0 0 -198121923.50789452 -131481081.24881577 0 -131481081.24881577 83511977.020360947 0 0 0 0 -76407.454926913604 242594.42237344914 0 242594.42237344914 -331360.13732563029 0 0 0 0 -58248700.657453537 -101976949.2758553 0 -101976949.2758553 61228492.21585381 0 0 0 0 -131078760.47817421 -128726303.17385936 0 -128726303.17385936 79877082.205565929 0 0 0 0 50145709.208901405 -12521692.855710506 0 -12521692.855710506 -17144305.90047884 0 0 0 0 58290414.449514389 -49587530.678606987 0 -49587530.678606987 -91875483.996106148 0 0 0 0 121647079.19563103 -12450199.763060331 0 -12450199.763060331 -100715848.16873074 0 0 0 0 -18545933.069038391 -77403920.149819374 0 -77403920.149819374 -67241511.219974518 0 0 0 0 11338818.605214596 104665162.6627543 0 104665162.6627543 -88196350.695711136 0 0 0 0 96505124.912014008 -27744153.517767906 0 -27744153.517767906 -236242630.32594204 0 0 0 0 131883701.1604867 -19201493.536351681 0 -19201493.536351681 -62585417.504371643 0 0 0 0 100447555.87767792 -1829166.0106306076 0 -1829166.0106306076 -70917842.630994797 0 0 0 0 -1388329.0070991516 4691362.3793158531 0 4691362.3793158531 -13211863.139186859 0 0 0 0 -866434.08557033539 226546.6192035675 0 226546.6192035675 -12997977.667421341 0 0 0 0 -21161965.150925636 -52309343.801569343 0 -52309343.801569343 -15346168.434601307 0 0 0 0 -6749270.1400032043 13677268.647126496 0 13677268.647126496 14041249.040856123 0 0 0 0 152541.16458320618 6965983.4092950821 0 6965983.4092950821 -10133120.456378698 0 0 0 0 -1644692.1528749466 -2854833.9402244091 0 -2854833.9402244091 10010464.694084167 0 0 0 0 -7230244.9085464478 -6392779.1866026521 0 -6392779.1866026521 14218226.015933678 0 0 0 0 897330.76792677119 -3075757.7374794194 0 -3075757.7374794194 -7535366.3200676944 0 0 0 0 -211781.66387939453 4787101.4443311691 0 4787101.4443311691 -16514386.665948868 0 0 0 0 8875337.6346383095 11789837.185117722 0 11789837.185117722 -22000347.974234521 0 0 0 0 30477269.385032654 -25642381.571192741 0 -25642381.571192741 -15906194.099967957 0 0 0 0 215426.22980816104 -8728.0497146896087 0 -8728.0497146896087 -608878.32913369313 0 0 0 0 -334959.15012886981 211722.04488451732 0 211722.04488451732 -2403268.2296210849 0 0 0 0 -35537628.056426048 -30588420.779778481 0 -30588420.779778481 41288247.716796398 0 0 0 0 -1935944.764964839 3450905.8279389748 0 3450905.8279389748 -334763.14293984708 0 0 0 0 -2719228.8753252029 3869612.3116492033 0 3869612.3116492033 472900.34971880913 0 0 0 0 6787902.5940585136 12817405.817483425 0 12817405.817483425 21113320.511476517 0 0 0 0 -1830772.9929246902 -840671.07799315453 0 -840671.07799315453 11486837.873735428 0 0 0 0 -12446566.892210007 -3179726.9732990265 0 -3179726.9732990265 11316339.583964109 0 0 0 0 3376499.5259895325 -14888722.602114439 0 -14888722.602114439 12779473.561347485 0 0 0 0 4831859.2459249496 7494195.9872281551 0 7494195.9872281551 14262051.030532837 0 0 0 0 -34862763.582345963 12765283.740163147 0 12765283.740163147 15393827.004097939 0 0 0 0 -30164693.088380754 -21496013.368799642 0 -21496013.368799642 13057951.381595135 0 0 0 0 110353.26725568296 327635.75310975546 0 327635.75310975546 -1062118.887820866 0 0 0 0 -39656398.369097233 162554487.79709339 0 162554487.79709339 -203225075.03585625 0 0 0 0 -101399946.88344193 65519015.844546556 0 65519015.844546556 -45822566.014916301 0 0 0 0 124839185.56611633 55881630.953697681 0 55881630.953697681 -151338084.36611581 0 0 0 0 215971250.7761879 77084311.44307971 0 77084311.44307971 -315925534.10531211 0 0 0 0 -295802.22370418697 -490055.97348844702 0 -490055.97348844702 -446485.93573630019 0 0 0 0 -35619620.611535311 -82787939.7618002 0 -82787939.7618002 43603667.68238008 0 0 0 0 144134861.27527905 16955709.794927359 0 16955709.794927359 -358814193.34185314 0 0 0 0 -167848149.43938255 -457164865.64890146 0 -457164865.64890146 -207775821.62721682 0 0 0 0 -64362875.556655884 -79227028.436430573 0 -79227028.436430573 191480879.84578228 0 0 0 0 5438719.0765724182 -66307484.985180855 0 -66307484.985180855 -152475535.95572343 0 0 0 0 9792733.3323440552 -21246277.515814781 0 -21246277.515814781 -15859705.814415693 0 0 0 0 -10934027.660728455 -3752249.8578107357 0 -3752249.8578107357 -13732149.321664095 0 0 0 0 1208957.2538162991 -372909.15647230181 0 -372909.15647230181 -1987612.0252144227 0 0 0 0 3198403.7174329162 99519070.556849867 0 99519070.556849867 158857175.74794912 0 0 0 0 -1937374.5506591797 2508110.8608703613 0 2508110.8608703613 -10855426.177854538 0 0 0 0 431613.80663649668 3544458.5517206723 0 3544458.5517206723 -9145948.1614001524 0 0 0 0 22156.752153396606 1673272.7352104187 0 1673272.7352104187 -13739247.448284149 0 0 0 0 797192.93090526573 2698479.9151790524 0 2698479.9151790524 -9003981.6450594924 0 0 0 0 -2896522.4654417038 31963518.361727655 0 31963518.361727655 -86671448.69440794 0 0 0 0 850211.00288963318 3266550.5233755112 0 3266550.5233755112 -10846053.91007185 0 0 0 0 -473235.66737159668 1635726.5038274855 0 1635726.5038274855 396681.81503505888 0 0 0 0 94277210.991250992 -98859210.46741873 0 -98859210.46741873 -648827122.65766239 0 0 0 0 986330.86168479919 738495.93135929108 0 738495.93135929108 -8418893.8055491447 0 0 0 0 4457055.2111838181 2403562.062011661 0 2403562.062011661 -8902270.9130224958 0 0 0 0 -3892.9800600875169 108337.99737806688 0 108337.99737806688 -522621.65284511057 0 0 0 0 1587227.8774337769 3057666.9634666443 0 3057666.9634666443 -10774060.669077873 0 0 0 0 108587459.37051392 43399229.684980392 0 43399229.684980392 135249331.66420698 0 0 0 0 130297840.05836684 -17539609.921917081 0 -17539609.921917081 -2294678.015045166 0 0 0 0 -161307286.00976181 395173955.1849823 0 395173955.1849823 -79319641.530945778 0 0 0 0 -28210410.502480984 -219123414.75237656 0 -219123414.75237656 284414447.64074326 0 0 0 0 14186103.862298012 -177805898.45046425 0 -177805898.45046425 -159218554.31638145 0 0 0 0 14637072.818864822 -127333109.39347744 0 -127333109.39347744 25617392.545106649 0 0 0 0 29843652.311289787 -51375316.4905653 0 -51375316.4905653 -3627707.4751479626 0 0 0 0 29849513.17855563 -51952365.640811451 0 -51952365.640811451 28893308.327255249 0 0 0 0 65563624.702527523 -46397370.694805145 0 -46397370.694805145 -39502453.813766882 0 0 0 0 306867.65495586395 -61319549.908082962 0 -61319549.908082962 -2637324.248383522 0 0 0 0 35045038.73797369 -18995954.697954655 0 -18995954.697954655 -17836421.575206757 0 0 0 0 114944431.43758225 -7719460.5005269051 0 -7719460.5005269051 -17277345.654886246 0 0 0 0 98709306.660955667 -13098553.929508686 0 -13098553.929508686 -42741988.338485479 0 0 0 0 110693722.16977271 -32541867.888854861 0 -32541867.888854861 -11542762.013605118 0 0 0 0 832080.24491972057 3801035.4886947596 0 3801035.4886947596 -8454760.6639982834 0 0 0 0 60850964.581791818 -28860070.175000906 0 -28860070.175000906 9253085.2552022934 0 0 0 0 -448520.21563795861 4544053.9858170412 0 4544053.9858170412 -1538324.7069104989 0 0 0 0 28190833.737043381 44089542.227231026 0 44089542.227231026 5182428.8891429901 0 0 0 0 -9543591.2147121429 7498798.9007797241 0 7498798.9007797241 34983264.371649742 0 0 0 0 1607106.3098225594 2182327.036216855 0 2182327.036216855 -544732.30135369301 0 0 0 0 -322919.25777034136 1928530.376123664 0 1928530.376123664 -2207447.1368982713 0 0 0 0 14290897.638673782 -4110517.70403862 0 -4110517.70403862 2530950.2886278629 0 0 0 0 587166.99282160087 1282733.9468913935 0 1282733.9468913935 -1263342.0996020609 0 0 0 0 62993677.41917038 6896881.4486780167 0 6896881.4486780167 -42926021.248258591 0 0 0 0 -104289734.0821352 57144956.566732407 0 57144956.566732407 204653868.06562662 0 0 0 0 94658291.040967047 -45777650.154134274 0 -45777650.154134274 17283819.223970413 0 0 0 0 90897029.596389771 68017630.508248329 0 68017630.508248329 -126109179.09121037 0 0 0 0 77484888.520821571 -79460642.697981358 0 -79460642.697981358 -52515740.503903866 0 0 0 0 77180880.87197876 -127216998.80946732 0 -127216998.80946732 -333070942.68034363 0 0 0 0 57145290.22383213 -11455212.727243662 0 -11455212.727243662 -99399548.327824593 0 0 0 0 -70999400.473696709 -107206907.92669129 0 -107206907.92669129 -51703964.64811039 0 0 0 0 -134789398.15640831 -199961923.98509037 0 -199961923.98509037 -169961318.78529739 0 0 0 0 -7395194.2234833241 -44257233.141452551 0 -44257233.141452551 -96019341.828988075 0 0 0 0 99807842.641721725 -58130000.119347095 0 -58130000.119347095 -142692558.73530102 0 0 0 0 100872376.96923161 -103311872.11085796 0 -103311872.11085796 60089475.971724033 0 0 0 0 127943.41016282956 68367.613003511447 0 68367.613003511447 -249699.88576487964 0 0 0 0 -107869892.04042101 -184728124.71551847 0 -184728124.71551847 -291989674.0572567 0 0 0 0 143416.00206318696 -128609.61717408616 0 -128609.61717408616 -986841.089136797 0 0 0 0 -101062217.28434075 154596906.11540985 0 154596906.11540985 -204447063.57613945 0 0 0 0 126313887.34964812 -423616388.93680644 0 -423616388.93680644 -250329174.38794899 0 0 0 0 139468842.5052309 -4571135.3431358337 0 -4571135.3431358337 -595473266.70189667 0 0 0 0 91702536.15256837 69709920.003986061 0 69709920.003986061 -506245812.13801003 0 0 0 0 61813734.937720537 -64256309.074512959 0 -64256309.074512959 -124321928.21869755 0 0 0 0 96933191.984713078 -83862933.899301529 0 -83862933.899301529 -145811892.65589142 0 0 0 0 22698172.529257059 3748537.9370293617 0 3748537.9370293617 -116395322.7725141 0 0 0 0 -30333748.15731883 16537905.223053217 0 16537905.223053217 -14451768.292289257 0 0 0 0 260952.60795692424 109754.21459230315 0 109754.21459230315 -1303042.5469637262 0 0 0 0 -108426.20114946365 148506.08356237411 0 148506.08356237411 -1818270.9347267151 0 0 0 0 749945.16059327126 176536.30133199692 0 176536.30133199692 -2354626.5076522827 0 0 0 0 1342692.3068635804 1213829.4755362833 0 1213829.4755362833 -3194082.6115286332 0 0 0 0 915291.48981308937 157634.9751188755 0 157634.9751188755 -2331542.4665985107 0 0 0 0 71972365.523915529 30574648.029082358 0 30574648.029082358 9896491.8373594284 0 0 0 0 1605110.3457393646 -425614.31003713608 0 -425614.31003713608 -2097007.5246429741 0 0 0 0 788289.62649140088 -78422.037997263367 0 -78422.037997263367 -3247917.3741350276 0 0 0 0 532885.01519418531 -838231.15911867388 0 -838231.15911867388 -2182539.9113916904 0 0 0 0 117468881.58307058 -18474516.064256072 0 -18474516.064256072 -60149172.686732292 0 0 0 0 1000721.9307909012 468452.31260442734 0 468452.31260442734 -2032164.5818824768 0 0 0 0 17629990.669585228 -28854984.931602716 0 -28854984.931602716 -84723664.200132847 0 0 0 0 84121377.861770153 31443543.231107712 0 31443543.231107712 -150420930.4028244 0 0 0 0 18519894.892427564 71761870.400649428 0 71761870.400649428 -39436352.565635681 0 0 0 0 87575318.810726643 2352546.1983041763 0 2352546.1983041763 -7959132.6487195492 0 0 0 0 15310816.445545584 -72417593.519102871 0 -72417593.519102871 -360616224.93000603 0 0 0 0 -63070028.813836098 153223591.80989361 0 153223591.80989361 -266294533.29417896 0 0 0 0 5326584.6365394592 28205593.649240732 0 28205593.649240732 -85638061.926824093 0 0 0 0 -89486210.892475128 20164007.940573812 0 20164007.940573812 53768187.636653423 0 0 0 0 -27754976.302810192 83971391.768895507 0 83971391.768895507 -21218259.191057205 0 0 0 0 55807766.47646904 32219295.738435984 0 32219295.738435984 6967642.5125789642 0 0 0 0 -6015299.3681111336 -3307740.3058425188 0 -3307740.3058425188 69391086.80535841 0 0 0 0 38565389.746963501 70719746.563020825 0 70719746.563020825 32099043.246606827 0 0 0 0 1194440.3083658218 -21628263.670245945 0 -21628263.670245945 68113119.180271149 0 0 0 0 -44806331.341641426 -27997796.315959692 0 -27997796.315959692 107798182.20067739 0 0 0 0 63785024.839492798 49619852.334333539 0 49619852.334333539 -32032107.917130947 0 0 0 0 59766440.721545219 60332389.135183096 0 60332389.135183096 -37382485.592966318 0 0 0 0 32479950.924934387 57147484.444073915 0 57147484.444073915 25076208.638127979 0 0 0 0 54847980.113141298 56628471.974354386 0 56628471.974354386 25073531.226174831 0 0 0 0 -12371366.95929718 42930240.216508389 0 42930240.216508389 92910247.271185875 0 0 0 0 940104.50457813218 875573.78913685493 0 875573.78913685493 -3581065.5145550328 0 0 0 0 34404445.988246441 40304707.338594198 0 40304707.338594198 27098607.46540761 0 0 0 0 111148837.97614193 110773313.4057914 0 110773313.4057914 119759416.79115069 0 0 0 0 35423155.024353981 74256540.174473286 0 74256540.174473286 102428849.17119789 0 0 0 0 53989803.698336601 94717707.050249964 0 94717707.050249964 157346473.91868186 0 0 0 0 88147382.079572678 41243908.787973881 0 41243908.787973881 49457540.689095497 0 0 0 0 72073.894035648438 120778.79696206539 0 120778.79696206539 -96368.100024938234 0 0 0 0 91817098.723534584 -95987904.568206429 0 -95987904.568206429 124375361.46764426 0 0 0 0 395034.18933016527 140279.02172489563 0 140279.02172489563 -583137.00663205807 0 0 0 0 57733068.82114315 -87821430.412685931 0 -87821430.412685931 134875091.5578897 0 0 0 0 168552764.97683048 -10453433.983631492 0 -10453433.983631492 65566685.554403782 0 0 0 0 160438097.7422142 84016915.072861552 0 84016915.072861552 74598138.872164607 0 0 0 0 -78154350.204677582 -71362286.374759287 0 -71362286.374759287 189944770.59332976 0 0 0 0 -206669.46343992045 -237339.67398730828 0 -237339.67398730828 -38123.883122694097 0 0 0 0 -58526488.171291828 72057987.909670204 0 72057987.909670204 -21213239.468457714 0 0 0 0 159539347.00843906 19624054.924095929 0 19624054.924095929 -48673974.72298497 0 0 0 0 70847.522844995954 -1244406.5522183147 0 -1244406.5522183147 -1772804.2753138985 0 0 0 0 3062992.2561330795 -560991.9258928299 0 -560991.9258928299 -1881841.1418809891 0 0 0 0 98381778.898266792 -72380566.257059902 0 -72380566.257059902 -7171842.4898869842 0 0 0 0 26500576.866297245 92074433.712817192 0 92074433.712817192 36984287.107339859 0 0 0 0 24199703.233645439 66786758.091819763 0 66786758.091819763 51100305.244540215 0 0 0 0 120319558.75623846 50614160.461830139 0 50614160.461830139 11154868.627660751 0 0 0 0 770122.86804714473 -700609.36041527614 0 -700609.36041527614 -3617725.3557605948 0 0 0 0 2189637.3824458122 -810310.09370326996 0 -810310.09370326996 -1147117.8734493256 0 0 0 0 50790630.135837555 -52324102.470295548 0 -52324102.470295548 -136254318.47820574 0 0 0 0 20771257.778642178 3472014.3114332557 0 3472014.3114332557 -92850341.982523918 0 0 0 0 -28596462.926605225 -81320177.156027973 0 -81320177.156027973 -123304519.21554697 0 0 0 0 -3183845.5318229697 4147723.8523374079 0 4147723.8523374079 -786003.31492788182 0 0 0 0 12062989.748450756 -63073026.679387033 0 -63073026.679387033 -80723358.401097536 0 0 0 0 -15651626.360534668 -17636502.767477274 0 -17636502.767477274 -110437927.04974991 0 0 0 0 -46953127.029323578 -23997355.330014348 0 -23997355.330014348 -100963674.72961736 0 0 0 0 -38688876.918252945 -100829563.89278126 0 -100829563.89278126 -92726104.548987418 0 0 0 0 -112862938.64344883 -77603430.647528291 0 -77603430.647528291 -17697307.784139276 0 0 0 0 -47618557.819856405 -7712188.574736733 0 -7712188.574736733 20074859.660787106 0 0 0 0 -52961614.260158539 60568123.694313794 0 60568123.694313794 -64296945.76313509 0 0 0 0 -533117.39845633507 178080.90129602043 0 178080.90129602043 -1325722.0288374715 0 0 0 0 -36910954.834557533 -29874321.368357331 0 -29874321.368357331 -70397463.124995053 0 0 0 0 -5204949.2295312881 27577899.684771746 0 27577899.684771746 -115153810.27506097 0 0 0 0 114850663.07832503 -182859142.78037483 0 -182859142.78037483 -142713001.45954266 0 0 0 0 -603936.81951786065 -987388.90828630747 0 -987388.90828630747 -796904.39673478145 0 0 0 0 -58753345.056405544 80672555.477172822 0 80672555.477172822 62530426.049301386 0 0 0 0 -105425600.14692926 -43348747.200152099 0 -43348747.200152099 106492198.516958 0 0 0 0 163051117.0856688 194801154.80677348 0 194801154.80677348 -274574999.09537792 0 0 0 0 -206982421.16489315 -299702017.01628304 0 -299702017.01628304 21847477.498198748 0 0 0 0 -320969689.11906052 78912310.719561338 0 78912310.719561338 5111212.2097940445 0 0 0 0 166932570.71802425 -260873882.06964481 0 -260873882.06964481 -48184442.205500484 0 0 0 0 -15216645.610414505 4326633.8252204657 0 4326633.8252204657 75247900.252597809 0 0 0 0 -40195043.073007584 -33979584.723873138 0 -33979584.723873138 16731691.014051646 0 0 0 0 -45010448.562607765 -30911063.540392876 0 -30911063.540392876 105934451.53047276 0 0 0 0 -88120956.701764107 -5750405.20881024 0 -5750405.20881024 151398204.25407156 0 0 0 0 93285449.011180401 20819067.276659623 0 20819067.276659623 -30273046.837657869 0 0 0 0 -521356.57581970748 -730495.59173097648 0 -730495.59173097648 -391025.41662035132 0 0 0 0 -20308805.666981697 29113364.358748019 0 29113364.358748019 -10221626.299704432 0 0 0 0 -17651742.730049133 52263893.204228044 0 52263893.204228044 -34606713.123620182 0 0 0 0 -7737400.2643184662 36518397.414431848 0 36518397.414431848 -45172499.999239981 0 0 0 0 -53180298.730463982 97005035.275364339 0 97005035.275364339 41068487.003569126 0 0 0 0 -104638580.54735303 -9909561.4227668494 0 -9909561.4227668494 -16883252.84068796 0 0 0 0 -29170895.830599785 31789166.256046146 0 31789166.256046146 -8621574.0717376098 0 0 0 0 -33446772.474207044 9636791.8371506594 0 9636791.8371506594 -59173384.7228688 0 0 0 0 40960265.755398273 2252782.6843533218 0 2252782.6843533218 -68787620.414214373 0 0 0 0 -22197.675009567291 64142.871124287951 0 64142.871124287951 37087.656615441636 0 0 0 0 5185577.3001003265 -3279466.4345055819 0 -3279466.4345055819 -55423959.354348809 0 0 0 0 7087605.838177681 -14052295.986021698 0 -14052295.986021698 -41196448.43940419 0 0 0 0 39436965.819213629 61305162.960444793 0 61305162.960444793 1670112.2803125978 0 0 0 0 33808722.084841728 -25629298.894508705 0 -25629298.894508705 -126528640.08820522 0 0 0 0 15105585.639139175 9815177.4062917233 0 9815177.4062917233 -63779728.776044399 0 0 0 0 -43498170.429304123 56885527.638174027 0 56885527.638174027 -131591.27938741446 0 0 0 0 -63391.117651608773 139335.6825941843 0 139335.6825941843 81335.605912821338 0 0 0 0 -14060883.13126564 42744012.495359868 0 42744012.495359868 -46955707.530713305 0 0 0 0 25886192.725120842 65469520.358736783 0 65469520.358736783 -79913635.179990888 0 0 0 0 -12189000.388737202 22606969.836457938 0 22606969.836457938 -57261170.854661822 0 0 0 0 -10451353.712801576 30578615.386536755 0 30578615.386536755 -67510047.698269904 0 0 0 0 -23135220.430388451 26301904.465070248 0 26301904.465070248 -33149481.217652857 0 0 0 0 -48571908.070132375 40519580.447854742 0 40519580.447854742 -39830258.062883735 0 0 0 0 -134970.43722594669 124228.95030120667 0 124228.95030120667 89526.315855605499 0 0 0 0 -53310613.495592833 2742565.416539073 0 2742565.416539073 -51538028.121257544 0 0 0 0 -31693354.779043674 -129741296.1414814 0 -129741296.1414814 -186970140.76675665 0 0 0 0 -94024919.307360172 -110961707.38290429 0 -110961707.38290429 -89259776.837234855 0 0 0 0 -69415021.698201656 -58604034.242674768 0 -58604034.242674768 -28144419.666592836 0 0 0 0 -125339448.62428379 -109986406.50853801 0 -109986406.50853801 102858219.67897326 0 0 0 0 -75619380.139800072 -59273566.23161006 0 -59273566.23161006 -112955394.3908608 0 0 0 0 -60384527.27549839 27488581.760837495 0 27488581.760837495 -1440541.6811622232 0 0 0 0 21408776.281406403 90936924.828819066 0 90936924.828819066 43788745.248120546 0 0 0 0 27500183.696250916 124678281.16924703 0 124678281.16924703 28786418.06094861 0 0 0 0 -20245908.276822656 25425374.378394995 0 25425374.378394995 94252353.935281515 0 0 0 0 119624195.51716805 -30424639.343935013 0 -30424639.343935013 22618225.840431958 0 0 0 0 71354.580908935051 1257637.4949538426 0 1257637.4949538426 -1519877.6862331475 0 0 0 0 124659705.81767511 -62838858.957619399 0 -62838858.957619399 -54185502.032580018 0 0 0 0 45511966.343417168 -27769008.0132806 0 -27769008.0132806 -23061393.588227093 0 0 0 0 94642328.518453598 39853106.435764909 0 39853106.435764909 63629372.591632366 0 0 0 0 2479.2994639487442 -391953.92931215931 0 -391953.92931215931 74695.713243780308 0 0 0 0 -88398646.565024137 -260752915.33686787 0 -260752915.33686787 -704203898.50364876 0 0 0 0 -93430019.385804653 -35405194.800135612 0 -35405194.800135612 215502073.47627354 0 0 0 0 -105237456.70227981 -42684181.804656982 0 -42684181.804656982 62524515.149623871 0 0 0 0 400828.60870374134 -288408.02412032546 0 -288408.02412032546 -2455591.3309540297 0 0 0 0 5169720.4228082001 -2887204.0508696139 0 -2887204.0508696139 -501389.43452548981 0 0 0 0 85415.78906280006 -2320965.6735401116 0 -2320965.6735401116 -2023641.5124743255 0 0 0 0 364009629.36104321 31403359.270512074 0 31403359.270512074 -282599107.05412483 0 0 0 0 26354003.635723591 -80463671.471046478 0 -80463671.471046478 13920783.617338657 0 0 0 0 44402435.111797333 65210062.511541605 0 65210062.511541605 -87473915.350293726 0 0 0 0 124569495.11089468 3692896.6965710223 0 3692896.6965710223 -69128292.934181809 0 0 0 0 -17314100.3064394 5680990.2786215544 0 5680990.2786215544 -110660195.27268621 0 0 0 0 -16105130.815001249 52250801.170919701 0 52250801.170919701 -64254377.076985955 0 0 0 0 -101429.05897005508 54410.623900092905 0 54410.623900092905 49759.235084691085 0 0 0 0 -26861003.296348572 62962695.102517873 0 62962695.102517873 -37383137.084344149 0 0 0 0 -76288783.146307945 48831384.384466484 0 48831384.384466484 -27129269.802855611 0 0 0 0 -44002653.344894409 34253223.988942504 0 34253223.988942504 -15266274.065457791 0 0 0 0 31022661.091362238 18956734.998013683 0 18956734.998013683 -340087851.37861621 0 0 0 0 27070216.974599838 13474306.831813753 0 13474306.831813753 -109934695.99396724 0 0 0 0 -29393309.879715919 -7112700.2888148427 0 -7112700.2888148427 -79426684.629555702 0 0 0 0 -99938.484298706055 -75916806.213106453 0 -75916806.213106453 -217731717.08530211 0 0 0 0 -2560716.1264262199 -73516828.217220694 0 -73516828.217220694 -129408875.46541929 0 0 0 0 26324788.313581467 -110524850.24413675 0 -110524850.24413675 -177428307.39433312 0 0 0 0 25936736.824968338 -135769538.8877604 0 -135769538.8877604 -275628579.81851554 0 0 0 0 83108641.520893097 -92679026.230723768 0 -92679026.230723768 -243279050.1456455 0 0 0 0 -84089289.924478531 -394373954.08971286 0 -394373954.08971286 -439177248.47728574 0 0 0 0 91346307.937699735 -116804082.02623326 0 -116804082.02623326 -707806098.10944021 0 0 0 0 -173941955.40103364 76876645.804746658 0 76876645.804746658 -39509222.447542965 0 0 0 0 -32685020.248545647 92463250.861950994 0 92463250.861950994 -37052548.845164239 0 0 0 0 -305703.55640939239 -1181440.9978893846 0 -1181440.9978893846 -1294637.7368765739 0 0 0 0 4426266.6104941368 180277063.30789474 0 180277063.30789474 -465657374.95478541 0 0 0 0 -263918708.42304611 -430824663.99413729 0 -430824663.99413729 -200570334.77849707 0 0 0 0 -252885032.42444479 -454542465.96111834 0 -454542465.96111834 -157280571.30952001 0 0 0 0 99878642.328556061 299990908.56121475 0 299990908.56121475 -526253493.21141291 0 0 0 0 -17841539.104939938 22620682.376949549 0 22620682.376949549 -15536332.73000145 0 0 0 0 -307693.90560304129 -1278245.1269021453 0 -1278245.1269021453 -3093170.2053446276 0 0 0 0 292205691.74022973 69171636.865999505 0 69171636.865999505 -270633492.90623116 0 0 0 0 -45038956.008989334 9692699.834321022 0 9692699.834321022 -11899422.233542442 0 0 0 0 -85773595.417299509 51353632.147336483 0 51353632.147336483 -15961228.288017035 0 0 0 0 -25540905.395953536 24490194.968570471 0 24490194.968570471 -14649001.279517651 0 0 0 0 -50369076.011419296 41011900.187371731 0 41011900.187371731 -25630170.15393734 0 0 0 0 57415721.959840536 -98275850.009018421 0 -98275850.009018421 -180570197.88880467 0 0 0 0 -20631942.470091224 84356667.494381905 0 84356667.494381905 -111097509.28372002 0 0 0 0 -342407027.28389144 -469017892.85756874 0 -469017892.85756874 -98082590.746436596 0 0 0 0 -107653.01657535502 -761577.39629996417 0 -761577.39629996417 -1275920.1801870614 0 0 0 0 -75311923.700990438 24335281.603439331 0 24335281.603439331 -9624887.2379854918 0 0 0 0 -163986291.46409297 114238989.99601769 0 114238989.99601769 -94493048.304076672 0 0 0 0 29255603.101359338 -49216560.115243554 0 -49216560.115243554 -28025630.613302231 0 0 0 0 34215074.082960188 17594684.685513973 0 17594684.685513973 -81639551.620511055 0 0 0 0 61614079.315335125 48472348.047204018 0 48472348.047204018 -53569865.828489304 0 0 0 0 -25540261.732424259 24789413.794712305 0 24789413.794712305 -39783914.608843327 0 0 0 0 29468858.399081588 41038489.671748161 0 41038489.671748161 -50164781.773468614 0 0 0 0 23376338.66285491 26797829.202190399 0 26797829.202190399 -45114272.49387002 0 0 0 0 60316072.714736044 -61586523.369497299 0 -61586523.369497299 -57415987.451979637 0 0 0 0 20878823.414525062 33657164.793060064 0 33657164.793060064 -11700773.333065033 0 0 0 0 38117334.187272072 -97321170.259723902 0 -97321170.259723902 41171481.229969978 0 0 0 0 36675289.52250351 2589045.5248419642 0 2589045.5248419642 -1351808.5283560753 0 0 0 0 42391720.761032134 -38594598.611104965 0 -38594598.611104965 23322895.354605675 0 0 0 0 2739876.6638327837 -24474698.113823891 0 -24474698.113823891 22829562.783836544 0 0 0 0 11437883.262848258 34257874.942680836 0 34257874.942680836 -5333159.2174406052 0 0 0 0 -89591315.268582344 -88884003.561929703 0 -88884003.561929703 -112125026.38173676 0 0 0 0 120941.01668741927 428765.02526334999 0 428765.02526334999 101962.58346981788 0 0 0 0 11287296.301703215 -81785413.038740158 0 -81785413.038740158 91994321.273492336 0 0 0 0 -173141690.38862109 -143538063.16836596 0 -143538063.16836596 -55165528.288614273 0 0 0 0 43042399.810811758 -201083215.15929794 0 -201083215.15929794 -363753259.14981365 0 0 0 0 -139306301.20490003 -67804204.48602581 0 -67804204.48602581 -21190297.551074982 0 0 0 0 -665794.69683473592 -339783.377437538 0 -339783.377437538 184573.69489299739 0 0 0 0 17547248.998736978 11329814.914358616 0 11329814.914358616 -421749354.86638355 0 0 0 0 -34419380.444919586 -196838596.46654272 0 -196838596.46654272 -646003607.818573 0 0 0 0 -622690623.67172766 -107078381.43050623 0 -107078381.43050623 -29694830.641414642 0 0 0 0 -14413189.559906006 -87411220.325656176 0 -87411220.325656176 -59365205.863136292 0 0 0 0 13813387.529389977 -264105154.70019293 0 -264105154.70019293 -298535943.38101482 0 0 0 0 -50592746.758283615 -60651069.026752472 0 -60651069.026752472 -49622546.201264501 0 0 0 0 -193319980.90348327 -165996822.36017895 0 -165996822.36017895 -103486124.13218403 0 0 0 0 -57331677.011631489 -7809260.1918914318 0 -7809260.1918914318 16308546.30503273 0 0 0 0 -20369050.244962215 1020856.1761655807 0 1020856.1761655807 -98973372.478190422 0 0 0 0 40549722.047779083 56528095.883932114 0 56528095.883932114 18013033.221802413 0 0 0 0 20744.336319684982 43380699.143710136 0 43380699.143710136 -29842150.564763546 0 0 0 0 -92819707.145032883 -27252822.007794857 0 -27252822.007794857 -18113390.431141734 0 0 0 0 -49086236.088130914 -109976709.86118734 0 -109976709.86118734 -165993946.92093277 0 0 0 0 -173480113.48915392 4336232.650759697 0 4336232.650759697 -257798347.60058355 0 0 0 0 -103107859.72447124 -258526906.40453959 0 -258526906.40453959 -309369480.59664154 0 0 0 0 -29763409.7775563 -144416969.22700691 0 -144416969.22700691 -179747412.74522138 0 0 0 0 14795459.654667795 -173986015.48833656 0 -173986015.48833656 -170267706.45440865 0 0 0 0 -100706175.84522623 -114694278.2794137 0 -114694278.2794137 -58053053.161949158 0 0 0 0 -14237950.687364101 -275707.18661022186 0 -275707.18661022186 -84557803.503661156 0 0 0 0 -31377589.897465229 -33376329.099457741 0 -33376329.099457741 625323.29406356812 0 0 0 0 -5072564.3335795999 -21461746.147868156 0 -21461746.147868156 87100248.636976242 0 0 0 0 51812732.003749251 33677120.975730419 0 33677120.975730419 25364677.780565262 0 0 0 0 15701653.892248154 19431488.960990906 0 19431488.960990906 209333737.22423935 0 0 0 0 95195123.67498067 -29453977.445820808 0 -29453977.445820808 -47591676.876643896 0 0 0 0 10615779.044508398 -85528625.395627975 0 -85528625.395627975 2301832.8318557739 0 0 0 0 214927038.81475335 -33491524.227824688 0 -33491524.227824688 -38253424.530347824 0 0 0 0 -1604905.5256549318 1778750.9515630589 0 1778750.9515630589 -1775896.5832285585 0 0 0 0 38603999.745034218 88317956.72228241 0 88317956.72228241 177412391.75421524 0 0 0 0 -10431109.420250893 4521109.5375938416 0 4521109.5375938416 30136281.777672291 0 0 0 0 89420472.336268425 105028564.98672199 0 105028564.98672199 150266438.15219498 0 0 0 0 -9391.3112127871136 62642.83305911487 0 62642.83305911487 -156751.35780394357 0 0 0 0 -6126426.3709738255 -12923871.353974581 0 -12923871.353974581 1711151.1172447205 0 0 0 0 -273131.32433170034 35823.914991294499 0 35823.914991294499 -1248069.9627972068 0 0 0 0 3898179.3671565056 -7312024.4508609772 0 -7312024.4508609772 -9305082.4336669557 0 0 0 0 -87836.558175086975 553367.05830717087 0 553367.05830717087 -2887590.8135566711 0 0 0 0 -34968934.740718067 8222874.5437273979 0 8222874.5437273979 90859041.221866608 0 0 0 0 -11953305.289559603 88275131.024501801 0 88275131.024501801 119253130.82728195 0 0 0 0 -130794.57239132002 1629890.5631831696 0 1629890.5631831696 -1800278.2792688864 0 0 0 0 -119233959.15578413 -96545142.025251389 0 -96545142.025251389 207413554.64688396 0 0 0 0 -537613.25554162078 -37848.153029138222 0 -37848.153029138222 -62050.740909443237 0 0 0 0 -211995398.79010582 -52864583.753520489 0 -52864583.753520489 -401764194.25880432 0 0 0 0 6305419.8604590893 -25796258.898412228 0 -25796258.898412228 -694042915.30572891 0 0 0 0 -61144702.170512438 -131155543.37097836 0 -131155543.37097836 -827212590.81108856 0 0 0 0 -87874913.300877571 100921157.45247078 0 100921157.45247078 -121917432.12750041 0 0 0 0 -61692084.116270065 -240076292.76367092 0 -240076292.76367092 -819900109.92968178 0 0 0 0 -502503.7752834222 -65404.243921762332 0 -65404.243921762332 118252.38738599978 0 0 0 0 42727427.921456337 -115371041.14180565 0 -115371041.14180565 -568806212.78771591 0 0 0 0 -155296928.64413261 -218862754.91456795 0 -218862754.91456795 -516682344.08375931 0 0 0 0 14757276.361623883 64115526.639387608 0 64115526.639387608 -427116267.51062775 0 0 0 0 -30457030.774908543 163735997.48116493 0 163735997.48116493 -476244129.37187183 0 0 0 0 -77230963.355364323 115460313.84045982 0 115460313.84045982 -429096049.49788094 0 0 0 0 -71077984.109731913 229480153.93542671 0 229480153.93542671 -380846235.49198723 0 0 0 0 -92419572.134276628 141399966.71431828 0 141399966.71431828 -262991811.1904335 0 0 0 0 -82087986.603668213 3454820.6698293686 0 3454820.6698293686 -294007207.26920199 0 0 0 0 -55403007.336161852 11044707.696480751 0 11044707.696480751 333067726.56766081 0 0 0 0 -2680286.1294502313 1622874.8383558947 0 1622874.8383558947 -893140.43019580888 0 0 0 0 -80279066.098541856 194998355.24473464 0 194998355.24473464 -126618991.16294289 0 0 0 0 91913655.818503618 -130098611.12878799 0 -130098611.12878799 -165033380.26036072 0 0 0 0 -69876852.618765831 -70028591.737483978 0 -70028591.737483978 30380900.699308395 0 0 0 0 -66914033.046961308 -256747763.22262287 0 -256747763.22262287 -343409569.978526 0 0 0 0 -142637144.4029237 31779006.49497509 0 31779006.49497509 -300743627.55661392 0 0 0 0 -42355626.851441622 -157759131.93802643 0 -157759131.93802643 -150269799.06905937 0 0 0 0 -47938709.628056765 -168747782.25923157 0 -168747782.25923157 -145291917.57975912 0 0 0 0 -40118501.617083073 -167841157.74088383 0 -167841157.74088383 -107038811.60213089 0 0 0 0 -20853688.591184378 -162734833.55970669 0 -162734833.55970669 -154998984.13933182 0 0 0 0 -2261618.9003295898 -79267108.520971298 0 -79267108.520971298 -206305585.06934166 0 0 0 0 -109346590.40779853 -109552797.31770778 0 -109552797.31770778 -47956988.971891403 0 0 0 0 -7885782.7059931755 -47522144.495103836 0 -47522144.495103836 -80346494.546508789 0 0 0 0 -25813803.099764109 -40846172.504730225 0 -40846172.504730225 -42683970.808773041 0 0 0 0 -205271550.7136488 -225972604.80596876 0 -225972604.80596876 13252678.235197067 0 0 0 0 -46014855.30436182 -69599362.253933907 0 -69599362.253933907 -24719958.036464691 0 0 0 0 -51056019.595110893 -60418423.74332428 0 -60418423.74332428 29351220.025865555 0 0 0 0 52439846.941570997 -70295653.682582617 0 -70295653.682582617 22493904.462472916 0 0 0 0 23261288.970806599 -4764649.2108888626 0 -4764649.2108888626 65474438.050922394 0 0 0 0 -843942.40045422316 -63911465.021376014 0 -63911465.021376014 24706751.770917892 0 0 0 0 5650879.754278183 -26220212.576983452 0 -26220212.576983452 -25863268.212076187 0 0 0 0 -9814832.2857294083 -19231705.651592255 0 -19231705.651592255 -21334976.74946785 0 0 0 0 -6642349.7572798729 -17946622.761934757 0 -17946622.761934757 -28594864.406295776 0 0 0 0 894237.84287929535 -910132.35739660263 0 -910132.35739660263 -1376367.3082125187 0 0 0 0 -2260954.3234348297 -958200.27242875099 0 -958200.27242875099 -18375118.27796936 0 0 0 0 711497.28752491274 -330046.80377104972 0 -330046.80377104972 -388487.35947617423 0 0 0 0 629811.31865722081 -865785.42688264558 0 -865785.42688264558 -1103893.9048576932 0 0 0 0 12453075.436917782 -10872326.004739761 0 -10872326.004739761 -45343607.422779858 0 0 0 0 187020.47917461395 -181455.91993093491 0 -181455.91993093491 -628280.7233171463 0 0 0 0 -9873388.6143974066 2931278.2930066586 0 2931278.2930066586 8314207.405632019 0 0 0 0 572664.72308063507 -328830.90597009659 0 -328830.90597009659 -812492.29145765305 0 0 0 0 457636.6103477478 -126405.05461215973 0 -126405.05461215973 -999375.49065732956 0 0 0 0 517854.95876660704 -1030344.3217480097 0 -1030344.3217480097 -537161.90039348975 0 0 0 0 9573823.074760288 12054731.633357286 0 12054731.633357286 -86427527.403939247 0 0 0 0 -16532675.103607416 -34144672.501738548 0 -34144672.501738548 -55340752.781950951 0 0 0 0 -3641398.0408968925 -35371188.513335228 0 -35371188.513335228 -57262517.391477585 0 0 0 0 476481.5983976766 -150914.77036147285 0 -150914.77036147285 -849832.31686235825 0 0 0 0 260298.99098205566 192100.49347686768 0 192100.49347686768 -1651634.5994949341 0 0 0 0 -14553627.095925927 11444913.877102852 0 11444913.877102852 -12611205.439742565 0 0 0 0 141500.64853620529 6538.3533411026001 0 6538.3533411026001 -1388819.137421608 0 0 0 0 760213.47201970802 512324.51895883074 0 512324.51895883074 -79719.251810431015 0 0 0 0 33780020.443152428 14197666.252014637 0 14197666.252014637 6375209.4464292526 0 0 0 0 -770881.27135157585 -28494132.120332241 0 -28494132.120332241 -54350743.54733181 0 0 0 0 -1209549.2689861765 -1088293.4618835314 0 -1088293.4618835314 43178.096191237681 0 0 0 0 -3027326.1276445389 -693211.60850334167 0 -693211.60850334167 21149479.966491699 0 0 0 0 520881.07769424148 127079.32344096783 0 127079.32344096783 -518697.06138128624 0 0 0 0 5110901.5779385567 2412445.7458658218 0 2412445.7458658218 229642.09088897705 0 0 0 0 4881731.0697057247 -7886675.3498754501 0 -7886675.3498754501 1360368.232572794 0 0 0 0 2036466.4437184334 399756.4689245224 0 399756.4689245224 3899008.6056747437 0 0 0 0 875322.44616293907 -858266.91022634506 0 -858266.91022634506 2037492.5607128143 0 0 0 0 175799.31903722591 -10731.673820707016 0 -10731.673820707016 -64511.872007935774 0 0 0 0 2914048.8214948177 1024524.8891313076 0 1024524.8891313076 -5234776.2028636932 0 0 0 0 -199638.54914236069 -858130.80934810638 0 -858130.80934810638 -1518559.2436509132 0 0 0 0 1558814.6363704801 -10330.765140652657 0 -10330.765140652657 -1118412.1947536469 0 0 0 0 3952178.6972755194 -4847431.9072179794 0 -4847431.9072179794 872721.08764648438 0 0 0 0 196969.68734172871 61306.462180922972 0 61306.462180922972 927403.09411893564 0 0 0 0 -329505.35876410478 -154656.78224422992 0 -154656.78224422992 783784.20370125212 0 0 0 0 -506545.43676877022 7685044.8436460495 0 7685044.8436460495 -10413848.836048603 0 0 0 0 1590835.8318667412 6819431.5407280922 0 6819431.5407280922 -12070993.314891815 0 0 0 0 6089775.0470759869 9062281.8674936295 0 9062281.8674936295 -27228402.782282829 0 0 0 0 13961137.437320352 5817106.6535811424 0 5817106.6535811424 -32748320.40030241 0 0 0 0 8749850.7384623289 4647719.6152172089 0 4647719.6152172089 -22222368.328872681 0 0 0 0 35280833.859359741 -7642179.8397479057 0 -7642179.8397479057 -90273472.880367279 0 0 0 0 5140932.9783182144 -7863836.0796070099 0 -7863836.0796070099 -12275899.229022026 0 0 0 0 17572186.966386795 258579.67809867859 0 258579.67809867859 -35001885.150638938 0 0 0 0 17492477.830404282 2442361.529583931 0 2442361.529583931 -29998975.712426662 0 0 0 0 5048410.9842839241 -20240539.080473423 0 -20240539.080473423 -29725655.226341248 0 0 0 0 302556.5468480587 -384278.5571641922 0 -384278.5571641922 -432313.88517665863 0 0 0 0 101218.05574464798 -813208.10020256042 0 -813208.10020256042 864875.61944484711 0 0 0 0 22349.288711696398 17774.001495091477 0 17774.001495091477 -137410.95512416877 0 0 0 0 11831.798714399338 -476632.19391870499 0 -476632.19391870499 2594262.7994718552 0 0 0 0 -84225.172540664673 -1552632.6802163124 0 -1552632.6802163124 1453963.6843509674 0 0 0 0 -3594733.185547471 98188.087919950485 0 98188.087919950485 -6601357.0056371689 0 0 0 0 -164577.54093933105 -1577888.1832027435 0 -1577888.1832027435 2249980.2022233009 0 0 0 0 -163211.07070534478 -40941.796725586522 0 -40941.796725586522 300439.8989794869 0 0 0 0 -6843040.5070807934 17961030.667631388 0 17961030.667631388 -26480548.965539932 0 0 0 0 -19526926.625514507 8944647.601744175 0 8944647.601744175 -5322248.2456307411 0 0 0 0 -9111747.880112648 -4504351.0950074196 0 -4504351.0950074196 4646785.2752161026 0 0 0 0 -16533789.128528357 -20955716.808450341 0 -20955716.808450341 -5078067.4984779358 0 0 0 0 4974354.9535636902 -2554629.712012291 0 -2554629.712012291 -5159930.08406353 0 0 0 0 400332.35230085946 -619059.01082315575 0 -619059.01082315575 -915181.65225620009 0 0 0 0 -27263710.162530899 -11486805.365674973 0 -11486805.365674973 -7458803.994635582 0 0 0 0 -65031632.284638047 -44302787.817372322 0 -44302787.817372322 -29702695.47289753 0 0 0 0 160118.1602968839 -273820.90495861915 0 -273820.90495861915 -346932.58763715299 0 0 0 0 -18174545.969073951 42362042.619789481 0 42362042.619789481 -49572685.391896248 0 0 0 0 -40409445.089182138 21149906.483246088 0 21149906.483246088 -12941695.059666872 0 0 0 0 -5484720.6363310814 -29287390.442013741 0 -29287390.442013741 -52178299.523180008 0 0 0 0 -6806106.7210702896 -18664602.49690938 0 -18664602.49690938 -89543697.522347927 0 0 0 0 -17118526.381059647 32572212.77320075 0 32572212.77320075 -61668012.80949831 0 0 0 0 -18346570.118042946 -4868134.1422133446 0 -4868134.1422133446 -7085893.4861848354 0 0 0 0 -5037655.9026386738 17559869.339209199 0 17559869.339209199 -27494203.811327457 0 0 0 0 2416216.4445054531 5886133.4055137634 0 5886133.4055137634 -31013925.809244633 0 0 0 0 -57721476.88362968 17311029.598360896 0 17311029.598360896 -18457384.485569 0 0 0 0 -49864177.279084176 -22966095.51321578 0 -22966095.51321578 793316.27813053131 0 0 0 0 -3174569.2978767157 -25508115.872452378 0 -25508115.872452378 -14907489.325819254 0 0 0 0 -10299478.697302163 -18185152.037671536 0 -18185152.037671536 -22214474.967101097 0 0 0 0 -3533896.9004364014 -5370347.3130819798 0 -5370347.3130819798 -9038748.2044091225 0 0 0 0 -5408464.1504396796 11098189.72309646 0 11098189.72309646 -15260499.13193655 0 0 0 0 3100836.233297348 34338089.677231431 0 34338089.677231431 -43244201.834823132 0 0 0 0 -25964872.32107383 72442129.55037868 0 72442129.55037868 -92233999.529943466 0 0 0 0 225123.18535407068 -625156.22666108946 0 -625156.22666108946 -381874.79038271494 0 0 0 0 -5398184.5214207172 -4806013.9018175602 0 -4806013.9018175602 345838.84668111801 0 0 0 0 12775656.549915075 47319577.777160883 0 47319577.777160883 -34230965.752799988 0 0 0 0 -210735.13066766108 -236066.5086550639 0 -236066.5086550639 67422.340577382827 0 0 0 0 -285702.45884054899 47513767.205397844 0 47513767.205397844 -47005565.548296928 0 0 0 0 -360326.55622339249 -37980374.730498075 0 -37980374.730498075 20232946.047339976 0 0 0 0 11336660.29583931 5797677.5534524918 0 5797677.5534524918 -6190328.016600132 0 0 0 0 -356099.25241684733 -416973.6077552333 0 -416973.6077552333 92187.607739551459 0 0 0 0 34690155.798310161 -21039316.84926486 0 -21039316.84926486 -9197328.3906569481 0 0 0 0 4954280.4912621975 28529090.719853044 0 28529090.719853044 -48388218.258257389 0 0 0 0 -56340194.955150247 -5868588.6607120037 0 -5868588.6607120037 32096485.513757706 0 0 0 0 50444939.687964678 -24847990.710481048 0 -24847990.710481048 -26318016.719074726 0 0 0 0 11115606.263215303 14749339.688941002 0 14749339.688941002 -77645597.146572351 0 0 0 0 12142320.231636047 2704847.5801792145 0 2704847.5801792145 -10123438.535260677 0 0 0 0 7415136.6870026588 18768149.627272069 0 18768149.627272069 -39716615.526509285 0 0 0 0 7399526.3659739494 18123231.687530041 0 18123231.687530041 -30138855.354108334 0 0 0 0 14841956.025107861 27626991.826132774 0 27626991.826132774 -30976810.262625694 0 0 0 0 14180427.058214188 35047773.733666062 0 35047773.733666062 -61198405.094863892 0 0 0 0 51136953.162649423 -32879407.990675211 0 -32879407.990675211 -23809982.252878189 0 0 0 0 -211324.93400566012 -237898.94439896144 0 -237898.94439896144 87692.556724927388 0 0 0 0 38970022.418732673 -6154409.7952381372 0 -6154409.7952381372 -66870852.887036324 0 0 0 0 5049118.3849261999 12201018.978668898 0 12201018.978668898 -34719701.637923241 0 0 0 0 -23184419.895015717 12966716.131158829 0 12966716.131158829 -21501252.814888477 0 0 0 0 6897491.2880563736 -1068563.3145022392 0 -1068563.3145022392 -20690207.965328217 0 0 0 0 -5127949.8413137738 8076949.3544809222 0 8076949.3544809222 -6979578.0908441544 0 0 0 0 -7337507.0235746801 17103068.160956442 0 17103068.160956442 -28745411.610690117 0 0 0 0 -33133804.175994873 18107473.826067448 0 18107473.826067448 -10914311.58592701 0 0 0 0 231370.30859604478 24919745.294964552 0 24919745.294964552 -12865053.399695754 0 0 0 0 18116788.08283427 22587349.687014461 0 22587349.687014461 2135990.3903255463 0 0 0 0 9714183.7982001901 -10047656.630830765 0 -10047656.630830765 20647914.243011475 0 0 0 0 10242453.471290007 5323116.8458967209 0 5323116.8458967209 -25057515.255980968 0 0 0 0 -47433747.855236769 22131586.142093182 0 22131586.142093182 6289746.1114926338 0 0 0 0 -48785143.826413929 9591486.4665178061 0 9591486.4665178061 -24115014.713666916 0 0 0 0 -23140500.347072601 12762461.611865044 0 12762461.611865044 -41463092.278078556 0 0 0 0 -17457864.262979746 -772242.93020343781 0 -772242.93020343781 4519352.180929184 0 0 0 0 -41803471.564136982 32278645.216259956 0 32278645.216259956 -26371184.941527128 0 0 0 0 -360791.02791189332 -431250.75902636931 0 -431250.75902636931 361993.63920558267 0 0 0 0 10080959.452133328 41571546.483715668 0 41571546.483715668 91861283.969037056 0 0 0 0 16777726.103660345 -3479907.0787254572 0 -3479907.0787254572 -13401871.854945183 0 0 0 0 -723491.00283864944 -1699238.5640759063 0 -1699238.5640759063 -3916878.0750532011 0 0 0 0 512837.04070806503 -23637282.225432634 0 -23637282.225432634 -34793006.247741699 0 0 0 0 -1095489.7052995721 -2600619.7875105292 0 -2600619.7875105292 -2346394.0705092615 0 0 0 0 -27085.57448220253 -1452570.4960013628 0 -1452570.4960013628 -874274.94900798798 0 0 0 0 -6424392.3940269947 -11480497.212433577 0 -11480497.212433577 8628391.1282923222 0 0 0 0 -1032267.3337163778 -889867.54920722032 0 -889867.54920722032 -3123030.755087961 0 0 0 0 -2958077.2233826518 -2129218.929140687 0 -2129218.929140687 7118237.5830292702 0 0 0 0 -1116233.6830651511 -1364028.5996838161 0 -1364028.5996838161 1143810.3358596966 0 0 0 0 -9377.2143276929855 -1432047.1967010498 0 -1432047.1967010498 -226703.21391105652 0 0 0 0 -999053.23115007696 -642140.27171804069 0 -642140.27171804069 -2490959.4278676268 0 0 0 0 -791242.3300745748 -904372.30138611794 0 -904372.30138611794 -1994810.6704447269 0 0 0 0 -411017.24269101769 -1569716.6812668741 0 -1569716.6812668741 -1285077.4005804062 0 0 0 0 -439675.42184296995 -5627711.5471507013 0 -5627711.5471507013 -2260428.9965457916 0 0 0 0 -215958.36577115953 -932420.92823049426 0 -932420.92823049426 -1822031.3675551414 0 0 0 0 798196.00606572628 18259030.958684921 0 18259030.958684921 -29171231.056355476 0 0 0 0 -5180212.9195198715 19615481.8522861 0 19615481.8522861 -12839923.278149128 0 0 0 0 6751398.5251760483 9349724.7774481773 0 9349724.7774481773 -13228987.590856552 0 0 0 0 -12848728.08677423 17254903.55765748 0 17254903.55765748 -14832468.868997097 0 0 0 0 -16761083.186727405 16986177.820108414 0 16986177.820108414 -13333314.812706947 0 0 0 0 -12856759.924256325 17195548.782177925 0 17195548.782177925 -13796069.29966259 0 0 0 0 -12982419.108991504 12958485.742316484 0 12958485.742316484 -17664985.710226059 0 0 0 0 -3276694.9443695545 19502753.577361584 0 19502753.577361584 -15088351.508350551 0 0 0 0 -4488883.7648796886 4447001.0637345314 0 4447001.0637345314 -13215039.593451023 0 0 0 0 -1015323.1911846942 -371946.31191684527 0 -371946.31191684527 -445286.92514841619 0 0 0 0 -579934.03295534849 -310686.99977632612 0 -310686.99977632612 395092.24271382391 0 0 0 0 -966613.79908197385 -1050063.9061653109 0 -1050063.9061653109 -276482.81887574214 0 0 0 0 4409.1146109531401 -580617.43463217514 0 -580617.43463217514 -2138150.2143318951 0 0 0 0 900.40252447128296 -5553822.5821576118 0 -5553822.5821576118 -4767238.2466654778 0 0 0 0 5629994.722680077 -585849.93621993065 0 -585849.93621993065 -60572766.243315339 0 0 0 0 -435904.59222651256 -545888.3631457123 0 -545888.3631457123 -715357.20150485844 0 0 0 0 170936.07906527302 84251.494228426833 0 84251.494228426833 -872046.48741843156 0 0 0 0 -2776566.5441751331 3341775.2247321606 0 3341775.2247321606 -30006929.918989539 0 0 0 0 -617292.68833971024 -1264994.559545517 0 -1264994.559545517 -1923288.0349006653 0 0 0 0 30401.115193784557 2847.6322791125858 0 2847.6322791125858 -101319.49554472696 0 0 0 0 139062.50638868706 -100424.6092736845 0 -100424.6092736845 -1649332.7910109723 0 0 0 0 314679.78126990795 90832.173218309879 0 90832.173218309879 -907680.30369710922 0 0 0 0 1027446.0065267086 -2470771.3330893517 0 -2470771.3330893517 -1700706.5068063736 0 0 0 0 185920.80977261066 211646.88810330629 0 211646.88810330629 -1022062.1811777353 0 0 0 0 -370793.80204353505 -278373.53690163523 0 -278373.53690163523 -1836783.0315455268 0 0 0 0 420218.49242389202 204568.12437319756 0 204568.12437319756 -985556.70478200912 0 0 0 0 423075.54904730705 331697.26693414553 0 331697.26693414553 -2875925.4546633339 0 0 0 0 325868.59134674072 88517.251065254211 0 88517.251065254211 -984539.53314065933 0 0 0 0 -195012.30235860683 -857035.49403977394 0 -857035.49403977394 -3446490.7622699738 0 0 0 0 -461479.29281917488 -387785.04305035749 0 -387785.04305035749 -1026364.7891845773 0 0 0 0 -1042544.467538923 1672504.8773004562 0 1672504.8773004562 3225281.4373264909 0 0 0 0 158519.31766068935 1051657.2108145058 0 1051657.2108145058 -180881.03593099117 0 0 0 0 201192.02918413281 324551.76513880491 0 324551.76513880491 -848500.16796255112 0 0 0 0 317348.83286654949 132608.62327092886 0 132608.62327092886 -571798.40083408356 0 0 0 0 15784.252523429095 -199979.93329382065 0 -199979.93329382065 -1505924.0509175742 0 0 0 0 -453570.77523637802 448268.53247941763 0 448268.53247941763 -335949.59347989864 0 0 0 0 260528.35194951296 -1546192.244661212 0 -1546192.244661212 -3320328.1376307011 0 0 0 0 -297391.28081757051 -1667116.7990669536 0 -1667116.7990669536 -3322407.1214563586 0 0 0 0 5871697.1303529739 -4135950.1925163269 0 -4135950.1925163269 -15839045.466957092 0 0 0 0 -627978.07850140333 -1062492.7684669495 0 -1062492.7684669495 -1801913.5743415356 0 0 0 0 8639.6464420167613 -796017.88400558988 0 -796017.88400558988 -2760374.4972900888 0 0 0 0 331615.58916733228 711729.97975959012 0 711729.97975959012 -10010.909418936819 0 0 0 0 -675427.79220181704 -1622308.3506686687 0 -1622308.3506686687 -2572380.2050797939 0 0 0 0 -300834.82602006197 -1294630.1848554611 0 -1294630.1848554611 -3350013.5934571028 0 0 0 0 -158553.13035875215 -582708.74773827393 0 -582708.74773827393 -2667921.8002060936 0 0 0 0 84909.855869427323 -307599.63044014573 0 -307599.63044014573 -3688566.3814444542 0 0 0 0 -1951188.5223528147 -858378.87142980099 0 -858378.87142980099 982673.20974850655 0 0 0 0 -1730249.4115579724 10991990.258297801 0 10991990.258297801 -5336933.0356931686 0 0 0 0 574228.45710940962 83200.236328177503 0 83200.236328177503 -3456492.9084383864 0 0 0 0 18876.034007549286 -774816.25748729706 0 -774816.25748729706 -3613730.6066436768 0 0 0 0 1820187.1354129314 5952841.8485268354 0 5952841.8485268354 1633194.2574841976 0 0 0 0 542043.20992693305 365433.28894996643 0 365433.28894996643 -493936.31803131104 0 0 0 0 82453.402064176917 268717.62325702852 0 268717.62325702852 -1147986.5230587814 0 0 0 0 527108.26503962639 -343646.53570485616 0 -343646.53570485616 -2553129.193788277 0 0 0 0 624817.92825779342 -727931.4618977122 0 -727931.4618977122 -6076999.3443779154 0 0 0 0 6925858.9130761055 656448.10959233623 0 656448.10959233623 4297958.0702056885 0 0 0 0 508900.16995073855 350975.59841918945 0 350975.59841918945 -442402.80349349976 0 0 0 0 441497.49814562604 -1128393.6624926692 0 -1128393.6624926692 -4953975.9392111609 0 0 0 0 28512200.136410952 6197105.6209233999 0 6197105.6209233999 -16618111.231290817 0 0 0 0 363098.32513476006 -1815158.8964347416 0 -1815158.8964347416 -5803147.358166921 0 0 0 0 245432.25513442204 977337.00004830933 0 977337.00004830933 20234.527474464267 0 0 0 0 13125288.381628163 2929488.689517919 0 2929488.689517919 -9411024.47824049 0 0 0 0 20538287.169048309 -3472471.8075455427 0 -3472471.8075455427 7259659.8812179565 0 0 0 0 8004568.2589581013 7553717.1428916454 0 7553717.1428916454 -13398746.214057446 0 0 0 0 8103151.8062031269 5571787.2193133831 0 5571787.2193133831 -8740910.260691762 0 0 0 0 11817217.888452291 6629713.6921350956 0 6629713.6921350956 -33010290.098135471 0 0 0 0 -9078440.6196217574 2311996.7032433599 0 2311996.7032433599 -12100740.837083817 0 0 0 0 -7888186.1473486871 12509063.217418343 0 12509063.217418343 -4417951.0418186188 0 0 0 0 11930728.448417425 420767.87357258797 0 420767.87357258797 7625948.2538444996 0 0 0 0 23763646.819862127 15530159.175121069 0 15530159.175121069 -11793797.746035099 0 0 0 0 6890775.587112546 1502098.7612361908 0 1502098.7612361908 -6084798.3477973938 0 0 0 0 19131851.220562696 -6969497.7193001211 0 -6969497.7193001211 -10909499.921502948 0 0 0 0 219544.94668127655 -715601.21028475603 0 -715601.21028475603 -823182.19677412265 0 0 0 0 -751385.87755035446 -643215.96759620146 0 -643215.96759620146 -138593.493137841 0 0 0 0 6808426.4831137657 3557711.6235138997 0 3557711.6235138997 6568909.1763688922 0 0 0 0 169367.00371525643 -714539.77481843566 0 -714539.77481843566 -1278668.3669036676 0 0 0 0 213464.12593412399 -416257.7683160305 0 -416257.7683160305 -204771.89756774902 0 0 0 0 -745351.93894541194 -486297.01851331227 0 -486297.01851331227 -122222.97992725403 0 0 0 0 4395525.3943084478 -3612503.4123780727 0 -3612503.4123780727 489721.35606598854 0 0 0 0 161633.09354729659 394454.03872622951 0 394454.03872622951 -1526079.9018466084 0 0 0 0 -14944164.862531751 3370499.9625511169 0 3370499.9625511169 -149842.6846768856 0 0 0 0 -4443923.1396634579 2460161.2655177116 0 2460161.2655177116 -1650489.9226365089 0 0 0 0 133742.60446715355 -719503.10534965992 0 -719503.10534965992 -1878641.3295093775 0 0 0 0 96035.368647891999 294971.10575315671 0 294971.10575315671 -319971.5123199317 0 0 0 0 -29663847.565477431 16826066.813802958 0 16826066.813802958 -3560510.3694699109 0 0 0 0 -804764.34755325317 -6343782.0530502796 0 -6343782.0530502796 -7236211.1047997475 0 0 0 0 -11187.16516327858 2561447.7099500299 0 2561447.7099500299 13148251.660946369 0 0 0 0 -19656893.265805483 567541.91686749458 0 567541.91686749458 14605817.66422236 0 0 0 0 -118048404.26410055 -79136264.367304802 0 -79136264.367304802 -41586296.439337492 0 0 0 0 -386014.25882026437 -352171.07852793019 0 -352171.07852793019 53137.486134133767 0 0 0 0 -86799912.928960562 -56860256.332074791 0 -56860256.332074791 -18858096.954738855 0 0 0 0 15065672.386873245 12216611.305845231 0 12216611.305845231 -9975627.6109465063 0 0 0 0 -34192011.234546661 5377445.8746398687 0 5377445.8746398687 10104966.976006746 0 0 0 0 -25009169.068411827 -1940894.1934280246 0 -1940894.1934280246 -739573.64016100764 0 0 0 0 -12949576.041565418 -1998103.5213361979 0 -1998103.5213361979 -1218985.5675603151 0 0 0 0 -18339801.803085685 -20863498.970700011 0 -20863498.970700011 -11677027.687311411 0 0 0 0 5687951.633234024 -896257.83725324273 0 -896257.83725324273 -4449407.8800992966 0 0 0 0 -36970425.069680214 -34529910.510926366 0 -34529910.510926366 -21001173.99673849 0 0 0 0 24989606.206000328 -11182880.969480276 0 -11182880.969480276 -20609743.676737614 0 0 0 0 8610854.9905929565 -36985868.528680205 0 -36985868.528680205 -60126075.64008975 0 0 0 0 9452516.4182777405 -68860378.946516395 0 -68860378.946516395 -31047400.945611238 0 0 0 0 -45767945.13445282 -54279579.599702835 0 -54279579.599702835 -34509872.659652591 0 0 0 0 -34098290.685689926 -38716038.736083984 0 -38716038.736083984 -83175913.651906967 0 0 0 0 -39775593.151636839 -47117233.683945179 0 -47117233.683945179 -27914178.088825226 0 0 0 0 -54508532.874764442 45518935.112004757 0 45518935.112004757 -114154321.92428517 0 0 0 0 -56667617.497938156 51600402.233377457 0 51600402.233377457 124583010.0348115 0 0 0 0 -132937194.21435547 -52870065.307970047 0 -52870065.307970047 25766175.01346612 0 0 0 0 -93078313.335821152 -205212408.14087629 0 -205212408.14087629 426546247.73871446 0 0 0 0 49810995.564340591 -226340709.6874955 0 -226340709.6874955 77031232.388606071 0 0 0 0 37010797.94168663 -150994036.46623361 0 -150994036.46623361 -98633188.90221709 0 0 0 0 37278793.610580444 -134911866.39533323 0 -134911866.39533323 -32439920.655186266 0 0 0 0 -42449324.390014648 -103809000.92843223 0 -103809000.92843223 53761258.187823653 0 0 0 0 52688719.149195552 -183793772.44607437 0 -183793772.44607437 -107682578.43088794 0 0 0 0 -53207186.989422798 47400486.514235318 0 47400486.514235318 19276493.74780035 0 0 0 0 71911.714837466367 157542.79567077011 0 157542.79567077011 -1053483.750083755 0 0 0 0 5811384.5996685028 16123145.920719385 0 16123145.920719385 -31875170.197265387 0 0 0 0 6024561.8917064667 2070389.4506094456 0 2070389.4506094456 -18136854.020297766 0 0 0 0 4468880.3256912231 16031241.220261335 0 16031241.220261335 -31708478.059274197 0 0 0 0 6370833.7160167694 22481850.739131093 0 22481850.739131093 -22883966.172017813 0 0 0 0 6609237.3799858093 5028178.0723586082 0 5028178.0723586082 -1820744.5054357576 0 0 0 0 3871060.2872037888 34634119.496807784 0 34634119.496807784 -55566314.571324348 0 0 0 0 11897301.965003967 29986182.947847366 0 29986182.947847366 -76756296.581022739 0 0 0 0 1111046.9678730965 220642961.75364318 0 220642961.75364318 294244274.43910885 0 0 0 0 21070050.992753983 39029593.403811455 0 39029593.403811455 -78607826.847669125 0 0 0 0 45679602.122329712 61798746.575376034 0 61798746.575376034 -136328375.32460666 0 0 0 0 76102270.694213867 -123449976.55793747 0 -123449976.55793747 -282630379.822474 0 0 0 0 94394617.559339523 -7489685.8503974676 0 -7489685.8503974676 -377042908.2593959 0 0 0 0 5527299.3034453392 -85941312.444431022 0 -85941312.444431022 -83113823.031569302 0 0 0 0 72389939.997296333 -47306321.736128569 0 -47306321.736128569 -64127528.942900836 0 0 0 0 74005740.408466339 -69249885.216199756 0 -69249885.216199756 -210538660.77677739 0 0 0 0 78125681.976190567 -142719194.87324849 0 -142719194.87324849 -103264246.0784058 0 0 0 0 92716229.186024189 -37710233.401854128 0 -37710233.401854128 -168372198.66873407 0 0 0 0 -27396900.706273198 17705129.517652214 0 17705129.517652214 19598100.560770273 0 0 0 0 -1549522.9918268987 968595.34669732873 0 968595.34669732873 -662934.49070293794 0 0 0 0 19248447.537568331 70330167.785724282 0 70330167.785724282 15127830.361314297 0 0 0 0 68054266.1310215 119885350.91219378 0 119885350.91219378 -192963321.34639421 0 0 0 0 -1329637.097900629 9905864.4233260155 0 9905864.4233260155 11739284.024077177 0 0 0 0 -126853189.62917137 -35542251.576512933 0 -35542251.576512933 95516321.182285309 0 0 0 0 69969439.52534771 117651385.05336142 0 117651385.05336142 -286514887.16274631 0 0 0 0 199293.13548994064 -3446103.31085217 0 -3446103.31085217 -16114102.384035826 0 0 0 0 7675682.0692278147 11092140.592121303 0 11092140.592121303 -5271212.4339828491 0 0 0 0 5584482.5427483618 -1288335.9411283135 0 -1288335.9411283135 -26249645.519991636 0 0 0 0 -14718237.169791222 -31423144.854250669 0 -31423144.854250669 -13677709.498556614 0 0 0 0 14425301.973229051 -4434664.6888313293 0 -4434664.6888313293 -75936280.573528647 0 0 0 0 44351763.04081893 -11390717.535279274 0 -11390717.535279274 -3372852.2134187222 0 0 0 0 -27602.591481935597 298476.32338042912 0 298476.32338042912 -1646280.9827273814 0 0 0 0 10018470.886681557 -18539846.873036623 0 -18539846.873036623 -16337278.692037463 0 0 0 0 15035199.078118324 2428109.7858029604 0 2428109.7858029604 -5126181.0735244751 0 0 0 0 17612034.538223207 -6823000.1466180682 0 -6823000.1466180682 1732126.4068098068 0 0 0 0 -1604619.4526836872 -9255740.2507947683 0 -9255740.2507947683 19351914.355927348 0 0 0 0 -8778109.8304260969 -17712197.000438333 0 -17712197.000438333 13394576.374396086 0 0 0 0 -640772.82309629081 764491.53254986904 0 764491.53254986904 -1179384.4099698456 0 0 0 0 -42611271.868028641 -83435644.201374054 0 -83435644.201374054 -107019943.85847664 0 0 0 0 -71968923.709223747 -60292102.441592693 0 -60292102.441592693 -36268099.83190918 0 0 0 0 -162564457.02792597 -55540038.416896105 0 -55540038.416896105 -159710.35907173157 0 0 0 0 -90112205.274317741 -89487170.836674452 0 -89487170.836674452 -81967175.097294807 0 0 0 0 -81092085.432106018 -93306322.102285147 0 -93306322.102285147 -82132351.013493076 0 0 0 0 -192950126.20368719 -227986270.69075465 0 -227986270.69075465 -243950232.89766335 0 0 0 0 3836624.1182966232 -41682802.841767073 0 -41682802.841767073 -101822898.22548771 0 0 0 0 -36876052.481721401 -113416711.95834553 0 -113416711.95834553 -227180392.95257092 0 0 0 0 23663950.400475979 45932202.502565265 0 45932202.502565265 -211984700.58732748 0 0 0 0 14426613.429402828 28874931.530343115 0 28874931.530343115 -98062260.398556709 0 0 0 0 -54982786.563001633 -34509282.567997456 0 -34509282.567997456 -146483904.80560869 0 0 0 0 131523133.09552288 51129223.399021208 0 51129223.399021208 -178565338.96088433 0 0 0 0 -133668797.54772186 104265617.43555582 0 104265617.43555582 -390980221.36551476 0 0 0 0 -22796730.380074501 -136664470.13356632 0 -136664470.13356632 -529245539.79974747 0 0 0 0 -850635.83874178864 151993.18125862 0 151993.18125862 145720.83254052734 0 0 0 0 -275919414.71881986 -217316235.81948495 0 -217316235.81948495 -108603138.49586368 0 0 0 0 -14897864.171581984 -79520473.840808839 0 -79520473.840808839 -179914551.22035122 0 0 0 0 7258559.5040391684 -26028441.681100726 0 -26028441.681100726 -26002893.852444649 0 0 0 0 -107547582.43046045 62512018.880376101 0 62512018.880376101 17522535.129160762 0 0 0 0 -282740928.71050858 -64557927.358977497 0 -64557927.358977497 -2221152.9448189735 0 0 0 0 -94299601.332491875 12622470.981950283 0 12622470.981950283 4785092.315418452 0 0 0 0 -20864577.525876045 18288881.657444954 0 18288881.657444954 -25129537.474511147 0 0 0 0 -78056358.521273136 -5586566.4640343189 0 -5586566.4640343189 -1662024.8463773727 0 0 0 0 2071665.9997196198 -4649958.8235464096 0 -4649958.8235464096 -2646821.4012913704 0 0 0 0 2439558.7075610161 -6632788.9709415436 0 -6632788.9709415436 -12767088.600778818 0 0 0 0 -3854897.4498467445 9138171.7784910202 0 9138171.7784910202 -16799637.251743555 0 0 0 0 8532090.5124302804 -4611743.8370985985 0 -4611743.8370985985 -6379171.6209578514 0 0 0 0 859710.15078043938 -357944.46344137192 0 -357944.46344137192 1721110.3991165161 0 0 0 0 -6468381.652617082 -262500.64007282257 0 -262500.64007282257 2849001.6660423279 0 0 0 0 384869.39325200184 -661339.64895825554 0 -661339.64895825554 -523137.14262316329 0 0 0 0 8450186.961171113 -3792473.8130676895 0 -3792473.8130676895 -943573.33645057678 0 0 0 0 -3525024.2930225506 32791.243817910319 0 32791.243817910319 1053530.7848726069 0 0 0 0 7189563.2700947523 -7860527.4331126213 0 -7860527.4331126213 38940.691164016724 0 0 0 0 -2547062.7487158775 -4430952.7231650352 0 -4430952.7231650352 9147583.2071657181 0 0 0 0 -9498703.4300773144 -19942065.808520317 0 -19942065.808520317 36563117.431158423 0 0 0 0 8236692.9771580696 -6374690.4666894674 0 -6374690.4666894674 -3415150.2168259621 0 0 0 0 -2292091.8008472119 102280.55127352738 0 102280.55127352738 475363.50066872587 0 0 0 0 -7380532.3921098709 -64722753.024188757 0 -64722753.024188757 -209694832.72112557 0 0 0 0 -5680736.2216457129 -107705770.93555339 0 -107705770.93555339 -161124581.40477252 0 0 0 0 -6434812.9745597839 -101948611.70458871 0 -101948611.70458871 -205078438.05089766 0 0 0 0 -22335902.114901543 -118640698.26146495 0 -118640698.26146495 -140571944.04430556 0 0 0 0 -37359180.446974754 -188208014.55267823 0 -188208014.55267823 -142797748.46819687 0 0 0 0 -15824927.828098297 -98914359.936113954 0 -98914359.936113954 -81017589.172627091 0 0 0 0 -12196649.09148407 -17727800.476008654 0 -17727800.476008654 -30151110.506737113 0 0 0 0 3539134.9494557381 -27229169.801627457 0 -27229169.801627457 -109330086.11211538 0 0 0 0 -61012436.682754517 -97894831.55280149 0 -97894831.55280149 3934977.8485500813 0 0 0 0 -37725913.546973228 -29143469.58374846 0 -29143469.58374846 -20321643.148346663 0 0 0 0 5233391.4223356247 5046997.2068312168 0 5046997.2068312168 -13747009.132558942 0 0 0 0 -2080335.9442207292 212968.27979874611 0 212968.27979874611 594273.4167881012 0 0 0 0 -1296287.3984857134 -830535.22527752793 0 -830535.22527752793 310863.16777692037 0 0 0 0 20422649.05879879 35673448.258947611 0 35673448.258947611 52057969.335626245 0 0 0 0 -526651.47497878736 378176.42302315868 0 378176.42302315868 475825.38431151665 0 0 0 0 -27639157.832769394 -12477351.67307353 0 -12477351.67307353 11746742.900928497 0 0 0 0 -18352413.249673843 -24088054.733613014 0 -24088054.733613014 -22542454.423604965 0 0 0 0 -315458869.12904501 -393486479.25514787 0 -393486479.25514787 -1786504.4913961887 0 0 0 0 -83725161.475021362 -139960845.77525866 0 -139960845.77525866 -57301672.161268473 0 0 0 0 -439022.39237855689 -217989.77844485152 0 -217989.77844485152 288224.89736175397 0 0 0 0 -140691363.58696461 -18096375.111047059 0 -18096375.111047059 209293766.74167037 0 0 0 0 -40029112.569055796 -184957526.29538476 0 -184957526.29538476 -18847093.600586414 0 0 0 0 -113233826.17598963 43458335.149716854 0 43458335.149716854 145913725.1984117 0 0 0 0 -100801656.53850842 -38660819.867160797 0 -38660819.867160797 229739575.14315343 0 0 0 0 -422249839.93625164 220265937.60071629 0 220265937.60071629 21530216.89644146 0 0 0 0 18739315.760475159 21269356.220015526 0 21269356.220015526 -1896321.0471174717 0 0 0 0 -3610844.9771251678 -3781754.2398395538 0 -3781754.2398395538 -1706790.0735149384 0 0 0 0 -2973853.3236492835 -819402.47926267353 0 -819402.47926267353 -1164313.3257980382 0 0 0 0 928480.63654613495 -80440641.324737966 0 -80440641.324737966 64550741.652338982 0 0 0 0 -2705321.8869245052 -3173821.1725592613 0 -3173821.1725592613 -1986608.3304367065 0 0 0 0 -3907456.0768885612 -3552871.0448966026 0 -3552871.0448966026 -1751369.7321825027 0 0 0 0 -2113194.8364782333 -3894839.416059494 0 -3894839.416059494 -2363384.4592256546 0 0 0 0 -3912583.0535302162 -4010799.7553548813 0 -4010799.7553548813 -2075374.169508934 0 0 0 0 -6739148.2505393028 -4319332.8401412964 0 -4319332.8401412964 -678017.46735286713 0 0 0 0 -6009032.0864477158 -2536056.8051071167 0 -2536056.8051071167 -2109711.3276023865 0 0 0 0 -97114.332541646669 283149.89318283787 0 283149.89318283787 137502.96765236917 0 0 0 0 -3905493.2568473816 -4390059.0036296844 0 -4390059.0036296844 -5741890.8179206848 0 0 0 0 -2226205.1110367179 -2484834.5580639839 0 -2484834.5580639839 -3697196.353187561 0 0 0 0 -2735906.6275572777 -1021801.2979283333 0 -1021801.2979283333 79284.590370178223 0 0 0 0 -868719.24103532766 -2215172.935392247 0 -2215172.935392247 -299431.27502786322 0 0 0 0 -6185655.0028018951 -3689220.8914842606 0 -3689220.8914842606 -237375.64882087708 0 0 0 0 48434.054016420021 17760.882282794453 0 17760.882282794453 -8484.1197284837253 0 0 0 0 -8670818.2186496258 -3918014.6098508835 0 -3918014.6098508835 -460973.40209007263 0 0 0 0 -7861408.0471479893 -5506056.0360889435 0 -5506056.0360889435 -2416176.5619220734 0 0 0 0 -6040317.2159285545 -3372495.1789646149 0 -3372495.1789646149 -45310.32421875 0 0 0 0 -7212083.1069922447 -4177134.1215801239 0 -4177134.1215801239 -402441.00264930725 0 0 0 0 -6845594.0684155226 -4377082.7856340408 0 -4377082.7856340408 -301792.91762542725 0 0 0 0 -6862911.9513007998 -3999906.6959431171 0 -3999906.6959431171 -678419.1056060791 0 0 0 0 -7182611.055316925 -4227667.8555231094 0 -4227667.8555231094 -820754.55588150024 0 0 0 0 -6841098.8755302429 -4523136.9409141541 0 -4523136.9409141541 -2254140.2948799133 0 0 0 0 -6460913.7697790563 -2900437.3774361014 0 -2900437.3774361014 -2316973.3704071045 0 0 0 0 294176.77565017296 -1477102.1235584682 0 -1477102.1235584682 -642067.81243948406 0 0 0 0 -6792263.2505066395 -3957178.9572649002 0 -3957178.9572649002 -1320293.5319824219 0 0 0 0 -6721270.2667523623 -4327005.3853759766 0 -4327005.3853759766 -1225185.3781547546 0 0 0 0 -7237468.8751339912 -4163910.1408233643 0 -4163910.1408233643 -1272123.8415174484 0 0 0 0 -6372574.0777748525 -4167160.5458717346 0 -4167160.5458717346 -1551316.9703941345 0 0 0 0 -6821060.3961167336 -4212986.342710495 0 -4212986.342710495 -478389.00247955322 0 0 0 0 -6626106.3907133341 -3696516.0578966141 0 -3696516.0578966141 -2393899.6459236145 0 0 0 0 -7611078.7660284638 -2483967.4193453789 0 -2483967.4193453789 -1561477.8060264587 0 0 0 0 -7967975.5511782765 -3693319.4806337357 0 -3693319.4806337357 -2377883.2406463623 0 0 0 0 -7236808.9548530579 -3395741.0321273804 0 -3395741.0321273804 -3503207.2160224915 0 0 0 0 -5665098.4301002026 -4120793.2515621185 0 -4120793.2515621185 -5704020.8298317688 0 0 0 0 -7505527.9847929478 -4230589.1927063465 0 -4230589.1927063465 -2315775.8094100952 0 0 0 0 -7146223.1475734711 -3824459.8656959534 0 -3824459.8656959534 -3980762.7837600708 0 0 0 0 -5680683.7498121262 -2748211.4613456726 0 -2748211.4613456726 -2223056.9745869637 0 0 0 0 -5670192.8025377393 -4245637.78509745 0 -4245637.78509745 -5730032.6029510498 0 0 0 0 -5056416.1065938473 -4638233.3551220894 0 -4638233.3551220894 2244489.5205755234 0 0 0 0 -6801453.8529570103 -3959282.7049884796 0 -3959282.7049884796 -889288.98382568359 0 0 0 0 -5647112.7222130299 -5316127.9780731201 0 -5316127.9780731201 -543549.74645233154 0 0 0 0 -3742463.9368243217 -6320173.5079040527 0 -6320173.5079040527 -13979415.404233932 0 0 0 0 -1761220.7418789864 -7051451.6461849213 0 -7051451.6461849213 -13709924.017377853 0 0 0 0 -2415614.4424757957 -6545338.8472242355 0 -6545338.8472242355 -11888180.630464554 0 0 0 0 -6875575.5324552627 -7745441.0521795098 0 -7745441.0521795098 -10003576.103302002 0 0 0 0 -3794552.7538542747 -8674579.587469101 0 -8674579.587469101 -15104029.33981514 0 0 0 0 -1250718.6810426712 -3575007.5822439194 0 -3575007.5822439194 -18282646.724485874 0 0 0 0 -232765.61359190941 3085943.0092012882 0 3085943.0092012882 -5335409.1482925415 0 0 0 0 -1892902.5344752073 -2992074.0624186993 0 -2992074.0624186993 -9956433.3394355774 0 0 0 0 -5789423.4809179306 -4270433.4904518127 0 -4270433.4904518127 -5732178.1171426773 0 0 0 0 -5815347.1278376579 -4144347.0633239746 0 -4144347.0633239746 -5704011.1891225278 0 0 0 0 -6849355.8024390936 -6184257.2484846115 0 -6184257.2484846115 -8904660.5983161926 0 0 0 0 -6874030.9476213455 -4502013.2192258835 0 -4502013.2192258835 -8703906.3881702423 0 0 0 0 -9274214.7200758457 -3893326.9230365753 0 -3893326.9230365753 165366.59524154663 0 0 0 0 -8435291.0380130112 -6457883.8368902206 0 -6457883.8368902206 -5599368.958319664 0 0 0 0 -9810602.2145956159 -5141087.400056839 0 -5141087.400056839 -1779277.2341804504 0 0 0 0 -8524758.8176229596 -8457818.6912174225 0 -8457818.6912174225 -11704752.393060684 0 0 0 0 -10328071.703925967 -5470519.7296524048 0 -5470519.7296524048 -8805359.9253730774 0 0 0 0 -4225971.7001018524 -5510377.6496524811 0 -5510377.6496524811 -9945390.7356033325 0 0 0 0 -5196225.6136206388 -10741497.269729614 0 -10741497.269729614 -16656696.743192673 0 0 0 0 -4493455.2162623405 -8929779.3429765701 0 -8929779.3429765701 -13371849.723350525 0 0 0 0 -14103002.270858407 -10660865.028501987 0 -10660865.028501987 -9577353.5788078308 0 0 0 0 502772.05635070801 -5447265.4709835052 0 -5447265.4709835052 -13319019.846633911 0 0 0 0 1594232.275590539 -2351565.3277769089 0 -2351565.3277769089 -13127042.827949047 0 0 0 0 -1201064.3045516014 -2382229.3482999802 0 -2382229.3482999802 -7968755.4022598267 0 0 0 0 -3068261.1620705128 -5841537.1878356934 0 -5841537.1878356934 -12291534.933517456 0 0 0 0 -5529427.6148118973 -5214316.4740524292 0 -5214316.4740524292 -5716115.2128601074 0 0 0 0 257856.40822014911 -306914.21088668238 0 -306914.21088668238 -1985672.7007683991 0 0 0 0 -1087191.3420796795 -3384599.5202783458 0 -3384599.5202783458 -10652364.320640564 0 0 0 0 -3946174.5776433945 -1862275.0871715546 0 -1862275.0871715546 -5151413.6354656219 0 0 0 0 958572.66126391268 -516405.59898232436 0 -516405.59898232436 -2843536.9175024279 0 0 0 0 4804239.8498786986 -7863058.5980391502 0 -7863058.5980391502 -5029413.0486068726 0 0 0 0 -3391160.7588499188 -5321307.7178926468 0 -5321307.7178926468 -10842147.750008464 0 0 0 0 3684518.7257692246 -8304635.9046904407 0 -8304635.9046904407 -584185.5032119751 0 0 0 0 187567.22055509686 -1367458.8452396393 0 -1367458.8452396393 -3237413.3756885529 0 0 0 0 1379599.5824824274 -7431925.4419794083 0 -7431925.4419794083 8074886.113243103 0 0 0 0 -554123.27453875542 -12407798.487827301 0 -12407798.487827301 5741860.6675319672 0 0 0 0 2064375.439879775 -25763650.515871048 0 -25763650.515871048 26571801.143577576 0 0 0 0 4799566.1030246019 -23069077.444976807 0 -23069077.444976807 26541097.175390244 0 0 0 0 -4316749.2315517664 -632483.69795894623 0 -632483.69795894623 15881014.089696407 0 0 0 0 4214055.7812054157 -7780383.0093660355 0 -7780383.0093660355 -12388034.445205688 0 0 0 0 218223.77980452945 2514.4219129406847 0 2514.4219129406847 -755032.43877192773 0 0 0 0 4055783.8915733993 -9932742.6957941055 0 -9932742.6957941055 -15121389.45598793 0 0 0 0 -4223811.8222913742 -20546496.149834633 0 -20546496.149834633 -22808828.475749969 0 0 0 0 -49873582.624868631 -42812510.51157856 0 -42812510.51157856 -18755988.212619781 0 0 0 0 -2759600.379683733 -5442705.3040866852 0 -5442705.3040866852 -12542862.183106422 0 0 0 0 4873781.2697808743 12651465.152946472 0 12651465.152946472 -13284318.200213015 0 0 0 0 355356.56817553123 -437747.99649993354 0 -437747.99649993354 -567334.44528463483 0 0 0 0 -12583430.103007257 -42347313.625056028 0 -42347313.625056028 -49816685.592687607 0 0 0 0 60281591.856926203 -8959869.9606714249 0 -8959869.9606714249 -70859944.003545761 0 0 0 0 462325.32379370346 -39782.363547259942 0 -39782.363547259942 -958851.84467482101 0 0 0 0 -3561289.8007413149 -9121617.5641317368 0 -9121617.5641317368 46946634.373441696 0 0 0 0 -2762537.0003361702 -28117847.23135376 0 -28117847.23135376 40920546.724586487 0 0 0 0 -25716485.916485488 -25558796.383037388 0 -25558796.383037388 15571798.289848328 0 0 0 0 -4328754.5829892159 19398819.096813202 0 19398819.096813202 42002324.66788578 0 0 0 0 -28612287.464683831 -43589254.224695683 0 -43589254.224695683 -45691264.101135254 0 0 0 0 -72191975.108540535 -24434065.274297714 0 -24434065.274297714 86692091.443206787 0 0 0 0 1143618.949194903 -729104.18192138779 0 -729104.18192138779 -526080.37513046246 0 0 0 0 3704477.5674624443 -1255488.9308400154 0 -1255488.9308400154 -6852197.0875167847 0 0 0 0 -7094237.6514264904 -11284716.497901052 0 -11284716.497901052 -3723383.8049850464 0 0 0 0 -12440797.452302217 -14785266.736959934 0 -14785266.736959934 -16502269.440170288 0 0 0 0 -27231355.666567564 -10782728.012612343 0 -10782728.012612343 -13105521.509744644 0 0 0 0 392719.23637577251 -54004.867080183234 0 -54004.867080183234 -369850.95739981066 0 0 0 0 -2047104.1191313267 -527805.53900432587 0 -527805.53900432587 1540476.9586772919 0 0 0 0 -5779698.5523391236 -7746065.847884059 0 -7746065.847884059 -2067876.1825885773 0 0 0 0 678111.28529431869 -1488733.5254265685 0 -1488733.5254265685 -555140.32317736326 0 0 0 0 4833942.3900985718 14933604.685631752 0 14933604.685631752 -3933753.8580188751 0 0 0 0 973835.35158439726 -397074.64563945355 0 -397074.64563945355 -1013078.654878621 0 0 0 0 -4643503.8540275693 3524558.0812802315 0 3524558.0812802315 5607087.2759227753 0 0 0 0 7329301.8102048635 -684820.04033845663 0 -684820.04033845663 -10021111.108455658 0 0 0 0 -28774042.261577204 -3751248.6453551427 0 -3751248.6453551427 -7133786.9627599716 0 0 0 0 -15362145.402970791 -9709448.814204216 0 -9709448.814204216 807175.52751350403 0 0 0 0 -56019087.794805527 1121717.3732795715 0 1121717.3732795715 283048.48817062378 0 0 0 0 -29138830.398823738 4983398.0617103577 0 4983398.0617103577 -4286990.6380834579 0 0 0 0 -82723797.948800087 -16567652.318021297 0 -16567652.318021297 9469939.4210996628 0 0 0 0 -62700525.434756756 -27913341.051544189 0 -27913341.051544189 -3515905.492898941 0 0 0 0 -40075934.177702665 -15748481.229495525 0 -15748481.229495525 1444403.2471423149 0 0 0 0 -4047185.632332474 11578795.12393707 0 11578795.12393707 7655974.4156427383 0 0 0 0 -35568340.801695824 1720096.2287321091 0 1720096.2287321091 6247893.9658715725 0 0 0 0 999125.8022174089 -215773.16394420201 0 -215773.16394420201 -1036143.0790475551 0 0 0 0 8330236.4817738533 -10935872.481712341 0 -10935872.481712341 -12071668.043440342 0 0 0 0 1079888.3518557432 -524805.56993633788 0 -524805.56993633788 -606960.36323514674 0 0 0 0 -22778769.161093235 -27030884.549653053 0 -27030884.549653053 1858078.6405096054 0 0 0 0 -14008802.743395805 -35229134.166994095 0 -35229134.166994095 -13794887.093688965 0 0 0 0 -17085281.668070972 5921651.0055924058 0 5921651.0055924058 24965811.573415756 0 0 0 0 -58894959.192159653 -41182780.689876556 0 -41182780.689876556 -1034938.7975473404 0 0 0 0 552566.98222758947 -80027.765989111736 0 -80027.765989111736 -572665.12699510437 0 0 0 0 13263420.365015268 22759734.156273067 0 22759734.156273067 13047314.681705475 0 0 0 0 -59798244.886524677 -44117644.792034149 0 -44117644.792034149 14614013.606156349 0 0 0 0 -10170378.68898201 -45518581.700886726 0 -45518581.700886726 13534251.655692577 0 0 0 0 -62725320.151705742 -40908764.7676301 0 -40908764.7676301 14057563.75879097 0 0 0 0 -66274164.478589058 -43247968.932986736 0 -43247968.932986736 26980195.825796604 0 0 0 0 -67885179.854245186 -35754696.111064434 0 -35754696.111064434 11601449.769088507 0 0 0 0 -66390943.861961365 -39863021.206736565 0 -39863021.206736565 8455542.9529182613 0 0 0 0 -59183314.089293003 -43705225.084269047 0 -43705225.084269047 8689749.934346199 0 0 0 0 -86406621.110385895 -30217405.185091972 0 -30217405.185091972 10429427.433447123 0 0 0 0 -61151892.104106665 -32540950.636089563 0 -32540950.636089563 10311514.084288597 0 0 0 0 -94317249.834054947 -26709604.647350311 0 -26709604.647350311 9641499.0702905655 0 0 0 0 -73907420.853345871 -27234873.03913331 0 -27234873.03913331 4525574.4784049988 0 0 0 0 -63009421.574733734 -60413793.487175941 0 -60413793.487175941 -36293785.00068593 0 0 0 0 -103664099.43045807 -55767826.964427829 0 -55767826.964427829 -99336.300471305847 0 0 0 0 -62380274.32657814 -56434484.816117287 0 -56434484.816117287 -17677616.549902916 0 0 0 0 -68560942.331607819 -44212396.670001507 0 -44212396.670001507 -17611.487380981445 0 0 0 0 -168786721.45832539 83154600.154325485 0 83154600.154325485 38511509.777072906 0 0 0 0 -131777991.71457911 91845485.198662758 0 91845485.198662758 3363986.2512397766 0 0 0 0 -56880423.321434021 -5632154.8694477081 0 -5632154.8694477081 75108209.407112122 0 0 0 0 -161538407.3541708 -40628254.22694397 0 -40628254.22694397 66942556.701751709 0 0 0 0 -89130829.919041157 -40146521.851061583 0 -40146521.851061583 6049530.7221221924 0 0 0 0 -1946231.092816374 386294.17781178001 0 386294.17781178001 530169.35292307613 0 0 0 0 -27231784.824948326 -92440702.942510247 0 -92440702.942510247 143140631.03024673 0 0 0 0 -216537069.33115458 50382256.942509174 0 50382256.942509174 105316673.29460716 0 0 0 0 -9308049.5017547607 67078030.355740547 0 67078030.355740547 -4765126.4411869049 0 0 0 0 -40579740.898713589 -37372506.741155624 0 -37372506.741155624 -145043636.13192654 0 0 0 0 -910262.10250660498 353375.9428906003 0 353375.9428906003 367006.06928312406 0 0 0 0 -83268110.59718132 -44869533.68783474 0 -44869533.68783474 30460827.787709713 0 0 0 0 -165098945.64641404 -96776786.259252399 0 -96776786.259252399 -2444438.8033046722 0 0 0 0 -72905004.190760493 -73888654.458652496 0 -73888654.458652496 14028297.703439713 0 0 0 0 -15826562.74393034 -78031051.114878654 0 -78031051.114878654 -1828766.4010877609 0 0 0 0 -30807501.662711382 4504142.07710886 0 4504142.07710886 33320713.694272995 0 0 0 0 12433145.371090412 -42482871.84154892 0 -42482871.84154892 9896447.0990219116 0 0 0 0 44458657.997742653 27387176.499536991 0 27387176.499536991 -63332389.042170525 0 0 0 0 572867.22749608662 -221028.25478082569 0 -221028.25478082569 -384819.96413203701 0 0 0 0 39512572.989912033 -37736621.013096809 0 -37736621.013096809 -15388578.516370773 0 0 0 0 -18139744.857018948 293681.33591938019 0 293681.33591938019 8841643.9209201336 0 0 0 0 -7313971.814538002 21934395.04565239 0 21934395.04565239 50557753.626497269 0 0 0 0 -18278514.368097544 -5171496.4111652374 0 -5171496.4111652374 1723606.7549114227 0 0 0 0 -19788661.078588963 -15448813.948924065 0 -15448813.948924065 62200857.670355797 0 0 0 0 -2366190.2034560833 22025.441936209798 0 22025.441936209798 295339.40445698611 0 0 0 0 3742931.526252985 -9265514.8591527939 0 -9265514.8591527939 -37120502.75488472 0 0 0 0 52432087.332556486 -84285728.45772171 0 -84285728.45772171 25367410.153640747 0 0 0 0 -103613068.12342072 -84621528.367347717 0 -84621528.367347717 29698841.56111145 0 0 0 0 113378.8962786191 -955002.14036964811 0 -955002.14036964811 -2088573.843831785 0 0 0 0 56783737.316889077 -70984745.621282101 0 -70984745.621282101 42786684.918449402 0 0 0 0 165606391.84480602 -52756412.566978455 0 -52756412.566978455 -2821041.0577411652 0 0 0 0 78854606.686139107 230426972.55332661 0 230426972.55332661 -468462907.5336895 0 0 0 0 -1413846.3404288122 -26701.170435564592 0 -26701.170435564592 -154017.64734632056 0 0 0 0 -205465132.61114228 -195465115.22557068 0 -195465115.22557068 178977742.85152626 0 0 0 0 91096648.798959047 -116363547.1901083 0 -116363547.1901083 -193336391.61160755 0 0 0 0 -590487.67672010523 -9570.4040700756013 0 -9570.4040700756013 -31461.906827870291 0 0 0 0 -26549170.548454404 12804836.023853302 0 12804836.023853302 -554174.28024673462 0 0 0 0 -25267836.555025101 8840044.2607841492 0 8840044.2607841492 -3356899.8501634598 0 0 0 0 -11881910.556735158 -16356716.702456474 0 -16356716.702456474 2223178.9848690033 0 0 0 0 -29186.729928618879 -853754.76415384794 0 -853754.76415384794 -764856.6543440856 0 0 0 0 -20329371.74442482 2473042.4015636444 0 2473042.4015636444 1367981.443359375 0 0 0 0 -20716752.114014983 1878013.6511301994 0 1878013.6511301994 31124969.516647339 0 0 0 0 84887.447074272903 -360076.74150742241 0 -360076.74150742241 -320007.34173042141 0 0 0 0 -23825529.735854506 1181374.1157574654 0 1181374.1157574654 31460862.869440079 0 0 0 0 8134611.9813759625 -26592819.508476257 0 -26592819.508476257 25218868.491138458 0 0 0 0 -4203260.6651670933 -15716678.81686306 0 -15716678.81686306 16200088.418117523 0 0 0 0 -41950001.503950775 -20620734.294259071 0 -20620734.294259071 23675377.300947189 0 0 0 0 -25048346.938014228 -28752393.251274586 0 -28752393.251274586 42704688.657735825 0 0 0 0 -39015301.403083861 -1948217.531583786 0 -1948217.531583786 3632653.6154031754 0 0 0 0 -5492681.9460544437 -30791153.986491203 0 -30791153.986491203 18586239.944747448 0 0 0 0 -162708.69182485342 -34743309.308151245 0 -34743309.308151245 18884877.257324457 0 0 0 0 -9273833.3324757665 -29867845.618778467 0 -29867845.618778467 26074389.262187958 0 0 0 0 14002480.285203576 -24423799.905673981 0 -24423799.905673981 12571409.369157791 0 0 0 0 40975698.389907122 -41775239.519815922 0 -41775239.519815922 7907031.9516963959 0 0 0 0 730538.19231441617 -40988245.440531015 0 -40988245.440531015 10174284.35766983 0 0 0 0 159192199.56753492 -69503475.338938713 0 -69503475.338938713 -4824877.2613859177 0 0 0 0 -8896974.3758339584 -108921798.21376181 0 -108921798.21376181 34899851.597482681 0 0 0 0 -97326351.098900437 13774159.061527252 0 13774159.061527252 22982623.338796616 0 0 0 0 -153291443.95515841 -87207783.893146634 0 -87207783.893146634 35928474.452281952 0 0 0 0 -119938359.60696054 72554789.236467361 0 72554789.236467361 -35695058.55267334 0 0 0 0 310408919.36289293 -40469856.004426003 0 -40469856.004426003 -182728627.57594204 0 0 0 0 -96461403.064539477 65830536.690782309 0 65830536.690782309 25718250.953035355 0 0 0 0 -155277526.62335095 -78564667.70083189 0 -78564667.70083189 -110570809.95375252 0 0 0 0 -45630719.676454753 60706863.752437592 0 60706863.752437592 3054911.2861690521 0 0 0 0 -155461150.46346515 152949640.94623017 0 152949640.94623017 -53854144.774002075 0 0 0 0 286229059.88781822 86812113.755160332 0 86812113.755160332 -64809844.889201641 0 0 0 0 -237158588.39275396 401683605.72798824 0 401683605.72798824 -165792421.02390385 0 0 0 0 -96580930.748693302 -35713002.468748093 0 -35713002.468748093 35346178.757469177 0 0 0 0 194983356.96074602 400794194.38411236 0 400794194.38411236 -1573209197.5036793 0 0 0 0 -187207077.92259192 562491153.07512093 0 562491153.07512093 -714343702.68524933 0 0 0 0 232444598.42901427 48383404.359584332 0 48383404.359584332 -1570140095.1950512 0 0 0 0 222324113.85220048 116975760.11074877 0 116975760.11074877 -793701487.05037308 0 0 0 0 14311413.493447512 177814675.78404331 0 177814675.78404331 -266809283.36817503 0 0 0 0 72746357.357689485 -232518379.7414217 0 -232518379.7414217 215771659.39801216 0 0 0 0 14922.996089122298 61644.958247000352 0 61644.958247000352 -2317293.4009057591 0 0 0 0 110060809.99681601 -254124938.50503254 0 -254124938.50503254 -349847772.68724012 0 0 0 0 82805027.756980971 521893723.68949318 0 521893723.68949318 -1574739643.7148783 0 0 0 0 95052118.214220569 272792548.15005493 0 272792548.15005493 -625553700.79696655 0 0 0 0 162058761.45343488 -79410688.594057083 0 -79410688.594057083 -135091764.58472252 0 0 0 0 73085543.756540492 37010443.922622681 0 37010443.922622681 -68977616.7825737 0 0 0 0 128384754.33485247 -19200297.278900146 0 -19200297.278900146 -33884081.404876709 0 0 0 0 94585725.120480388 58221613.37691164 0 58221613.37691164 -111108678.41009521 0 0 0 0 -37682402.839309245 85182433.745711327 0 85182433.745711327 -83812453.587080002 0 0 0 0 137801857.83808601 -54019252.09393549 0 -54019252.09393549 -369596139.46900749 0 0 0 0 99120133.267134905 110296992.41377735 0 110296992.41377735 -278187168.27115822 0 0 0 0 110277459.05530401 168459008.24431992 0 168459008.24431992 -45245737.426664352 0 0 0 0 176579.41356176184 -24378.295788885094 0 -24378.295788885094 -1280887.7482361868 0 0 0 0 -522829334.22372228 -605747260.99500275 0 -605747260.99500275 -26435107.993369102 0 0 0 0 62420645.691742897 -103372052.53326607 0 -103372052.53326607 46590084.427177429 0 0 0 0 60177551.61304009 -87438502.819192171 0 -87438502.819192171 -57915798.286563873 0 0 0 0 -43143890.519636631 -53724930.558052063 0 -53724930.558052063 -12230508.297580719 0 0 0 0 -55106451.823549271 -31135543.973058701 0 -31135543.973058701 -220682004.31417465 0 0 0 0 -79572612.111948967 -147184196.4373951 0 -147184196.4373951 -235706679.64306259 0 0 0 0 124611741.87675214 100582225.5141983 0 100582225.5141983 96752466.861232758 0 0 0 0 111345542.81435442 -4626965.6589870453 0 -4626965.6589870453 -264141029.080616 0 0 0 0 301677630.26975822 139858024.07509613 0 139858024.07509613 -406241427.68669891 0 0 0 0 183391418.78944254 122919159.3796196 0 122919159.3796196 -162003338.16834259 0 0 0 0 113679560.6749413 -57155840.531564713 0 -57155840.531564713 -543942715.96690369 0 0 0 0 170345168.57215023 248394453.2199955 0 248394453.2199955 -396540664.68529129 0 0 0 0 196058952.3946327 160273953.93438339 0 160273953.93438339 -107186194.92523956 0 0 0 0 -280588592.07407647 -334462414.78465557 0 -334462414.78465557 -231143643.16979599 0 0 0 0 317870825.07554507 229212050.96357918 0 229212050.96357918 -209485760.32040596 0 0 0 0 320297.69355920213 136042.48568649543 0 136042.48568649543 -3486926.461858131 0 0 0 0 294121.55791161297 -468051.49513037223 0 -468051.49513037223 -1268367.0157056972 0 0 0 0 147513023.60951078 -128476602.86803818 0 -128476602.86803818 -621586694.06165123 0 0 0 0 144286218.06396413 2415178.4248280525 0 2415178.4248280525 -17137609.960420609 0 0 0 0 142846274.19796678 -98149339.498473644 0 -98149339.498473644 29391603.072275162 0 0 0 0 -116123.87811710306 -186519.64547652658 0 -186519.64547652658 -3004158.8238743953 0 0 0 0 -123227033.95447436 -402761461.06787443 0 -402761461.06787443 -1064698811.35326 0 0 0 0 -186129395.4551051 -360319292.32453728 0 -360319292.32453728 -512127669.69052124 0 0 0 0 115141169.49201807 -62358704.10028553 0 -62358704.10028553 -1571981972.3986244 0 0 0 0 -495017105.76681519 1146710854.0825701 0 1146710854.0825701 -813538349.69971466 0 0 0 0 -409798.95295330649 -513901.38305551093 0 -513901.38305551093 -2443895.6365011707 0 0 0 0 -592550395.87686253 477924437.85145092 0 477924437.85145092 -253319606.46165848 0 0 0 0 190097659.81207705 -644254924.19240761 0 -644254924.19240761 396713781.18703461 0 0 0 0 -823174.90601192194 -71363.554018308409 0 -71363.554018308409 -1787779.8905230407 0 0 0 0 -349927238.70627165 -365039989.83615112 0 -365039989.83615112 -116069949.22234857 0 0 0 0 480767777.3713932 162835756.32827139 0 162835756.32827139 -1400579559.228569 0 0 0 0 -1078397814.5015049 -359168886.83742523 0 -359168886.83742523 801195376.87932205 0 0 0 0 -366889057.91714931 577058318.30206871 0 577058318.30206871 -969026289.69790173 0 0 0 0 -917891539.7440393 663918044.51132011 0 663918044.51132011 -1294539661.1827927 0 0 0 0 -304200200.72702831 573102833.89471245 0 573102833.89471245 -1571538118.4540844 0 0 0 0 -228672650.67654091 321456413.31969643 0 321456413.31969643 -1285334710.6362114 0 0 0 0 952810.25307577848 373084195.14821243 0 373084195.14821243 -1101930689.712471 0 0 0 0 -144647097.43319297 496811905.44008636 0 496811905.44008636 -1192259047.1183624 0 0 0 0 -215478194.22117218 326442461.4113636 0 326442461.4113636 -1150364401.9438248 0 0 0 0 -338573674.31014085 444942673.21842003 0 444942673.21842003 -369629110.76931381 0 0 0 0 -173318861.80662495 83439531.123882294 0 83439531.123882294 -51063051.016620636 0 0 0 0 -1058773168.6709208 -90890313.798274994 0 -90890313.798274994 379478090.95436859 0 0 0 0 -962299.18039588141 -1009701.842169832 0 -1009701.842169832 -1821501.8999767881 0 0 0 0 -869221.23383616714 -196624.83566694055 0 -196624.83566694055 -501208.89641517866 0 0 0 0 105195591.58770442 88742171.826536179 0 88742171.826536179 -781716076.03976059 0 0 0 0 -893375325.03627682 -581214336.11678696 0 -581214336.11678696 724922260.11017799 0 0 0 0 -291549564.63980484 -356965728.66285324 0 -356965728.66285324 -659415707.21506691 0 0 0 0 -366717068.52659035 -318086076.77227783 0 -318086076.77227783 -510275628.29627228 0 0 0 0 -405206396.74497128 568952884.49480247 0 568952884.49480247 -106118923.93394279 0 0 0 0 -877860507.98975301 -106598562.12001514 0 -106598562.12001514 -77106672.439079285 0 0 0 0 -202997183.93190289 51892961.908224106 0 51892961.908224106 -48513705.6694417 0 0 0 0 -331361997.11133146 -46855253.841026306 0 -46855253.841026306 5892228.4542274475 0 0 0 0 -250648450.43544006 88461014.863595963 0 88461014.863595963 5567624.4398727417 0 0 0 0 25471861.416148126 -24540753.37392807 0 -24540753.37392807 -206908017.50556946 0 0 0 0 -28763894.2750144 81091845.30264473 0 81091845.30264473 -159302056.423172 0 0 0 0 -2189294.6515345904 -2500199.8112133094 0 -2500199.8112133094 -4815978.9448862877 0 0 0 0 204504504.57872927 190501192.54121917 0 190501192.54121917 58689184.378338814 0 0 0 0 162505578.90505028 156051077.51947188 0 156051077.51947188 110912055.43220425 0 0 0 0 235128.42291339836 840952.87681839697 0 840952.87681839697 -2601424.3856916972 0 0 0 0 97091606.758666798 73635817.225515604 0 73635817.225515604 7728013.500919342 0 0 0 0 96501452.545896053 13291315.309984684 0 13291315.309984684 -24449.321004867554 0 0 0 0 142203631.11222839 134006072.33579564 0 134006072.33579564 206322014.35751486 0 0 0 0 44635859.480437279 26001066.329351902 0 26001066.329351902 -14043489.480276108 0 0 0 0 63470271.161510468 34953997.409553528 0 34953997.409553528 -317167.60563850403 0 0 0 0 16539332.131545067 15621914.564668655 0 15621914.564668655 4024513.0185425282 0 0 0 0 33286869.948492765 -6636252.5184671879 0 -6636252.5184671879 -32442372.618787766 0 0 0 0 16613254.547118664 4278811.8321142197 0 4278811.8321142197 -2575561.3768281937 0 0 0 0 9796697.0373257995 -47488370.300677478 0 -47488370.300677478 -29266598.165347099 0 0 0 0 13932110.893659115 -16093555.89071703 0 -16093555.89071703 6111124.2246379852 0 0 0 0 40286973.043580294 -11096169.810909748 0 -11096169.810909748 1006474.5687618256 0 0 0 0 68830371.48292923 11707201.256523132 0 11707201.256523132 -4081956.2524991035 0 0 0 0 57756911.888697624 30158042.744722843 0 30158042.744722843 47532231.575078964 0 0 0 0 64889757.129749775 28627128.928785324 0 28627128.928785324 26534118.142799377 0 0 0 0 120969312.48770428 47947025.640371799 0 47947025.640371799 5412746.8258161545 0 0 0 0 56375761.047134578 -20396436.609297276 0 -20396436.609297276 -8430795.4565372467 0 0 0 0 74655760.285987854 4799545.5622940063 0 4799545.5622940063 4749277.4920334816 0 0 0 0 45518688.111804962 40578012.52615647 0 40578012.52615647 -51394283.736133873 0 0 0 0 168052978.42976332 -730101.43915337324 0 -730101.43915337324 -183407515.79840004 0 0 0 0 339660.66253523203 1399785.6719737395 0 1399785.6719737395 -4051779.6459417152 0 0 0 0 63994512.375160694 8746542.3940925598 0 8746542.3940925598 39155459.350515366 0 0 0 0 221440181.91613197 41846688.095059127 0 41846688.095059127 115704909.31450129 0 0 0 0 -83032282.966789246 -6983409.866055727 0 -6983409.866055727 228112512.70238903 0 0 0 0 -13327.305385125801 64421.611759883293 0 64421.611759883293 -59681.605763644271 0 0 0 0 25110590.549618721 -169423711.47614512 0 -169423711.47614512 -106250684.09453344 0 0 0 0 -120529400.16302109 -130958366.56709421 0 -130958366.56709421 -237871710.38969862 0 0 0 0 16125569.531517029 -23413180.813288778 0 -23413180.813288778 -182216532.53784555 0 0 0 0 -32637398.570618629 21931364.84799163 0 21931364.84799163 -87570681.517927527 0 0 0 0 20736569.360424995 -63790500.495841861 0 -63790500.495841861 -176017717.17273691 0 0 0 0 908083.02447528066 -439019.84393674764 0 -439019.84393674764 -124546.10053395014 0 0 0 0 -27814629.820730209 -10376325.859224975 0 -10376325.859224975 -52926008.378870994 0 0 0 0 7121009.0170288086 -7739367.3551316559 0 -7739367.3551316559 -153864906.97759354 0 0 0 0 -2943876.3721523285 -3639161.8178319708 0 -3639161.8178319708 -85810897.382293761 0 0 0 0 -6362844.0614509583 -23717646.152963579 0 -23717646.152963579 -101258446.42696826 0 0 0 0 -1658672.6291255951 -2835805.8873152733 0 -2835805.8873152733 -108949315.64502518 0 0 0 0 -594507.22561836243 -7159564.1399915218 0 -7159564.1399915218 -42475834.312791914 0 0 0 0 -9492494.4351854324 -27061894.773065865 0 -27061894.773065865 -41905254.805337906 0 0 0 0 -6414096.8518104553 -21607862.856342196 0 -21607862.856342196 -79378853.819419354 0 0 0 0 1217593.0450124741 -83582429.008694172 0 -83582429.008694172 -136212821.95496249 0 0 0 0 -9260342.8453245163 -5932932.390798904 0 -5932932.390798904 -153961538.66579482 0 0 0 0 42369605.380237579 -7698605.9834018387 0 -7698605.9834018387 -70976732.063060164 0 0 0 0 13874242.765705109 -44131531.013865538 0 -44131531.013865538 -87613585.335525602 0 0 0 0 -17281833.238576889 -11119601.683632791 0 -11119601.683632791 10099097.581302404 0 0 0 0 -2597485.8376579285 -57351619.918027759 0 -57351619.918027759 -20451498.029885113 0 0 0 0 -38722104.817257881 -74027999.183365926 0 -74027999.183365926 -71214074.470655084 0 0 0 0 -34943703.169330388 1753828.2704510414 0 1753828.2704510414 -69933582.175384551 0 0 0 0 3192315.1180925369 1132212.7675918341 0 1132212.7675918341 -1018735.5181045532 0 0 0 0 789561.11897182465 -5685156.3466205597 0 -5685156.3466205597 5122591.0853693485 0 0 0 0 4428553.6448364258 -44517.998156785965 0 -44517.998156785965 -4225187.7620055676 0 0 0 0 3439615.3665056229 -545579.93012416363 0 -545579.93012416363 -1968882.9499988556 0 0 0 0 -168825.60091686645 831729.51098419633 0 831729.51098419633 -1261035.7456834028 0 0 0 0 80419957.113418579 342620093.50565004 0 342620093.50565004 -94063906.791186333 0 0 0 0 412766489.3640852 -113760719.23190653 0 -113760719.23190653 171076218.4884491 0 0 0 0 209774.97518826625 164928.9785669233 0 164928.9785669233 -938595.64072474674 0 0 0 0 2636995.6820755005 526151.66735810041 0 526151.66735810041 3027814.4363157749 0 0 0 0 15343417.406292915 3341885.9334663153 0 3341885.9334663153 2757566.5115264282 0 0 0 0 3841262.3752059937 -9226013.2747125626 0 -9226013.2747125626 3090003.8753833175 0 0 0 0 11115823.820257187 -7051950.3967804909 0 -7051950.3967804909 -1095274.5397851467 0 0 0 0 13583656.516293526 -8354905.9084613323 0 -8354905.9084613323 -5131851.0664491653 0 0 0 0 6327745.746540308 -10994939.86264722 0 -10994939.86264722 -4130122.6511616707 0 0 0 0 13110193.245382309 -10173693.442176342 0 -10173693.442176342 -11073716.418834567 0 0 0 0 20983363.536840439 -5563005.1458177567 0 -5563005.1458177567 -10620004.526181936 0 0 0 0 13650767.586568117 -7597136.2459691465 0 -7597136.2459691465 -4516257.9814863205 0 0 0 0 14977222.607521057 -10543183.962014437 0 -10543183.962014437 -1800776.2613087432 0 0 0 0 26047415.677532196 -11554610.871574938 0 -11554610.871574938 -10950093.984217167 0 0 0 0 7029786.8237113953 -2940027.3944182396 0 -2940027.3944182396 -8629390.583509922 0 0 0 0 16222032.788053513 -10907188.097651124 0 -10907188.097651124 -10295700.31760931 0 0 0 0 8658234.6051177979 -5819464.7389829159 0 -5819464.7389829159 -9521400.3099437952 0 0 0 0 9410669.4440746307 639080.02216410637 0 639080.02216410637 -20348414.807982445 0 0 0 0 7866514.7650413513 -7937344.1420722008 0 -7937344.1420722008 -13902494.952190876 0 0 0 0 29483257.584147453 -184971.06112277508 0 -184971.06112277508 -9741220.5057535172 0 0 0 0 16637550.684675515 -66228819.608438492 0 -66228819.608438492 -223498272.3011961 0 0 0 0 247631657.49469948 280696307.98678398 0 280696307.98678398 -429320799.65320969 0 0 0 0 -88719.210090298904 724270.40862789517 0 724270.40862789517 -1801775.7701133587 0 0 0 0 -278830698.96205139 377396810.90475416 0 377396810.90475416 533452466.41639596 0 0 0 0 -91670728.111907959 308185257.24792051 0 308185257.24792051 -297420448.59406328 0 0 0 0 52423771.234750748 26772478.674092054 0 26772478.674092054 -394588450.46397877 0 0 0 0 27566014.918935776 -1974813.3249735832 0 -1974813.3249735832 -170919810.59760714 0 0 0 0 16443499.640283585 -27187389.283340454 0 -27187389.283340454 -192656971.40629482 0 0 0 0 -23572708.813368797 -65417901.359323025 0 -65417901.359323025 -100580213.19135213 0 0 0 0 20974761.711410671 -20292748.161707163 0 -20292748.161707163 -187394303.85353279 0 0 0 0 44870002.452716827 -45870244.477014065 0 -45870244.477014065 -166029812.37844992 0 0 0 0 52429745.522042274 -36003278.090740681 0 -36003278.090740681 -246672873.84615564 0 0 0 0 54425787.1803087 6870196.8391611576 0 6870196.8391611576 -196852567.04183102 0 0 0 0 16693820.697839141 -70151579.84932816 0 -70151579.84932816 -86113519.481927872 0 0 0 0 19009673.806085587 -76087316.577152252 0 -76087316.577152252 -69355205.192584991 0 0 0 0 24815215.21746254 -10858656.40560627 0 -10858656.40560627 -129497530.81477213 0 0 0 0 -8575130.9220924377 -7193976.3018460274 0 -7193976.3018460274 9209067.6423740387 0 0 0 0 17654188.472017288 5669992.1319689751 0 5669992.1319689751 -23434907.260782242 0 0 0 0 2416787.1052370071 -59745419.873255253 0 -59745419.873255253 30804075.096586227 0 0 0 0 17870758.980409622 66352984.011009216 0 66352984.011009216 74822039.570144653 0 0 0 0 -21024817.997543335 -17251203.827085495 0 -17251203.827085495 88874456.107965708 0 0 0 0 -23073096.531619549 -31739792.588810444 0 -31739792.588810444 -34586802.994768143 0 0 0 0 -17434514.043456018 -58978275.02901268 0 -58978275.02901268 -102293854.97621727 0 0 0 0 -31540765.871668339 -18352609.266320705 0 -18352609.266320705 -28949789.903392315 0 0 0 0 9454396.1256318092 -4566405.3808932304 0 -4566405.3808932304 -79069909.049495697 0 0 0 0 -5104737.515111208 -48164207.322216749 0 -48164207.322216749 -102818021.69172478 0 0 0 0 -107907387.27966487 -68113116.465721011 0 -68113116.465721011 -100451198.61094379 0 0 0 0 4512234.9333020449 1862267.2632616758 0 1862267.2632616758 -180857781.27937746 0 0 0 0 -61409619.963141441 15211611.104380608 0 15211611.104380608 -164606734.87482071 0 0 0 0 20689269.181200258 -28632692.41965007 0 -28632692.41965007 -251317233.83479214 0 0 0 0 -41814162.00009203 -112581191.51714909 0 -112581191.51714909 -212370584.127738 0 0 0 0 -17643381.285987675 -55131441.671304941 0 -55131441.671304941 -158696844.73276234 0 0 0 0 1756870.6280014515 -64057669.785497189 0 -64057669.785497189 -154753817.64834023 0 0 0 0 -12930028.51615119 -103673424.13625979 0 -103673424.13625979 -223248910.87269163 0 0 0 0 -15905740.366602302 28810966.17707634 0 28810966.17707634 -37797179.759743214 0 0 0 0 139975.89534759341 -331461.06435201038 0 -331461.06435201038 -363907.48980755196 0 0 0 0 -26615271.721457854 -81156952.323807716 0 -81156952.323807716 -60743446.707303524 0 0 0 0 -53232190.441826344 -73508527.327645421 0 -73508527.327645421 -51305873.835383415 0 0 0 0 -40360792.729692698 -85233314.227448583 0 -85233314.227448583 -61810816.798867702 0 0 0 0 -28072770.332233787 -43515456.06892252 0 -43515456.06892252 -126243208.62409782 0 0 0 0 -25316245.480458967 -77609098.014225855 0 -77609098.014225855 -47375557.842190742 0 0 0 0 35830894.587658882 -10903074.719920874 0 -10903074.719920874 -26965539.909684181 0 0 0 0 201938.41288855689 -1797593.4710526136 0 -1797593.4710526136 -5801128.2582626408 0 0 0 0 18568288.310759425 -169240.53145062923 0 -169240.53145062923 -25199745.953361988 0 0 0 0 -298137.1378070116 -23780213.923475742 0 -23780213.923475742 -115766853.38991094 0 0 0 0 -719570.06496459246 -9629111.556303978 0 -9629111.556303978 -17170742.493966818 0 0 0 0 -35052489.034500241 -50659780.828613281 0 -50659780.828613281 -22908342.3914942 0 0 0 0 -58385679.587634146 -40445978.876604795 0 -40445978.876604795 -7450322.6947565079 0 0 0 0 114255.30775231597 -1688587.2861921107 0 -1688587.2861921107 -5694170.3237913046 0 0 0 0 -20511623.803539418 -41988143.278287716 0 -41988143.278287716 -20658213.867010117 0 0 0 0 -21886596.404450506 -65177240.917066097 0 -65177240.917066097 -16379940.681759834 0 0 0 0 -72574694.335322484 -76794653.715106189 0 -76794653.715106189 -18343719.558156013 0 0 0 0 -132139357.53180575 -40517036.274614811 0 -40517036.274614811 16487212.061042786 0 0 0 0 13515.13369477052 -1352514.7222074457 0 -1352514.7222074457 -5280431.9661978688 0 0 0 0 31938178.534114361 -66596396.414008617 0 -66596396.414008617 -26527510.997414589 0 0 0 0 -28059020.399753571 -52424344.35370636 0 -52424344.35370636 -22193879.159003258 0 0 0 0 -17208900.899241671 -88829327.694459975 0 -88829327.694459975 -35364548.53812027 0 0 0 0 -36582144.518221036 -66422300.702651501 0 -66422300.702651501 -48900607.116458416 0 0 0 0 -13666336.970258594 -72952144.716448307 0 -72952144.716448307 -21453666.202992439 0 0 0 0 -41333391.474358141 -102989872.09818292 0 -102989872.09818292 -5061711.7701597214 0 0 0 0 -44927466.104349703 -86008127.968748569 0 -86008127.968748569 -8583847.8465634584 0 0 0 0 71016111.175979137 -66480942.768174171 0 -66480942.768174171 -18498076.877604723 0 0 0 0 -15759983.586115122 -74594177.126642704 0 -74594177.126642704 -13049669.929876328 0 0 0 0 51087856.443864465 -51083775.131265163 0 -51083775.131265163 -23987176.65738678 0 0 0 0 146532581.21761787 -18026778.587277412 0 -18026778.587277412 -23304201.950523376 0 0 0 0 -27535164.801752806 -110561571.64163351 0 -110561571.64163351 -4384898.0374441147 0 0 0 0 87654891.923430949 -119855570.46216011 0 -119855570.46216011 -36037763.204091072 0 0 0 0 94050104.942613602 -83481373.650785446 0 -83481373.650785446 -28106516.185806274 0 0 0 0 -82254035.55022271 -215940219.55015087 0 -215940219.55015087 -9948834.5867490768 0 0 0 0 504638014.769696 -103606122.69172001 0 -103606122.69172001 -74346437.092260838 0 0 0 0 246714670.69696277 46625816.207888365 0 46625816.207888365 -16908073.670154572 0 0 0 0 487566772.86369538 256639163.39302874 0 256639163.39302874 109778757.13883591 0 0 0 0 163471433.04715025 -134794040.58337069 0 -134794040.58337069 -50775510.321735382 0 0 0 0 -174856527.37488174 -13696816.893981934 0 -13696816.893981934 241802.59063100815 0 0 0 0 -146458736.77769887 -123309119.65688729 0 -123309119.65688729 33136866.880800247 0 0 0 0 -142309475.09270465 -74265671.740992546 0 -74265671.740992546 -31121829.362737656 0 0 0 0 -173706.43047465273 -893116.47957694135 0 -893116.47957694135 -4300721.3405857179 0 0 0 0 -203371140.59078646 -40426147.751570225 0 -40426147.751570225 -24084069.274316788 0 0 0 0 -350914339.5244295 -997728.85887670517 0 -997728.85887670517 12523435.11582756 0 0 0 0 -339179409.30820763 -263120444.06742078 0 -263120444.06742078 -209799237.00043297 0 0 0 0 -33371835.051222205 -62789854.113474846 0 -62789854.113474846 -685328082.8315649 0 0 0 0 137178605.07897663 -24105303.576580524 0 -24105303.576580524 -676840677.95470238 0 0 0 0 -809902963.57522202 -563433565.03766155 0 -563433565.03766155 -514896985.55181026 0 0 0 0 -52719903.335563228 -440821953.75607467 0 -440821953.75607467 -1572208672.5215998 0 0 0 0 -417086.65855335578 -530123.97771213041 0 -530123.97771213041 -1824701.1840809295 0 0 0 0 596903373.86436117 27155837.435982704 0 27155837.435982704 -118723187.88792515 0 0 0 0 232608330.47262621 198449032.61434555 0 198449032.61434555 77681458.137722015 0 0 0 0 1633224.5563434146 -579969.18776299793 0 -579969.18776299793 -3147597.0540357428 0 0 0 0 183317621.2170133 -36084300.950556278 0 -36084300.950556278 -414953211.3534236 0 0 0 0 592127553.23924434 -24969895.284431398 0 -24969895.284431398 -7327077.8949623108 0 0 0 0 419688.08196627733 89658.760106666945 0 89658.760106666945 -566325.21581338253 0 0 0 0 149654787.5022651 -94788108.139105797 0 -94788108.139105797 120082874.39348698 0 0 0 0 146056717.98571831 -53849588.789708138 0 -53849588.789708138 -274965047.70192814 0 0 0 0 -45564208.36746347 -22825919.190816879 0 -22825919.190816879 -220910290.48418236 0 0 0 0 398130236.57555789 119609590.84716034 0 119609590.84716034 -1572892120.313982 0 0 0 0 384732747.67619157 670580328.24248409 0 670580328.24248409 -760879983.84683609 0 0 0 0 245114437.6798121 110500634.95965981 0 110500634.95965981 -738491052.7496357 0 0 0 0 1132908.7683311093 -425800.92108155135 0 -425800.92108155135 -1740969.343572434 0 0 0 0 1343134.1614262136 -616174040.75558841 0 -616174040.75558841 -1573371548.920207 0 0 0 0 357585648.96437931 711264665.07246351 0 711264665.07246351 -259927622.05871201 0 0 0 0 109738733.31024009 -34491032.797332764 0 -34491032.797332764 -412778894.81384277 0 0 0 0 97294142.484013915 -83242711.255064249 0 -83242711.255064249 -405405903.0352602 0 0 0 0 112798640.03914972 236077142.7015996 0 236077142.7015996 -1571510396.3200772 0 0 0 0 -234043865.96020758 319112486.65609384 0 319112486.65609384 -216684274.11400223 0 0 0 0 4546358.0525412858 -43442090.331192732 0 -43442090.331192732 -212453789.13486004 0 0 0 0 -147030786.59650284 118937573.32261395 0 118937573.32261395 35890089.685779572 0 0 0 0 153840472.30762514 -78275933.033102036 0 -78275933.033102036 -406165123.05397195 0 0 0 0 23238103.49186039 -14853010.295073316 0 -14853010.295073316 -1039162.3720168248 0 0 0 0 3274702.5796595253 -2245198.4084184882 0 -2245198.4084184882 -796474.22442129801 0 0 0 0 191343787.7513907 63155424.10900712 0 63155424.10900712 -2876679.7079443932 0 0 0 0 929966.62562222453 1629782.1252205223 0 1629782.1252205223 -5260978.7626780802 0 0 0 0 -6452365.8710861206 12918926.399318585 0 12918926.399318585 7729905.8129947782 0 0 0 0 -2283735.3536651134 -10806828.132920429 0 -10806828.132920429 16894696.185131192 0 0 0 0 -5663883.4363654852 7138367.4577091709 0 7138367.4577091709 -6515539.1116496325 0 0 0 0 -4894280.6303482056 15630079.118330091 0 15630079.118330091 -48173657.781062104 0 0 0 0 96994946.65946126 5876071.5490803719 0 5876071.5490803719 3572264.1915378571 0 0 0 0 112430125.54717255 181342.01617288589 0 181342.01617288589 -8689986.9401950836 0 0 0 0 3904143.4246957302 -298873.76327215694 0 -298873.76327215694 2041288.709720403 0 0 0 0 52832627.841454268 7248844.1253543831 0 7248844.1253543831 -11399476.380601764 0 0 0 0 337706.92132544599 -212504.24316954962 0 -212504.24316954962 -39550.36430630245 0 0 0 0 -21926278.599880219 13725407.340771943 0 13725407.340771943 -21476828.642066181 0 0 0 0 -20470832.054553032 10363531.604795769 0 10363531.604795769 11246244.234272495 0 0 0 0 3652238.0739817745 -2517034.4735668674 0 -2517034.4735668674 -613917.16799654951 0 0 0 0 -5850696.0899715424 -12076018.024724767 0 -12076018.024724767 1294789.0384800434 0 0 0 0 -30653600.158754349 894747.56592795253 0 894747.56592795253 -5905003.4877385497 0 0 0 0 30922845.984442592 -32389148.926754475 0 -32389148.926754475 31710341.414826155 0 0 0 0 1651322.3366958466 1116827.5581977763 0 1116827.5581977763 -4583306.5223871367 0 0 0 0 4433768.0848454237 1913559.3547244072 0 1913559.3547244072 -4059257.1199429035 0 0 0 0 2578375.889036417 1512293.1978498101 0 1512293.1978498101 -2957514.6933259964 0 0 0 0 4806613.0677640438 61786.939810246229 0 61786.939810246229 -5402664.1979077458 0 0 0 0 1009871.7643776725 1353936.2513097376 0 1353936.2513097376 -3400190.9912344506 0 0 0 0 116723853.7432884 76348388.086992502 0 76348388.086992502 -183023685.87441659 0 0 0 0 -13067751.933617175 -44526298.862807512 0 -44526298.862807512 34348454.851679325 0 0 0 0 -116360237.71103835 28424989.854874432 0 28424989.854874432 162729026.99840546 0 0 0 0 1657966.5996538834 421642.43746620906 0 421642.43746620906 29164.058032746427 0 0 0 0 -250229.8935791073 208049.14037649008 0 208049.14037649008 -2885564.3040475138 0 0 0 0 305025.14986140723 568816.75574016571 0 568816.75574016571 -1572830973.1205344 0 0 0 0 3243104.4629101753 876945.43618315458 0 876945.43618315458 -5408783.2811356783 0 0 0 0 1886025.6683473857 34197.225127634825 0 34197.225127634825 -2715884.1178100146 0 0 0 0 -175064240.37066731 -495738145.93384278 0 -495738145.93384278 -1399625670.8324282 0 0 0 0 -4505762.3322474072 -282452568.92947507 0 -282452568.92947507 -1572653506.2833552 0 0 0 0 1870298.7053325665 65862.157494702202 0 65862.157494702202 -2369322.4816433126 0 0 0 0 628510.91091905348 -129358189.15477705 0 -129358189.15477705 -1102154508.1465616 0 0 0 0 -111157434.48831573 -557490570.2560997 0 -557490570.2560997 -1574756143.1637084 0 0 0 0 181364.4301469955 93288.627701777557 0 93288.627701777557 -1557764.8277744993 0 0 0 0 -170112718.22252032 -217190074.68167734 0 -217190074.68167734 -869739113.48626089 0 0 0 0 705353.27104449272 -1147271.6972535253 0 -1147271.6972535253 -7164080.1239837408 0 0 0 0 2037673.1145615578 -652871.89631104469 0 -652871.89631104469 -7789526.86008057 0 0 0 0 1386943.7672002316 -1086617.4728699625 0 -1086617.4728699625 -5094622.6797783375 0 0 0 0 3125251.8014378548 1299998.4654974937 0 1299998.4654974937 -6551532.6307079196 0 0 0 0 298429289.16088593 -125036756.62500477 0 -125036756.62500477 -1574297118.6311672 0 0 0 0 289881981.44028378 58785649.159857035 0 58785649.159857035 -1423500034.830936 0 0 0 0 233174188.46785498 -498634048.59967232 0 -498634048.59967232 -1649308636.3503666 0 0 0 0 -89597998.127071798 -468580354.1828475 0 -468580354.1828475 -1583795840.9665847 0 0 0 0 89566.192377428961 112296.17564671813 0 112296.17564671813 -795786.17071208078 0 0 0 0 85748211.451381862 11783836.236228943 0 11783836.236228943 -1056636806.9673445 0 0 0 0 15733203.686067864 -312521731.03193665 0 -312521731.03193665 -1106038835.5199847 0 0 0 0 2809824.0069730282 1111855.239996314 0 1111855.239996314 -10250838.08140254 0 0 0 0 1966594.609252044 540071.93468053301 0 540071.93468053301 -2655110.1044201753 0 0 0 0 -127991.56862449646 819935.6424895525 0 819935.6424895525 -9165373.624536097 0 0 0 0 2657187.9420609474 -852809.42311726511 0 -852809.42311726511 -8498699.0521851778 0 0 0 0 -269913978.92094123 142764059.27712107 0 142764059.27712107 -700697428.01485348 0 0 0 0 2293062.2040024418 1021944.64363714 0 1021944.64363714 -3346527.8863611175 0 0 0 0 1812370.912545681 648720.54771605134 0 648720.54771605134 -5816316.7984886169 0 0 0 0 515851.87058448792 -2651992.3800888062 0 -2651992.3800888062 -1735834.9714961052 0 0 0 0 2154946.4023013115 -3575214.9826284647 0 -3575214.9826284647 -6881189.8933134079 0 0 0 0 237372.68670201127 -86744.312871478032 0 -86744.312871478032 -60235.501446254901 0 0 0 0 2669933.3470821381 -594139.77395415306 0 -594139.77395415306 -1007286.5784609318 0 0 0 0 727440.50596081861 -211960.18205963611 0 -211960.18205963611 -154657.89913435676 0 0 0 0 2357328.0739822388 991389.6335362196 0 991389.6335362196 -638237.66987991333 0 0 0 0 7049944.2409005165 -2571684.1964005232 0 -2571684.1964005232 -2269830.2174680233 0 0 0 0 1562780.470621007 794048.93569520034 0 794048.93569520034 -1745951.2991508325 0 0 0 0 7316546.8829760626 13204064.718287835 0 13204064.718287835 -23881428.022173405 0 0 0 0 1914817.0665898323 1969732.6195163131 0 1969732.6195163131 -3434878.9732363224 0 0 0 0 2221524.9829926491 2205364.9334058762 0 2205364.9334058762 -9857850.545557797 0 0 0 0 -780633.32763171196 3983843.261852473 0 3983843.261852473 -2052622.7167127132 0 0 0 0 743079.02601575851 1449260.3488717079 0 1449260.3488717079 -290940.53889775276 0 0 0 0 1733558.1673278809 557398.57631969452 0 557398.57631969452 -726648.7380399704 0 0 0 0 2425744.8533234596 2011947.7965071201 0 2011947.7965071201 -3497126.1656306982 0 0 0 0 2413265.6683113575 1866868.8522017002 0 1866868.8522017002 -2128859.558557272 0 0 0 0 2194582.3941483544 511674.5947455542 0 511674.5947455542 -2244854.21416478 0 0 0 0 -16374135.428034782 -3668541.7017993033 0 -3668541.7017993033 1624154.5943845566 0 0 0 0 12488307.550425768 -15685147.395499593 0 -15685147.395499593 -69513071.216303006 0 0 0 0 667920.8572371034 -301606.71330326819 0 -301606.71330326819 -53332.762646038929 0 0 0 0 1349924.3940501213 -7495182.1440261006 0 -7495182.1440261006 9206633.0565650463 0 0 0 0 -31742345.495089531 -39308607.389466882 0 -39308607.389466882 -56741023.216937155 0 0 0 0 11790601.234535694 -36593146.462629914 0 -36593146.462629914 -145259359.52974689 0 0 0 0 22746303.327254295 -30978045.184599698 0 -30978045.184599698 -119537745.67134649 0 0 0 0 16454536.513681412 -44158005.478991687 0 -44158005.478991687 -82235075.668828562 0 0 0 0 -1667714.2035903931 -28130729.814202696 0 -28130729.814202696 -38342816.241023272 0 0 0 0 -27275175.976104438 821928.30022460595 0 821928.30022460595 -68586717.128813982 0 0 0 0 16478086.724258423 -19367458.552257717 0 -19367458.552257717 -85017814.003411651 0 0 0 0 18544283.626337051 -4269974.1505490839 0 -4269974.1505490839 -65389936.38345781 0 0 0 0 5479769.1216430664 4991127.3621785045 0 4991127.3621785045 -27801444.273481011 0 0 0 0 5532205.2921504974 -7186115.0529607832 0 -7186115.0529607832 -14375958.726961613 0 0 0 0 1953165.2498044968 1303607.5566006899 0 1303607.5566006899 -515073.13186979294 0 0 0 0 -4025302.2771837711 13802151.30555281 0 13802151.30555281 -25347097.49418205 0 0 0 0 2015636.8464572972 329197.06029324455 0 329197.06029324455 -1802200.2627421301 0 0 0 0 1187629.5446681976 -1771874.2218707055 0 -1771874.2218707055 -5062824.7331887335 0 0 0 0 218277.55205047596 24176.005903689424 0 24176.005903689424 -204018.7919028977 0 0 0 0 2272306.2827110291 488978.90437316895 0 488978.90437316895 -162251.2459000349 0 0 0 0 841558.76060581207 330421.57430779934 0 330421.57430779934 -599091.55510830879 0 0 0 0 6565740.8841063976 5784681.0849189758 0 5784681.0849189758 -8017219.4480876923 0 0 0 0 893783.71535458718 809614.66823714995 0 809614.66823714995 -576253.8272596607 0 0 0 0 958548.94597586291 941306.88504224014 0 941306.88504224014 -880389.41254231066 0 0 0 0 -4971301.5302410126 6387670.2916582823 0 6387670.2916582823 -18433898.800573409 0 0 0 0 1310875.4639527323 535202.07224915083 0 535202.07224915083 -1241170.5812172811 0 0 0 0 -20537560.514370918 9851464.363140583 0 9851464.363140583 6895674.4196374416 0 0 0 0 -17576777.621267855 30967278.189777881 0 30967278.189777881 -4908456.2926683426 0 0 0 0 -22732932.880998611 15705413.814421773 0 15705413.814421773 -10423028.11524725 0 0 0 0 -33718480.591388464 21426277.092996776 0 21426277.092996776 -4564426.9668955803 0 0 0 0 316258.32215287071 297463.93545430666 0 297463.93545430666 -349702.7046884906 0 0 0 0 -29503197.57111311 12921974.829699636 0 12921974.829699636 2077686.841981411 0 0 0 0 603645.22374131333 394958.58846375183 0 394958.58846375183 -1002251.8254130919 0 0 0 0 -53035736.704905033 -69767533.992633373 0 -69767533.992633373 -27863762.867361784 0 0 0 0 -11296282.530269623 -5379256.3135741949 0 -5379256.3135741949 -23208524.05173099 0 0 0 0 -40969617.607923508 -34083719.196567357 0 -34083719.196567357 -50153357.75329566 0 0 0 0 -8097706.2265071869 -20522840.050276697 0 -20522840.050276697 -56609386.107534409 0 0 0 0 20005915.608540535 -56410987.953801632 0 -56410987.953801632 -49021160.690144777 0 0 0 0 -146642138.67167521 -81712115.510544568 0 -81712115.510544568 -48769891.310074091 0 0 0 0 -5788585.4570879936 -94933500.957511574 0 -94933500.957511574 -28972215.749536276 0 0 0 0 -50873556.874382019 50217300.824735761 0 50217300.824735761 47963295.911006331 0 0 0 0 31864356.802993298 -83135929.867179334 0 -83135929.867179334 -74045480.175831079 0 0 0 0 153065.65589170367 128683.61192579311 0 128683.61192579311 -293403.78772137361 0 0 0 0 -136707374.92980671 16824832.955682278 0 16824832.955682278 9923413.7153865099 0 0 0 0 -56373537.145012751 38606850.805461727 0 38606850.805461727 3585765.8688907623 0 0 0 0 -56174048.120580673 4804266.0413188934 0 4804266.0413188934 22340.892211914062 0 0 0 0 -41522295.312871933 -64575400.270941377 0 -64575400.270941377 -164224135.57758766 0 0 0 0 -80392659.372859478 72637044.595466435 0 72637044.595466435 -35774555.234452009 0 0 0 0 18949328.430547714 4249202.565746665 0 4249202.565746665 -103394114.07311153 0 0 0 0 -28884351.267433167 34546063.558548689 0 34546063.558548689 -195942860.26471817 0 0 0 0 -17460692.443622589 -3841206.3802529573 0 -3841206.3802529573 -84107481.903781891 0 0 0 0 20359488.629653931 2413513.6055818796 0 2413513.6055818796 -86844161.332155704 0 0 0 0 22395091.983589888 -27471318.978190199 0 -27471318.978190199 -55489457.073584557 0 0 0 0 16254918.703069687 -19312321.054484725 0 -19312321.054484725 -41725083.214276671 0 0 0 0 19401474.05059433 -32937598.01677835 0 -32937598.01677835 -27777325.05100888 0 0 0 0 13666421.590995789 -4917989.1249696016 0 -4917989.1249696016 -44332669.624927759 0 0 0 0 19362370.90186882 -9294696.6178635359 0 -9294696.6178635359 -54083998.494074345 0 0 0 0 15635438.205886841 -15043647.828073144 0 -15043647.828073144 -31481050.316181064 0 0 0 0 7313919.5494976044 5265368.5003376007 0 5265368.5003376007 -47057953.610274553 0 0 0 0 9921560.5151348114 -5607747.65097785 0 -5607747.65097785 -26460890.208873749 0 0 0 0 5882079.1054573059 -2228023.6473075449 0 -2228023.6473075449 -21383152.726314545 0 0 0 0 4926414.9946956635 -12972215.406265736 0 -12972215.406265736 -13136321.379003048 0 0 0 0 6567126.5855821371 -9722698.4066707343 0 -9722698.4066707343 -10650207.448685884 0 0 0 0 5293403.9862995148 -16039281.909903765 0 -16039281.909903765 -14609598.955878377 0 0 0 0 5097257.7980602384 -7585787.650383424 0 -7585787.650383424 -18352505.940236568 0 0 0 0 2202287.6017494202 -20853164.57042259 0 -20853164.57042259 15395957.668819427 0 0 0 0 2484151.1139087677 -16489517.76407671 0 -16489517.76407671 1295926.2056324482 0 0 0 0 3800209.1865748167 -9380266.8172774315 0 -9380266.8172774315 4125025.1112327576 0 0 0 0 3977629.940568924 -10797442.602028251 0 -10797442.602028251 6105700.7336527109 0 0 0 0 7684131.0162911415 -3951360.6198464036 0 -3951360.6198464036 10877028.102125406 0 0 0 0 -18472364.408050537 -8269093.3646959066 0 -8269093.3646959066 95478086.902666926 0 0 0 0 272644.04648950975 -74484.873183324118 0 -74484.873183324118 -43086.667988039146 0 0 0 0 3632323.2177753448 -82754444.934440911 0 -82754444.934440911 35969122.838047028 0 0 0 0 12638743.389567852 10261956.715906739 0 10261956.715906739 -3488120.6198730469 0 0 0 0 25298811.521006107 4069788.9473980665 0 4069788.9473980665 -15731486.454594135 0 0 0 0 18372023.969351292 13188111.594476581 0 13188111.594476581 -16399526.718708038 0 0 0 0 35778522.584507942 19375490.998868823 0 19375490.998868823 -16047947.064917423 0 0 0 0 10688242.151036203 35566365.628572062 0 35566365.628572062 -22775777.199854851 0 0 0 0 131301.30076880101 251765.76803534292 0 251765.76803534292 -493274.98950499936 0 0 0 0 26024878.637018681 6046467.4867652655 0 6046467.4867652655 -4955219.8787614107 0 0 0 0 3995487.7548294067 8821065.635002017 0 8821065.635002017 -584734.21459531784 0 0 0 0 -24785294.532043934 -7554102.0863402486 0 -7554102.0863402486 29725808.219368935 0 0 0 0 104868581.49269724 8476061.2267768383 0 8476061.2267768383 -70932086.819171429 0 0 0 0 -7630923.518203795 9820514.5477956161 0 9820514.5477956161 9767118.5566990376 0 0 0 0 -6096603.1394777298 29448962.393548965 0 29448962.393548965 -25376559.70839262 0 0 0 0 137221.26421853574 302306.83750432148 0 302306.83750432148 -412553.10769375786 0 0 0 0 38088148.850165546 -202746.59060794115 0 -202746.59060794115 -9926708.1067643166 0 0 0 0 -16392271.552168846 38373174.927437782 0 38373174.927437782 8030524.7760581374 0 0 0 0 17255134.413858414 27737880.336309552 0 27737880.336309552 -10213664.20134306 0 0 0 0 -17305170.360368729 31094478.962660551 0 31094478.962660551 -2036952.2560739517 0 0 0 0 -19630220.58056736 22644633.85102272 0 22644633.85102272 -9112503.9366178513 0 0 0 0 -15299389.012703896 31167062.689750195 0 31167062.689750195 -8861390.5253505707 0 0 0 0 68064.069980379194 170975.23992927838 0 170975.23992927838 -168607.37101206835 0 0 0 0 -57639796.630520344 48276466.483625174 0 48276466.483625174 -20681333.417622089 0 0 0 0 37179500.086610794 -17042896.173160076 0 -17042896.173160076 -10574657.507461309 0 0 0 0 26808845.786870956 -2826711.6992844343 0 -2826711.6992844343 -2734652.3570578694 0 0 0 0 1718594.3813483203 1599438.4721907694 0 1599438.4721907694 -2650658.2963517266 0 0 0 0 27231495.362996936 -2620692.7633031607 0 -2620692.7633031607 -10025149.110426903 0 0 0 0 35357951.888362408 109073.3919467926 0 109073.3919467926 -9312589.3043751717 0 0 0 0 1325412.3334345818 -11601546.882647276 0 -11601546.882647276 -23345859.371109605 0 0 0 0 963976.02187174 -844343.24609781522 0 -844343.24609781522 -2248502.9111444307 0 0 0 0 36405310.86639142 -2650548.3122913241 0 -2650548.3122913241 -40142410.823883533 0 0 0 0 6117550.2790369987 26360565.967604399 0 26360565.967604399 -32930702.62673378 0 0 0 0 2876722.5095765432 1663354.4642279819 0 1663354.4642279819 -4390665.7975010294 0 0 0 0 18599966.007445335 11160436.257348776 0 11160436.257348776 -15572773.583742619 0 0 0 0 4841823.2082328796 -3156314.4726471901 0 -3156314.4726471901 -18557254.994632244 0 0 0 0 -2409108.0344028473 11174050.091427803 0 11174050.091427803 -5647691.5458498001 0 0 0 0 -26351.241665840149 26515919.214170933 0 26515919.214170933 -59374690.157415628 0 0 0 0 -17561993.660092831 -9295806.6464416981 0 -9295806.6464416981 -10732338.101308584 0 0 0 0 -218174.36316134036 10335885.20846089 0 10335885.20846089 8078406.0702595711 0 0 0 0 2714652.7641565613 492702.86089396547 0 492702.86089396547 -3538489.4437105237 0 0 0 0 947078.9056930542 -18107156.685400248 0 -18107156.685400248 -241651.76571822166 0 0 0 0 -143666939.52167097 430508354.62842035 0 430508354.62842035 -927812585.26470184 0 0 0 0 -296998440.77032864 159125624.85878181 0 159125624.85878181 162169821.81331253 0 0 0 0 4313997.1153832562 1533994.127004243 0 1533994.127004243 -4356715.6688402649 0 0 0 0 1004859.9130943804 -799846.39865778433 0 -799846.39865778433 -3016248.0225661788 0 0 0 0 -518456725.88786483 -204112000.15306592 0 -204112000.15306592 -1957791891.2509394 0 0 0 0 -409750000.0102917 -236674960.0531311 0 -236674960.0531311 -95375911.562984467 0 0 0 0 -133599620.4456667 473493472.29644632 0 473493472.29644632 -1555867751.8165283 0 0 0 0 -8592658.5840213876 282493285.78831291 0 282493285.78831291 -1575453092.0937352 0 0 0 0 199761342.64483836 17445955.69878459 0 17445955.69878459 -1292553650.6088104 0 0 0 0 214571931.95340842 -147078669.0811367 0 -147078669.0811367 -1033359858.3614349 0 0 0 0 -70740754.209168762 -232897768.34911823 0 -232897768.34911823 -210146992.29469728 0 0 0 0 119083456.78438911 -196791593.93815041 0 -196791593.93815041 -599734568.31740952 0 0 0 0 -725468818.91906226 -199703485.66979456 0 -199703485.66979456 -1575283026.7085791 0 0 0 0 281433093.19786942 -566216972.6659627 0 -566216972.6659627 -1672692222.1543169 0 0 0 0 -415905986.49112082 -797773423.51720476 0 -797773423.51720476 -868075937.73350525 0 0 0 0 254616045.5886589 -315841278.56492138 0 -315841278.56492138 -1001164453.2542267 0 0 0 0 290737982.15351242 -235570705.62248683 0 -235570705.62248683 -1574632471.1864853 0 0 0 0 159657142.06627116 -18031383.972933769 0 -18031383.972933769 -1164753696.1312947 0 0 0 0 178757367.93814084 -244885957.27055073 0 -244885957.27055073 -1042390507.6322193 0 0 0 0 -86555342.914847851 153411031.99488926 0 153411031.99488926 -245018206.44928169 0 0 0 0 -163544585.29489475 -196344160.41591215 0 -196344160.41591215 -184444660.67840195 0 0 0 0 105327.86629402985 -299720.16253483389 0 -299720.16253483389 -1447709.0978560904 0 0 0 0 -90812769.185342431 285131579.14323235 0 285131579.14323235 -1190002268.9846714 0 0 0 0 116623015.87580425 -124319582.48315263 0 -124319582.48315263 -1370805986.314045 0 0 0 0 57140314.089661084 305598005.26560688 0 305598005.26560688 -1342628763.5162811 0 0 0 0 -124278680.2821828 99626799.371760368 0 99626799.371760368 -1574556945.5851393 0 0 0 0 207734030.62142369 308590918.44732666 0 308590918.44732666 -1350188511.2214622 0 0 0 0 256059766.27189851 296482032.59164619 0 296482032.59164619 -1575089500.0484638 0 0 0 0 206833750.12427357 91848792.45445852 0 91848792.45445852 -1139178907.714798 0 0 0 0 171701.90793163731 56040.245403529145 0 56040.245403529145 -1259158.6275345189 0 0 0 0 23692909.11114879 14210463.155574799 0 14210463.155574799 -348873.69966125488 0 0 0 0 66312730.906499177 199639445.06234741 0 199639445.06234741 -422593022.63616943 0 0 0 0 10112190.942266643 181375435.04056644 0 181375435.04056644 -219449923.3214798 0 0 0 0 69477849.458937466 -12600141.24259758 0 -12600141.24259758 -25382525.187965393 0 0 0 0 187942739.41705739 -198464845.75217056 0 -198464845.75217056 -1063918447.7753868 0 0 0 0 163069.10803978273 -2979800.7168085827 0 -2979800.7168085827 -6330627.2957598586 0 0 0 0 24338854.151287436 90239451.07212162 0 90239451.07212162 4068877.8160800934 0 0 0 0 -78784246.097745538 59485955.147062302 0 59485955.147062302 158704220.24421501 0 0 0 0 10688596.22170496 -77529605.640647888 0 -77529605.640647888 -378051843.75155115 0 0 0 0 -232944837.05930263 -87556009.284440994 0 -87556009.284440994 63349499.922969818 0 0 0 0 120354690.87770921 -70930087.915052414 0 -70930087.915052414 28953555.6179533 0 0 0 0 78365.926643415529 -92975.113314497285 0 -92975.113314497285 -480357.47001080611 0 0 0 0 -33166991.964822531 -40417375.273376465 0 -40417375.273376465 55656071.378868103 0 0 0 0 43823548.153593421 -150630173.25283623 0 -150630173.25283623 -13629205.001660347 0 0 0 0 516075.54895998677 -2681356.0281198975 0 -2681356.0281198975 -5417021.5466767624 0 0 0 0 -24148917.584492981 3636014.1492586136 0 3636014.1492586136 23413792.884777069 0 0 0 0 15584930.893075794 -14790289.327974319 0 -14790289.327974319 -17526267.801288605 0 0 0 0 -3753027.5453292429 -18285443.686550617 0 -18285443.686550617 -17261098.477409363 0 0 0 0 -10485630.904833674 -1563954.3505115509 0 -1563954.3505115509 3531515.3175497055 0 0 0 0 -393630.13752320543 -100819.08830671571 0 -100819.08830671571 615520.97705207206 0 0 0 0 7208959.9850854874 -9507455.1627616882 0 -9507455.1627616882 -25030608.647851944 0 0 0 0 7524540.2206607461 -10851133.122630119 0 -10851133.122630119 -21187522.622058868 0 0 0 0 5792727.4888586998 -10215580.263776779 0 -10215580.263776779 -16218737.249418497 0 0 0 0 12222898.497407198 -6012320.8869476318 0 -6012320.8869476318 -16580126.571657896 0 0 0 0 886911.92173337936 -9056791.8915896416 0 -9056791.8915896416 -9868669.2015349865 0 0 0 0 6205396.7191030979 -1914367.4886360168 0 -1914367.4886360168 -17756463.724273682 0 0 0 0 2102521.5672438066 -3419259.3390689269 0 -3419259.3390689269 -13421593.478603471 0 0 0 0 6701984.923470974 -2584871.3567662239 0 -2584871.3567662239 -19684960.219794512 0 0 0 0 2182260.7936784588 1011605.0744239171 0 1011605.0744239171 -5749869.1625056975 0 0 0 0 4626655.7469460964 -2692699.9296839237 0 -2692699.9296839237 -19403910.634495258 0 0 0 0 1939720.979470429 -4010058.3464809377 0 -4010058.3464809377 -12785433.298110796 0 0 0 0 954803.18832846591 -3172681.1975855175 0 -3172681.1975855175 -7343243.7991452776 0 0 0 0 3074789.568926096 -9369405.0904369354 0 -9369405.0904369354 -5701284.1879272461 0 0 0 0 474517.71595590166 261378.005110614 0 261378.005110614 -393505.81143679481 0 0 0 0 -286475114.27606571 -100052628.54083633 0 -100052628.54083633 41798283.761528015 0 0 0 0 69240419.838620424 66331857.530662537 0 66331857.530662537 -87981122.70710659 0 0 0 0 -439881608.63888878 -215066319.0267913 0 -215066319.0267913 -22530570.921085358 0 0 0 0 -994255.93344823923 -608589.64977543801 0 -608589.64977543801 -504092.19671691582 0 0 0 0 -43457324.830135643 -11467225.54484129 0 -11467225.54484129 1789593.1824035645 0 0 0 0 34351895.341705084 4485665.7430648804 0 4485665.7430648804 -1568150511.5611506 0 0 0 0 82847498.108789921 28699684.694328308 0 28699684.694328308 6448329.1956481934 0 0 0 0 75084452.563492775 24248872.308097839 0 24248872.308097839 5253778.4861755371 0 0 0 0 81638290.134540796 30026571.668234825 0 30026571.668234825 5935817.6981430054 0 0 0 0 -1265430.5785589505 -1834426.8410336217 0 -1834426.8410336217 -1857306.6240540147 0 0 0 0 393046.80264729261 -1655968.3258647919 0 -1655968.3258647919 -30928.927780151367 0 0 0 0 391925.55431467295 -1710856.4335212708 0 -1710856.4335212708 -1951044.1478424072 0 0 0 0 -332074427.96233922 879387541.87735176 0 879387541.87735176 -1573600593.2142029 0 0 0 0 225999.82720737497 -348550.14577113464 0 -348550.14577113464 -1056093.4911518507 0 0 0 0 -37683041.349238604 421972299.75164032 0 421972299.75164032 -922561629.48534775 0 0 0 0 40261052.759543955 444952637.34376335 0 444952637.34376335 -1337158937.8308411 0 0 0 0 -58018642.999510095 227582356.61039352 0 227582356.61039352 -929171238.32091177 0 0 0 0 -57447308.54722669 221973833.6507473 0 221973833.6507473 -891975353.50490189 0 0 0 0 -660574.09614282846 -1199497.8269087197 0 -1199497.8269087197 -880810.63130358886 0 0 0 0 74344.961241313198 -1277929.927281783 0 -1277929.927281783 -3800708.3894738741 0 0 0 0 73859.320331537951 -2091127.3986605117 0 -2091127.3986605117 -2415608.6652978826 0 0 0 0 -3188729.2673557252 -7027097.962928772 0 -7027097.962928772 -2852489.2452049255 0 0 0 0 1339925.8305138201 -797083.21280860901 0 -797083.21280860901 -10506170.767652512 0 0 0 0 -1183352.1333301067 520588.36179351807 0 520588.36179351807 -9526073.1432685852 0 0 0 0 126103.11941075325 -187845.71160888672 0 -187845.71160888672 -2340235.483631134 0 0 0 0 53669.174631072703 -1155105.9551833989 0 -1155105.9551833989 -2820815.8780347002 0 0 0 0 -297792.81231415813 434806.32868790254 0 434806.32868790254 -2769716.7601875588 0 0 0 0 -1740654.7655487955 -265347.25387191772 0 -265347.25387191772 -12606002.519712448 0 0 0 0 -816887.95279893 847756.20145517588 0 847756.20145517588 -1571220.3753988547 0 0 0 0 -12500129.907647252 4588501.64594841 0 4588501.64594841 8292844.8070683479 0 0 0 0 475251.61604417861 -3195710.4752807617 0 -3195710.4752807617 -19084543.187545776 0 0 0 0 -40668.741942867637 -2422683.3288726807 0 -2422683.3288726807 -17618211.797203064 0 0 0 0 -126626.09447148442 -2422388.4761123657 0 -2422388.4761123657 -18518339.37612915 0 0 0 0 -1220741.3820072785 -4049969.0333306938 0 -4049969.0333306938 -16583389.892494202 0 0 0 0 -379060.26230338216 -1127707.9945983887 0 -1127707.9945983887 -18077115.518417358 0 0 0 0 -290025.26547495555 -89435.774610061198 0 -89435.774610061198 572675.42432367057 0 0 0 0 -2559771.7945703566 -743214.64605712891 0 -743214.64605712891 2395460.59375 0 0 0 0 2573448.5656826785 -350858.68894552439 0 -350858.68894552439 -4816891.3446234567 0 0 0 0 -76965006.59576416 -26288926.333251953 0 -26288926.333251953 -11059730.324157715 0 0 0 0 -2499535.1753269732 -4520989.6130981445 0 -4520989.6130981445 -17755596.155830383 0 0 0 0 330858.96195907518 62007.682977364399 0 62007.682977364399 -1637814.6030481812 0 0 0 0 1117185.1577995718 1619440.2103538513 0 1619440.2103538513 -9025136.4597091675 0 0 0 0 1404477.3813170195 -3902539.7477378845 0 -3902539.7477378845 -22571436.476779938 0 0 0 0 2258847.6500121057 -961550.35955810547 0 -961550.35955810547 -23126816.727462769 0 0 0 0 1709011.6338854358 -19114.051174068823 0 -19114.051174068823 -1520657.7336724508 0 0 0 0 1228867.8343367875 1761077.1220207214 0 1761077.1220207214 -18124399.906431198 0 0 0 0 1886951.8491323441 1089514.215233326 0 1089514.215233326 -22020982.554710388 0 0 0 0 -1246401.9956611227 1096158.9751434326 0 1096158.9751434326 -1075291.4220404783 0 0 0 0 -7823907.7655040771 -2320465.9304819107 0 -2320465.9304819107 -11791393.092391968 0 0 0 0 2048791.9080787562 -2040567.9737972021 0 -2040567.9737972021 -10676756.461566925 0 0 0 0 10433688.371157527 -2730499.3082351685 0 -2730499.3082351685 -58818437.941143036 0 0 0 0 14124603.494749546 -10437221.245088577 0 -10437221.245088577 -55958478.063793182 0 0 0 0 17468458.822417021 -11438464.420924187 0 -11438464.420924187 -52622155.335792542 0 0 0 0 3956730.542232275 -582175.83821630478 0 -582175.83821630478 -10186352.923685074 0 0 0 0 9617143.0799776912 5224020.5906448364 0 5224020.5906448364 -61641308.024669647 0 0 0 0 2127688.173632741 -16545778.772468567 0 -16545778.772468567 -53103095.139270782 0 0 0 0 -1709784.3563469648 -13401955.235592842 0 -13401955.235592842 -54795964.335891724 0 0 0 0 -16362472.032678843 -53958105.197509766 0 -53958105.197509766 -103067254.15025568 0 0 0 0 1643931.9651280344 22540853.224246979 0 22540853.224246979 -86412415.114999771 0 0 0 0 -36002100.753961444 -23584938.430956841 0 -23584938.430956841 1618810.8198451996 0 0 0 0 -245684.13461788057 167722.48416022025 0 167722.48416022025 368401.19548193365 0 0 0 0 -21293687.260780841 26440415.093679905 0 26440415.093679905 -9772480.9116249084 0 0 0 0 -14217218.061073065 11093484.56127882 0 11093484.56127882 7732129.2912330627 0 0 0 0 -1582937.7204995155 3291694.613073349 0 3291694.613073349 -7145112.9879646301 0 0 0 0 -6745086.3433881998 1394450.0600805283 0 1394450.0600805283 3919474.5880622864 0 0 0 0 1864986.3995162903 2009944.598814046 0 2009944.598814046 -4286796.2872509863 0 0 0 0 1337392.814207077 1868047.1416501999 0 1868047.1416501999 -2488113.9924020767 0 0 0 0 1015767.8929817677 1312002.2528877258 0 1312002.2528877258 -1423308.8010864258 0 0 0 0 -4344152.5649468303 1452553.2445421219 0 1452553.2445421219 10793892.371976852 0 0 0 0 5391407.3973667622 237902.84996604919 0 237902.84996604919 3718251.8052215576 0 0 0 0 1940728.6672566901 2342856.0918691671 0 2342856.0918691671 -3294992.2673899941 0 0 0 0 2429413.5617996752 2913737.7839245796 0 2913737.7839245796 -2201075.9609642029 0 0 0 0 2992145.9716875553 -1326072.7877864838 0 -1326072.7877864838 5333540.1319351196 0 0 0 0 2709665.4779288769 1908330.8651828766 0 1908330.8651828766 -5574098.7699680328 0 0 0 0 3461392.3515853882 1086173.9923858643 0 1086173.9923858643 2850809.4331970215 0 0 0 0 8835285.1147110462 891496.86606788635 0 891496.86606788635 2721910.1446819305 0 0 0 0 5498120.0534973145 -2722705.3378639221 0 -2722705.3378639221 1334422.5556221008 0 0 0 0 -4458375.3746063709 -11344964.437263012 0 -11344964.437263012 -53505930.047813416 0 0 0 0 4625294.964877367 5212812.2273979187 0 5212812.2273979187 4293562.3605957031 0 0 0 0 -408956.52129483223 -18586450.718112946 0 -18586450.718112946 -56505420.451587677 0 0 0 0 -563040.98223627848 631140.9053929178 0 631140.9053929178 1143846.8841098361 0 0 0 0 664026.23243038752 323366.56070272252 0 323366.56070272252 -4218725.2267450215 0 0 0 0 1904407.9135505138 1865416.1819821864 0 1865416.1819821864 -3923227.6676619388 0 0 0 0 2182806.8594098091 2613702.6008284092 0 2613702.6008284092 4819087.5308876038 0 0 0 0 2011639.6675310135 1943815.9154968262 0 1943815.9154968262 -10750715.795848846 0 0 0 0 -852930.38838720322 261165.68960380554 0 261165.68960380554 2007631.8312759399 0 0 0 0 -2817.9759171750629 328167.93057068856 0 328167.93057068856 77903.863030716777 0 0 0 0 22145.608636500547 104760.23119426612 0 104760.23119426612 -49796.737654868048 0 0 0 0 362985.83817195892 542956.76521492004 0 542956.76521492004 -735121.6856970787 0 0 0 0 146487.99232912064 -25723.017418384552 0 -25723.017418384552 -292993.91659164429 0 0 0 0 95133.849974790355 115492.23830987513 0 115492.23830987513 -325500.18037326261 0 0 0 0 7192754.5389852524 -508842.16608047485 0 -508842.16608047485 -55037162.77532196 0 0 0 0 560409.42897315265 781505.68951327447 0 781505.68951327447 -1329570.5200119801 0 0 0 0 2351208.9932261705 -3770261.2486763 0 -3770261.2486763 -46591973.954845428 0 0 0 0 12223211.654320002 -11663533.677223206 0 -11663533.677223206 6275238.0960013866 0 0 0 0 6337972.0526479483 1793672.5559043884 0 1793672.5559043884 -20376977.459785461 0 0 0 0 -1162423.4942955971 24306331.270214081 0 24306331.270214081 10518138.886712551 0 0 0 0 232553.76390457153 12230444.054318905 0 12230444.054318905 -8606616.182662189 0 0 0 0 25720532.424604535 -904629.30659675598 0 -904629.30659675598 -18372063.424732208 0 0 0 0 13006441.6395154 -263546.60794258118 0 -263546.60794258118 -17356976.830780029 0 0 0 0 1159971.6516921113 2918937.5341299693 0 2918937.5341299693 -10617711.187446669 0 0 0 0 4754330.3912901878 -4637763.1708869934 0 -4637763.1708869934 -15167514.643909454 0 0 0 0 19205046.344106555 -8767255.4875173569 0 -8767255.4875173569 -24026247.971057892 0 0 0 0 5517025.0150846839 -1236259.9081726074 0 -1236259.9081726074 -38216072.935500145 0 0 0 0 451375.20853679627 -18926206.217817307 0 -18926206.217817307 -33277287.900848389 0 0 0 0 4844961.6479680873 -5713519.4125095606 0 -5713519.4125095606 -27493623.708374023 0 0 0 0 -9275260.9356115609 -23500485.023824692 0 -23500485.023824692 -16410563.980919123 0 0 0 0 -10346634.440496601 -39325410.30685997 0 -39325410.30685997 -56608694.948234558 0 0 0 0 11810460.638438195 -1248170.6038627625 0 -1248170.6038627625 -101390090.17980385 0 0 0 0 -4873658.3702839613 37812201.735750198 0 37812201.735750198 -57923140.387752533 0 0 0 0 11569444.670568474 2213766.2280879021 0 2213766.2280879021 -37056280.959838867 0 0 0 0 2976955.1660439372 2925300.5366306305 0 2925300.5366306305 -12115500.602428436 0 0 0 0 1579097.8275372982 8612019.0018310547 0 8612019.0018310547 -26314806.355803251 0 0 0 0 6029262.5491348505 9823135.5476455688 0 9823135.5476455688 -46925923.459018707 0 0 0 0 9255059.1431911588 26127328.531162262 0 26127328.531162262 -48681542.035529613 0 0 0 0 8203446.4891804457 28113720.396223068 0 28113720.396223068 -52414491.123989105 0 0 0 0 -2794571.5037597418 32218174.444725037 0 32218174.444725037 -26658129.616924286 0 0 0 0 -281825.37698816974 540759.30673146714 0 540759.30673146714 1406324.3829622213 0 0 0 0 11753721.469284024 1808645.4872574806 0 1808645.4872574806 -21414821.317909241 0 0 0 0 10180350.160368904 10630073.328507185 0 10630073.328507185 -52512207.648944855 0 0 0 0 48189309.004561663 -29056716.507301331 0 -29056716.507301331 63109239.347454071 0 0 0 0 -41451.093771934509 12426265.461830139 0 12426265.461830139 -19644858.445192337 0 0 0 0 2460920.4611943066 14194811.881574631 0 14194811.881574631 -18951745.138763428 0 0 0 0 1930919.4394434541 25565769.502323151 0 25565769.502323151 -41842301.831817627 0 0 0 0 -1192563.0020534396 5166909.8243141174 0 5166909.8243141174 7288312.3364334106 0 0 0 0 -10424619.580431342 6387757.9479808807 0 6387757.9479808807 2420491.5647544861 0 0 0 0 5138885.3827599883 4087982.1224937439 0 4087982.1224937439 2476918.8744977117 0 0 0 0 -1127671.5822070271 1724853.6718359562 0 1724853.6718359562 4817287.8652905487 0 0 0 0 952351.38502216339 15865803.902051926 0 15865803.902051926 7938797.750565052 0 0 0 0 19294051.065881908 11931525.225122452 0 11931525.225122452 16568937.456939697 0 0 0 0 2597086.6972157918 2507336.0041580275 0 2507336.0041580275 -10884119.853894569 0 0 0 0 874421.841796875 1090134.8690071106 0 1090134.8690071106 -2239562.238199234 0 0 0 0 -223602.67151938379 1079785.684172034 0 1079785.684172034 -1091490.8733100968 0 0 0 0 -907536.34428310394 301142.17860984802 0 301142.17860984802 1740095.4604644775 0 0 0 0 -398732.1054842216 1341704.9666344253 0 1341704.9666344253 2603346.6974225282 0 0 0 0 -2075997.6734104156 3958154.5754933357 0 3958154.5754933357 -12628275.285195827 0 0 0 0 -1441853.2288551331 2013618.5496134758 0 2013618.5496134758 -24088245.742054701 0 0 0 0 1360157.2198959279 3947032.6263171076 0 3947032.6263171076 -7898224.5279959729 0 0 0 0 4552032.4004281759 34753176.502498627 0 34753176.502498627 21710559.999799728 0 0 0 0 1937987.9689869881 -1132903.9236539006 0 -1132903.9236539006 -18405440.026414871 0 0 0 0 -1425145.0227642059 -7065147.7318005562 0 -7065147.7318005562 -7202480.8106524944 0 0 0 0 246736.47979700891 14185.094868502114 0 14185.094868502114 -781553.01635982585 0 0 0 0 -104322.65795062762 -1807402.2756826305 0 -1807402.2756826305 -7616774.4894667985 0 0 0 0 -489145.32374382019 4164055.494320035 0 4164055.494320035 -14736672.428324938 0 0 0 0 2146900.1519889832 4972102.1103515625 0 4972102.1103515625 -22211021.144797206 0 0 0 0 602354.73843703791 -430442.68281503377 0 -430442.68281503377 -3700129.1171103986 0 0 0 0 -1526068.0367865562 -137884.10259342194 0 -137884.10259342194 -9142623.0340123177 0 0 0 0 5115827.7582535744 3312116.1430287361 0 3312116.1430287361 -8296924.2986207008 0 0 0 0 11254721.769174337 73630283.570423126 0 73630283.570423126 -67092524.967300415 0 0 0 0 1092080.3702656305 3488798.4177576173 0 3488798.4177576173 -9150784.4136897419 0 0 0 0 6580336.0474452972 5748365.4239326715 0 5748365.4239326715 -11479566.787469089 0 0 0 0 33198476.845699787 -2519973.8956866264 0 -2519973.8956866264 -24704936.607164264 0 0 0 0 3629231.4321980476 -1303407.3205316067 0 -1303407.3205316067 -16710568.977279484 0 0 0 0 4636041.2167854309 9568015.8907392621 0 9568015.8907392621 -3277197.6745667458 0 0 0 0 171719.76669643028 -68250.959836071532 0 -68250.959836071532 -1013785.4486303258 0 0 0 0 12422748.336788535 -7720826.1026861072 0 -7720826.1026861072 -52845516.355763674 0 0 0 0 17370320.567750931 6372529.6983492672 0 6372529.6983492672 -37660308.721461296 0 0 0 0 -1258820.0446138382 759537.84648013115 0 759537.84648013115 -22403201.301343203 0 0 0 0 1221703.0014038086 5141991.707631588 0 5141991.707631588 -34842490.673925579 0 0 0 0 673902.17478704453 5251736.5818897486 0 5251736.5818897486 -26210850.599907875 0 0 0 0 3228394.1715869904 3682223.8047893047 0 3682223.8047893047 -21384606.833993793 0 0 0 0 -2999381.3857970238 2348682.5712270737 0 2348682.5712270737 -8323130.8778526783 0 0 0 0 1529999.3043117523 416686.42920851707 0 416686.42920851707 -17163993.370741367 0 0 0 0 2716328.4662516117 5682558.4967268109 0 5682558.4967268109 -10468515.515853882 0 0 0 0 -3160389.7407913208 1581947.9766278267 0 1581947.9766278267 -16973173.455909312 0 0 0 0 -408784.62839114666 120922.20414805412 0 120922.20414805412 427746.11817073822 0 0 0 0 688442.52474731533 1263709.7464695461 0 1263709.7464695461 -2601030.4407639042 0 0 0 0 -565660.31271601375 564857.90190823097 0 564857.90190823097 1427784.9048030777 0 0 0 0 -714569.15273571014 5788726.0546905994 0 5788726.0546905994 607967.85643100739 0 0 0 0 1561582.6334028244 -2369267.5353219509 0 -2369267.5353219509 -10053002.421364307 0 0 0 0 5967251.3513526917 1553280.8378474712 0 1553280.8378474712 -22129328.299632072 0 0 0 0 1209474.129070282 1568537.9433729649 0 1568537.9433729649 -22073876.576120436 0 0 0 0 2577900.1699533463 4458886.0816035271 0 4458886.0816035271 -24571104.816030025 0 0 0 0 -1561663.3393945694 7403909.7458457947 0 7403909.7458457947 -25329824.594645023 0 0 0 0 1426412.8091443777 906988.38856578618 0 906988.38856578618 -23267733.780670643 0 0 0 0 -3073087.1387767792 2653430.2703909874 0 2653430.2703909874 -25139744.812045813 0 0 0 0 -1618492.5920891762 -1257526.2986319661 0 -1257526.2986319661 -17262987.925316334 0 0 0 0 67014.172486782074 1422457.042173028 0 1422457.042173028 -26193809.30542326 0 0 0 0 1008365.3837137222 2479541.4856894016 0 2479541.4856894016 -26686561.780552864 0 0 0 0 2949617.3771147728 -2788138.9103902578 0 -2788138.9103902578 -34151944.560846329 0 0 0 0 2254322.1164264679 -1816584.7701165676 0 -1816584.7701165676 -28631237.162264109 0 0 0 0 -1399913.0125980377 4159863.9898364544 0 4159863.9898364544 -26197281.483818233 0 0 0 0 1280571.6591491699 4050388.9210064411 0 4050388.9210064411 -25236528.440962315 0 0 0 0 2320819.8625822067 544765.13329553604 0 544765.13329553604 -25249031.451658726 0 0 0 0 949504.82721996307 50519.049411773682 0 50519.049411773682 -32864288.313499868 0 0 0 0 2268136.7939367294 3281823.9576348066 0 3281823.9576348066 -32408718.094090462 0 0 0 0 430896.60437965393 -60530.159816980362 0 -60530.159816980362 -33434084.686290979 0 0 0 0 -7433.8321743011475 4677750.8681213856 0 4677750.8681213856 -40776008.996159077 0 0 0 0 -749242.8686029315 -3586670.9394463748 0 -3586670.9394463748 -47301776.533691168 0 0 0 0 6416593.4585227966 -2852767.7506160736 0 -2852767.7506160736 -53983839.033277512 0 0 0 0 5785024.5479412079 -4573234.6268827319 0 -4573234.6268827319 -33439657.757653713 0 0 0 0 2374106.6206350327 2101544.4889723659 0 2101544.4889723659 -35448711.326127529 0 0 0 0 5627335.4523925781 -3440107.945587635 0 -3440107.945587635 -40904428.425692677 0 0 0 0 6382817.6515245438 -2889138.9685467482 0 -2889138.9685467482 -41689555.059528351 0 0 0 0 6560191.2685947418 -7162728.5665442944 0 -7162728.5665442944 -47190284.649092436 0 0 0 0 9455950.3375768661 -8149714.0273170471 0 -8149714.0273170471 -47331147.045226574 0 0 0 0 3697986.5151616335 -5934078.4619943798 0 -5934078.4619943798 -81508514.115485907 0 0 0 0 3813237.0041856766 -9323971.5474199057 0 -9323971.5474199057 -48499629.006559491 0 0 0 0 -690393.39577043056 9388150.2322180122 0 9388150.2322180122 -57064673.161560893 0 0 0 0 -16157149.805853844 -42531466.345158935 0 -42531466.345158935 -61422665.287390471 0 0 0 0 742935.60742508108 -1802611.0758860768 0 -1802611.0758860768 -864255.15164557542 0 0 0 0 6654122.5190477371 -16220635.905693591 0 -16220635.905693591 -67596422.313807011 0 0 0 0 9231172.0549368858 -16446999.58670795 0 -16446999.58670795 -75512432.461008906 0 0 0 0 11913966.440537214 -18974756.773497552 0 -18974756.773497552 -66765478.083204269 0 0 0 0 9671165.3617537022 -5139743.2799862102 0 -5139743.2799862102 -52134372.59741354 0 0 0 0 -11628184.441316605 -20992516.846171379 0 -20992516.846171379 -62954290.114131093 0 0 0 0 -14852763.136487961 3537816.2663116455 0 3537816.2663116455 -50816917.644762039 0 0 0 0 -3842114.7994022369 -9090921.5003734827 0 -9090921.5003734827 -43898610.735824049 0 0 0 0 3933796.9411870241 5468095.2793331146 0 5468095.2793331146 -8365701.3059940338 0 0 0 0 4822618.0199384987 3807531.2265393734 0 3807531.2265393734 -13540421.922775269 0 0 0 0 2461227.8136228323 -3048443.177526474 0 -3048443.177526474 -14249938.162090302 0 0 0 0 -1818668.6557872295 -176610.10419845581 0 -176610.10419845581 -12145231.45091629 0 0 0 0 2304268.737185508 -1065467.9578562975 0 -1065467.9578562975 -13829715.109706879 0 0 0 0 1766916.939291507 1800989.0791077614 0 1800989.0791077614 -8203695.7722625732 0 0 0 0 537813.95140945911 2329850.6040821075 0 2329850.6040821075 -2898109.5372390747 0 0 0 0 1713219.7981569767 909283.5539188385 0 909283.5539188385 -10324301.832138062 0 0 0 0 796562.75062322617 -4928348.3896446228 0 -4928348.3896446228 -10814700.783760071 0 0 0 0 -1083965.6990952492 -3831727.114522934 0 -3831727.114522934 -5897641.3715133667 0 0 0 0 2462533.2108107507 4174559.3617553711 0 4174559.3617553711 1233166.9912223816 0 0 0 0 5354809.5571107864 4414054.268371582 0 4414054.268371582 -8421760.373872757 0 0 0 0 1935389.1352617615 3500961.1866145195 0 3500961.1866145195 -3960793.8462431021 0 0 0 0 3837072.0433192253 2342606.7843265533 0 2342606.7843265533 -10727749.238044739 0 0 0 0 -16912610.666487694 -5022477.5303025246 0 -5022477.5303025246 9771519.5884819031 0 0 0 0 -7788308.3837518692 2115468.8948810101 0 2115468.8948810101 -23642058.31337285 0 0 0 0 1357734.3994293213 -1867921.0749695301 0 -1867921.0749695301 -25631922.547110677 0 0 0 0 976716.61884021759 35905326.274577379 0 35905326.274577379 17419268.246341765 0 0 0 0 -763714.19080901146 -3469904.0595901608 0 -3469904.0595901608 -13722340.730966091 0 0 0 0 -391376.26709197857 394486.80107259098 0 394486.80107259098 1346145.4168099691 0 0 0 0 1460477.3993669907 1675183.8201790447 0 1675183.8201790447 -6578504.6650227271 0 0 0 0 2018380.1944652796 2675066.9228210449 0 2675066.9228210449 -1890439.2711448669 0 0 0 0 1697823.876208961 3833537.0856209993 0 3833537.0856209993 765594.91216850281 0 0 0 0 648645.93738126359 968109.93192370469 0 968109.93192370469 -4079899.7386765005 0 0 0 0 381110.20279771159 1733626.0878118128 0 1733626.0878118128 625809.03830867726 0 0 0 0 -2826643.3249320984 20770421.991196156 0 20770421.991196156 8720291.7194590569 0 0 0 0 1644244.5944385529 3118010.23412323 0 3118010.23412323 -1337048.385925293 0 0 0 0 -1508558.5626630783 361812.4186630249 0 361812.4186630249 3429893.9489688873 0 0 0 0 416717.44848921208 1883741.4751789421 0 1883741.4751789421 326533.66042747069 0 0 0 0 2166907.4714012146 -10923120.660691977 0 -10923120.660691977 -3906358.8821752071 0 0 0 0 -11354320.139336586 4709518.3599336147 0 4709518.3599336147 -19175412.965028763 0 0 0 0 4780340.3901042938 -2627224.394857645 0 -2627224.394857645 -25486593.540215015 0 0 0 0 4601037.9732933044 5154033.551813364 0 5154033.551813364 -11731400.774679184 0 0 0 0 2062964.9398365021 -2547772.8840742111 0 -2547772.8840742111 -17996105.835950136 0 0 0 0 13727597.518371582 -773136.16775822639 0 -773136.16775822639 -20014830.098333359 0 0 0 0 5725104.9013872147 -1829752.7838385105 0 -1829752.7838385105 -24343427.92183876 0 0 0 0 2254877.7823934555 -2594193.7665789127 0 -2594193.7665789127 -23918411.649215221 0 0 0 0 2098743.4465198517 -3820367.5479898453 0 -3820367.5479898453 -24780798.29923892 0 0 0 0 2113534.5669326782 -8163391.2731997967 0 -8163391.2731997967 -31147062.016192913 0 0 0 0 4456584.6574316025 -5096458.0212614536 0 -5096458.0212614536 -31558405.385305405 0 0 0 0 2791795.3562812805 -6863713.9596268535 0 -6863713.9596268535 -28885945.8804636 0 0 0 0 5714935.9857387543 -8041541.8942750692 0 -8041541.8942750692 -40978146.217880487 0 0 0 0 6805966.1138091087 -13857207.880095184 0 -13857207.880095184 -45993268.079660892 0 0 0 0 9836662.9473516941 -9847544.0593534112 0 -9847544.0593534112 -40694901.700896025 0 0 0 0 -36536867.606335163 -23267876.417401791 0 -23267876.417401791 -22445129.50142324 0 0 0 0 -6548611.8179101944 -8481446.0325194597 0 -8481446.0325194597 -16974426.725486994 0 0 0 0 -7075370.2158284187 -9980831.1312856674 0 -9980831.1312856674 -20349173.527564049 0 0 0 0 -3544935.0461206436 -6587157.6107950211 0 -6587157.6107950211 -26486459.142170668 0 0 0 0 -5499328.0625305176 -16761836.443052292 0 -16761836.443052292 -34045584.098678827 0 0 0 0 -1581264.8833379745 -6548946.2677490711 0 -6548946.2677490711 -27642999.394487858 0 0 0 0 -1177601.2066163421 -1885418.0088988692 0 -1885418.0088988692 -21348883.878368378 0 0 0 0 -1491746.3351354599 -7359226.6297882199 0 -7359226.6297882199 -18194226.480974674 0 0 0 0 923954.15983586956 4351101.1674228078 0 4351101.1674228078 -2005682.1579116932 0 0 0 0 2285885.2730920315 9966859.1850316525 0 9966859.1850316525 -910467.74838066101 0 0 0 0 2049948.3329473143 1553060.9916430614 0 1553060.9916430614 -8240516.5746835452 0 0 0 0 -3321256.5906873941 -5293816.0901495665 0 -5293816.0901495665 -20240021.665002108 0 0 0 0 269771.07700921013 1183501.1547140018 0 1183501.1547140018 -737031.73660235014 0 0 0 0 -13645746.447655201 12017800.642518997 0 12017800.642518997 -5463130.6703074314 0 0 0 0 10142987.069869757 31850990.902681828 0 31850990.902681828 -25476781.136799812 0 0 0 0 5724058.2667169571 8987303.5795259476 0 8987303.5795259476 -5450682.7007207945 0 0 0 0 6353818.2265771329 6571716.307698369 0 6571716.307698369 -15155027.188486099 0 0 0 0 -310056.50488448143 -1146294.9203720093 0 -1146294.9203720093 -4245154.9034767151 0 0 0 0 9523316.9326131344 -10032167.032726288 0 -10032167.032726288 22038752.275871277 0 0 0 0 345935.53394674975 -6714944.5207228791 0 -6714944.5207228791 -9699554.2498009298 0 0 0 0 4118376.2614808083 -4551024.0016336441 0 -4551024.0016336441 24164065.558708191 0 0 0 0 -1738346.2258501912 -1562345.1299414895 0 -1562345.1299414895 5650389.87660712 0 0 0 0 -4372201.7324132537 -3721740.6722918898 0 -3721740.6722918898 5021302.2366495524 0 0 0 0 103456265.27505584 44966193.751084194 0 44966193.751084194 -287584213.88743973 0 0 0 0 104439751.62393141 -73052347.471006632 0 -73052347.471006632 -31870045.091750622 0 0 0 0 299864.29532055231 -7459069.1978285294 0 -7459069.1978285294 -6531577.8966829032 0 0 0 0 1690662.3065692186 -4497346.8321762085 0 -4497346.8321762085 -1676648.3483657837 0 0 0 0 -79888209.004270554 -78516673.884998828 0 -78516673.884998828 -49271284.103153706 0 0 0 0 -61448859.526228905 38422973.760511279 0 38422973.760511279 4828063.3705456257 0 0 0 0 55669757.782393456 150275266.71886826 0 150275266.71886826 -429711955.83439565 0 0 0 0 2357062.4070372581 -6361244.392080307 0 -6361244.392080307 -6833685.8448672295 0 0 0 0 4300162.0165996552 -3391657.3122444153 0 -3391657.3122444153 -14147208.71594429 0 0 0 0 46698.716757269576 -778935.70864862204 0 -778935.70864862204 -1522566.2716157516 0 0 0 0 186433.91948250588 -6618426.3021348864 0 -6618426.3021348864 -9702983.9729319289 0 0 0 0 -237544199.37197399 -364937341.46713281 0 -364937341.46713281 566748108.473104 0 0 0 0 -390372.21956348419 -659674.88334083557 0 -659674.88334083557 1318165.510093689 0 0 0 0 -652454.57636383548 -7003712.3022221252 0 -7003712.3022221252 -5334316.4820116954 0 0 0 0 594985.5610260726 -843810.00070722587 0 -843810.00070722587 -8847007.5146202967 0 0 0 0 -15508901.940011978 -7232656.8848457336 0 -7232656.8848457336 -8277459.531047821 0 0 0 0 4135149.3097629547 -2233985.775718689 0 -2233985.775718689 -18161656.884326458 0 0 0 0 58771.076968164183 -6469105.7906029643 0 -6469105.7906029643 -6355206.9986142516 0 0 0 0 14905.97998021543 -238034.66576226614 0 -238034.66576226614 -475075.21949396812 0 0 0 0 3527050.1447997093 -2956940.5519800186 0 -2956940.5519800186 -29077060.894958496 0 0 0 0 1862893.5088014603 -4474019.0150489807 0 -4474019.0150489807 -14317791.8046875 0 0 0 0 -508991.69383811951 63145.585077285767 0 63145.585077285767 -16046586.908047676 0 0 0 0 8390665.0048718452 -34855815.669188082 0 -34855815.669188082 -67569672.197844744 0 0 0 0 -21909210.199661732 54974122.094761789 0 54974122.094761789 38587088.245592833 0 0 0 0 9117197.3845882416 -9169793.1260910034 0 -9169793.1260910034 -24558206.479177475 0 0 0 0 7981034.0185308456 -7516033.1888208985 0 -7516033.1888208985 -34904591.237294197 0 0 0 0 22052057.621732235 -9912821.2519181967 0 -9912821.2519181967 -45092735.140699357 0 0 0 0 118139.33600914059 -6279619.2138119759 0 -6279619.2138119759 -2722810.3952258639 0 0 0 0 448366.64424991608 -7342473.320558548 0 -7342473.320558548 -17356361.683189392 0 0 0 0 1353811.3905901909 -4755334.3011360168 0 -4755334.3011360168 -15987377.943214417 0 0 0 0 1051155.8023416996 -2989089.9227226973 0 -2989089.9227226973 -9778899.0873832703 0 0 0 0 -212136.1596698761 -2427709.4824695587 0 -2427709.4824695587 -13702322.113115311 0 0 0 0 517805.59681481123 -6404336.0677074194 0 -6404336.0677074194 -9555804.9279747009 0 0 0 0 2324993.919702108 -2266925.5856063059 0 -2266925.5856063059 -8677886.2936161105 0 0 0 0 1693937.877196312 -5318593.598733902 0 -5318593.598733902 -6279377.9711589813 0 0 0 0 1677434.5081152916 -4385693.5662698746 0 -4385693.5662698746 -7543776.3746681213 0 0 0 0 1841156.4137625312 -4948573.0096108792 0 -4948573.0096108792 -12805681.319822326 0 0 0 0 149692449.93901157 -73944563.882751465 0 -73944563.882751465 -9152204.966293335 0 0 0 0 156902297.08130646 -40677060.123550415 0 -40677060.123550415 28787235.556358337 0 0 0 0 75623522.264866829 -82907266.652347565 0 -82907266.652347565 76868636.82567215 0 0 0 0 245527.87440054631 -338103.40363309905 0 -338103.40363309905 -1322865.887715145 0 0 0 0 3231864.5380895138 -9128538.5987594128 0 -9128538.5987594128 -6607691.1728897095 0 0 0 0 45231.313840389252 -3518872.0841293335 0 -3518872.0841293335 -7021051.5500488281 0 0 0 0 1002235.3777971268 -6297268.1070098877 0 -6297268.1070098877 -14398562.358990192 0 0 0 0 -72822903.242671967 -111168825.76148605 0 -111168825.76148605 92703848.06211853 0 0 0 0 -97438241.900300622 -87788948.702877045 0 -87788948.702877045 -11730341.762557983 0 0 0 0 -119813740.31212139 19011521.00087738 0 19011521.00087738 11304615.477600098 0 0 0 0 166039440.80886936 16312462.27665329 0 16312462.27665329 -117408024.4078064 0 0 0 0 166325237.3223753 -56326590.401676178 0 -56326590.401676178 -70090404.456054688 0 0 0 0 70727659.861839294 140427318.1229248 0 140427318.1229248 -155609001.95227814 0 0 0 0 8037784.1969165802 -11476034.337379456 0 -11476034.337379456 6674464.3946990967 0 0 0 0 9858066.1571397781 -51259918.109367371 0 -51259918.109367371 37821118.300064087 0 0 0 0 49654323.724337578 -35694348.559883118 0 -35694348.559883118 6925470.6617736816 0 0 0 0 48367843.139737129 -52333731.139823914 0 -52333731.139823914 35990212.800186157 0 0 0 0 94171190.348096848 -79257573.056396484 0 -79257573.056396484 50784298.439041138 0 0 0 0 36217378.79421711 -41307476.920734406 0 -41307476.920734406 22160497.250717163 0 0 0 0 45490140.339906693 -17271691.773132324 0 -17271691.773132324 73305046.387693405 0 0 0 0 -14541960.128987312 -43921230.741298676 0 -43921230.741298676 24076701.044372559 0 0 0 0 -2352984.0487260818 -20786097.962944031 0 -20786097.962944031 43259023.091870308 0 0 0 0 -28709500.581541181 -54634453.002941132 0 -54634453.002941132 12854231.370986938 0 0 0 0 -33599060.33126545 -32788745.97946167 0 -32788745.97946167 35199446.250549316 0 0 0 0 7179094.6211179495 -24148905.038465023 0 -24148905.038465023 7700213.544128418 0 0 0 0 -35690922.527421951 -50601730.919235229 0 -50601730.919235229 10637017.591430664 0 0 0 0 -39065142.710539818 -67922366.801712036 0 -67922366.801712036 -10457786.835357666 0 0 0 0 -41805290.250814438 -53414953.713401794 0 -53414953.713401794 27290098.46207428 0 0 0 0 -30240329.874056339 -49458737.321212769 0 -49458737.321212769 5654530.9696807861 0 0 0 0 -35717079.12472868 -45020306.290390015 0 -45020306.290390015 19882798.467636108 0 0 0 0 -26148893.719802856 -36659154.067920685 0 -36659154.067920685 25769870.542861938 0 0 0 0 -41895273.14454937 -33913630.305797577 0 -33913630.305797577 11487548.680592477 0 0 0 0 -22141591.532745838 -38669303.671844482 0 -38669303.671844482 11526495.927032471 0 0 0 0 -18050191.694914103 -30040269.197425842 0 -30040269.197425842 -8162954.4347114563 0 0 0 0 6179694.1471162438 -11154245.075550556 0 -11154245.075550556 6320513.0627365112 0 0 0 0 -4433976.4849338531 -16748257.245513916 0 -16748257.245513916 21709134.123420715 0 0 0 0 9966936.450047493 -34157673.702964783 0 -34157673.702964783 -31445013.944356918 0 0 0 0 -8505270.9269652367 -58206825.044975281 0 -58206825.044975281 -57436217.665187836 0 0 0 0 -348845.20722137927 -580727.43504401855 0 -580727.43504401855 1535257.3012873717 0 0 0 0 11203141.835041046 1316319.3898239136 0 1316319.3898239136 -4594691.092366457 0 0 0 0 9705059.709312439 399976.8089158535 0 399976.8089158535 -3857175.1435608864 0 0 0 0 4297751.0388867296 -2466104.1449980289 0 -2466104.1449980289 -3637284.3327767043 0 0 0 0 9623619.7112016678 -1591694.0376365185 0 -1591694.0376365185 -7164204.6325387955 0 0 0 0 3952311.2187860431 -3335026.2356723091 0 -3335026.2356723091 -9659922.516271919 0 0 0 0 186832.16363291349 -6356044.5777690494 0 -6356044.5777690494 -1797086.9091819685 0 0 0 0 -7120161.5564379692 -19217008.870738029 0 -19217008.870738029 -29964154.657924056 0 0 0 0 3710450.7783880234 -5807778.8150444031 0 -5807778.8150444031 -17978580.492200851 0 0 0 0 2508264.1919260025 -15611401.81451714 0 -15611401.81451714 -46847785.691675067 0 0 0 0 -2285847.8716263771 -7839398.3872170448 0 -7839398.3872170448 -14004261.24439621 0 0 0 0 701397.35951423645 -10302488.029724121 0 -10302488.029724121 -21330744.590284348 0 0 0 0 2529546.2362089157 -2518862.8042106628 0 -2518862.8042106628 -11210471.48723793 0 0 0 0 701047.06621742249 -2725946.7374572754 0 -2725946.7374572754 -11177293.029996872 0 0 0 0 8645089.6621637344 -1260915.3561353683 0 -1260915.3561353683 -11971480.600870609 0 0 0 0 4109002.2245240211 -4452097.0199213028 0 -4452097.0199213028 -8878674.937494278 0 0 0 0 2710037.4250907395 -2708230.9864317896 0 -2708230.9864317896 -8306458.365861644 0 0 0 0 3489656.7532737255 -1587733.5540111065 0 -1587733.5540111065 -5807516.9998970032 0 0 0 0 2090309.4892578125 -4938907.0883560181 0 -4938907.0883560181 -7591794.201675415 0 0 0 0 2043.6572017669678 -6829491.609369278 0 -6829491.609369278 -12966874.67010498 0 0 0 0 3443812.0572357178 -2352381.2110424042 0 -2352381.2110424042 -6088917.6613225937 0 0 0 0 4458623.0653300285 -3395081.6098508835 0 -3395081.6098508835 -5017973.9622211456 0 0 0 0 2670678.6652221889 -3768566.2225778135 0 -3768566.2225778135 -7711624.7785470514 0 0 0 0 25984555.436611176 -3319215.9336276054 0 -3319215.9336276054 -24132649.698635101 0 0 0 0 8109855.9830789566 -1159754.6157474518 0 -1159754.6157474518 -6515019.4353885651 0 0 0 0 19444471.350152969 2073670.8911240101 0 2073670.8911240101 -5672389.0988683701 0 0 0 0 17128308.881585121 11305637.509760618 0 11305637.509760618 -40229130.509599686 0 0 0 0 20507971.910173893 5735944.54829216 0 5735944.54829216 -8418418.5700941086 0 0 0 0 8591740.4836206436 3026176.0105266571 0 3026176.0105266571 1587469.6763458252 0 0 0 0 11692479.801865101 12012143.572454453 0 12012143.572454453 -2078803.0428843498 0 0 0 0 554563.11879886314 -74268.544587932527 0 -74268.544587932527 -578540.86780796293 0 0 0 0 13427613.753851891 -60619988.882627726 0 -60619988.882627726 -62989428.134194374 0 0 0 0 26305825.221500397 962595.47593641281 0 962595.47593641281 -31605605.248973846 0 0 0 0 3824942.2063140869 15404085.96706295 0 15404085.96706295 -26154576.872945309 0 0 0 0 -3194664.6831207275 30449783.301538467 0 30449783.301538467 -21955539.881814957 0 0 0 0 36781381.390021682 26947725.530374944 0 26947725.530374944 -36557888.614808083 0 0 0 0 -1406796.0858840942 20123927.998913288 0 20123927.998913288 -22243443.45159924 0 0 0 0 10112303.935048103 14944969.226872444 0 14944969.226872444 -21125057.697784424 0 0 0 0 32654913.152275443 5326809.9810386002 0 5326809.9810386002 -29123518.348901749 0 0 0 0 1208111.8146708263 26351.355707690585 0 26351.355707690585 -1202736.4321958697 0 0 0 0 10753110.497362614 3862062.9103065729 0 3862062.9103065729 -1272394.0095009804 0 0 0 0 19317669.965543747 2499002.5375077724 0 2499002.5375077724 -28821204.921427414 0 0 0 0 19140357.811863422 4172473.7673165798 0 4172473.7673165798 -8335841.7799243927 0 0 0 0 2299114.2514610291 9477922.238409996 0 9477922.238409996 5221622.3705847263 0 0 0 0 11434842.340842247 13120054.603735685 0 13120054.603735685 3974164.6916657388 0 0 0 0 1985360.6478706598 260552.37014273694 0 260552.37014273694 -1673558.4250541478 0 0 0 0 6469084.8462710381 1426601.1901687384 0 1426601.1901687384 -4218990.0165166855 0 0 0 0 3763645.637720108 1443367.6683444977 0 1443367.6683444977 -623523.64497625828 0 0 0 0 5138057.2069158554 4245430.6371167898 0 4245430.6371167898 4719244.8482103944 0 0 0 0 -7725506.4120283127 -3541464.9458773136 0 -3541464.9458773136 1524057.7730369568 0 0 0 0 -86848.497568130493 6988781.6069808006 0 6988781.6069808006 3932701.0216262341 0 0 0 0 3733417.7389974594 2376324.4368268251 0 2376324.4368268251 8016675.8970663548 0 0 0 0 -8635913.3048658371 740076.53511929512 0 740076.53511929512 516484.71429824829 0 0 0 0 3297487.179017067 11380462.434273005 0 11380462.434273005 -3682972.2509126663 0 0 0 0 -4294749.2899723053 7103485.8987474442 0 7103485.8987474442 -4824720.5105919838 0 0 0 0 -12850807.156154633 3618755.3696541786 0 3618755.3696541786 -1434238.0051307678 0 0 0 0 -6809105.7509822845 -2005819.033062458 0 -2005819.033062458 -1463438.8845846653 0 0 0 0 -9032364.7102718353 -5463168.8575344086 0 -5463168.8575344086 -2593481.2729747295 0 0 0 0 -10475295.775650024 -7448222.8252768517 0 -7448222.8252768517 -5293544.1485948563 0 0 0 0 -6576756.7403621674 -9449475.3923988342 0 -9449475.3923988342 -11607891.087490082 0 0 0 0 2560319.4480810165 -92102.72535943985 0 -92102.72535943985 -4107299.290854454 0 0 0 0 -15153487.806596756 -7743859.5965042114 0 -7743859.5965042114 -4946797.1835079193 0 0 0 0 -14430125.330724716 -15697538.162772179 0 -15697538.162772179 -12733603.266267776 0 0 0 0 -25271327.500860214 -13008814.172710419 0 -13008814.172710419 -5914032.9963378906 0 0 0 0 -26798815.98014915 3272430.5637296438 0 3272430.5637296438 -4488043.6413269043 0 0 0 0 -48278838.649468422 -18425968.08638525 0 -18425968.08638525 -12743320.858502667 0 0 0 0 -16414469.900098801 16796799.94371891 0 16796799.94371891 -12342062.99522686 0 0 0 0 -20613712.19373703 -211411.57745456696 0 -211411.57745456696 -3315131.4267392159 0 0 0 0 -62403608.704317093 -101881.67137718201 0 -101881.67137718201 -4744166.4816666842 0 0 0 0 -1226848.5126457214 16552388.782560349 0 16552388.782560349 -16936168.051167488 0 0 0 0 -3184599.8215789795 27310239.315814018 0 27310239.315814018 -51594339.945672989 0 0 0 0 -48641827.170266151 39529865.328933239 0 39529865.328933239 -22118170.27114296 0 0 0 0 -66332197.712713242 26077476.667421341 0 26077476.667421341 1667071.3807888031 0 0 0 0 -51568324.523853302 3480846.4083652496 0 3480846.4083652496 -31251853.93890667 0 0 0 0 -38617448.678813934 30880058.337470055 0 30880058.337470055 -27323996.443455696 0 0 0 0 -25069088.810882568 -19364494.575555325 0 -19364494.575555325 -19300557.648412704 0 0 0 0 425869.27150071971 -285028.5941416123 0 -285028.5941416123 -488684.42752588633 0 0 0 0 432398.40237310529 -27972.368050552905 0 -27972.368050552905 -545133.92257083347 0 0 0 0 -53473153.420391083 -9822920.2893466949 0 -9822920.2893466949 -21857900.445416451 0 0 0 0 -57114036.620899647 -24217815.891976267 0 -24217815.891976267 -13360391.742348671 0 0 0 0 -55868899.462105751 -36262321.533854485 0 -36262321.533854485 -9142855.0640125275 0 0 0 0 -41044629.74149704 -28747709.264468193 0 -28747709.264468193 -5652094.5106630325 0 0 0 0 -30584921.564553976 -41848109.206135511 0 -41848109.206135511 -14277142.929819107 0 0 0 0 -48838695.194488525 -30410395.211010456 0 -30410395.211010456 -8959752.6954650879 0 0 0 0 -86028433.611871719 -10465437.816289425 0 -10465437.816289425 -12006024.080551147 0 0 0 0 -206209.07322287618 -649187.13384087686 0 -649187.13384087686 -160243.0262749074 0 0 0 0 129790832.40045071 -16728422.011733651 0 -16728422.011733651 -70507478.688666344 0 0 0 0 -246496387.32174158 -46343584.91106987 0 -46343584.91106987 48384633.850193024 0 0 0 0 -2501147.428457737 -721414.05719006062 0 -721414.05719006062 1787174.824385643 0 0 0 0 702254.51418252196 -521481.42146986257 0 -521481.42146986257 -856084.89103516005 0 0 0 0 35880267.813794136 -10107487.680349588 0 -10107487.680349588 -36286298.628258228 0 0 0 0 770885.45580485649 -26409.611718056723 0 -26409.611718056723 -1095722.0383843537 0 0 0 0 -7117960.9334340096 -8338627.7749531269 0 -8338627.7749531269 -8629960.8583183289 0 0 0 0 -63736621.612028122 -42958893.386170864 0 -42958893.386170864 -2618374.6946582794 0 0 0 0 17367704.611418247 3908939.4176967144 0 3908939.4176967144 12848881.843740463 0 0 0 0 -2023141.2145400047 -29252516.988996983 0 -29252516.988996983 -28836645.700694442 0 0 0 0 1736552.6008117199 8970608.3553634882 0 8970608.3553634882 -19184775.200521469 0 0 0 0 82435858.646118164 -32748859.277850628 0 -32748859.277850628 4592661.142130971 0 0 0 0 50196537.682775974 16657194.64376545 0 16657194.64376545 3752913.3219892308 0 0 0 0 105077230.01400518 21700532.171869993 0 21700532.171869993 -40363438.692809105 0 0 0 0 41521756.985571861 -4047937.2918930054 0 -4047937.2918930054 -44211975.363670826 0 0 0 0 20555794.366814137 19182044.535080433 0 19182044.535080433 -37426074.540342569 0 0 0 0 19741225.508671761 3778965.6702184677 0 3778965.6702184677 -40646722.631248474 0 0 0 0 47651040.666501999 -5293899.5868854523 0 -5293899.5868854523 -53002317.485631943 0 0 0 0 51762637.176142216 2867422.2872068882 0 2867422.2872068882 -42294798.532628536 0 0 0 0 73560356.866861343 -20899511.606106758 0 -20899511.606106758 -49229849.215293407 0 0 0 0 32928952.450687319 -30578438.868072465 0 -30578438.868072465 -51188084.741784096 0 0 0 0 -1307721.3041715622 -47702921.973111868 0 -47702921.973111868 -3979440.2251558304 0 0 0 0 31129381.393107325 -12065902.464776218 0 -12065902.464776218 -22425196.82557106 0 0 0 0 1606090.8201319575 6261391.4307835698 0 6261391.4307835698 -8489870.8275308609 0 0 0 0 9520269.35160923 -3182605.0625851154 0 -3182605.0625851154 -3777571.6383237839 0 0 0 0 7787191.6165933609 2435764.6379780769 0 2435764.6379780769 -17397132.064074755 0 0 0 0 14619866.423479557 225105.90197491646 0 225105.90197491646 -16806716.321761608 0 0 0 0 682947.75663344073 -389179.57812723122 0 -389179.57812723122 -756461.22240917268 0 0 0 0 -5527836.7858610153 -4930195.3889045715 0 -4930195.3889045715 -5487271.0349197388 0 0 0 0 -7612770.7558932304 -8511144.8958220482 0 -8511144.8958220482 -8444643.7124996185 0 0 0 0 -61234791.829353333 -177365818.47482419 0 -177365818.47482419 -8010139.2165460587 0 0 0 0 -12870595.613237381 35872671.200434446 0 35872671.200434446 -39625432.762814045 0 0 0 0 -207820515.52496338 87058264.270009041 0 87058264.270009041 -43611133.15489161 0 0 0 0 50179436.173985481 -63271385.226728439 0 -63271385.226728439 -96352225.327001572 0 0 0 0 623642.46547047421 -242776.40086002159 0 -242776.40086002159 -1078173.3967725709 0 0 0 0 1320686.1201353073 528394.17444133759 0 528394.17444133759 -611421.95280265808 0 0 0 0 2159524.1452331543 201665.65846991539 0 201665.65846991539 -489495.72299587727 0 0 0 0 -15149953.153432846 -2363809.4844360352 0 -2363809.4844360352 5492736.9100470543 0 0 0 0 -10106092.942790031 -9432416.358363986 0 -9432416.358363986 -3363278.6810479164 0 0 0 0 -4005746.8343858719 -5708955.1932391524 0 -5708955.1932391524 8752490.6871562004 0 0 0 0 -4138304.6697349548 -80235.239523410797 0 -80235.239523410797 -5795946.280276835 0 0 0 0 -7729915.9744467735 5246704.6382517219 0 5246704.6382517219 19175488.796428442 0 0 0 0 110078.71372762369 311070.03584413137 0 311070.03584413137 -324422.05279193225 0 0 0 0 5149402.8570013046 4247857.177970767 0 4247857.177970767 2060585.7844283581 0 0 0 0 -13494782.276043355 -16472822.467275947 0 -16472822.467275947 1281771.7740907669 0 0 0 0 373867.40576267638 -221224.75241531851 0 -221224.75241531851 -395080.95918945293 0 0 0 0 10587863.55098629 -15007048.348315954 0 -15007048.348315954 -11092384.777097464 0 0 0 0 5023914.1171879768 13887981.052672058 0 13887981.052672058 -61767532.080640078 0 0 0 0 -20102104.548110008 8418961.2392323017 0 8418961.2392323017 2635120.6926175952 0 0 0 0 -6307562.98736763 -13848428.703087747 0 -13848428.703087747 -31334964.190594554 0 0 0 0 3263985.2468161583 1471656.2223535776 0 1471656.2223535776 -1458502.3137429953 0 0 0 0 3329342.4130725861 981360.47578716278 0 981360.47578716278 -6251068.6897249222 0 0 0 0 8712.9262177043129 -541190.81918134983 0 -541190.81918134983 -448301.52987369546 0 0 0 0 3454273.8890457153 -2409137.43975842 0 -2409137.43975842 15625466.692236245 0 0 0 0 -10710199.304998875 -4014455.4445239305 0 -4014455.4445239305 9043716.1931179762 0 0 0 0 2159671.9282635823 181464.20615577279 0 181464.20615577279 2271946.1031706333 0 0 0 0 -1251942.0078379316 425183.79710221908 0 425183.79710221908 -2454.0309799048555 0 0 0 0 -450966.08637142181 -10013988.289688349 0 -10013988.289688349 -51587866.161892653 0 0 0 0 -9130863.91543293 11718049.068957627 0 11718049.068957627 -12774796.374617845 0 0 0 0 -2126086.6922625937 791353.74907880288 0 791353.74907880288 -334550.92082426464 0 0 0 0 -287987.35059518041 -394347.92632682202 0 -394347.92632682202 257056.91130333795 0 0 0 0 235371930.39689207 98262000.050801337 0 98262000.050801337 -358755250.15299439 0 0 0 0 13550906.956506729 -34576107.887719989 0 -34576107.887719989 -152485114.95055676 0 0 0 0 -2016108.7136363983 -20519167.836891294 0 -20519167.836891294 -118920751.25974846 0 0 0 0 10342854.763558388 12765379.447941542 0 12765379.447941542 -96034328.574218512 0 0 0 0 21890901.281607628 16679379.848438799 0 16679379.848438799 -152715365.0674293 0 0 0 0 48855152.813432693 26334070.76685071 0 26334070.76685071 -183093852.44342375 0 0 0 0 14122771.036271572 20092990.744710267 0 20092990.744710267 -90027670.55486989 0 0 0 0 2284138.4569702148 17937240.917840302 0 17937240.917840302 -97499639.78164649 0 0 0 0 9475649.5761141777 11127663.069532156 0 11127663.069532156 -74915855.068145275 0 0 0 0 17460767.97640419 8182275.6194988489 0 8182275.6194988489 -85832463.421560049 0 0 0 0 13497994.303297043 13371796.842342377 0 13371796.842342377 -71038815.983059287 0 0 0 0 13118137.240868568 27159855.244186401 0 27159855.244186401 -90931018.221003056 0 0 0 0 12037323.430804253 22430775.30077064 0 22430775.30077064 -70903654.781366348 0 0 0 0 16606775.864421844 20067865.143054485 0 20067865.143054485 -90650313.320322633 0 0 0 0 11605284.704259872 17547774.801506519 0 17547774.801506519 -72131570.319699287 0 0 0 0 14294209.339267194 3306357.9310970157 0 3306357.9310970157 -49687129.129232883 0 0 0 0 4914753.3646034002 10949214.048668399 0 10949214.048668399 -38630216.725835323 0 0 0 0 7885935.8848400116 10104902.503299356 0 10104902.503299356 -39992964.433481455 0 0 0 0 7022779.2161419392 23576617.361689955 0 23576617.361689955 -63077583.327534199 0 0 0 0 8106225.9958686829 29080050.63502419 0 29080050.63502419 -61245231.138869762 0 0 0 0 14770285.183511734 28452120.351925611 0 28452120.351925611 -98769805.990679085 0 0 0 0 -27745073.321171761 -36142271.897133827 0 -36142271.897133827 -92285921.7478652 0 0 0 0 -922010.67469596863 12345204.349490285 0 12345204.349490285 -84672961.496219397 0 0 0 0 5962076.2095859051 2250997.8262649924 0 2250997.8262649924 -74005325.678417683 0 0 0 0 -44171198.334013939 28971084.810818017 0 28971084.810818017 -85303640.545013785 0 0 0 0 12207066.457938671 13109883.521718383 0 13109883.521718383 -113379794.40609837 0 0 0 0 -28260494.799165249 -26480097.704307958 0 -26480097.704307958 -67371816.785204411 0 0 0 0 -173313142.65661669 -184427.93826198578 0 -184427.93826198578 -71938988.622226357 0 0 0 0 57967.36396908341 109814.59614534141 0 109814.59614534141 -245649.58586706268 0 0 0 0 20340441.034664154 -99597031.157092214 0 -99597031.157092214 -95112944.11177516 0 0 0 0 -20390107.868014812 -50653465.946157426 0 -50653465.946157426 -149415388.16559649 0 0 0 0 -72571985.626398087 -4218844.3151826859 0 -4218844.3151826859 -108437661.65978897 0 0 0 0 -60958889.6715343 -84877953.413508251 0 -84877953.413508251 -139399248.05197048 0 0 0 0 -14234022.01804018 -29051392.989380002 0 -29051392.989380002 -98326031.628223896 0 0 0 0 -44470193.430248737 -94978925.425706804 0 -94978925.425706804 -150627108.60668391 0 0 0 0 5606946.5423650742 -17590902.205118418 0 -17590902.205118418 -178402792.9191879 0 0 0 0 5083267.5940064415 10181064.151751986 0 10181064.151751986 -100036771.44976735 0 0 0 0 -2630917.7239735126 43474861.568156421 0 43474861.568156421 -98376355.140312195 0 0 0 0 -23568158.574488163 42351771.517052054 0 42351771.517052054 -23088523.751005173 0 0 0 0 11854887.725840569 7263145.1757515669 0 7263145.1757515669 -17323300.169182479 0 0 0 0 12046512.207737923 -5872795.1968561411 0 -5872795.1968561411 -81714368.440979004 0 0 0 0 50524198.834563255 22892714.512189746 0 22892714.512189746 -35870250.806084394 0 0 0 0 47230978.294233114 -18223433.116018549 0 -18223433.116018549 -69383845.739023447 0 0 0 0 8999644.9983119965 -25277480.241995335 0 -25277480.241995335 -64184689.763795972 0 0 0 0 11864202.26442337 -50943292.206267834 0 -50943292.206267834 -118562385.25126398 0 0 0 0 -9267105.2602143288 -32109909.804933667 0 -32109909.804933667 -63126786.011603594 0 0 0 0 25358811.039049149 -6866715.141890049 0 -6866715.141890049 -56085977.331848085 0 0 0 0 25643519.547397137 -28032225.924364507 0 -28032225.924364507 -74213617.145074248 0 0 0 0 3377232.8089430807 -1126170.5797270276 0 -1126170.5797270276 -2027965.5085069204 0 0 0 0 8090200.0538883209 -20419463.31002447 0 -20419463.31002447 -55321564.922944188 0 0 0 0 -1578694.2089757919 7036159.7391451597 0 7036159.7391451597 14977885.986550689 0 0 0 0 7227598.5315752029 -4495297.7082905769 0 -4495297.7082905769 1116089.6613095701 0 0 0 0 1591738.3199735698 122584.67807820055 0 122584.67807820055 -785898.13065231859 0 0 0 0 1344539.9451661543 -299213.69779159897 0 -299213.69779159897 -1055891.3108525453 0 0 0 0 5401154.5483045578 -10172373.200682104 0 -10172373.200682104 -27927347.017603874 0 0 0 0 5429079.9465925694 -6655135.4345560372 0 -6655135.4345560372 -1026938.8152010441 0 0 0 0 14575620.868356347 20895180.467036679 0 20895180.467036679 -13434431.92575264 0 0 0 0 14568600.681184769 18941070.111462235 0 18941070.111462235 -40584035.729291677 0 0 0 0 -42361218.803115845 -50561422.88977319 0 -50561422.88977319 -66606326.401122928 0 0 0 0 279191.30993999564 -43088.966293192236 0 -43088.966293192236 -204785.97941342648 0 0 0 0 -10679869.735349894 -37176576.907813862 0 -37176576.907813862 -61327079.301168203 0 0 0 0 -38890745.480694905 -54760379.939775467 0 -54760379.939775467 -135804524.55486298 0 0 0 0 28280333.820839446 10364069.460121155 0 10364069.460121155 -44428184.304260254 0 0 0 0 12416.591192403537 -4394.7779945619404 0 -4394.7779945619404 -128920.64544778317 0 0 0 0 -38835624.005310312 15245742.196502686 0 15245742.196502686 24338984.525108337 0 0 0 0 -51135691.659249067 -57757024.827739716 0 -57757024.827739716 -19456783.242617607 0 0 0 0 -38682.504432907161 -17944932.996524811 0 -17944932.996524811 -41689536.989276886 0 0 0 0 -8384975.9749026485 -69681937.410057068 0 -69681937.410057068 -146912846.85769653 0 0 0 0 -19280184.337348733 12612057.071754456 0 12612057.071754456 170239.15600395203 0 0 0 0 15766.693517912539 -14965.476742223836 0 -14965.476742223836 -206574.73308777437 0 0 0 0 -22443681.854360338 -5778054.8890128136 0 -5778054.8890128136 316001.11283874512 0 0 0 0 -1703806.3754762127 8815447.6436424255 0 8815447.6436424255 -5725925.7039413452 0 0 0 0 -2831284.4448485826 -9673772.5737876892 0 -9673772.5737876892 -5048572.5845794678 0 0 0 0 -16424328.939619549 -24301423.039956093 0 -24301423.039956093 -11911858.322998047 0 0 0 0 -15846099.282033132 -19685799.065984964 0 -19685799.065984964 -15029257.176742554 0 0 0 0 -20714761.881831512 -23025239.39855957 0 -23025239.39855957 -10784050.839538574 0 0 0 0 -18623927.951091886 -25286852.384494781 0 -25286852.384494781 -8568929.2029418945 0 0 0 0 -17651890.380769305 -22485702.322792053 0 -22485702.322792053 -14584556.599639893 0 0 0 0 -11397466.815194979 -18419338.425582886 0 -18419338.425582886 -17757354.480873108 0 0 0 0 -22789934.414113082 -12150722.677322388 0 -12150722.677322388 -20208159.469329834 0 0 0 0 1780283.8983111233 -8177094.3034191132 0 -8177094.3034191132 -15599655.904319763 0 0 0 0 1399885.7118280828 -3392393.7578544617 0 -3392393.7578544617 -26753093.887029648 0 0 0 0 -7238477.2889138758 -8127922.7818145752 0 -8127922.7818145752 -27956091.441917419 0 0 0 0 -4876999.0900097489 -16584025.770980835 0 -16584025.770980835 -43288543.461036682 0 0 0 0 4735695.0041805804 -3754112.701128006 0 -3754112.701128006 -43493625.267959595 0 0 0 0 -18771080.100578174 -29018815.992897034 0 -29018815.992897034 -52367255.161464989 0 0 0 0 -10807906.410338596 -32402665.360141754 0 -32402665.360141754 -88166870.628629684 0 0 0 0 -19842444.672589719 -7221700.3631057739 0 -7221700.3631057739 -17971202.503326416 0 0 0 0 -22524666.98969049 11039679.56545639 0 11039679.56545639 -67306978.161071777 0 0 0 0 -9681114.0407590419 63338.646068572998 0 63338.646068572998 -52515148.441467285 0 0 0 0 -2439268.6319183186 79928497.365356445 0 79928497.365356445 -71663039.05708313 0 0 0 0 6476.0588910021579 -72566.056973271072 0 -72566.056973271072 -268345.49273137376 0 0 0 0 -65687656.049295723 -89041193.617572784 0 -89041193.617572784 -35517168.696601868 0 0 0 0 -18077090.766450226 -21644531.176860809 0 -21644531.176860809 -31543645.130592346 0 0 0 0 -15608205.902950205 -14694346.754928589 0 -14694346.754928589 -32152917.862609863 0 0 0 0 2031099.0756613314 -10901655.170948029 0 -10901655.170948029 -38894458.35760498 0 0 0 0 -10242315.187586516 -10460309.894672394 0 -10460309.894672394 -29110014.747390747 0 0 0 0 -17662008.299383163 -58217423.343779087 0 -58217423.343779087 -227146841.82008362 0 0 0 0 59297.376038200193 -366425.6580933705 0 -366425.6580933705 -724889.98077176139 0 0 0 0 -53397355.804116189 -136816455.82868576 0 -136816455.82868576 -221483742.53433228 0 0 0 0 -39674798.767972015 -68266994.622817993 0 -68266994.622817993 -276841785.1842041 0 0 0 0 -25068298.223923177 -132373411.93822479 0 -132373411.93822479 -285070324.4405117 0 0 0 0 8216953.1031670701 -133132743.70157051 0 -133132743.70157051 -225084304.30711365 0 0 0 0 -49186448.302772857 -42370838.038040161 0 -42370838.038040161 -246951699.24542427 0 0 0 0 -54807109.202085733 -20992441.679775238 0 -20992441.679775238 -162395315.1545639 0 0 0 0 9360.169795255144 -23631418.442674637 0 -23631418.442674637 -170530204.41753387 0 0 0 0 -13346140.836189948 -79883761.520353317 0 -79883761.520353317 -310669263.55191803 0 0 0 0 -79867414.444519863 -150369497.25800705 0 -150369497.25800705 -325869095.21451092 0 0 0 0 -410012.10119021649 -72966350.923089981 0 -72966350.923089981 -523650613.11681747 0 0 0 0 -65842994.438309714 -48377952.268221855 0 -48377952.268221855 -384718512.66844177 0 0 0 0 -187618824.21178475 -160904159.69976807 0 -160904159.69976807 -436674885.86656189 0 0 0 0 76424.058983712923 -154583.3650741484 0 -154583.3650741484 -1064107.899179494 0 0 0 0 -74111363.928925991 -323645987.92625999 0 -323645987.92625999 -759834637.18977165 0 0 0 0 136837952.49501252 -423345446.31756687 0 -423345446.31756687 -1570983070.8342972 0 0 0 0 -757311.01445491379 -71308600.856695592 0 -71308600.856695592 -698238109.24795532 0 0 0 0 -315432573.00566792 -630236748.48843431 0 -630236748.48843431 -71444835.71697998 0 0 0 0 -559960.78664043848 -879815.4357773494 0 -879815.4357773494 -588388.43072237819 0 0 0 0 -285343465.06168169 -774051636.34490967 0 -774051636.34490967 -472010335.70153809 0 0 0 0 150647.58062116979 16826.200060622767 0 16826.200060622767 -677449.60841819644 0 0 0 0 -107978452.35998771 -387931439.12822723 0 -387931439.12822723 -572072830.50313187 0 0 0 0 340204198.33921206 154325049.99720001 0 154325049.99720001 -311198331.70680237 0 0 0 0 -161478279.57194623 -235914019.03162766 0 -235914019.03162766 299886994.53253937 0 0 0 0 69244285.331703424 -91107422.622623444 0 -91107422.622623444 -476887564.57562256 0 0 0 0 41281165.92224586 -130600748.45301819 0 -130600748.45301819 -467574846.38408661 0 0 0 0 262491522.07740629 -131868555.49486542 0 -131868555.49486542 -503042960.93701935 0 0 0 0 -56832844.15753746 -83933477.379943848 0 -83933477.379943848 -476392265.26189995 0 0 0 0 -2811313.6657498805 -70521885.957244873 0 -70521885.957244873 -455660658.98022175 0 0 0 0 -21280351.644893188 -160048500.61768341 0 -160048500.61768341 -477429682.69799423 0 0 0 0 6607618.4709611535 -106580787.23595428 0 -106580787.23595428 -406449786.55999756 0 0 0 0 50389515.567300737 -122137028.57330704 0 -122137028.57330704 -406062963.70438385 0 0 0 0 -124589248.9069373 -237662408.43157578 0 -237662408.43157578 -360289827.79595184 0 0 0 0 37827765.963599816 -179294513.73466301 0 -179294513.73466301 -493336941.84094238 0 0 0 0 146013.66891949254 -876331.62002599239 0 -876331.62002599239 -1297474.0062650703 0 0 0 0 -118087771.57625717 -264893552.85282898 0 -264893552.85282898 -254340129.25381756 0 0 0 0 -555483104.04882896 -620593046.47235107 0 -620593046.47235107 -289345162.34297657 0 0 0 0 -10886824.830324918 -21747264.017350197 0 -21747264.017350197 -17755849.716953278 0 0 0 0 8632131.6065198183 -135118.76266479492 0 -135118.76266479492 -17286019.845397234 0 0 0 0 -173594778.49189103 -195468634.2136116 0 -195468634.2136116 -251972665.37437439 0 0 0 0 933661.46030855959 -1862371.4225708842 0 -1862371.4225708842 -2584830.6009126417 0 0 0 0 4673787.5634880066 -10168841.678104401 0 -10168841.678104401 -17008043.91990149 0 0 0 0 -121549696.38858104 -203296462.81690598 0 -203296462.81690598 -1089063389.7000732 0 0 0 0 -153375645.08037668 -681433452.57673645 0 -681433452.57673645 -284349213.32696533 0 0 0 0 -480443830.94236189 -387121077.34102702 0 -387121077.34102702 -197601182.46055603 0 0 0 0 -149149744.72095752 -828688718.48350143 0 -828688718.48350143 -31255429.277511597 0 0 0 0 433299982.07421649 -148882511.62267685 0 -148882511.62267685 -662361508.73046303 0 0 0 0 -557489.09337293333 -809985.17144585494 0 -809985.17144585494 -671007.03202386573 0 0 0 0 140705390.50361466 -424450562.60352707 0 -424450562.60352707 -815105815.44814682 0 0 0 0 -347760862.55644155 -155493668.54557037 0 -155493668.54557037 298552995.39137077 0 0 0 0 -324073321.6746558 -771834885.89398193 0 -771834885.89398193 148098123.03492737 0 0 0 0 -459258120.3806299 -646095386.63677216 0 -646095386.63677216 33042826.842910767 0 0 0 0 -731949713.58605671 -308647918.51067448 0 -308647918.51067448 -134903223.44488525 0 0 0 0 -534450796.51603061 -672642578.37817764 0 -672642578.37817764 -574018633.94348145 0 0 0 0 -373490001.42902976 -771968300.5365448 0 -771968300.5365448 -1573420568.8671036 0 0 0 0 292569210.78660375 -34321278.561183929 0 -34321278.561183929 -768405712.21221924 0 0 0 0 644301072.56158829 240566932.45178413 0 240566932.45178413 -1052114685.430542 0 0 0 0 399980369.67259902 -295243793.30065155 0 -295243793.30065155 -1572317914.2331069 0 0 0 0 324354180.95661902 -86193634.148866653 0 -86193634.148866653 -1569337900.5420799 0 0 0 0 -185940876.10049623 222081566.99541187 0 222081566.99541187 -285189809.03543091 0 0 0 0 -416000.67441445182 -1600253.7498983692 0 -1600253.7498983692 -1622806.0396801904 0 0 0 0 -1751544266.3510654 -918007134.34064102 0 -918007134.34064102 -489699489.29956818 0 0 0 0 -178350757.96445462 454292817.33011818 0 454292817.33011818 -613608292.75424957 0 0 0 0 -69100.250485877245 -1974089.1935957337 0 -1974089.1935957337 -4016802.4131094292 0 0 0 0 -578358984.77973843 -367938373.23303986 0 -367938373.23303986 -112016762.98007393 0 0 0 0 8672555.3160093427 -14762429.584085464 0 -14762429.584085464 5493069.4751434326 0 0 0 0 943347.88738112117 -976461.17279406078 0 -976461.17279406078 -2162716.2768843248 0 0 0 0 -7874110.4094378203 -120452784.96953583 0 -120452784.96953583 -104101286.43259811 0 0 0 0 -35118985.742160894 -78295801.349739075 0 -78295801.349739075 -36665441.137498856 0 0 0 0 225075.09617067021 -299676.58855157718 0 -299676.58855157718 -631864.11645250954 0 0 0 0 -13002343.152913839 2478071.734992981 0 2478071.734992981 6211430.9798431396 0 0 0 0 -20827586.694859356 10237738.472530365 0 10237738.472530365 -869369.35542297363 0 0 0 0 -25110622.761292178 3862712.8312416077 0 3862712.8312416077 15247959.539596558 0 0 0 0 -30110782.4608832 9486194.4049949646 0 9486194.4049949646 10236056.836585999 0 0 0 0 -34963335.817476511 -12940833.125930786 0 -12940833.125930786 -3830953.7156143188 0 0 0 0 -11290267.380474925 6847262.9021530151 0 6847262.9021530151 -3655032.282989502 0 0 0 0 -11383891.947123867 8300667.1149717569 0 8300667.1149717569 -10055332.372451782 0 0 0 0 5022780.7317901514 24697271.831230164 0 24697271.831230164 4969502.5452880859 0 0 0 0 1347266.0734949112 -8098565.6179275513 0 -8098565.6179275513 -12639366.830444336 0 0 0 0 -7592165.2304953337 4683679.8934116364 0 4683679.8934116364 -4924958.5565109253 0 0 0 0 903248.02937701822 -746639.05194364418 0 -746639.05194364418 -6083949.0882523134 0 0 0 0 -12474905.42034471 3804685.9089584351 0 3804685.9089584351 3520834.400806427 0 0 0 0 -11614744.119628668 7718646.2974395752 0 7718646.2974395752 -7126398.6001205444 0 0 0 0 582116.60249304771 -2855103.4687194824 0 -2855103.4687194824 -9474833.5417003632 0 0 0 0 5572460.8158736229 1723816.3963928223 0 1723816.3963928223 -5321289.5164031982 0 0 0 0 -2226965.8196078315 9283896.6068744659 0 9283896.6068744659 -10234908.354469299 0 0 0 0 -15676056.739068985 569594.26860809326 0 569594.26860809326 -8147636.4959144592 0 0 0 0 -8188954.2582440376 -782942.36954116821 0 -782942.36954116821 -18381747.595245361 0 0 0 0 -11229527.856144547 11283758.001743317 0 11283758.001743317 3845514.0036468506 0 0 0 0 -231011.5776383974 53319.471797038801 0 53319.471797038801 -31872.399986982346 0 0 0 0 -1698640.2962501645 13459274.36416626 0 13459274.36416626 -16763666.045471191 0 0 0 0 4563610.9640242606 10494247.589035034 0 10494247.589035034 -12288967.760520935 0 0 0 0 -3638698.7064520121 10517720.637161255 0 10517720.637161255 1373009.1114807129 0 0 0 0 188647.96223867993 177058.38772789203 0 177058.38772789203 -611482.68573693931 0 0 0 0 -7041951.2798265219 455185.9550819397 0 455185.9550819397 -6116587.4534988403 0 0 0 0 -436490.37475752831 5672033.3126754761 0 5672033.3126754761 1668146.5998482704 0 0 0 0 -1488155.8068115027 1589445.0075016022 0 1589445.0075016022 -1899535.4868469238 0 0 0 0 -232772.35823896196 -94018.343334082514 0 -94018.343334082514 -9829943.0888414104 0 0 0 0 -3576233.9461712539 -1731762.4701805115 0 -1731762.4701805115 -3686430.5320129395 0 0 0 0 12461633.362301677 -13078990.129701614 0 -13078990.129701614 -6663613.8684692383 0 0 0 0 543995.8372140521 -1370797.7118640803 0 -1370797.7118640803 -7726769.9901636019 0 0 0 0 4282167.9137678891 450867.33793258667 0 450867.33793258667 -3620770.3100280762 0 0 0 0 3457053.897070989 -466650.8511428833 0 -466650.8511428833 -4640000.6471328735 0 0 0 0 1430447.456991002 1456447.2616901398 0 1456447.2616901398 -2627664.9348907471 0 0 0 0 -598134.04690671794 907471.08701473614 0 907471.08701473614 -1477564.8037776873 0 0 0 0 4883611.9981449023 1646185.5964126587 0 1646185.5964126587 -3328180.8383865356 0 0 0 0 4660078.398646161 45182.279155731201 0 45182.279155731201 -3488751.9775695801 0 0 0 0 5401097.2683503628 -14397896.831169128 0 -14397896.831169128 -4192742.0355834961 0 0 0 0 11423262.056938246 1738107.7751121521 0 1738107.7751121521 -2092774.9682922363 0 0 0 0 41482485.887268484 -10502219.274967194 0 -10502219.274967194 -31576131.92489624 0 0 0 0 927203.31013609737 1299360.6931990641 0 1299360.6931990641 -8320581.0387368798 0 0 0 0 10207413.01930809 6650322.3301734924 0 6650322.3301734924 -4311628.4614868164 0 0 0 0 28566.054071700164 50755.150360025465 0 50755.150360025465 -104642.69627849385 0 0 0 0 15627650.864318654 6273027.980178833 0 6273027.980178833 -3090022.7964782715 0 0 0 0 -3759881.243021667 -39288494.233119965 0 -39288494.233119965 -28145787.324630737 0 0 0 0 -16144792.450197816 -12642033.611507416 0 -12642033.611507416 536987.46018218994 0 0 0 0 6864723.6817585528 -20622819.222900391 0 -20622819.222900391 1593760.0913238525 0 0 0 0 -35261.72516792758 -1639200.5870611263 0 -1639200.5870611263 -184747.00257888436 0 0 0 0 912473.21206409566 111517.04940923583 0 111517.04940923583 -5847938.40070346 0 0 0 0 2431129.4771268815 -315473.67737436295 0 -315473.67737436295 -6069129.3392181396 0 0 0 0 9034163.9180287197 3394833.4540851116 0 3394833.4540851116 -10521986.369873047 0 0 0 0 3715255.2434777617 -7578702.5517845154 0 -7578702.5517845154 -4110057.7627944946 0 0 0 0 -138552.50616358418 -1830480.1341446638 0 -1830480.1341446638 -6825762.1363223037 0 0 0 0 -1396015.1999945641 642280.51582336426 0 642280.51582336426 -1117031.5731449127 0 0 0 0 26951414.881796882 -13359085.146144867 0 -13359085.146144867 -20736690.350402832 0 0 0 0 -432831.81126606464 4130573.9516105652 0 4130573.9516105652 -2908263.0447616577 0 0 0 0 5315328.3411660902 -15097432.091958761 0 -15097432.091958761 11471794.433326721 0 0 0 0 7392.5327847541776 -277938.95305113494 0 -277938.95305113494 -1298622.7557386812 0 0 0 0 -19703630.842888057 -4668099.0057907104 0 -4668099.0057907104 -690458.04217147827 0 0 0 0 16607969.204625547 11821656.204654694 0 11821656.204654694 -27569107.50151825 0 0 0 0 2219537.5951264203 -1159030.2329139709 0 -1159030.2329139709 -37258016.541004181 0 0 0 0 23639301.701372474 -3753837.0340003967 0 -3753837.0340003967 -29978833.265548706 0 0 0 0 -6606052.2575029135 -24540910.445617676 0 -24540910.445617676 4951272.1219100952 0 0 0 0 -37904002.0361799 -1759900.2224845886 0 -1759900.2224845886 -6253227.7464828491 0 0 0 0 -6746645.0794816017 20663625.091892242 0 20663625.091892242 -46554066.222503662 0 0 0 0 18181020.46615988 1406525.7257919312 0 1406525.7257919312 -65248178.312156677 0 0 0 0 17474113.561552644 -2690459.9470369816 0 -2690459.9470369816 -41302471.499603271 0 0 0 0 13512330.961776555 -3233707.59790802 0 -3233707.59790802 -41171203.429397583 0 0 0 0 9765856.411396265 7004090.4965744019 0 7004090.4965744019 636473.21691513062 0 0 0 0 12367684.680608094 -3705680.1425666809 0 -3705680.1425666809 -25737459.503101349 0 0 0 0 6074331.5731931329 -9388463.7057552338 0 -9388463.7057552338 -26564884.845306396 0 0 0 0 12789250.027750015 -16529729.209247589 0 -16529729.209247589 -41481757.830936432 0 0 0 0 7802104.3627002835 -13529668.754861832 0 -13529668.754861832 -14848501.547622681 0 0 0 0 120016.31897952518 150691.7057910962 0 150691.7057910962 -105476.97860881686 0 0 0 0 -2592548.1835924387 -999865.24807357788 0 -999865.24807357788 2763179.3253774643 0 0 0 0 -30462499.089276284 17234507.677010536 0 17234507.677010536 -6267740.0717544556 0 0 0 0 333791.70152814896 215063.44597395719 0 215063.44597395719 -7435874.5344602503 0 0 0 0 929584.04663455137 -2077188.7878087265 0 -2077188.7878087265 -8258005.1958072446 0 0 0 0 7037672.637055099 -1352305.8663330078 0 -1352305.8663330078 -3708244.1303768158 0 0 0 0 35090404.448519915 20218882.818157196 0 20218882.818157196 -33125735.144104004 0 0 0 0 39607754.198480278 14080240.212392569 0 14080240.212392569 -16104829.278030396 0 0 0 0 12613631.690939769 -3673937.8211708069 0 -3673937.8211708069 -5069351.4094638824 0 0 0 0 1572338.8819824387 -4491514.1618682202 0 -4491514.1618682202 -9213662.1632799488 0 0 0 0 17110819.793986678 13090825.461299896 0 13090825.461299896 -78762222.764480591 0 0 0 0 18936856.300822675 1167469.7077331543 0 1167469.7077331543 -5746201.5067749023 0 0 0 0 984225.06300735474 -11678599.924201965 0 -11678599.924201965 -55053436.210723877 0 0 0 0 633174.42121893167 -3794065.0726909637 0 -3794065.0726909637 -37878615.541732788 0 0 0 0 2421397.9042745829 7459351.3619670868 0 7459351.3619670868 -38630963.815139413 0 0 0 0 -3878240.6574115753 10695590.300010681 0 10695590.300010681 -11557435.758049011 0 0 0 0 887517.78374588327 2310309.0833314136 0 2310309.0833314136 -1558584.8946680799 0 0 0 0 6332303.577731967 -1818520.7293119431 0 -1818520.7293119431 -17302380.144294739 0 0 0 0 -3801522.084992528 13159365.556297302 0 13159365.556297302 -5015269.8514976501 0 0 0 0 169672.58231663704 -4231099.740322113 0 -4231099.740322113 -20906904.547569275 0 0 0 0 7694855.8941845894 -1291929.5888729095 0 -1291929.5888729095 -29563347.469297409 0 0 0 0 -30682517.266629934 -17490292.234170914 0 -17490292.234170914 -24113568.560348511 0 0 0 0 -124489198.2776438 -68988576.748607635 0 -68988576.748607635 13287967.396736145 0 0 0 0 195584.18568809488 414922.63146466517 0 414922.63146466517 -432975.65942536294 0 0 0 0 -49271398.689275622 29840324.960321426 0 29840324.960321426 10038781.410799026 0 0 0 0 95538661.413530588 -20457332.425426483 0 -20457332.425426483 -54902179.394262314 0 0 0 0 28499953.090242386 9743592.8337669373 0 9743592.8337669373 39251669.541452408 0 0 0 0 -4500700.8876070976 -48217137.755655289 0 -48217137.755655289 -40515915.396743774 0 0 0 0 33893572.864651561 -29387185.790592194 0 -29387185.790592194 -46218672.117481232 0 0 0 0 27594039.658064898 732265.92788124084 0 732265.92788124084 -77339215.736663818 0 0 0 0 31317355.597778276 -48495723.886737823 0 -48495723.886737823 -21011423.498794556 0 0 0 0 75532376.810551137 -3498855.6055545807 0 -3498855.6055545807 -139584157.91677475 0 0 0 0 421125.48586248897 129913.39273594879 0 129913.39273594879 -1077902.7607773291 0 0 0 0 -14324601.21375978 -56646096.361722946 0 -56646096.361722946 14171225.343570709 0 0 0 0 -161194545.19779992 24210826.587112427 0 24210826.587112427 113869453.15604973 0 0 0 0 56277608.360791028 54324620.012487173 0 54324620.012487173 -40485987.29284668 0 0 0 0 48801705.535464764 -92255654.571052551 0 -92255654.571052551 -37627393.488578796 0 0 0 0 -14325302.815850496 -84605202.441526413 0 -84605202.441526413 -24480347.140266418 0 0 0 0 -111143246.38921499 -118945704.82840347 0 -118945704.82840347 -35062622.719432831 0 0 0 0 4696615.2976929098 -100191372.23498344 0 -100191372.23498344 -160619029.97060394 0 0 0 0 -3834224.1323269904 82313810.11813736 0 82313810.11813736 -128934767.71630931 0 0 0 0 -16198470.336247444 11274163.694244385 0 11274163.694244385 -50494739.188014984 0 0 0 0 -23032237.885918662 -135072505.70114636 0 -135072505.70114636 -9138111.0115013123 0 0 0 0 -257056.19104303891 138935.33264094684 0 138935.33264094684 -505607.38130860217 0 0 0 0 49055442.44312121 -1631272.151714325 0 -1631272.151714325 14189613.172146797 0 0 0 0 47082887.03389436 47699077.294296741 0 47699077.294296741 10498211.483457565 0 0 0 0 842497.107330258 1210372.8282364784 0 1210372.8282364784 -3319398.9351503984 0 0 0 0 58973257.185312748 57516928.94084549 0 57516928.94084549 -116893393.76130486 0 0 0 0 -140836297.40813589 6217749.3399820328 0 6217749.3399820328 84281193.735691071 0 0 0 0 -594500.48516082484 1322644.3257283159 0 1322644.3257283159 -1822263.2007713038 0 0 0 0 -2615076.8612345755 -7809751.8017997742 0 -7809751.8017997742 -2395393.6863517761 0 0 0 0 8225912.920992434 1965443.2301597595 0 1965443.2301597595 -10059022.606169701 0 0 0 0 1892906.4048781507 -6954052.4034752846 0 -6954052.4034752846 -13771885.075061798 0 0 0 0 2256298.4064720869 3896207.3507423401 0 3896207.3507423401 -4560436.7569122314 0 0 0 0 -815533.82281345129 1402059.3000469208 0 1402059.3000469208 -6562645.9399986267 0 0 0 0 1286253.4487371747 1772791.3452560292 0 1772791.3452560292 -3943512.6022202484 0 0 0 0 102857.76224563067 125673.98372785747 0 125673.98372785747 -1252617.7971944697 0 0 0 0 60062767.858213067 3829648.2627468109 0 3829648.2627468109 -13518730.445356369 0 0 0 0 4059333.7624515295 -90670.761604309082 0 -90670.761604309082 -10846296.464313507 0 0 0 0 182252.95695699513 1233523.7397287749 0 1233523.7397287749 -172706.02185313776 0 0 0 0 359105.84424720623 394573.71529868897 0 394573.71529868897 -2775138.429236576 0 0 0 0 1206311.6666264832 1502293.9596538544 0 1502293.9596538544 -3242155.7778396606 0 0 0 0 535583.39240152831 1953505.6568088387 0 1953505.6568088387 -1657659.1607410237 0 0 0 0 1238884.4088931084 1484548.1817531586 0 1484548.1817531586 -897653.10269451141 0 0 0 0 1006635.9479481578 100927.42454902641 0 100927.42454902641 -7416003.3901936524 0 0 0 0 -3939282.3698451519 5231924.2277183533 0 5231924.2277183533 7057668.5340881348 0 0 0 0 471965.00635107548 888706.74905770272 0 888706.74905770272 -4541773.2881536661 0 0 0 0 758968.00947452534 2030407.995265983 0 2030407.995265983 -4339186.1258350499 0 0 0 0 1635712.3591316938 1700021.0630302429 0 1700021.0630302429 -3271513.7013473511 0 0 0 0 -192956.42948904587 360750.22471618652 0 360750.22471618652 -2679636.4906387329 0 0 0 0 1024660.572988173 1691623.1432847399 0 1691623.1432847399 -5402243.9731052965 0 0 0 0 1866423.6838960648 962855.4058380127 0 962855.4058380127 -2302510.8634338379 0 0 0 0 -30674.991033063256 1677152.8810871542 0 1677152.8810871542 -2370567.8515725844 0 0 0 0 1662712.5599087179 1594287.9401931763 0 1594287.9401931763 -3751172.3083724976 0 0 0 0 728950.31388390251 -379589.30882616341 0 -379589.30882616341 -6148244.7925903816 0 0 0 0 887103.68829598464 1518321.9160804749 0 1518321.9160804749 -1856513.7092895508 0 0 0 0 -392093.56714948133 -244054.78926545195 0 -244054.78926545195 -6080905.0221132468 0 0 0 0 1100706.8891239166 261230.03729248047 0 261230.03729248047 -2725498.3047332764 0 0 0 0 -21158.816090767792 1766532.7983064593 0 1766532.7983064593 -1810319.6114428341 0 0 0 0 747602.31484480062 735742.71046447754 0 735742.71046447754 -2608383.7928924561 0 0 0 0 7963245.5120342001 5368094.8788223267 0 5368094.8788223267 -5955860.7029190063 0 0 0 0 124781.56506198784 1247034.866373091 0 1247034.866373091 -292017.25842102244 0 0 0 0 8749573.5409227237 13783131.093573093 0 13783131.093573093 -10838908.829559326 0 0 0 0 222212.48563665414 36464.010942004388 0 36464.010942004388 -3604030.4681007117 0 0 0 0 1127376.2710647583 -158848.52289962769 0 -158848.52289962769 -1532917.7589712143 0 0 0 0 -10953.341818751302 -163868.05199625622 0 -163868.05199625622 -4129171.4830739163 0 0 0 0 1421488.5491064787 -1478628.4109725952 0 -1478628.4109725952 -8372394.7528495789 0 0 0 0 2369023.908704102 -1250561.6176147461 0 -1250561.6176147461 -8963799.9795913696 0 0 0 0 2133004.5580485463 -1712263.7664432526 0 -1712263.7664432526 -9343111.9581184387 0 0 0 0 1714416.8132725358 -962100.5104598999 0 -962100.5104598999 -7683987.0366172791 0 0 0 0 -1172541.1715803146 5377113.3328742981 0 5377113.3328742981 -9092696.3258590698 0 0 0 0 3216834.1072703004 3022937.3127117157 0 3022937.3127117157 -19100371.103683472 0 0 0 0 -197947.5546326724 217772.44989935192 0 217772.44989935192 -6443636.37520409 0 0 0 0 8971181.6278826594 -3946069.5814285278 0 -3946069.5814285278 -21537147.46308136 0 0 0 0 64506662.80317235 23025592.71175766 0 23025592.71175766 -4318670.5089569092 0 0 0 0 8954612.2578622494 -51015.591457366943 0 -51015.591457366943 4040215.5502281189 0 0 0 0 636733.31987468875 -1061092.4055952406 0 -1061092.4055952406 -881262.94537026063 0 0 0 0 6651272.6526884735 47585703.582940102 0 47585703.582940102 55463825.836357117 0 0 0 0 2252633.2635833025 4168959.5997390747 0 4168959.5997390747 -6411249.9105644226 0 0 0 0 -49138832.567452386 -51340388.845973969 0 -51340388.845973969 64483188.896730185 0 0 0 0 -5546301.6230840087 -1249031.3707866669 0 -1249031.3707866669 142498.54626464844 0 0 0 0 -1884468.1979957819 -1433464.9310264587 0 -1433464.9310264587 -16993467.276724815 0 0 0 0 -1517361.7948848307 1686670.2720327377 0 1686670.2720327377 -6627661.1464767456 0 0 0 0 -1455670.9024164379 2656169.2135534286 0 2656169.2135534286 -6710135.074420929 0 0 0 0 -13377110.168378999 -139645937.2871027 0 -139645937.2871027 -1388111028.2393875 0 0 0 0 -1582667.3470440507 2805462.1087036133 0 2805462.1087036133 -5854481.5701980591 0 0 0 0 -616325.92925337073 1203506.0145935304 0 1203506.0145935304 -3033975.8747676448 0 0 0 0 21883055.132207926 205759977.97985077 0 205759977.97985077 -1573274232.4367964 0 0 0 0 43030260.07142356 -78099021.080970764 0 -78099021.080970764 -320110595.83874512 0 0 0 0 -207333.16652683687 702152.93448217376 0 702152.93448217376 -5827519.412117023 0 0 0 0 -466633002.4449237 -713661913.87071228 0 -713661913.87071228 -132904737.26789856 0 0 0 0 -1130977.0104748032 5128482.2074056212 0 5128482.2074056212 -1599328.8607143797 0 0 0 0 256745752.01865375 -176837671.36798859 0 -176837671.36798859 -592069991.2522583 0 0 0 0 -983701.17013996374 1863706.9509070227 0 1863706.9509070227 -532227.87747024745 0 0 0 0 -4155227.4026107332 4356864.440653801 0 4356864.440653801 -7023238.6901321411 0 0 0 0 -387392299.32519531 801857930.57267094 0 801857930.57267094 -915442964.73362732 0 0 0 0 -708368692.47683346 157437275.92944717 0 157437275.92944717 -36498144.362108231 0 0 0 0 1100495.1810425487 -3979627.3326212931 0 -3979627.3326212931 1184422.2027250938 0 0 0 0 -536382.27305213327 -61225.501958584413 0 -61225.501958584413 -2047508.0216790638 0 0 0 0 -3479991.7229888439 2542500.1478557587 0 2542500.1478557587 -2587826.238503933 0 0 0 0 -15073880.180004736 -162098327.52004671 0 -162098327.52004671 -1586512395.953083 0 0 0 0 -1609459.8347969353 4683461.8084335327 0 4683461.8084335327 -14622305.012882233 0 0 0 0 -1852070.1283532679 4454133.3240795135 0 4454133.3240795135 -7030291.7715611458 0 0 0 0 -9056328.5295833722 15513831.861427307 0 15513831.861427307 -18365111.547470093 0 0 0 0 -7201246.7109465823 9648886.878382206 0 9648886.878382206 -12067155.473274231 0 0 0 0 2577325.3713941872 4984352.7035055161 0 4984352.7035055161 -15775775.412857056 0 0 0 0 7121509.9755274653 1660194.2523441315 0 1660194.2523441315 -13610608.497739792 0 0 0 0 5743629.7768671513 6325075.6376609802 0 6325075.6376609802 -17421307.770270348 0 0 0 0 -1099282.2066579787 9170141.6401329041 0 9170141.6401329041 -16101654.13640213 0 0 0 0 -1885193.3428064808 7636594.6403927803 0 7636594.6403927803 -16228014.031528473 0 0 0 0 -104586.43241604725 218413.83100076299 0 218413.83100076299 -292246.76897894777 0 0 0 0 -27126385.290321305 37735114.553138733 0 37735114.553138733 -44629106.562930822 0 0 0 0 15874417.635173976 -30745077.323356628 0 -30745077.323356628 -5384138.4574375153 0 0 0 0 -65908583.776243746 -8976552.1213665009 0 -8976552.1213665009 -9956038.592628479 0 0 0 0 40693206.068670586 -87680413.439980507 0 -87680413.439980507 -54763171.169937134 0 0 0 0 -60612633.649720967 97529316.246545792 0 97529316.246545792 -32957704.840433598 0 0 0 0 -423429.36498306156 790660.49162858259 0 790660.49162858259 -699906.22018032521 0 0 0 0 -277108477.32830745 424503643.41476822 0 424503643.41476822 -163248409.8885355 0 0 0 0 59328683.850828394 -28452272.293875694 0 -28452272.293875694 -214677587.77013016 0 0 0 0 17725513.051484704 -47225800.074150085 0 -47225800.074150085 -589321889.30257797 0 0 0 0 352434917.89995724 -68712914.073747635 0 -68712914.073747635 -1575366356.0342429 0 0 0 0 205404412.51189578 237946451.11779642 0 237946451.11779642 -689184850.48254013 0 0 0 0 192799727.07013282 320058736.61256719 0 320058736.61256719 -1042692147.0306702 0 0 0 0 154847997.13306481 628137500.81753159 0 628137500.81753159 -1572283541.8832657 0 0 0 0 -436481963.56004226 -699528277.68620336 0 -699528277.68620336 -670758784.3878746 0 0 0 0 247088118.55765381 -526174534.64675522 0 -526174534.64675522 -1572022628.6098995 0 0 0 0 313708192.95150745 -189910276.2309103 0 -189910276.2309103 -810310706.93114471 0 0 0 0 99844439.911939383 -367590907.7997551 0 -367590907.7997551 -685783157.59181499 0 0 0 0 -19241145.463485718 25339823.178290367 0 25339823.178290367 -168401874.30512619 0 0 0 0 92563720.192580491 -42735558.664007187 0 -42735558.664007187 -296400294.93484879 0 0 0 0 2125574.4156381786 3652609.7366638184 0 3652609.7366638184 -4624544.2205371857 0 0 0 0 12913764.661027551 -33239248.929243088 0 -33239248.929243088 -112463511.02588844 0 0 0 0 -16274352.925096363 37757820.748464584 0 37757820.748464584 -30967710.813072205 0 0 0 0 3864771.2714340687 36382065.738382339 0 36382065.738382339 -31075692.111624718 0 0 0 0 73661.172645146886 -12146.053079642355 0 -12146.053079642355 -420676.53574852273 0 0 0 0 -12718272.355130196 19882483.927897453 0 19882483.927897453 23847165.101718903 0 0 0 0 18299992.769478858 -4739640.564956665 0 -4739640.564956665 -49011902.059934616 0 0 0 0 16610781.664468944 -5802489.8283088207 0 -5802489.8283088207 -73834025.714797974 0 0 0 0 31226298.381140232 8313744.1100072861 0 8313744.1100072861 -63067160.110648155 0 0 0 0 15299279.099215269 53970696.753198624 0 53970696.753198624 -182376093.9207921 0 0 0 0 24365107.516326189 -118357516.65547752 0 -118357516.65547752 -138317584.08937073 0 0 0 0 -1586590.7605766817 1262759.4118032344 0 1262759.4118032344 -952772.42382948752 0 0 0 0 -7593169.7273738384 -53324826.973155022 0 -53324826.973155022 64175824.275180817 0 0 0 0 -51800168.90596053 5732867.0335197449 0 5732867.0335197449 41287892.933393478 0 0 0 0 -113375594.058846 131450461.05587959 0 131450461.05587959 60741464.440834999 0 0 0 0 -1460406.7652219369 1371563.1599946413 0 1371563.1599946413 -1166761.1139193494 0 0 0 0 28055335.14765197 -7721267.3963890076 0 -7721267.3963890076 -52908956.909684181 0 0 0 0 78526871.124916077 -12112415.036572456 0 -12112415.036572456 -207926799.42556953 0 0 0 0 24677.793452696642 243690.71330725169 0 243690.71330725169 -268128.22350918502 0 0 0 0 -20674757.145359039 -119798243.03577423 0 -119798243.03577423 -134061420.81049442 0 0 0 0 -41756438.731921673 18957124.614260674 0 18957124.614260674 -8258148.7239933014 0 0 0 0 2179624.4551251531 2232225.3295340538 0 2232225.3295340538 -1898960.7675685883 0 0 0 0 1232708.5535052551 903859.84698931128 0 903859.84698931128 -1379760.1355547034 0 0 0 0 -37495201.251903176 -2569626.5855665207 0 -2569626.5855665207 1697577.8533554077 0 0 0 0 1504897.9122090254 495303.72493763641 0 495303.72493763641 -2885901.0390393231 0 0 0 0 -432040.12999862549 -95282.181944510899 0 -95282.181944510899 -323051.39817334618 0 0 0 0 -2004215.0521597862 14083432.605916977 0 14083432.605916977 -15925002.908037186 0 0 0 0 2752344.9220158458 3161485.5965518951 0 3161485.5965518951 563659.33287298679 0 0 0 0 2053227.3390248418 2075225.4198102951 0 2075225.4198102951 628843.74109649658 0 0 0 0 532005.34431254864 1281270.3127841949 0 1281270.3127841949 557758.92252698541 0 0 0 0 751947.55754542351 866116.13100814819 0 866116.13100814819 559395.83998762816 0 0 0 0 711915.87678050995 1045419.7608833313 0 1045419.7608833313 225877.8051969409 0 0 0 0 48745.593346774578 1092776.9810791016 0 1092776.9810791016 925855.79131698608 0 0 0 0 429397.43239486217 1490038.0662593842 0 1490038.0662593842 237476.67449694872 0 0 0 0 355073.95745158195 393211.98167419434 0 393211.98167419434 -7386.5507678985596 0 0 0 0 851594.6279558473 908914.82906597294 0 908914.82906597294 -1078369.9696996482 0 0 0 0 9794749.6112675667 15013532.456142902 0 15013532.456142902 -61373700.117389679 0 0 0 0 717175.66331505775 1431394.3106307983 0 1431394.3106307983 -1587992.1592788696 0 0 0 0 -5223014.576161325 -8563179.073220253 0 -8563179.073220253 -18853323.293365479 0 0 0 0 -12055577.986346841 1093932.9670448303 0 1093932.9670448303 -12453440.691772461 0 0 0 0 1688268.6974086761 1847006.5068092346 0 1847006.5068092346 -16125061.034023285 0 0 0 0 -60922.351852893829 4019423.4071807861 0 4019423.4071807861 -5231103.7352409363 0 0 0 0 2653203.5916167498 6539700.1607236862 0 6539700.1607236862 -22671432.478248596 0 0 0 0 46233.131725870655 39607.60994566977 0 39607.60994566977 -101332.49079008494 0 0 0 0 -111504.18927276134 -8391386.2850809097 0 -8391386.2850809097 -28135154.009627342 0 0 0 0 23519.09788468515 150247.57537783124 0 150247.57537783124 -109415.71627820795 0 0 0 0 -4015320.4427306652 2183649.0842170715 0 2183649.0842170715 -1175298.1870517731 0 0 0 0 10731.35171651718 72201.142834596336 0 72201.142834596336 -41380.223631313536 0 0 0 0 846792.81980898976 2548439.2737503052 0 2548439.2737503052 4371342.1914386749 0 0 0 0 3586914.4651260376 4262748.0220375061 0 4262748.0220375061 -26890537.009490967 0 0 0 0 2844359.6120105982 2584283.3534355164 0 2584283.3534355164 -22449523.010274887 0 0 0 0 2416495.928214848 4217133.2394809723 0 4217133.2394809723 -21096296.392692566 0 0 0 0 -1806372.9948875904 4120953.3874549866 0 4120953.3874549866 -11828642.421123505 0 0 0 0 2664881.8886942863 -1334365.1129150391 0 -1334365.1129150391 -13019362.966094971 0 0 0 0 695787.5389264822 434839.08251237869 0 434839.08251237869 -16139697.188209534 0 0 0 0 1463202.3988230228 -3769411.3439407349 0 -3769411.3439407349 -13241937.594424248 0 0 0 0 1181366.1708481312 -2485106.3741035461 0 -2485106.3741035461 -12786008.893405914 0 0 0 0 1789087.4987690449 -4007079.3367042542 0 -4007079.3367042542 -10817954.5991745 0 0 0 0 1318975.2396221459 -1936111.1745471954 0 -1936111.1745471954 -11521237.950904846 0 0 0 0 2433861.3437908888 -2935856.7299003601 0 -2935856.7299003601 -12230896.18755722 0 0 0 0 2131244.6161631346 -2708086.9746322632 0 -2708086.9746322632 -10631339.696479797 0 0 0 0 1881535.5100476742 -4087217.1317024231 0 -4087217.1317024231 -27831478.835238934 0 0 0 0 2463275.0266802311 -1195558.8565330505 0 -1195558.8565330505 -18272677.626026154 0 0 0 0 2321270.63453722 -1260920.8907775879 0 -1260920.8907775879 -17621100.447425842 0 0 0 0 1297947.3752554655 -2197210.5485143661 0 -2197210.5485143661 -18104297.497200012 0 0 0 0 -886661.53754472733 -5061902.9515800476 0 -5061902.9515800476 -13890923.355422974 0 0 0 0 -1535310.7626638412 -2477992.3612155914 0 -2477992.3612155914 -11987625.785785675 0 0 0 0 -2359593.4842530489 -4612688.1899394989 0 -4612688.1899394989 -9876653.2057571411 0 0 0 0 1322957.6090252399 -4320608.4220867157 0 -4320608.4220867157 -10162074.605651855 0 0 0 0 -96456.938403129578 -2884400.9044761658 0 -2884400.9044761658 -10600180.943386078 0 0 0 0 2521071.5746212006 -2267974.9748268127 0 -2267974.9748268127 -6542843.6892433167 0 0 0 0 -1812207.8146098256 -2427075.8991918564 0 -2427075.8991918564 -6532319.5928153992 0 0 0 0 2432319.2867017388 -3756492.103679657 0 -3756492.103679657 -7850694.0447921753 0 0 0 0 2808248.8950204849 -3941766.1815223694 0 -3941766.1815223694 -9485927.4601364136 0 0 0 0 1499038.9544539452 -3833094.8603057861 0 -3833094.8603057861 -9231417.5999946594 0 0 0 0 2660671.8770525455 -4804274.7705078125 0 -4804274.7705078125 -8240248.3636398315 0 0 0 0 2300333.7820651531 -3361984.1123046875 0 -3361984.1123046875 -9790658.4859895706 0 0 0 0 1166927.5908151269 -2825281.3647537231 0 -2825281.3647537231 -9689065.9512863159 0 0 0 0 3598721.5570434332 -3217696.2868328094 0 -3217696.2868328094 -7332395.7872338295 0 0 0 0 125723.52255791426 -4358176.4620342255 0 -4358176.4620342255 -7570969.1808853149 0 0 0 0 2067164.0174401999 -4563828.1836090088 0 -4563828.1836090088 -7192684.8746032715 0 0 0 0 2651949.3307464868 -5409266.5507764816 0 -5409266.5507764816 -6713621.019405365 0 0 0 0 -349163.46091783047 -9133866.4886569977 0 -9133866.4886569977 -4361413.4118423462 0 0 0 0 8692685.6334813833 -728937.00022888184 0 -728937.00022888184 -11275175.518566132 0 0 0 0 11403229.170122728 -13974386.433040142 0 -13974386.433040142 -2787507.1580963135 0 0 0 0 1091387.7287549162 -2641783.8515692549 0 -2641783.8515692549 -5786894.0335386265 0 0 0 0 -403327.15694510937 -2952434.458814621 0 -2952434.458814621 -4382649.0567131042 0 0 0 0 3400230.6818557978 -4176226.6155891418 0 -4176226.6155891418 -4206782.6097683907 0 0 0 0 1301256.0219633826 -2846474.7631761841 0 -2846474.7631761841 -5801017.9724628646 0 0 0 0 1476100.1089160414 -2556060.5561493738 0 -2556060.5561493738 -7023784.5666316804 0 0 0 0 1559870.7835131884 -1381061.9557943344 0 -1381061.9557943344 -4500490.6344337463 0 0 0 0 2463272.9245135784 -3493324.2835903168 0 -3493324.2835903168 -6523989.6115074158 0 0 0 0 2737976.0282832384 308908.61353826523 0 308908.61353826523 -6933021.1174659729 0 0 0 0 213103.62779140472 -2033223.8704681396 0 -2033223.8704681396 -5172963.09998703 0 0 0 0 1622674.0094239293 -2872908.0255264267 0 -2872908.0255264267 -7215774.4618548807 0 0 0 0 1114816.1628624201 -2060350.6204986572 0 -2060350.6204986572 -4884490.3031864166 0 0 0 0 5533254.8443098068 166673.14638900757 0 166673.14638900757 -7148860.5587596893 0 0 0 0 4510199.5395128727 -1983849.7543373108 0 -1983849.7543373108 -11881646.280220032 0 0 0 0 -1573635.2871363461 1524914.5428986549 0 1524914.5428986549 -6473351.5029373169 0 0 0 0 1013889.7018735409 7201888.4316425323 0 7201888.4316425323 -4060939.501994133 0 0 0 0 812291.59779187618 2541132.9842721801 0 2541132.9842721801 -8935826.4446967021 0 0 0 0 1447781.0761143267 8797036.0021147728 0 8797036.0021147728 -5961534.3535919189 0 0 0 0 2297999.9899435043 3238634.9369602203 0 3238634.9369602203 -2628555.3921432495 0 0 0 0 887349.93169111828 496236.44739514217 0 496236.44739514217 -1084900.8433535006 0 0 0 0 3319128.8548048115 -4488220.3130383007 0 -4488220.3130383007 -9917241.8756532241 0 0 0 0 3292230.9139682055 -5539419.636097908 0 -5539419.636097908 -3047908.1569595337 0 0 0 0 30091922.024895802 5315621.9185992479 0 5315621.9185992479 -17039307.368103981 0 0 0 0 677166.93174791336 -3369482.3748893738 0 -3369482.3748893738 -2931523.0941426754 0 0 0 0 4664604.1337922215 -3599991.9922733307 0 -3599991.9922733307 -18761815.377880096 0 0 0 0 763524.19919776917 -2850062.1915721893 0 -2850062.1915721893 -3039801.9404392242 0 0 0 0 285962.93702745438 -2534339.0784683228 0 -2534339.0784683228 -3248040.8403396606 0 0 0 0 -118897.96243504621 -3671883.2735040579 0 -3671883.2735040579 -1941450.962480274 0 0 0 0 -5962006.6552429199 -3169842.4851446152 0 -3169842.4851446152 14572217.942115784 0 0 0 0 17754.096896778472 -508883.88726950251 0 -508883.88726950251 -1195433.2350466368 0 0 0 0 -5676127.2762234807 -11155072.441146851 0 -11155072.441146851 1031223.1700353622 0 0 0 0 2092308.513692975 -3510228.0508480072 0 -3510228.0508480072 -9221548.4957008362 0 0 0 0 649764.65097845974 -3810617.0538845714 0 -3810617.0538845714 -4027743.6158675561 0 0 0 0 100315.23447491112 -1641009.5977170197 0 -1641009.5977170197 -6855868.2922623865 0 0 0 0 -526946.58715677261 -1370446.42237854 0 -1370446.42237854 -4110621.8896141052 0 0 0 0 -446778.517903345 -4195042.7766463207 0 -4195042.7766463207 3643339.1244016197 0 0 0 0 -137582.59289598465 -6270286.8872294426 0 -6270286.8872294426 8455857.5449523926 0 0 0 0 -20163485.031027794 -3843716.7561836243 0 -3843716.7561836243 8447740.6540737152 0 0 0 0 1949896.7651082277 -2667262.917093277 0 -2667262.917093277 4539208.2596893311 0 0 0 0 368190.92671866593 -609554.40723673068 0 -609554.40723673068 2863.031521730125 0 0 0 0 -7325184.530728817 -722625.30666923523 0 -722625.30666923523 4157555.5809831619 0 0 0 0 -6305356.4432021379 -3525909.26795578 0 -3525909.26795578 690802.14128112793 0 0 0 0 -18110668.292464554 5573665.2723407745 0 5573665.2723407745 10914881.376792908 0 0 0 0 -525607.46413755417 -147092.10440826416 0 -147092.10440826416 9238644.463924408 0 0 0 0 -741763.50424761651 -1146429.7098848596 0 -1146429.7098848596 2023329.9324446134 0 0 0 0 -1530528.9242663383 -8023930.3296775818 0 -8023930.3296775818 15448910.714263916 0 0 0 0 9581220.1287492514 -15064508.617635727 0 -15064508.617635727 -14211572.748504639 0 0 0 0 5422907.5145829916 -5120193.2231826782 0 -5120193.2231826782 -25842695.22423172 0 0 0 0 -153713.95198749876 -3526614.944974307 0 -3526614.944974307 -1989139.1274357717 0 0 0 0 -2795431.6624376401 -2161060.7980136871 0 -2161060.7980136871 -74667.384395599365 0 0 0 0 -5118317.1984785199 -10993687.939085007 0 -10993687.939085007 -1206412.2419242859 0 0 0 0 -459614.25128369284 -3359741.760986872 0 -3359741.760986872 -1214551.1876752563 0 0 0 0 446806.53081248311 -116878.66609921679 0 -116878.66609921679 -1743776.6462674607 0 0 0 0 -1777170.4647285938 -28203390.621139526 0 -28203390.621139526 -17875114.777380943 0 0 0 0 -27595535.332128346 -21786068.993280411 0 -21786068.993280411 13935488.090904236 0 0 0 0 -4826924.5923475958 -5471582.8280930519 0 -5471582.8280930519 -5737457.6968917847 0 0 0 0 -63821.202604214835 -1409025.6777247544 0 -1409025.6777247544 -3833609.734314207 0 0 0 0 8937068.3986638784 32033062.585617065 0 32033062.585617065 -30901425.160684586 0 0 0 0 -4434642.6836862564 -19842230.360973358 0 -19842230.360973358 -11236227.990055084 0 0 0 0 6795962.1449182034 -10759776.396640778 0 -10759776.396640778 -8248107.2737350464 0 0 0 0 530222.76962940395 16868963.251998663 0 16868963.251998663 -36991106.326213837 0 0 0 0 -956759.56074620015 -460961.85224811733 0 -460961.85224811733 1658975.9176762626 0 0 0 0 -13749994.87585336 -3205273.9091663361 0 -3205273.9091663361 7754765.8598632812 0 0 0 0 -6395746.8712835312 -444363.15453910828 0 -444363.15453910828 7989133.5171957016 0 0 0 0 -1440347.2279702215 -3359401.0510557666 0 -3359401.0510557666 -923221.88966200221 0 0 0 0 -1079508.498108983 202816.24531936646 0 202816.24531936646 1042915.7950744629 0 0 0 0 2600407.9429531097 -20230029.659477234 0 -20230029.659477234 26958168.021530151 0 0 0 0 -17576043.425769806 -7942947.3461151123 0 -7942947.3461151123 19590689.566699982 0 0 0 0 -2065573.0612231051 -842913.06017438974 0 -842913.06017438974 -642134.1962441206 0 0 0 0 -15190070.959266663 -48996518.831737518 0 -48996518.831737518 3501627.7509422302 0 0 0 0 10049258.223443985 -28702502.709976196 0 -28702502.709976196 16427509.081764221 0 0 0 0 -2328584.6404152256 -2815859.3946954254 0 -2815859.3946954254 -1805244.0790268611 0 0 0 0 3905750.2609968185 -9159776.5591506958 0 -9159776.5591506958 -6885724.5389575958 0 0 0 0 -3281199.3348567486 1872030.8023672104 0 1872030.8023672104 3392002.3892250061 0 0 0 0 -7405338.4858417511 -1023115.9680271149 0 -1023115.9680271149 -11295126.148246765 0 0 0 0 -2707012.3589351098 -2692765.7370165009 0 -2692765.7370165009 -2239234.3913642243 0 0 0 0 2282719.0423439145 -532340.36123847961 0 -532340.36123847961 -1262813.377746582 0 0 0 0 -309497.03330392088 -709124.26314643305 0 -709124.26314643305 -4801974.7413562872 0 0 0 0 16069096.058216155 3726157.8906669617 0 3726157.8906669617 -10789661.204376221 0 0 0 0 70189.55158829689 -520784.78253173828 0 -520784.78253173828 -1094957.5998077393 0 0 0 0 -897371.82335071336 -2838635.1057601199 0 -2838635.1057601199 -3271917.7061710693 0 0 0 0 -10886442.651918411 -5922768.8282165527 0 -5922768.8282165527 31562492.931762695 0 0 0 0 -11392009.601569176 681968.05386734009 0 681968.05386734009 65138007.623321533 0 0 0 0 -2627872.0299503882 -614650.20216548629 0 -614650.20216548629 -2666079.0208937572 0 0 0 0 -350255.82694950281 -166481.37381475791 0 -166481.37381475791 -25324.062270492315 0 0 0 0 9598034.3976762295 3970841.1816177368 0 3970841.1816177368 -3454766.5905761719 0 0 0 0 12248197.329710722 9237369.1908187866 0 9237369.1908187866 -18674368.390960693 0 0 0 0 -1253712.2354052679 -424356.02816899866 0 -424356.02816899866 -3673582.830867026 0 0 0 0 59653579.724907041 -11954400.632263184 0 -11954400.632263184 -9621991.7562103271 0 0 0 0 805910.09845851059 542612.0285640303 0 542612.0285640303 -1100788.957132332 0 0 0 0 -613741.72992972331 -1465181.3075615717 0 -1465181.3075615717 -5654016.3200224675 0 0 0 0 5667109.7281248569 -7406504.4238548279 0 -7406504.4238548279 -8434182.5656890869 0 0 0 0 -1587534.3012914658 -3674131.3432693481 0 -3674131.3432693481 -5962202.0060195923 0 0 0 0 -2842747.412751317 -4163016.7542438507 0 -4163016.7542438507 -5585752.1037063599 0 0 0 0 -4653421.0544581413 -4192881.7861480713 0 -4192881.7861480713 -5706828.4981994629 0 0 0 0 -1211619.652488702 -2532466.8874359624 0 -2532466.8874359624 -8175257.2512561157 0 0 0 0 154263.35663032532 -4736083.2773246765 0 -4736083.2773246765 -7087446.8571395874 0 0 0 0 60546556.786148548 -39218.465480804443 0 -39218.465480804443 -14881807.344009399 0 0 0 0 -2144820.7012479305 -5604569.6654949188 0 -5604569.6654949188 -6617648.5011901855 0 0 0 0 5636453.4631471634 -7111905.5629940033 0 -7111905.5629940033 -8769290.6204872131 0 0 0 0 -517252.63780394901 -3168652.4892661604 0 -3168652.4892661604 -9505541.0402093641 0 0 0 0 -1817969.7042595148 -9660896.823392868 0 -9660896.823392868 -7972311.9898071289 0 0 0 0 4310237.7507243156 -2722677.4320106506 0 -2722677.4320106506 -8656820.7461395264 0 0 0 0 -7659465.6752793789 -5105698.9553852081 0 -5105698.9553852081 -4692033.958946228 0 0 0 0 -8368404.0369801521 -6608039.2298851013 0 -6608039.2298851013 -6643744.4426727295 0 0 0 0 -9201724.9725689888 -14283850.361679077 0 -14283850.361679077 -18507527.379333496 0 0 0 0 -16169322.858905792 -5689500.9432983398 0 -5689500.9432983398 -5169936.654045105 0 0 0 0 -6250091.2022647858 -9179179.8317604065 0 -9179179.8317604065 -9745558.9548397064 0 0 0 0 -1672976.3430666924 -9512040.5061988831 0 -9512040.5061988831 -9902725.5908765793 0 0 0 0 -4536196.8782813549 -5360994.0469551086 0 -5360994.0469551086 -4850897.7960166931 0 0 0 0 -2343073.9623732567 -4814740.6602153778 0 -4814740.6602153778 -6212192.4501533508 0 0 0 0 -3319580.7393883467 -2363059.0556602478 0 -2363059.0556602478 -4717137.9853897095 0 0 0 0 -5198567.5730056763 -4332112.875459671 0 -4332112.875459671 -5804012.309922576 0 0 0 0 1171454.7986228731 -2390521.7894541826 0 -2390521.7894541826 -3976634.6055731177 0 0 0 0 467337.83434975147 -996810.91716194153 0 -996810.91716194153 12404610.863143682 0 0 0 0 41682.957172960043 -6334791.1998710632 0 -6334791.1998710632 -4404262.5359344482 0 0 0 0 1867193.8194261789 -2618465.5643806458 0 -2618465.5643806458 -6484206.7995071411 0 0 0 0 5077936.169960022 -4157483.1613769531 0 -4157483.1613769531 -7145884.96733284 0 0 0 0 360626.99652234191 -196573.6240300755 0 -196573.6240300755 -541007.30311949924 0 0 0 0 2877321.7134188712 -4073102.2362575531 0 -4073102.2362575531 -9140145.3541564941 0 0 0 0 -696496.18387019262 -3045054.7501073955 0 -3045054.7501073955 -1354804.7135670595 0 0 0 0 -3698884.7124619484 -3756918.4983158112 0 -3756918.4983158112 -4476740.758146286 0 0 0 0 -4974142.8777353764 2969698.3454246521 0 2969698.3454246521 -1971998.1609039307 0 0 0 0 4339397.783441484 135401.37458229065 0 135401.37458229065 -6697064.6959601641 0 0 0 0 -33217807.788488701 998093.29316043854 0 998093.29316043854 -6612668.7998046875 0 0 0 0 -17221919.984977059 -22664035.635166049 0 -22664035.635166049 -31083645.369529724 0 0 0 0 1078123.94707202 1663497.9859937718 0 1663497.9859937718 -5241020.1122797634 0 0 0 0 439601.28235028323 -222237.61536072381 0 -222237.61536072381 -657560.81947494298 0 0 0 0 163735.03076339501 5335.2263861075044 0 5335.2263861075044 -403861.43641036004 0 0 0 0 -29457767.726736069 -12695750.705205917 0 -12695750.705205917 -22277069.122009277 0 0 0 0 -17368457.506278276 -19927492.392749786 0 -19927492.392749786 -39574189.682983398 0 0 0 0 3666872.0908816755 -1748196.4156866074 0 -1748196.4156866074 -9235011.9547691345 0 0 0 0 2390177.2440437526 -3562863.5902495384 0 -3562863.5902495384 -8353012.2076721191 0 0 0 0 2459331.5820550919 -804110.22800445557 0 -804110.22800445557 -9520737.1972732544 0 0 0 0 3944594.0562798493 8321830.7356357574 0 8321830.7356357574 -6095327.5762634277 0 0 0 0 886432.90307581425 -62678.501643180847 0 -62678.501643180847 -5429345.5153160095 0 0 0 0 -32262185.844422936 -26738158.133827209 0 -26738158.133827209 -34902884.786405563 0 0 0 0 1322067.9004335171 1026571.7296755593 0 1026571.7296755593 -4093099.9610828683 0 0 0 0 -17137585.119697094 -12408269.857219696 0 -12408269.857219696 -22252729.999145508 0 0 0 0 -10113645.507730484 -9030372.2591781616 0 -9030372.2591781616 -23987881.749397278 0 0 0 0 -5180481.9241979122 -20280258.593360901 0 -20280258.593360901 -36005121.910385132 0 0 0 0 -1265253.9493306875 -12968858.526664734 0 -12968858.526664734 -34658095.831542969 0 0 0 0 1919985.7346869111 -2334591.774731636 0 -2334591.774731636 -25550301.36946106 0 0 0 0 -8701421.839189291 -344644.70205688477 0 -344644.70205688477 -11400734.984222412 0 0 0 0 1031024.8035763388 -304103.76238904148 0 -304103.76238904148 -3202726.5498193223 0 0 0 0 -14263926.577931404 -4864073.0016098022 0 -4864073.0016098022 -16358480.928070068 0 0 0 0 -448305.7541217804 -6391567.0033988953 0 -6391567.0033988953 -16927649.581111908 0 0 0 0 300143.94499111176 -4501235.638343811 0 -4501235.638343811 -19894059.397916794 0 0 0 0 8745336.7494163513 833175.85994720459 0 833175.85994720459 -19375705.963622093 0 0 0 0 1707850.3431753083 -1539014.4451523246 0 -1539014.4451523246 -6200039.4002612252 0 0 0 0 -231112126.11274838 18233967.839984894 0 18233967.839984894 46039514.566677094 0 0 0 0 5179242.3174409866 2715906.558883667 0 2715906.558883667 -9776115.1063423157 0 0 0 0 103084097.58489859 11520834.389225006 0 11520834.389225006 -75378492.921764374 0 0 0 0 33170337.104539812 -175866416.75765228 0 -175866416.75765228 -71745289.163711548 0 0 0 0 3406556.681224823 958564.0817527771 0 958564.0817527771 -15246469.226646423 0 0 0 0 7587600.669365406 4759802.6251735687 0 4759802.6251735687 -16681715.312347412 0 0 0 0 7088297.8857163861 -3287851.7266280949 0 -3287851.7266280949 -21306001.342353821 0 0 0 0 11386953.821176529 -3161245.2040424347 0 -3161245.2040424347 -16754067.3372612 0 0 0 0 7088682.3182046413 -3222652.9151182175 0 -3222652.9151182175 -12001110.820106506 0 0 0 0 949218.34178757668 -8996519.2037143707 0 -8996519.2037143707 -19636543.271621704 0 0 0 0 190091.44696140289 -4708177.0275878906 0 -4708177.0275878906 -16468228.207344055 0 0 0 0 -455681.7129201889 -8335919.9698371887 0 -8335919.9698371887 -28872549.748901367 0 0 0 0 -9847600.8179225922 -9811759.4086151123 0 -9811759.4086151123 -17798064.297499657 0 0 0 0 -34182970.158732921 -19780076.437174797 0 -19780076.437174797 -15441625.206787109 0 0 0 0 -11910510.175895691 -16509114.831954956 0 -16509114.831954956 -38224298.525314331 0 0 0 0 -9975044.6571633816 -7283535.8378829956 0 -7283535.8378829956 -21961464.171066284 0 0 0 0 -12962117.780562401 -1262671.0130767822 0 -1262671.0130767822 -33418346.773485184 0 0 0 0 -495205.42056369781 -2783117.1394844055 0 -2783117.1394844055 -23564289.156181335 0 0 0 0 -25693.702400922994 -1903496.4407094307 0 -1903496.4407094307 -2179484.8145714439 0 0 0 0 5114269.8531044722 -8718656.8846263885 0 -8718656.8846263885 -8462793.1799488068 0 0 0 0 280815.11208548065 -3574256.2631177334 0 -3574256.2631177334 -10819381.475566693 0 0 0 0 3811598.5044949055 101114.95681381226 0 101114.95681381226 -4287939.7688694 0 0 0 0 2895704.8000203371 -640223.19643115997 0 -640223.19643115997 -4724008.1603469849 0 0 0 0 123103.41634040436 -2979002.4051242359 0 -2979002.4051242359 -8012114.2458090205 0 0 0 0 -231400.48432179299 -2699164.4941482991 0 -2699164.4941482991 -7493428.7452963144 0 0 0 0 6643260.736482501 8664310.3521957397 0 8664310.3521957397 1135647.6968894005 0 0 0 0 434257.659000877 -474397.54629490338 0 -474397.54629490338 -5911137.371564582 0 0 0 0 17649582.491157889 10323877.885635376 0 10323877.885635376 -3856088.740070343 0 0 0 0 -1043292.4000008702 3225021.9341011047 0 3225021.9341011047 681040.56485748291 0 0 0 0 314036.69372406724 803540.06083858525 0 803540.06083858525 -139719.25978089496 0 0 0 0 15553574.876039259 18839739.39209938 0 18839739.39209938 16600506.427761078 0 0 0 0 109123.54154309335 -153133.90474687889 0 -153133.90474687889 -577452.61065174453 0 0 0 0 2400943.9489011988 -4636002.7019500732 0 -4636002.7019500732 -6680318.0217533112 0 0 0 0 103140.28322811979 -1313234.245333327 0 -1313234.245333327 -4839531.3992628679 0 0 0 0 -10085228.38577415 -10468279.447277069 0 -10468279.447277069 -1101472.9152145386 0 0 0 0 29168.594277521075 -874621.55005888268 0 -874621.55005888268 -552274.2027499266 0 0 0 0 14997461.763588039 4398126.3467693329 0 4398126.3467693329 -16356599.925086975 0 0 0 0 2282982.3607293777 -5738129.7375178337 0 -5738129.7375178337 4451082.2175521851 0 0 0 0 13090864.347827464 -9909715.6596908569 0 -9909715.6596908569 -3199524.1821651459 0 0 0 0 -4258274.0583658554 19387316.004398346 0 19387316.004398346 -27058589.54208374 0 0 0 0 -28573.242213444108 -176604.99919992313 0 -176604.99919992313 -129105.89153087512 0 0 0 0 7659294.6830406487 12519231.881248474 0 12519231.881248474 -54422737.060417175 0 0 0 0 -21863738.042212635 -14947042.739040375 0 -14947042.739040375 -8673582.9996414185 0 0 0 0 -36953618.131895676 -28287053.123197556 0 -28287053.123197556 27885329.964027405 0 0 0 0 -244621.61165231475 -607684.22661332041 0 -607684.22661332041 -970886.41594940796 0 0 0 0 -20163554.296181262 -9186418.9060592651 0 -9186418.9060592651 -13732986.940723419 0 0 0 0 -18299387.203176975 -18360653.030044556 0 -18360653.030044556 -16500297.585361481 0 0 0 0 -1087951.0205668807 -11093386.075511932 0 -11093386.075511932 -14130308.17263031 0 0 0 0 -5768920.5204248726 -11028486.389356613 0 -11028486.389356613 -4154693.2759475708 0 0 0 0 -18879078.22881496 -9183344.2000236511 0 -9183344.2000236511 -754558.97931671143 0 0 0 0 -5734695.3733357191 -11107342.282586098 0 -11107342.282586098 -5163272.7987289429 0 0 0 0 30515702.694152594 -12345141.728805542 0 -12345141.728805542 -12177129.933540344 0 0 0 0 -765265.84400135279 -22746095.815807343 0 -22746095.815807343 -5039841.8281135559 0 0 0 0 60831741.710586987 -1686594.4883503914 0 -1686594.4883503914 -39175917.997436523 0 0 0 0 6102509.9590997696 329444.12847137451 0 329444.12847137451 -724147.98787021637 0 0 0 0 -5426007.5388429165 -14468067.602386475 0 -14468067.602386475 -19265477.542129517 0 0 0 0 -24944574.612723649 7159620.0667114258 0 7159620.0667114258 -17755078.99458313 0 0 0 0 21662524.418489337 -26589246.986473083 0 -26589246.986473083 -42616156.998924255 0 0 0 0 -7006060.1388918161 -5282275.8886566162 0 -5282275.8886566162 -40785957.429107666 0 0 0 0 9397826.811845243 -2430831.9431304932 0 -2430831.9431304932 -40325632.994722366 0 0 0 0 -2081169.123295635 11517123.484989166 0 11517123.484989166 -57269604.491287231 0 0 0 0 3480715.8917739838 -26487855.687382698 0 -26487855.687382698 -90540476.195419312 0 0 0 0 8630780.1425847411 5557534.4899406433 0 5557534.4899406433 -42681596.084854126 0 0 0 0 -566545.90291303396 19629587.1236763 0 19629587.1236763 -63500048.182037354 0 0 0 0 10646930.366152525 17396943.69683075 0 17396943.69683075 -24303237.305557251 0 0 0 0 49726453.066902995 20562115.570587158 0 20562115.570587158 -59627338.515550613 0 0 0 0 36491912.19624728 -12191354.171115875 0 -12191354.171115875 9510742.514541626 0 0 0 0 -5634216.2095238566 29540882.286636353 0 29540882.286636353 2324009.2443237305 0 0 0 0 60846822.920974731 7149031.797958374 0 7149031.797958374 -43973155.938262939 0 0 0 0 -60404856.439222038 9426917.1338729858 0 9426917.1338729858 9716216.8650512695 0 0 0 0 -488822.637296275 431128.48562818766 0 431128.48562818766 200334.13455314934 0 0 0 0 -21537934.834187031 48006426.891693115 0 48006426.891693115 -19905711.824346542 0 0 0 0 35002999.83676815 23484933.73601532 0 23484933.73601532 -16695326.1144104 0 0 0 0 -22005509.309695721 832194.67682647705 0 832194.67682647705 802513.73084831238 0 0 0 0 -26652794.264069051 31410973.771896362 0 31410973.771896362 -10177654.697952271 0 0 0 0 13048483.218612432 13125821.320724487 0 13125821.320724487 -6350603.9309997559 0 0 0 0 -3860838.6046755034 -242817.50243277475 0 -242817.50243277475 -3921793.6216159388 0 0 0 0 -1531405.1236197948 5493424.452796936 0 5493424.452796936 -317653.99855041504 0 0 0 0 -4427124.2513663769 5361606.0163192749 0 5361606.0163192749 -322597.15004634857 0 0 0 0 -7280128.8980383873 -1082794.8937072754 0 -1082794.8937072754 45023841.660110474 0 0 0 0 -5401225.1207141876 13228999.46635437 0 13228999.46635437 -6144238.911108017 0 0 0 0 -7678887.0829897523 5331450.285369873 0 5331450.285369873 754379.42444610596 0 0 0 0 -8238296.7470617294 2665165.764755249 0 2665165.764755249 888184.36530160904 0 0 0 0 -6131490.2050919533 6637180.2823410034 0 6637180.2823410034 1164626.3701934814 0 0 0 0 -16593435.905908942 7587333.4406051636 0 7587333.4406051636 1118528.1638641357 0 0 0 0 -5269975.492643714 4344198.099861145 0 4344198.099861145 -581915.24010467529 0 0 0 0 -233598.31150114536 51009142.224441528 0 51009142.224441528 -17535142.210220337 0 0 0 0 -7452688.166051507 34826419.224723816 0 34826419.224723816 37154857.673389435 0 0 0 0 -1831401.1363388081 1786335.4686497846 0 1786335.4686497846 979833.54974090308 0 0 0 0 730574.41464281082 35027761.792724609 0 35027761.792724609 13074020.904251099 0 0 0 0 5289777.5317156017 32583669.740978241 0 32583669.740978241 -7074444.5509643555 0 0 0 0 10690523.108451277 45851236.312831879 0 45851236.312831879 4064099.7461700439 0 0 0 0 6785084.156560123 49230507.528366089 0 49230507.528366089 9474539.7538318634 0 0 0 0 5551814.2763017267 -6962596.7451925278 0 -6962596.7451925278 9441569.0313644409 0 0 0 0 -1268527.4825254749 62051.765400841832 0 62051.765400841832 1285262.5783713087 0 0 0 0 35574163.93326664 54542042.910299301 0 54542042.910299301 15389266.994697571 0 0 0 0 -23948908.948087692 10263946.336917877 0 10263946.336917877 6423652.2163467407 0 0 0 0 -2654997.1725198985 866690.52088254294 0 866690.52088254294 2206349.1350529417 0 0 0 0 -4364064.0723188557 2687579.4411289096 0 2687579.4411289096 -2912138.2792459307 0 0 0 0 -204063.06089019775 -134237.57922744751 0 -134237.57922744751 1659482.5618591309 0 0 0 0 -18771526.621663094 3731528.8777427673 0 3731528.8777427673 28406876.737686157 0 0 0 0 -30348440.582103729 14459749.582492828 0 14459749.582492828 44141176.363967896 0 0 0 0 -1263770.3759059189 1115528.6233206112 0 1115528.6233206112 -968121.12751946598 0 0 0 0 -15406357.636360444 -5108131.1257667542 0 -5108131.1257667542 36719539.1876297 0 0 0 0 -630048.53000760078 1016314.8225746155 0 1016314.8225746155 -311541.67504692078 0 0 0 0 -846022.69171831268 1456293.7138459105 0 1456293.7138459105 -2140450.3825120069 0 0 0 0 -1175167.6912356098 1695714.670158295 0 1695714.670158295 -1610696.2752282619 0 0 0 0 -572951.51716995239 825725.19681930542 0 825725.19681930542 -190878.96651172638 0 0 0 0 -2265353.0510138194 2056377.214729812 0 2056377.214729812 -2450342.3291349746 0 0 0 0 -5278341.8293437958 15356845.720813751 0 15356845.720813751 6175872.9968490601 0 0 0 0 -22542067.414432138 17958114.593334198 0 17958114.593334198 50745920.624044418 0 0 0 0 8911499.2798634414 8495149.0432407856 0 8495149.0432407856 16343486.742401123 0 0 0 0 -43103481.401062489 29835901.364425659 0 29835901.364425659 7638493.6722373962 0 0 0 0 -37907537.135841355 -2876561.082321167 0 -2876561.082321167 16830009.311975479 0 0 0 0 5462751.8044310361 -2731006.0079898834 0 -2731006.0079898834 15781931.505332947 0 0 0 0 -1925986.8147028312 -17641946.398944855 0 -17641946.398944855 -24258206.416488647 0 0 0 0 -12096404.339755505 -2445915.3007278442 0 -2445915.3007278442 -22646930.749931335 0 0 0 0 -32168143.706343651 -38026593.839458466 0 -38026593.839458466 -85693126.758392334 0 0 0 0 -3094347.1427848227 25009839.283119202 0 25009839.283119202 -49933136.231506348 0 0 0 0 -19763519.865791693 -2527796.9766235352 0 -2527796.9766235352 -14470732.032920837 0 0 0 0 -95278480.106547743 13151153.346054077 0 13151153.346054077 -17594387.806217194 0 0 0 0 -24043967.237698123 38838352.137073517 0 38838352.137073517 -135377753.05847931 0 0 0 0 -14425099.544574142 6294100.0664978027 0 6294100.0664978027 -38666155.574859619 0 0 0 0 -50140234.630670965 -62266222.368211746 0 -62266222.368211746 -86586576.021057129 0 0 0 0 -11898756.930575456 48382628.844247818 0 48382628.844247818 -59138911.381332397 0 0 0 0 -95633.768864954618 -148458.76164014544 0 -148458.76164014544 -315131.41421118006 0 0 0 0 -37291763.607156098 -25561292.918369293 0 -25561292.918369293 -28591698.015388489 0 0 0 0 -4614023.7490985096 18783028.249008179 0 18783028.249008179 -56732158.463600159 0 0 0 0 -15550232.884960286 37802901.522789001 0 37802901.522789001 -89775673.430686951 0 0 0 0 13899168.596530609 39084295.775381088 0 39084295.775381088 -36703382.378463745 0 0 0 0 -12094.37586470673 21137.15924657695 0 21137.15924657695 -22254.924519681372 0 0 0 0 3113659.4073424935 16177241.131126404 0 16177241.131126404 22387299.545452118 0 0 0 0 14411579.0146534 15002246.786834717 0 15002246.786834717 -106707441.17815971 0 0 0 0 4305954.5371947289 1386476.7006778717 0 1386476.7006778717 -3409624.3829994202 0 0 0 0 12808818.444469929 -2925050.0286178589 0 -2925050.0286178589 -1685286.3570022583 0 0 0 0 12891823.274135575 -1071259.9043827057 0 -1071259.9043827057 -15163433.356868744 0 0 0 0 1777935.3940090984 -14440307.514900208 0 -14440307.514900208 -29323883.705553055 0 0 0 0 -5325569.8948261887 -15851631.508493423 0 -15851631.508493423 7606484.9988250732 0 0 0 0 7286888.3305035532 -12331352.700435638 0 -12331352.700435638 8081754.3583803177 0 0 0 0 -506974.52087441488 716297.57268949039 0 716297.57268949039 -1123689.2174807414 0 0 0 0 -328641.67685893417 410710.19781771675 0 410710.19781771675 -669969.57204022259 0 0 0 0 -544600.88298862823 2179873.158613205 0 2179873.158613205 -2920582.1924285889 0 0 0 0 -480737.48573842424 2248848.5468263626 0 2248848.5468263626 -3963041.4079818726 0 0 0 0 172747.91958072581 475877.33352874592 0 475877.33352874592 -587271.25964036584 0 0 0 0 2003293.7067769803 1045611.7187538147 0 1045611.7187538147 -10225494.757734299 0 0 0 0 2083719.8824397109 -646335.72604751587 0 -646335.72604751587 -5422486.0394744873 0 0 0 0 -15075.874526284782 -248370.04529953003 0 -248370.04529953003 -4302687.7202987671 0 0 0 0 2034599.2729467521 1065968.6179046631 0 1065968.6179046631 -7862287.7016372681 0 0 0 0 103475.97223322862 890146.31672668457 0 890146.31672668457 -3423728.6567440033 0 0 0 0 290333.18559389102 718332.55680465698 0 718332.55680465698 -3495766.1228904724 0 0 0 0 5054.1100189050649 -19902.002113342285 0 -19902.002113342285 -1700762.1289825439 0 0 0 0 -27.958869208756369 708370.99836540222 0 708370.99836540222 -1681537.7228546143 0 0 0 0 -68229.169509272571 -75876.160835266113 0 -75876.160835266113 -1652221.1713020802 0 0 0 0 -210233.66693280064 292794.61065716855 0 292794.61065716855 -509561.66774506122 0 0 0 0 -53723.217768926894 59111.681506991386 0 59111.681506991386 -51927.813021436101 0 0 0 0 -3629886.1465300843 14486298.450878143 0 14486298.450878143 -50373432.133406639 0 0 0 0 2880457.9603183344 1636819.1658916473 0 1636819.1658916473 614317.9228553772 0 0 0 0 15329.430347709598 139219.80025328696 0 139219.80025328696 -345037.0720009834 0 0 0 0 -64781.326479538999 391194.33812713623 0 391194.33812713623 -456702.00932312012 0 0 0 0 -4717485.6987593174 15346552.219535828 0 15346552.219535828 -35557251.244056702 0 0 0 0 -373.35912377554916 143157.93882751465 0 143157.93882751465 -284854.58896446228 0 0 0 0 -140515.09708371421 162700.98959619366 0 162700.98959619366 -175574.0555331409 0 0 0 0 -4269855.920973897 19073432.255073547 0 19073432.255073547 -39515480.822883606 0 0 0 0 16366.096870038851 22538338.79208374 0 22538338.79208374 -37294945.191708565 0 0 0 0 -12718284.009024896 11646987.700401306 0 11646987.700401306 -43163514.151119232 0 0 0 0 -159501.49394449269 15128125.650093079 0 15128125.650093079 -50873997.947864532 0 0 0 0 -8287924.9280605614 20552970.190229416 0 20552970.190229416 -26857101.101951599 0 0 0 0 -8822942.411816135 7828269.9094924927 0 7828269.9094924927 -36549093.873584747 0 0 0 0 -4449030.9825308323 20933230.866443634 0 20933230.866443634 -43226561.34419632 0 0 0 0 -4886694.7173182145 21300440.172166824 0 21300440.172166824 -40711579.131256104 0 0 0 0 -385629.47277599573 34955202.677528381 0 34955202.677528381 -43564874.416511536 0 0 0 0 35848671.669398293 17640451.095661163 0 17640451.095661163 -45078933.11589694 0 0 0 0 1058728.396211803 36712570.273206711 0 36712570.273206711 -10418081.606056213 0 0 0 0 564293.22110623121 22692149.776954651 0 22692149.776954651 -40477024.259732246 0 0 0 0 -7665976.0548983067 -12220619.749237061 0 -12220619.749237061 -9045121.2032928467 0 0 0 0 21835191.722937167 -17912118.213382721 0 -17912118.213382721 -9938721.0422821045 0 0 0 0 -8869014.0421975255 5561746.2694816589 0 5561746.2694816589 11551118.948154449 0 0 0 0 36568388.599965505 7387541.4924468994 0 7387541.4924468994 -17296337.865684509 0 0 0 0 14012273.279946417 3596217.6648979187 0 3596217.6648979187 -9737245.1548652649 0 0 0 0 -6989318.0160449445 -15211704.295959473 0 -15211704.295959473 -16663956.754108429 0 0 0 0 3799374.7757798769 -19433370.610416412 0 -19433370.610416412 -16849421.124725342 0 0 0 0 -36989024.046138987 -22144831.942192078 0 -22144831.942192078 -16444732.740756989 0 0 0 0 -17020051.532792576 -25330687.124254227 0 -25330687.124254227 -21151356.037918091 0 0 0 0 -23261301.523076613 -23037108.361690521 0 -23037108.361690521 -14638596.447633743 0 0 0 0 -6008797.7156330906 -12138820.74788475 0 -12138820.74788475 -21413463.491271973 0 0 0 0 -21360243.191293381 -17506445.802105904 0 -17506445.802105904 -15785595.483940125 0 0 0 0 -50395487.584162541 -48078875.274288177 0 -48078875.274288177 -49326357.56224823 0 0 0 0 -1682.9470773003675 -1901133.474363327 0 -1901133.474363327 2875434.1722126007 0 0 0 0 15687.939386184975 -53428.07160106115 0 -53428.07160106115 -119970.68156683818 0 0 0 0 -14974164.52330092 -14476082.373729706 0 -14476082.373729706 -77386244.79069519 0 0 0 0 -12173448.212542899 2035554.841999054 0 2035554.841999054 -27766208.259937286 0 0 0 0 -15533769.407409415 -25575553.593654633 0 -25575553.593654633 -40347012.553382874 0 0 0 0 943394.78125569038 3345358.1125411987 0 3345358.1125411987 -9634485.1198501587 0 0 0 0 579333.27543681394 3308539.9178161621 0 3308539.9178161621 -9356765.5562210083 0 0 0 0 1190722.5720734745 3714813.6056194305 0 3714813.6056194305 -9984121.497177124 0 0 0 0 410825.40367038548 4141377.5420150757 0 4141377.5420150757 -9712942.036277771 0 0 0 0 487673.4584980011 3850140.7366523743 0 3850140.7366523743 -8776798.1569442749 0 0 0 0 459850.32492187311 3105981.1376934052 0 3105981.1376934052 -9595409.3729476929 0 0 0 0 134.91128377096766 3014478.0860061646 0 3014478.0860061646 -8832397.7486190796 0 0 0 0 675373.02231946215 3246145.0881233215 0 3246145.0881233215 -9669833.5090332031 0 0 0 0 1009193.4574764958 2655668.6837921143 0 2655668.6837921143 -10194119.408885956 0 0 0 0 662680.83092839923 3225285.2045993805 0 3225285.2045993805 -9685786.4813537598 0 0 0 0 1377328.8150666328 2794402.4180259705 0 2794402.4180259705 -10409054.977622986 0 0 0 0 599536.09228796139 3220215.1680526733 0 3220215.1680526733 -10516859.475610733 0 0 0 0 1692240.9603746906 2894487.8725624084 0 2894487.8725624084 -10396931.296943665 0 0 0 0 2590835.8931553811 1068775.0623397827 0 1068775.0623397827 -9185633.6201210022 0 0 0 0 2573028.7056591604 3363794.9177055359 0 3363794.9177055359 -10354710.66003418 0 0 0 0 1605739.9501698371 2729515.1489639282 0 2729515.1489639282 -7641883.0634593964 0 0 0 0 2298427.1441456042 724195.64221572876 0 724195.64221572876 -11427272.988899231 0 0 0 0 2653739.9405994727 -32061.174459425732 0 -32061.174459425732 -3945050.8859901763 0 0 0 0 2357394.4809701699 -1274163.2669944763 0 -1274163.2669944763 -5938055.0777282715 0 0 0 0 723708.37380695343 1439055.5042572021 0 1439055.5042572021 -3461383.3946266174 0 0 0 0 1985688.824359417 2233442.1358203888 0 2233442.1358203888 -5922674.4769668579 0 0 0 0 3155509.2070464129 2395038.9598278552 0 2395038.9598278552 -5296146.1694662943 0 0 0 0 848374.15549308271 153751.44270212017 0 153751.44270212017 -911918.34198886156 0 0 0 0 4366921.3455981761 1244469.1328659058 0 1244469.1328659058 -10108279.794532776 0 0 0 0 484362.71543211397 4889093.2451286316 0 4889093.2451286316 -7564960.4260864258 0 0 0 0 -1720229.0914506912 1052167.7551879883 0 1052167.7551879883 7481216.5370635986 0 0 0 0 1483459.8451778402 2826516.5984125622 0 2826516.5984125622 -2290927.2673751134 0 0 0 0 5214348.6959218979 5182074.7960357666 0 5182074.7960357666 -769031.32011413574 0 0 0 0 -77003976.264331341 -126947759.46349144 0 -126947759.46349144 -38475814.114265442 0 0 0 0 95261.295242153108 1018416.8621510901 0 1018416.8621510901 60940.805401667138 0 0 0 0 -2099612.7839193344 5651859.3866577148 0 5651859.3866577148 2120138.6970252991 0 0 0 0 2024931.4756202698 1829421.9872970581 0 1829421.9872970581 4460446.7674407959 0 0 0 0 6762469.3018364906 11347891.157418251 0 11347891.157418251 7535986.2238769531 0 0 0 0 25786684.615196228 10614276.273387909 0 10614276.273387909 -26391832.007637024 0 0 0 0 -16622153.282531738 3644952.0503997803 0 3644952.0503997803 6942177.2067298889 0 0 0 0 4021056.1798035139 786196.23205596954 0 786196.23205596954 -5131398.8751175031 0 0 0 0 -168627578.74656829 -10853178.515203238 0 -10853178.515203238 -4865174.7240142822 0 0 0 0 -106681.575271409 -731558.51751827076 0 -731558.51751827076 -1916073.0752225257 0 0 0 0 -39368427.920996666 147422557.63043976 0 147422557.63043976 -534787362.6847496 0 0 0 0 -172929672.40940094 -293726526.97320747 0 -293726526.97320747 -309206775.37060547 0 0 0 0 101317968.35607719 -125199963.10190964 0 -125199963.10190964 -434640682.43866992 0 0 0 0 53797075.27743721 -350907960.90298462 0 -350907960.90298462 -596210912.14585114 0 0 0 0 108521874.44347382 -237243834.11589813 0 -237243834.11589813 -436821390.74489105 0 0 0 0 30692528.619164467 -205035206.48701859 0 -205035206.48701859 -306053438.39581299 0 0 0 0 -21779817.262187481 -294902483.79682541 0 -294902483.79682541 -459962203.51838493 0 0 0 0 102270916.83526707 -125806660.92202377 0 -125806660.92202377 -572016789.37637711 0 0 0 0 440770.74188678584 1752845.9254362863 0 1752845.9254362863 171138.87161245727 0 0 0 0 2447261.8508684039 -2558673.1467247009 0 -2558673.1467247009 -2635406.0866699219 0 0 0 0 17438709.753386855 1391150.3338661194 0 1391150.3338661194 -275275892.13941193 0 0 0 0 17605.66694265604 3215808.1216049194 0 3215808.1216049194 -8223224.2217178345 0 0 0 0 -305200.05592780659 1747643.048654642 0 1747643.048654642 -1636506.3268430773 0 0 0 0 -5586760.5950622559 4412623.0996856689 0 4412623.0996856689 7047965.0970001221 0 0 0 0 34043.033742900938 3245255.2061223984 0 3245255.2061223984 -8419167.6669616699 0 0 0 0 -811306.75935961644 1249519.1991947442 0 1249519.1991947442 -552691.7232779637 0 0 0 0 -9511.8974701735278 2127651.4335174561 0 2127651.4335174561 -1007048.6238367558 0 0 0 0 -38869.641061475777 1271116.2695518304 0 1271116.2695518304 -755855.46717083326 0 0 0 0 -899022993.13371384 -265791825.94332123 0 -265791825.94332123 -190877642.80133057 0 0 0 0 547826.04627762584 112479308.16454315 0 112479308.16454315 -722186078.53943825 0 0 0 0 47206435.428781986 -462552528.74758911 0 -462552528.74758911 -913452971.14254856 0 0 0 0 -37229.91149569182 752236.71020569466 0 752236.71020569466 -1534759.5573172644 0 0 0 0 275465998.25256258 148503181.6339035 0 148503181.6339035 -1045525749.9625626 0 0 0 0 -56435419.953713365 51806079.180356503 0 51806079.180356503 13148123.434104919 0 0 0 0 19811841.168793656 646487.26711273193 0 646487.26711273193 -27057086.701225281 0 0 0 0 -918764.05958311621 2212349.2274735123 0 2212349.2274735123 -3314800.9156899005 0 0 0 0 22835435.45644873 17474232.924567461 0 17474232.924567461 785040.46856689453 0 0 0 0 -216918.75300002701 -6323162.1256694794 0 -6323162.1256694794 -7265835.7735786438 0 0 0 0 2478472.7527171369 -2969707.1438560486 0 -2969707.1438560486 -5397820.1259918213 0 0 0 0 8445086.7494075913 -2440555.9800262451 0 -2440555.9800262451 -5804881.2748908997 0 0 0 0 6284095.0559486654 2422011.3156652451 0 2422011.3156652451 -3745242.0210037231 0 0 0 0 1120898.2187291929 -189294.83349227905 0 -189294.83349227905 -6536935.3619651794 0 0 0 0 4803635.6700002551 1358705.8927087784 0 1358705.8927087784 -5888813.8237838745 0 0 0 0 62300.121347030406 -1411803.4391307831 0 -1411803.4391307831 -5660425.0352172852 0 0 0 0 1386663.0622616196 4380758.8177080154 0 4380758.8177080154 -3752027.1597442627 0 0 0 0 789994.95562217943 2778684.6668815613 0 2778684.6668815613 -4133688.3995018005 0 0 0 0 175582.86221391242 2672632.2816047668 0 2672632.2816047668 -3908339.6038589478 0 0 0 0 3435885.9878684012 4355032.0399246216 0 4355032.0399246216 -6489873.5773468018 0 0 0 0 5148861.6293674577 472192.92081451416 0 472192.92081451416 -5074572.3356018066 0 0 0 0 3748281.1748425141 5842046.4441223145 0 5842046.4441223145 -1190441.790222168 0 0 0 0 9253370.1267739199 8232490.3528709412 0 8232490.3528709412 -1924506.5366716385 0 0 0 0 37635100.091247022 -91116876.376244783 0 -91116876.376244783 -82115509.167739868 0 0 0 0 18964347.73959057 311421077.97120208 0 311421077.97120208 231814901.97427368 0 0 0 0 -2170843.2867487785 3106092.3929756992 0 3106092.3929756992 -3583849.9473586306 0 0 0 0 8851816.098079551 2379420.039226532 0 2379420.039226532 -4637157.383769989 0 0 0 0 223859451.8590517 284260544.63013077 0 284260544.63013077 -208094581.68787384 0 0 0 0 287868133.66759586 142487150.91999531 0 142487150.91999531 -801276582.19759369 0 0 0 0 -39573817.131365776 -291734172.00478554 0 -291734172.00478554 -842885540.32803345 0 0 0 0 -393870329.80862617 -50826618.588500977 0 -50826618.588500977 205335574.76410675 0 0 0 0 59881171.284609795 -148355365.04351997 0 -148355365.04351997 -509147491.82247925 0 0 0 0 1841682.9166383743 -111143831.95281219 0 -111143831.95281219 -279199725.82170963 0 0 0 0 57161302.555814743 -161984404.22049713 0 -161984404.22049713 -570429916.61672592 0 0 0 0 29400748.899733543 -292390001.74552536 0 -292390001.74552536 -804818883.83193016 0 0 0 0 -372848.25887972116 478908.16095909476 0 478908.16095909476 -632062.37912755087 0 0 0 0 16424311.35669136 -202631801.09680176 0 -202631801.09680176 -499706941.49614334 0 0 0 0 25081365.208585978 30898266.184569836 0 30898266.184569836 -292310306.27198792 0 0 0 0 38969096.550588965 -23590779.022844076 0 -23590779.022844076 -727527548.92409515 0 0 0 0 -111400181.83287716 54717502.316150665 0 54717502.316150665 64078378.182937622 0 0 0 0 -53096887.582719326 128172001.43812943 0 128172001.43812943 -353512479.24581146 0 0 0 0 45679321.256391525 10870347.945930481 0 10870347.945930481 -229035443.79418373 0 0 0 0 -9367507.0056257248 9333998.1101303101 0 9333998.1101303101 -279079448.27142143 0 0 0 0 -29372078.320618629 25951484.870660782 0 25951484.870660782 -45266752.726997375 0 0 0 0 -3112262.7041684701 3386774.2016078373 0 3386774.2016078373 -3064667.3602552973 0 0 0 0 20492719.298002243 91685060.106758118 0 91685060.106758118 126741224.69985962 0 0 0 0 -43557360.688450813 -82741634.424571991 0 -82741634.424571991 66748093.392860413 0 0 0 0 -49742770.605857849 65662435.382953644 0 65662435.382953644 153299185.58570099 0 0 0 0 -94425924.8245821 -27346277.504459381 0 -27346277.504459381 109570193.71530151 0 0 0 0 -169936.64003181458 14912077.616744995 0 14912077.616744995 118373133.35191536 0 0 0 0 -43912231.758523941 -55213583.846321106 0 -55213583.846321106 86743735.082390785 0 0 0 0 -11477551.786960602 -45109010.783176422 0 -45109010.783176422 79376848.340530396 0 0 0 0 1834988.2257432938 3444488.3958282471 0 3444488.3958282471 15772566.594444275 0 0 0 0 12334521.979164124 38254783.48651123 0 38254783.48651123 22980116.15455246 0 0 0 0 -3018945.515809536 -35337568.053631783 0 -35337568.053631783 22166996.555847168 0 0 0 0 -22562872.752144814 -25974482.310464859 0 -25974482.310464859 49332921.093833923 0 0 0 0 -4592424.7181043625 15680460.637023926 0 15680460.637023926 -3596856.0473327637 0 0 0 0 19170021.602823436 2645620.2010947466 0 2645620.2010947466 90016792.986846924 0 0 0 0 -173345.67884940794 209179.50489879586 0 209179.50489879586 -231036.5256440565 0 0 0 0 -61353300.916798592 20898724.8099823 0 20898724.8099823 22943564.464336395 0 0 0 0 -39483037.508436203 3152368.7318782806 0 3152368.7318782806 -21829069.221054077 0 0 0 0 -57451816.803609371 42324321.220864296 0 42324321.220864296 27485565.901870728 0 0 0 0 -698990.02306141378 145219.62534873793 0 145219.62534873793 615826.26927637309 0 0 0 0 -17263511.197548866 63397339.993934631 0 63397339.993934631 -86625652.422210693 0 0 0 0 95107768.970075607 4197253.2157211304 0 4197253.2157211304 -61420416.671588898 0 0 0 0 -156603432.18437243 -42784146.027547836 0 -42784146.027547836 -16305855.577178955 0 0 0 0 93549146.02578187 -300326807.25870132 0 -300326807.25870132 -119635793.1734848 0 0 0 0 -39266717.704281807 -155071796.76136017 0 -155071796.76136017 -71694812.60016799 0 0 0 0 -204848851.23723793 -259223421.37120628 0 -259223421.37120628 -132170167.18585968 0 0 0 0 51241959.004582405 -80915202.490947723 0 -80915202.490947723 -521243546.86885834 0 0 0 0 49783489.713065505 -17475692.367759228 0 -17475692.367759228 45231729.872688293 0 0 0 0 20669709.115151405 111805362.98572707 0 111805362.98572707 -105199684.49151611 0 0 0 0 21581228.071788967 104547802.52891493 0 104547802.52891493 -88581564.307014465 0 0 0 0 35204657.016791344 33413559.753030777 0 33413559.753030777 -59754860.456943989 0 0 0 0 -60631215.848186493 88117368.399623871 0 88117368.399623871 -54717236.313308477 0 0 0 0 -192676353.48694611 131814518.78190422 0 131814518.78190422 -11987735.412902832 0 0 0 0 -101642744.68367195 252557930.34652328 0 252557930.34652328 -250136112.08789444 0 0 0 0 -13363757.038991928 33886303.896795273 0 33886303.896795273 -39591178.708259583 0 0 0 0 -136502614.70314407 32572482.810588837 0 32572482.810588837 45047104.365783691 0 0 0 0 48703861.814451098 -7303905.7118908465 0 -7303905.7118908465 -24335124.353294373 0 0 0 0 18221287.57754612 -188171219.9357872 0 -188171219.9357872 -461157518.29685211 0 0 0 0 -44598481.891225815 120514048.19707108 0 120514048.19707108 -278222417.96312904 0 0 0 0 -266529.98006265797 1482696.1830611303 0 1482696.1830611303 -2356128.4417627826 0 0 0 0 49122228.268828541 38205482.072790146 0 38205482.072790146 -17440470.638534546 0 0 0 0 2919345.4099493027 1678383.1701164246 0 1678383.1701164246 -3736161.720413208 0 0 0 0 2732819.7478494644 -80880.32776260376 0 -80880.32776260376 -3815246.0517044067 0 0 0 0 1798321.562346766 1535986.3444683868 0 1535986.3444683868 -4654075.0723733306 0 0 0 0 6085013.4405050278 -9177964.6224632263 0 -9177964.6224632263 192319.08754682541 0 0 0 0 627488.8765487473 -416476.13823912293 0 -416476.13823912293 58324.567936647683 0 0 0 0 51710545.195528984 554979.10012245178 0 554979.10012245178 -41988461.301437378 0 0 0 0 -36899842.148540497 146261.57562255859 0 146261.57562255859 -7697530.0160255432 0 0 0 0 1370918.5022335052 -74342.41561126709 0 -74342.41561126709 -3558231.2738494873 0 0 0 0 1974728.6719640517 532945.21354238689 0 532945.21354238689 -5079554.5041910857 0 0 0 0 1680032.7233567238 1055593.6173095703 0 1055593.6173095703 -4459753.5406112671 0 0 0 0 3862673.6958314115 -1519655.386756897 0 -1519655.386756897 -8091411.0681610107 0 0 0 0 -1220388.4523664713 7720704.0009171963 0 7720704.0009171963 16507912.307151794 0 0 0 0 225302.68676078925 646082.12039772794 0 646082.12039772794 -1106163.9667320251 0 0 0 0 2758381.7266231789 -348230.98740154086 0 -348230.98740154086 -3816617.8383158669 0 0 0 0 64211936.638689995 -38421801.521684647 0 -38421801.521684647 -9152497.1776733398 0 0 0 0 45732226.787793159 -8273262.5125389099 0 -8273262.5125389099 -17265409.242275238 0 0 0 0 19003589.233103752 -13214871.78465271 0 -13214871.78465271 -16505436.273174286 0 0 0 0 59037250.404646873 -11417388.450111389 0 -11417388.450111389 -77703026.169441223 0 0 0 0 40619210.356395006 38195637.938308716 0 38195637.938308716 -158456643.98589325 0 0 0 0 25823673.338984489 39950556.480139732 0 39950556.480139732 -50576844.127563477 0 0 0 0 5336833.8105168343 16683265.819608688 0 16683265.819608688 2523240.0434532166 0 0 0 0 -69049872.589883327 -72864454.481681824 0 -72864454.481681824 -98587286.397162437 0 0 0 0 26525181.422625542 -6637567.2726573944 0 -6637567.2726573944 -287055600.32389832 0 0 0 0 26317251.705018044 20761416.26566124 0 20761416.26566124 -83334547.942189217 0 0 0 0 19249178.055974007 -24951372.39894104 0 -24951372.39894104 -99079016.143501282 0 0 0 0 -19600440.391160488 -24582806.75892067 0 -24582806.75892067 -84310724.0051651 0 0 0 0 -38719402.928286076 22505019.098239899 0 22505019.098239899 -37339001.773815155 0 0 0 0 -20304066.813336968 -38055151.598184586 0 -38055151.598184586 -90037156.733581543 0 0 0 0 -36020876.100958407 -11995561.977172852 0 -11995561.977172852 -18460159.713012695 0 0 0 0 -66525432.360127449 29125725.409690857 0 29125725.409690857 -160744767.31473923 0 0 0 0 95678484.527130604 -184019379.54821301 0 -184019379.54821301 -84344172.408344269 0 0 0 0 25048544.507649869 -74638285.483756065 0 -74638285.483756065 -192242689.28956985 0 0 0 0 13528080.172720909 -88406123.07075119 0 -88406123.07075119 -195545325.76851845 0 0 0 0 -24875715.800641239 -50532415.750797272 0 -50532415.750797272 -205894783.90273666 0 0 0 0 -13726237.061787605 -1939747.0969772339 0 -1939747.0969772339 -7958555.7658166885 0 0 0 0 -43466824.932201385 161523064.79261208 0 161523064.79261208 -232419581.83467102 0 0 0 0 493885.9365481576 136306.53456453793 0 136306.53456453793 -862619.29441824555 0 0 0 0 8152036.5969552994 78082720.163555145 0 78082720.163555145 -98801063.70438385 0 0 0 0 42944671.476941109 114886286.11798477 0 114886286.11798477 -120263817.00335503 0 0 0 0 122203637.15072489 113766783.85304642 0 113766783.85304642 -182875491.20778656 0 0 0 0 160751093.16270208 -8233605.0896091461 0 -8233605.0896091461 -79618544.558291912 0 0 0 0 848807.93981936295 162448.44720776565 0 162448.44720776565 -1626233.6010331064 0 0 0 0 106374831.55859256 46602233.021720886 0 46602233.021720886 -148102941.64322281 0 0 0 0 135515481.73853087 -41390079.507083893 0 -41390079.507083893 -74411068.556293488 0 0 0 0 36209592.398224831 51873041.227243423 0 51873041.227243423 -91899878.84018755 0 0 0 0 50969985.912033081 73056950.800841331 0 73056950.800841331 -138179103.48854065 0 0 0 0 473065.86376070976 94665.714874169789 0 94665.714874169789 -886331.90024603158 0 0 0 0 18526877.054862738 112206608.62863064 0 112206608.62863064 -269454767.6022644 0 0 0 0 -37125877.876582146 -116396104.66690445 0 -116396104.66690445 -228735355.58526182 0 0 0 0 7648984.6824264526 -1265707.4645519257 0 -1265707.4645519257 -27585228.651855469 0 0 0 0 5127898.6274662018 -18572680.312048912 0 -18572680.312048912 -114763429.84055328 0 0 0 0 -69460613.818200111 -41818317.450092316 0 -41818317.450092316 -1416932.2108154297 0 0 0 0 -2422664.085406214 7460000.0649404526 0 7460000.0649404526 -6416074.1159057617 0 0 0 0 27715371.875128746 -20581980.159401894 0 -20581980.159401894 -65796839.038005829 0 0 0 0 -214765.55007752893 -283997.58170056157 0 -283997.58170056157 -1705250.6094650142 0 0 0 0 -846883.19032382965 4287398.5182228088 0 4287398.5182228088 -168693.86345672607 0 0 0 0 4142360.8518853188 86135788.58893013 0 86135788.58893013 -136864651.88075638 0 0 0 0 15674779.317962646 64472601.319223404 0 64472601.319223404 -134564841.51497841 0 0 0 0 6715539.24268502 2789083.775434494 0 2789083.775434494 -5886438.6664848328 0 0 0 0 336062.62785262417 -40470.836527594365 0 -40470.836527594365 -1553000.8621009476 0 0 0 0 -1989206.3266451359 56927017.779588699 0 56927017.779588699 -128152282.15268707 0 0 0 0 4694594.5035939217 74230005.824718475 0 74230005.824718475 -93814861.684158325 0 0 0 0 -83907040.202650189 170899249.23866653 0 170899249.23866653 -277855989.4305687 0 0 0 0 -47957383.710732579 6648964.5793037415 0 6648964.5793037415 -235985808.24874115 0 0 0 0 -14980806.910849124 -78163610.320961952 0 -78163610.320961952 -196312195.38750458 0 0 0 0 -73704949.413157433 -71238739.760009766 0 -71238739.760009766 -24338042.521297455 0 0 0 0 267029.37590021722 45897.447590943426 0 45897.447590943426 -707386.6863168627 0 0 0 0 -11451019.785235167 22935212.120193481 0 22935212.120193481 -28190208.048677444 0 0 0 0 -44242508.243850708 -39213722.929428101 0 -39213722.929428101 -50555470.794334412 0 0 0 0 4132538.2673702538 -25068495.485702515 0 -25068495.485702515 17396336.051254272 0 0 0 0 -1021992.9240704775 16095436.017210007 0 16095436.017210007 -5722506.2154312134 0 0 0 0 -48264931.521177679 7982240.8604799509 0 7982240.8604799509 3125383.4448356628 0 0 0 0 -94009460.993721962 2611148.8369865417 0 2611148.8369865417 2555290.2210674286 0 0 0 0 292564.94505524728 -204525.04145713151 0 -204525.04145713151 -250370.86243214458 0 0 0 0 15798420.212724 -63279873.335121632 0 -63279873.335121632 -65767375.278118134 0 0 0 0 -46576291.449974537 -62700938.228164673 0 -62700938.228164673 -64458884.53157711 0 0 0 0 7160592.7413237095 -13075941.750452042 0 -13075941.750452042 -190569334.10603142 0 0 0 0 -292621.04377595731 -308651.34309684671 0 -308651.34309684671 171057.4290939942 0 0 0 0 -33096975.550048828 -55491536.918210745 0 -55491536.918210745 -60675372.035743713 0 0 0 0 -37900631.074380517 7448187.2229404449 0 7448187.2229404449 -83944260.875835419 0 0 0 0 -20910082.696650431 -29929121.77145195 0 -29929121.77145195 -200548030.45268822 0 0 0 0 16962213.55149442 4320132.6941351891 0 4320132.6941351891 -194242536.08917236 0 0 0 0 21039433.520030461 -42830.008983612061 0 -42830.008983612061 -221025108.04056168 0 0 0 0 -91879526.745607242 119399428.91701126 0 119399428.91701126 -183445889.05813658 0 0 0 0 -59971217.463623166 -28228871.818645477 0 -28228871.818645477 -195067555.36563492 0 0 0 0 -140960732.7560873 20219571.703636169 0 20219571.703636169 -192770130.25885963 0 0 0 0 -145149883.56999475 12935415.804648399 0 12935415.804648399 -164507936.651577 0 0 0 0 393475.85260050534 154258.70885539521 0 154258.70885539521 -662967.99427963421 0 0 0 0 -22564914.35487473 -103141082.00600243 0 -103141082.00600243 -84023669.79857254 0 0 0 0 -5266330.4799985886 14960018.116825104 0 14960018.116825104 -19190576.390110016 0 0 0 0 8013592.4926023483 5973817.0924186707 0 5973817.0924186707 -36209741.244947433 0 0 0 0 26890864.991633534 15184519.105482101 0 15184519.105482101 -26670227.655994415 0 0 0 0 32182897.216132224 4525616.5485591888 0 4525616.5485591888 -5430408.3148345947 0 0 0 0 30737613.473418497 -4082471.532245636 0 -4082471.532245636 -1652419.8927078247 0 0 0 0 649763.33643484954 63451.158555381931 0 63451.158555381931 -1211754.3365594149 0 0 0 0 -38831676.019327521 73536196.222084045 0 73536196.222084045 -126641220.22988892 0 0 0 0 -35301271.700441062 56566934.71632576 0 56566934.71632576 -70200528.16459614 0 0 0 0 -61597473.964586258 81000414.729297638 0 81000414.729297638 -40617757.760322571 0 0 0 0 -6978590.3039932251 50152697.808130264 0 50152697.808130264 -124666743.54746628 0 0 0 0 -55779424.331219733 42059095.612703323 0 42059095.612703323 -23406838.069530487 0 0 0 0 -57412311.966358423 51403703.976518631 0 51403703.976518631 -70028960.348953247 0 0 0 0 8559158.8795022964 5838498.9316120148 0 5838498.9316120148 1964585.6112976074 0 0 0 0 4333591.4410692453 10475279.460039139 0 10475279.460039139 -2507456.0520935059 0 0 0 0 -2312100.1387739182 7877932.7667279243 0 7877932.7667279243 1435291.0129089355 0 0 0 0 7378595.9160580635 8552006.1802711487 0 8552006.1802711487 -6068615.7449798584 0 0 0 0 2909312.07467556 8105497.9570388794 0 8105497.9570388794 8764271.3972930908 0 0 0 0 -69514.191508567892 -168535.96665831655 0 -168535.96665831655 -334725.80318956263 0 0 0 0 2796532.7915706635 8051270.2581710815 0 8051270.2581710815 12016990.402481079 0 0 0 0 8001258.5492973328 7849892.5572357178 0 7849892.5572357178 -5277046.3469085693 0 0 0 0 2281136.7785033346 2370783.6568449121 0 2370783.6568449121 -737376.55631672964 0 0 0 0 65756072.430321574 -3234699.7840671539 0 -3234699.7840671539 -26002804.481165886 0 0 0 0 -43470491.250590086 43120490.450370789 0 43120490.450370789 4614117.8701934814 0 0 0 0 -34340665.308951735 127019917.81981754 0 127019917.81981754 -78939727.977897644 0 0 0 0 27543386.210275412 91723303.890331268 0 91723303.890331268 -60395355.476356506 0 0 0 0 -77731022.871909708 64498983.722158432 0 64498983.722158432 -5430882.1162872314 0 0 0 0 11062.207052268612 -41755.706190619618 0 -41755.706190619618 -301974.28601505607 0 0 0 0 8499944.5702876374 -1767631.2345676422 0 -1767631.2345676422 2515652.6565628052 0 0 0 0 4078034.0908908844 -2790323.2069396973 0 -2790323.2069396973 -13508678.64175415 0 0 0 0 320746.75184361415 -1622476.9590291688 0 -1622476.9590291688 -5164609.265420258 0 0 0 0 12192796.23562026 20735467.655899048 0 20735467.655899048 16326608.830348969 0 0 0 0 21165281.743010342 8560723.185628891 0 8560723.185628891 -4962114.9256057739 0 0 0 0 17899853.533351541 18816984.262506485 0 18816984.262506485 -1451040.8834972382 0 0 0 0 959615.02538013458 14576594.473115921 0 14576594.473115921 934170.02317047119 0 0 0 0 3091340.4068111181 -280747.7448797226 0 -280747.7448797226 30509103.31577301 0 0 0 0 8612814.991689682 13464816.134361267 0 13464816.134361267 -2934260.6713409424 0 0 0 0 4501014.4653914571 -3912707.09582901 0 -3912707.09582901 -21824637.127349854 0 0 0 0 -387866.41591097077 -3373659.2436326183 0 -3373659.2436326183 -386895.77220226824 0 0 0 0 1799321.2477515175 1575840.7891744673 0 1575840.7891744673 -7564404.3559634779 0 0 0 0 6163118.2494645119 7703409.1879863739 0 7703409.1879863739 -345844.40979003906 0 0 0 0 12880247.697738647 7026872.2718105316 0 7026872.2718105316 -11086499.360183716 0 0 0 0 12548263.20484972 5374712.5009155273 0 5374712.5009155273 -10263177.578056335 0 0 0 0 5462371.5193712711 9490726.682144165 0 9490726.682144165 -11730389.758448601 0 0 0 0 1431860.9347159823 2002059.9592214581 0 2002059.9592214581 -8830537.6903063543 0 0 0 0 -10501995.384395063 -9149156.3046627045 0 -9149156.3046627045 -9966590.6700286865 0 0 0 0 9484140.4075266123 11410384.20249176 0 11410384.20249176 -14366497.530448914 0 0 0 0 7399671.4304676056 7376254.2814025879 0 7376254.2814025879 -3404817.8663330078 0 0 0 0 12120657.84743011 8163895.8958015442 0 8163895.8958015442 -9849337.435546875 0 0 0 0 11291644.183098078 6013181.3645915985 0 6013181.3645915985 -12243389.981552124 0 0 0 0 11255394.892022133 4812526.7362060547 0 4812526.7362060547 -7566929.7206344604 0 0 0 0 38161.815621486472 235387.06886720425 0 235387.06886720425 -29443.51163545996 0 0 0 0 9277591.8535733223 7883198.8402729034 0 7883198.8402729034 -13758882.718219757 0 0 0 0 10315933.897486687 5869042.2339019775 0 5869042.2339019775 -10371713.717252731 0 0 0 0 11206843.151293755 7994030.2405509949 0 7994030.2405509949 -11456152.077468872 0 0 0 0 10713738.94605875 5411686.0941772461 0 5411686.0941772461 -12936580.828300476 0 0 0 0 10999324.450189829 5250536.8129167557 0 5250536.8129167557 -12959813.402496338 0 0 0 0 10245112.851892471 3571530.8637733459 0 3571530.8637733459 -16161034.535680771 0 0 0 0 6788928.4201793671 4290728.8555717468 0 4290728.8555717468 -13280214.595824242 0 0 0 0 1321408.7434535027 8240402.6502571106 0 8240402.6502571106 -16076600.179298401 0 0 0 0 6021485.0172495842 11131819.767326355 0 11131819.767326355 -11319205.658893585 0 0 0 0 -1075082.1756978035 5947510.1452493668 0 5947510.1452493668 -5974526.3669700623 0 0 0 0 1074635.1003842517 1095122.757793799 0 1095122.757793799 -184367.37643112242 0 0 0 0 -10302618.188574076 15478948.307770729 0 15478948.307770729 -14219087.219524384 0 0 0 0 1251442.1993860602 7649031.3565115929 0 7649031.3565115929 -20966921.451412201 0 0 0 0 -733278.47766470909 8051468.6473770142 0 8051468.6473770142 -20943567.261899948 0 0 0 0 6312039.9593424797 4238093.4972629547 0 4238093.4972629547 -35221479.36359024 0 0 0 0 7151759.6301698685 694839.8876247406 0 694839.8876247406 -20417677.062042236 0 0 0 0 8553171.614272356 1643228.1387395859 0 1643228.1387395859 -21280250.391231537 0 0 0 0 8364828.6591239572 3527318.6823859215 0 3527318.6823859215 -22768232.409622192 0 0 0 0 6924326.7415757179 -10165333.070026398 0 -10165333.070026398 -34218478.751625061 0 0 0 0 6953961.4270918556 -5940548.3947436363 0 -5940548.3947436363 -21973778.25062561 0 0 0 0 12961276.867268562 -4776346.3619976044 0 -4776346.3619976044 -29496738.060539246 0 0 0 0 15127651.094663978 -7901976.6339831352 0 -7901976.6339831352 -58725486.629264832 0 0 0 0 15232415.759521008 -21382827.471101761 0 -21382827.471101761 12442541.715934753 0 0 0 0 866163.1155727976 40136.453936945647 0 40136.453936945647 -1869099.8043652507 0 0 0 0 -8353163.1862239838 -23101370.856891632 0 -23101370.856891632 -28776121.891397476 0 0 0 0 1115569.1870249002 -1667181.3370409068 0 -1667181.3370409068 -1474439.4057230502 0 0 0 0 6031669.9595117569 -10089792.139406204 0 -10089792.139406204 -25982834.705341339 0 0 0 0 282004.84177207947 -12557153.013237953 0 -12557153.013237953 -15900946.973331451 0 0 0 0 42618452.837114334 -883188.91175842285 0 -883188.91175842285 -30555655.644920349 0 0 0 0 5317752.5379325068 -5788164.8420066703 0 -5788164.8420066703 -3020951.0160554908 0 0 0 0 78577390.624744534 151180856.94783115 0 151180856.94783115 -313477723.49984741 0 0 0 0 75509988.748357773 -27674649.403079987 0 -27674649.403079987 -9483258.1436004639 0 0 0 0 2579646.4203472752 2068498.9010847677 0 2068498.9010847677 -12062599.190626055 0 0 0 0 -210143092.91428852 -55651762.000377655 0 -55651762.000377655 230008695.57988548 0 0 0 0 -590589380.73998642 -5137060.2152786255 0 -5137060.2152786255 -211223912.64098358 0 0 0 0 3357700.7397069931 -303389404.69372368 0 -303389404.69372368 -104168921.8651123 0 0 0 0 -5128693.4248352051 -13020338.757118225 0 -13020338.757118225 -5028121.1293954849 0 0 0 0 4545473.1460197214 -6888429.4051200803 0 -6888429.4051200803 -3286185.7986830985 0 0 0 0 -8367581.5304812491 -19020122.307023168 0 -19020122.307023168 18751569.562469482 0 0 0 0 -8459472.9105548859 -16450714.164527893 0 -16450714.164527893 19165221.87827301 0 0 0 0 9291018.4455924034 -5525854.5805416107 0 -5525854.5805416107 -19281737.751429081 0 0 0 0 5321123.1154613495 -8471567.6227002144 0 -8471567.6227002144 -18868695.037094116 0 0 0 0 11292897.253415108 -6862478.3311462402 0 -6862478.3311462402 -19466429.551841736 0 0 0 0 2744385.1984247901 -2853094.5920370417 0 -2853094.5920370417 -11636845.6882229 0 0 0 0 8826916.3117873669 -3686587.1567363739 0 -3686587.1567363739 -12856121.478366852 0 0 0 0 13125249.12108326 2566310.585849762 0 2566310.585849762 -16738935.111459732 0 0 0 0 9624869.4058971405 -3669367.0996055603 0 -3669367.0996055603 -22241283.116786957 0 0 0 0 7707653.3014836311 -5647269.3783969879 0 -5647269.3783969879 -23312317.423656464 0 0 0 0 9860175.6133146286 233992.2421131134 0 233992.2421131134 -19761635.829421997 0 0 0 0 9938543.94474338 1960091.6437150836 0 1960091.6437150836 -15410620.75365448 0 0 0 0 12228276.301625729 2807393.823764801 0 2807393.823764801 -16883710.923034668 0 0 0 0 8455799.6661564708 4311511.7906255722 0 4311511.7906255722 -16201433.037338257 0 0 0 0 1891318.7390927791 -396071.17977933795 0 -396071.17977933795 -11107399.392980602 0 0 0 0 13799091.635891318 1558431.8433580399 0 1558431.8433580399 -15307757.074157715 0 0 0 0 12215476.137563229 1807148.5359573364 0 1807148.5359573364 -11952543.383055925 0 0 0 0 12365743.679905891 2305079.4839172363 0 2305079.4839172363 -10553891.474658966 0 0 0 0 10017468.807157069 -5181557.9150993824 0 -5181557.9150993824 -17990163.305526733 0 0 0 0 1964726.1428602927 -1846963.3911674805 0 -1846963.3911674805 -3694489.8373143598 0 0 0 0 12012706.32121563 -35191971.628044128 0 -35191971.628044128 -3455931.4937171936 0 0 0 0 17416945.802123308 -11570754.271522522 0 -11570754.271522522 -4608190.8503341675 0 0 0 0 48852045.104386806 -1709461.2496643066 0 -1709461.2496643066 -1594074.1131515503 0 0 0 0 138841540.71078539 25090869.219615936 0 25090869.219615936 -22753803.302242279 0 0 0 0 62051048.718801618 -54477956.47815609 0 -54477956.47815609 -13063279.586151123 0 0 0 0 89434331.344979286 -65914326.819393158 0 -65914326.819393158 -45845761.451721191 0 0 0 0 -2356445.8768007755 -41451201.087547302 0 -41451201.087547302 -10918486.178627014 0 0 0 0 513579.2892768993 -554998.82801382802 0 -554998.82801382802 -1011930.6715141647 0 0 0 0 83203234.024490356 -69333253.469646454 0 -69333253.469646454 -11259193.367058575 0 0 0 0 74183304.485702962 12543372.216842175 0 12543372.216842175 -8742660.0852966309 0 0 0 0 -1266014.7285327911 -7576607.3746948242 0 -7576607.3746948242 -10572256.15789032 0 0 0 0 49773543.315080643 -12910850.168525696 0 -12910850.168525696 -11088863.312695026 0 0 0 0 16504201.032039881 3766044.138705492 0 3766044.138705492 -4926118.8983078003 0 0 0 0 131838102.89748192 4163147.1289672852 0 4163147.1289672852 -47354758.091450214 0 0 0 0 46769036.309619665 -30539646.427945614 0 -30539646.427945614 -52548615.925262451 0 0 0 0 16483592.01057148 76900166.958770752 0 76900166.958770752 49419693.566855431 0 0 0 0 89812693.783245146 -157270248.6453557 0 -157270248.6453557 -29238359.186004639 0 0 0 0 70187357.818504333 -50257738.058837891 0 -50257738.058837891 12844229.03060627 0 0 0 0 146139.03162616002 -1325623.3940068204 0 -1325623.3940068204 -1271976.1843022024 0 0 0 0 59607256.622783422 35996492.543327332 0 35996492.543327332 16073991.005962372 0 0 0 0 -55487842.556412697 -37473861.730075836 0 -37473861.730075836 -21191049.869701385 0 0 0 0 -31739122.760116577 14940021.701133728 0 14940021.701133728 12757800.14100647 0 0 0 0 4933.9202867519343 -159987.07470855489 0 -159987.07470855489 -299994.16749032587 0 0 0 0 -300804548.63333726 -98908378.492973328 0 -98908378.492973328 92240322.043411255 0 0 0 0 31018.960346668217 -111710.63833328267 0 -111710.63833328267 -324801.13856287301 0 0 0 0 49181614.348870516 -21865829.09986496 0 -21865829.09986496 -62134170.359909058 0 0 0 0 -60162988.31902504 -65404197.734546661 0 -65404197.734546661 -23661501.262058258 0 0 0 0 -75155056.028298616 6756801.9305725098 0 6756801.9305725098 -68358496.385093689 0 0 0 0 -1645578.399736762 4441241.5365524292 0 4441241.5365524292 15706800.636642456 0 0 0 0 3128952.0959022045 -3605463.8070888519 0 -3605463.8070888519 -824672.15660858154 0 0 0 0 857961.16431927681 -6310950.8362445831 0 -6310950.8362445831 3693490.3670349121 0 0 0 0 -691617.11992961215 -1138956.0688024461 0 -1138956.0688024461 357394.65299343877 0 0 0 0 -13994608.712750912 7114228.6946411133 0 7114228.6946411133 37739952.979118347 0 0 0 0 188801.03169869585 -565062.91444076318 0 -565062.91444076318 -1091193.2059768178 0 0 0 0 -128421592.27725458 -24381160.552467346 0 -24381160.552467346 38671892.750343323 0 0 0 0 -94103.604208856821 -44989.448908852413 0 -44989.448908852413 2337.9015909172595 0 0 0 0 -72219091.625488758 -13637954.416713715 0 -13637954.416713715 49205718.693996429 0 0 0 0 -83788266.121293068 -50952248.155738831 0 -50952248.155738831 -61527121.240966797 0 0 0 0 -29493749.009943485 -16893180.47952652 0 -16893180.47952652 7875605.1043624878 0 0 0 0 88495094.219986022 43836364.620287418 0 43836364.620287418 -43985585.887390137 0 0 0 0 -409791.32771601051 -866264.59906186746 0 -866264.59906186746 499241.90455546603 0 0 0 0 -84825266.599871635 19398141.880607605 0 19398141.880607605 11976421.368812561 0 0 0 0 -36126940.244402885 -76965326.679450989 0 -76965326.679450989 -14849741.743629456 0 0 0 0 -75666585.075499535 158419196.04441071 0 158419196.04441071 -59403030.892364502 0 0 0 0 -9846030.258728981 -36789097.357048035 0 -36789097.357048035 -3524975.2486877441 0 0 0 0 -17316677.413561821 -14022822.113090515 0 -14022822.113090515 927750.42465209961 0 0 0 0 -6665874.9465749264 -20175636.416687012 0 -20175636.416687012 -20271555.149581909 0 0 0 0 -7479837.2616553307 -19159219.344392776 0 -19159219.344392776 -7502908.096824646 0 0 0 0 -11531243.262673378 -11989946.46661377 0 -11989946.46661377 25809647.956542969 0 0 0 0 -25920593.307333946 -1967080.9903106689 0 -1967080.9903106689 18934694.220703125 0 0 0 0 -20028744.247394562 -35604922.237602234 0 -35604922.237602234 -34379242.661399841 0 0 0 0 -67275274.554039001 -34083891.833786011 0 -34083891.833786011 -1643825.4822235107 0 0 0 0 1962235.9068980217 -4770933.3608779907 0 -4770933.3608779907 -36950759.147656679 0 0 0 0 -45084298.911508858 16067855.39520216 0 16067855.39520216 4927121.9176177979 0 0 0 0 -25707415.589338779 -35767805.26132679 0 -35767805.26132679 -20725316.829017639 0 0 0 0 708986.53193787835 -736647.62048541568 0 -736647.62048541568 -379801.85787945986 0 0 0 0 11369820.602581024 -14973504.646724701 0 -14973504.646724701 5430600.7122135162 0 0 0 0 5463329.7346123736 -4466760.0446922835 0 -4466760.0446922835 -1763122.3529494125 0 0 0 0 3990764.5287656784 -20387856.778972626 0 -20387856.778972626 3189688.094455719 0 0 0 0 52808634.365637779 51462554.83380127 0 51462554.83380127 -44489732.692047119 0 0 0 0 -13205906.29256916 5249952.7730865479 0 5249952.7730865479 54134358.298557281 0 0 0 0 12315814.738326073 -8728036.2700901031 0 -8728036.2700901031 18747832.431240082 0 0 0 0 63992724.442426205 -14018656.409763336 0 -14018656.409763336 1171431.8605880737 0 0 0 0 16580574.399564266 -32764332.726863861 0 -32764332.726863861 7513915.010925293 0 0 0 0 39956196.967320263 -26750153.603409529 0 -26750153.603409529 -3663462.377532959 0 0 0 0 -119394.28929166107 -318201.70396665623 0 -318201.70396665623 104454.20075083524 0 0 0 0 -38587820.641444683 -38130109.423187256 0 -38130109.423187256 86210914.109893799 0 0 0 0 -73589779.412576199 -102505517.68824005 0 -102505517.68824005 50907634.256547928 0 0 0 0 5225521.3136091232 -13853429.321136475 0 -13853429.321136475 920381.86750602722 0 0 0 0 15240589.008056045 -10791262.558242798 0 -10791262.558242798 -18450755.980239868 0 0 0 0 -707822.41685724258 -9696922.2421150208 0 -9696922.2421150208 -2553615.3560717106 0 0 0 0 34410883.707781911 -19350759.883789062 0 -19350759.883789062 -2443734.1246185303 0 0 0 0 13139997.534567252 8886523.2514457703 0 8886523.2514457703 -1842453.6248168945 0 0 0 0 22435789.098064661 6916101.8907089233 0 6916101.8907089233 -1797686.0852508545 0 0 0 0 13111620.266382277 1183432.3317708969 0 1183432.3317708969 -18350864.751571655 0 0 0 0 -1207350.8722112179 3042055.8986167908 0 3042055.8986167908 -253243.56242656708 0 0 0 0 7332093.7650125027 4133433.8201160431 0 4133433.8201160431 -35209551.650005341 0 0 0 0 8613427.4729087353 -12447387.476579666 0 -12447387.476579666 -44118737.203102112 0 0 0 0 -1687589.8816225529 -1547612.6770687103 0 -1547612.6770687103 -16843732.111953735 0 0 0 0 3326723.8060032926 -4315705.2013753746 0 -4315705.2013753746 186484.73178337328 0 0 0 0 -25687665.315618992 -14333687.353286743 0 -14333687.353286743 -18757359.316017151 0 0 0 0 30673930.174240589 -25179793.588294983 0 -25179793.588294983 -75600774.48897934 0 0 0 0 -28765112.425768375 -14532042.328722 0 -14532042.328722 49008783.553085327 0 0 0 0 26002605.012607813 3174425.3450546265 0 3174425.3450546265 21942663.886722565 0 0 0 0 1490630.6522258553 -3697459.0600932557 0 -3697459.0600932557 395073.61148103606 0 0 0 0 -17618525.235165596 27287400.905139923 0 27287400.905139923 60679836.061536789 0 0 0 0 -10527978.765703678 23981954.67698288 0 23981954.67698288 625359.54986572266 0 0 0 0 -12030624.20484075 -8041355.1344229579 0 -8041355.1344229579 -9535347.106880188 0 0 0 0 -64335149.227896929 -20915669.26461792 0 -20915669.26461792 -7429688.3327102661 0 0 0 0 -38804474.854245186 7243280.6698570251 0 7243280.6698570251 22364855.451907158 0 0 0 0 -6728606.4081366062 -15685222.191488266 0 -15685222.191488266 -7630421.9865570068 0 0 0 0 -3393057.5678215027 -35394983.041229248 0 -35394983.041229248 -13427694.1033535 0 0 0 0 -29434394.571244955 -23106671.527134895 0 -23106671.527134895 -9855704.7159004211 0 0 0 0 203512.15291595459 -25729819.02431488 0 -25729819.02431488 7792967.4812088013 0 0 0 0 15826373.186191559 -27914363.035484314 0 -27914363.035484314 6883091.1787796021 0 0 0 0 610863.13428688049 -31300126.671535492 0 -31300126.671535492 9870298.1314926147 0 0 0 0 -592548.75575637817 -15433110.400352478 0 -15433110.400352478 20855506.138167381 0 0 0 0 -14830094.60587883 -21190090.784755707 0 -21190090.784755707 21989149.934417725 0 0 0 0 -33041851.143550396 -22203858.505060196 0 -22203858.505060196 22379719.996696472 0 0 0 0 18887696.568351746 9944886.4663829803 0 9944886.4663829803 -16801016.027587891 0 0 0 0 47679496.26510334 -5987908.1364364624 0 -5987908.1364364624 -21126575.779083252 0 0 0 0 2598822.8017520905 -3172097.4780368805 0 -3172097.4780368805 -10873671.022392273 0 0 0 0 5590972.4495487213 7328437.6969680786 0 7328437.6969680786 -16140241.049751282 0 0 0 0 4800171.4707574844 -7205273.9183158875 0 -7205273.9183158875 -8940925.515537262 0 0 0 0 47134325.84305954 -35878764.539524078 0 -35878764.539524078 -5635645.1755180359 0 0 0 0 13428989.009046555 -20794987.794708252 0 -20794987.794708252 -12300243.261501312 0 0 0 0 7348653.5879645348 -44613117.812925816 0 -44613117.812925816 20253534.592758179 0 0 0 0 61349900.934557915 -2404090.9112663269 0 -2404090.9112663269 -17136610.370376587 0 0 0 0 68696552.288931847 -52234883.959785461 0 -52234883.959785461 -6358587.2569332123 0 0 0 0 74146.285649877042 612557.94703730755 0 612557.94703730755 -1910123.0655783862 0 0 0 0 48727445.818473816 -55865501.57566452 0 -55865501.57566452 5252460.426214695 0 0 0 0 4049931.7078075409 9592331.4059791565 0 9592331.4059791565 -16673385.845722198 0 0 0 0 -5536012.688164711 4739224.542881012 0 4739224.542881012 -9893696.012588501 0 0 0 0 3401240.0561515503 3381738.4997215271 0 3381738.4997215271 -14413133.336788177 0 0 0 0 4233123.5561867561 237778.72598373611 0 237778.72598373611 -8830684.8593758456 0 0 0 0 222978.54798934981 1742831.3709449768 0 1742831.3709449768 -8881672.0132064819 0 0 0 0 4499557.3956435015 -2128008.2006187439 0 -2128008.2006187439 -10186324.864746094 0 0 0 0 3840004.7269727206 -380377.07464027405 0 -380377.07464027405 -14644300.687469482 0 0 0 0 158131.93342279512 421902.82880855724 0 421902.82880855724 -1388272.3212557659 0 0 0 0 3782423.3529690076 -1860957.0877475739 0 -1860957.0877475739 -5981964.3791809082 0 0 0 0 551104.88682901859 1599724.6375198364 0 1599724.6375198364 -6661972.3140106201 0 0 0 0 27004.461163428419 -782622.99629901908 0 -782622.99629901908 138350.69310606644 0 0 0 0 3772369.23731858 2185789.0934867859 0 2185789.0934867859 -6852615.709197998 0 0 0 0 -2158745.9517496359 -7992405.9693174362 0 -7992405.9693174362 1353134.3413162231 0 0 0 0 8836.238942839107 -3751.9833827875555 0 -3751.9833827875555 -9005.2520951218903 0 0 0 0 -221096.40290188789 -9533000.0026550293 0 -9533000.0026550293 1271410.4308419228 0 0 0 0 2720856.6144754095 -6189646.840763092 0 -6189646.840763092 -8776349.490814209 0 0 0 0 3907343.2482451648 2422076.4150848389 0 2422076.4150848389 -9777139.8331313133 0 0 0 0 1019478.6291083992 -2959871.9325866699 0 -2959871.9325866699 -8957362.0898895264 0 0 0 0 3556607.3332334086 -3091319.619758606 0 -3091319.619758606 -9928586.784538269 0 0 0 0 5714680.5389983654 -3375764.0898361206 0 -3375764.0898361206 -10829171.86756897 0 0 0 0 -3970903.5241731592 5666824.5554504395 0 5666824.5554504395 -11960186.306365967 0 0 0 0 -752810.96105732024 10115415.809185028 0 10115415.809185028 -16712937.529327393 0 0 0 0 10892074.646867305 42620.79248046875 0 42620.79248046875 -11951751.707962036 0 0 0 0 4695196.4444380105 311930.78929138184 0 311930.78929138184 -10236440.745178223 0 0 0 0 402924.76262892038 5676676.5378265381 0 5676676.5378265381 -11057181.512756348 0 0 0 0 833968.51240481273 -1139159.479957819 0 -1139159.479957819 -8449520.7597351074 0 0 0 0 6009704.7991229594 5425024.7165527344 0 5425024.7165527344 -7791246.0715026855 0 0 0 0 4858101.4846354276 2736234.2543754578 0 2736234.2543754578 -13196440.675201416 0 0 0 0 786309.96705375565 664097.70456171036 0 664097.70456171036 -3521001.0051879883 0 0 0 0 195314.98550413593 64717.003539273515 0 64717.003539273515 -253057.3396936059 0 0 0 0 27832850.345812887 -8589390.3863525391 0 -8589390.3863525391 -7407046.9369907379 0 0 0 0 13092993.433156148 5053405.5545349121 0 5053405.5545349121 -1725041.4579467773 0 0 0 0 4421.5298794946357 -35030.898571642116 0 -35030.898571642116 -157897.9692701418 0 0 0 0 8479239.6558071449 -1635662.2176971436 0 -1635662.2176971436 -8469135.6624450684 0 0 0 0 11995415.815400895 -9045229.6283111572 0 -9045229.6283111572 -6081477.297088623 0 0 0 0 12160299.944148794 -15457569.352127075 0 -15457569.352127075 8994257.1159057617 0 0 0 0 4910160.6830272973 -6825496.6536102295 0 -6825496.6536102295 -1155796.2542266846 0 0 0 0 479947.49441466853 1586725.8157463074 0 1586725.8157463074 -16067722.83417511 0 0 0 0 -449288.70680869743 4439773.0954933167 0 4439773.0954933167 -16125040.503303528 0 0 0 0 2474662.6921448708 -2226817.6638565063 0 -2226817.6638565063 -2195651.3466072083 0 0 0 0 1306198.1554115573 553936.50946604647 0 553936.50946604647 -1735672.6524941213 0 0 0 0 2237456.4147141017 8251253.1408538818 0 8251253.1408538818 -23118105.128051758 0 0 0 0 1615015.4654327184 -3506308.836730957 0 -3506308.836730957 -21822337.480941772 0 0 0 0 1642052.1212941706 4346182.4785308838 0 4346182.4785308838 -17839264.187007904 0 0 0 0 2904224.1536846161 288190.39095306396 0 288190.39095306396 -4240321.6147117615 0 0 0 0 1001630.8417960985 -3327131.8917708397 0 -3327131.8917708397 -8689807.326713562 0 0 0 0 1937891.9734588112 1139093.1042230111 0 1139093.1042230111 -2879938.9937102385 0 0 0 0 3202757.159922123 -788283.16606140137 0 -788283.16606140137 -5274051.8219490051 0 0 0 0 2547896.3455289379 1426517.886089325 0 1426517.886089325 -9356386.9133148193 0 0 0 0 8174816.8864311241 -5830322.2248039246 0 -5830322.2248039246 -5095449.5879211426 0 0 0 0 4179439.7025048006 -2622937.2796389796 0 -2622937.2796389796 -6619358.1829489022 0 0 0 0 793320.65680404147 -2037081.7486553192 0 -2037081.7486553192 -6422392.1825866699 0 0 0 0 5938215.1062402725 -5131927.8707962036 0 -5131927.8707962036 -11364058.305971146 0 0 0 0 24409495.738768578 -14982275.676235199 0 -14982275.676235199 -9263641.5013122559 0 0 0 0 4478652.8744271668 -3883470.1437372733 0 -3883470.1437372733 -5842238.1170515027 0 0 0 0 3763702.2679464817 322439.69236183167 0 322439.69236183167 -6130374.4263458252 0 0 0 0 3886718.3283674717 1233759.2561721802 0 1233759.2561721802 -22751171.497001648 0 0 0 0 3976867.4374608994 -434690.8335609436 0 -434690.8335609436 -8015031.5473175049 0 0 0 0 1923485.0892744064 -7430934.2906837463 0 -7430934.2906837463 -10409371.316768646 0 0 0 0 2257131.8625313044 -4880135.3357858658 0 -4880135.3357858658 823098.70540618896 0 0 0 0 2108291.9834342003 -1403063.0178184509 0 -1403063.0178184509 -3997566.2612915039 0 0 0 0 3281738.0730962753 -3062551.3232688904 0 -3062551.3232688904 -4540759.8121643066 0 0 0 0 -792184.82802655955 -1793464.9435111899 0 -1793464.9435111899 -1335943.49462552 0 0 0 0 -735039.30888691172 -6308422.0878298879 0 -6308422.0878298879 510035.06695556641 0 0 0 0 -1778017.6307892799 -9457038.4776687622 0 -9457038.4776687622 2598892.7489547729 0 0 0 0 -790932.86696100235 -3774391.0853424072 0 -3774391.0853424072 7623166.4366226196 0 0 0 0 -1087696.8835350454 -1319406.6247453354 0 -1319406.6247453354 231365.5326143913 0 0 0 0 164497.78296756744 108726.34643554688 0 108726.34643554688 979534.57592201233 0 0 0 0 -436896.37503237207 -424755.45931446925 0 -424755.45931446925 -150665.68227481097 0 0 0 0 -499568.79005966219 -512482.07522313483 0 -512482.07522313483 -378114.45928008482 0 0 0 0 6201838.0628311485 -913939.47776412964 0 -913939.47776412964 -1663132.8223075867 0 0 0 0 21808147.211287826 -11139172.472156525 0 -11139172.472156525 -35461171.087528229 0 0 0 0 -62279564.483098485 93866189.564548969 0 93866189.564548969 71434275.025100708 0 0 0 0 5579333.4348010421 -135812140.58308458 0 -135812140.58308458 35333428.623680115 0 0 0 0 58831745.905645847 83647337.690288544 0 83647337.690288544 -13890104.812244415 0 0 0 0 -177934.10261125775 -109362.86720695347 0 -109362.86720695347 -136040.16411168873 0 0 0 0 -16842143.268253125 1619447.0037918091 0 1619447.0037918091 8907607.4581985474 0 0 0 0 23888947.361400656 89124047.708034515 0 89124047.708034515 -116442935.6452713 0 0 0 0 6239826.5404257774 -178602.43424606323 0 -178602.43424606323 -13174612.859714508 0 0 0 0 -31055611.28707632 24354125.567237854 0 24354125.567237854 -14528807.425834656 0 0 0 0 -305053.08702155249 525273.27945804596 0 525273.27945804596 -14858460.001564026 0 0 0 0 -1335060.5112165958 -802920.95844650269 0 -802920.95844650269 -8337821.2753982544 0 0 0 0 -2289533.4792160317 -692338.15804862976 0 -692338.15804862976 -2038778.7094345093 0 0 0 0 5427758.5057694912 -10709293.850402832 0 -10709293.850402832 1386331.2188663483 0 0 0 0 3259832.4403829575 -3494340.3508529663 0 -3494340.3508529663 -3050068.0978851318 0 0 0 0 7634179.2178692073 -10685401.917327881 0 -10685401.917327881 927485.75523376465 0 0 0 0 -469650.33365431678 -1744204.6810384337 0 -1744204.6810384337 -1489293.7216246091 0 0 0 0 -1929485.969113782 -1252708.3018798828 0 -1252708.3018798828 1529396.3567199707 0 0 0 0 3706344.3094909173 1958845.678571701 0 1958845.678571701 -7171893.5495758057 0 0 0 0 636448.79723550007 -5664042.2002620697 0 -5664042.2002620697 478960.87924194336 0 0 0 0 15654478.01650469 -8668659.4130630493 0 -8668659.4130630493 -2005199.7803955078 0 0 0 0 7474264.6332002431 -11556241.462761879 0 -11556241.462761879 14954166.880615234 0 0 0 0 8473190.5988096595 2106562.7325935364 0 2106562.7325935364 11186384.160247803 0 0 0 0 6406603.6686718799 -2967771.0816078186 0 -2967771.0816078186 -1172529.4508209229 0 0 0 0 -881782.13870916516 -2829000.5841369629 0 -2829000.5841369629 5268554.4564361572 0 0 0 0 -421858.04943272471 -1912104.9670410156 0 -1912104.9670410156 -4057002.3702011108 0 0 0 0 -4396264.358666528 154312.70100402832 0 154312.70100402832 -806682.37744903564 0 0 0 0 -229406.34625277668 1334174.9916152954 0 1334174.9916152954 -7345458.4086227417 0 0 0 0 -4710966.2909713313 1528860.2500915527 0 1528860.2500915527 -6416914.8814163208 0 0 0 0 -3277168.5648509618 3422095.2445631027 0 3422095.2445631027 -11392215.437728882 0 0 0 0 -4830944.0189605355 12053808.410841942 0 12053808.410841942 -21006273.893051147 0 0 0 0 -7983815.432371879 7700195.3610267639 0 7700195.3610267639 -11396537.132036243 0 0 0 0 -9221571.1323589515 16707379.998710632 0 16707379.998710632 -21243718.190727234 0 0 0 0 -8762466.6894598864 5452673.5512237549 0 5452673.5512237549 -5322904.4325485229 0 0 0 0 -4766855.5040094759 7584668.2903213501 0 7584668.2903213501 -17414082.282188416 0 0 0 0 -13447732.195076697 6136240.6053504944 0 6136240.6053504944 -9628866.2763223648 0 0 0 0 -6089930.2484520292 12455601.385211945 0 12455601.385211945 -26834743.623970032 0 0 0 0 -14102664.152727934 39347108.826127052 0 39347108.826127052 -57208277.172210693 0 0 0 0 -3120217.1770985839 20188862.723341465 0 20188862.723341465 -43281085.761604309 0 0 0 0 6251940.4563053763 14811123.608640671 0 14811123.608640671 -65033829.682025909 0 0 0 0 1201989.1690695081 10410474.452461243 0 10410474.452461243 -48438679.142417908 0 0 0 0 6885010.7087993603 14024367.567996979 0 14024367.567996979 -92969969.171573639 0 0 0 0 4193119.5811709445 7274466.6095695496 0 7274466.6095695496 -62323019.653148651 0 0 0 0 4167671.3858778281 7913251.079498291 0 7913251.079498291 -44959246.4945786 0 0 0 0 16154.488520581281 -197023.27956390381 0 -197023.27956390381 -59597669.51877594 0 0 0 0 609076.29719039332 11596726.041790009 0 11596726.041790009 -45391946.352491856 0 0 0 0 -11005.068415592825 3199087.0871944427 0 3199087.0871944427 -25437053.927726746 0 0 0 0 277636.72225900367 7319341.4941234589 0 7319341.4941234589 -27296259.57730484 0 0 0 0 -3914169.747882301 3701278.1011381149 0 3701278.1011381149 -11157087.688705444 0 0 0 0 -2834111.9116715672 5162610.1718330383 0 5162610.1718330383 -17494803.332454681 0 0 0 0 -1620523.9840016877 8072034.0621643066 0 8072034.0621643066 -22888700.918075562 0 0 0 0 1650.7865978839416 2206286.0519194137 0 2206286.0519194137 -13082130.054092407 0 0 0 0 -2162375.8291673479 3304768.3634567261 0 3304768.3634567261 -9977197.7541389465 0 0 0 0 236968.8194678186 561456.06615447998 0 561456.06615447998 -5336971.1447963715 0 0 0 0 118.04100259940856 393.84661306068301 0 393.84661306068301 -6057.0994627084583 0 0 0 0 531984.50730750989 -944838.76591873169 0 -944838.76591873169 -8088727.4589080811 0 0 0 0 -605517.23251391924 2637549.1054382324 0 2637549.1054382324 -11703132.59539032 0 0 0 0 -688338.47701366618 -1794297.3411178589 0 -1794297.3411178589 -6145921.0421142578 0 0 0 0 -757750.82538162544 -770692.40774536133 0 -770692.40774536133 -7115273.1825275421 0 0 0 0 107535.40523482487 -1408564.0711631775 0 -1408564.0711631775 -6063602.635017395 0 0 0 0 -3110021.3644261416 171805.38259887695 0 171805.38259887695 -5826601.4540710449 0 0 0 0 687941.07285648026 -201554.26696777344 0 -201554.26696777344 -5846100.2649860382 0 0 0 0 888189.25339487195 -4963931.3157348633 0 -4963931.3157348633 -3666067.4321746826 0 0 0 0 4291449.721256448 -8421716.7998409271 0 -8421716.7998409271 -408059.23405456543 0 0 0 0 160204.18597031385 -5388026.3915252686 0 -5388026.3915252686 -1442871.713722229 0 0 0 0 -2094729.0569099933 -1987437.467338562 0 -1987437.467338562 -5500699.531539917 0 0 0 0 1715170.7361873165 -4177125.5424575806 0 -4177125.5424575806 -4468268.25050354 0 0 0 0 2767638.9006195068 -4054807.792257309 0 -4054807.792257309 -7401907.7454833984 0 0 0 0 5219552.265258193 -6780691.8384661674 0 -6780691.8384661674 -6099738.7567443848 0 0 0 0 2903486.727137804 -4189511.9541625977 0 -4189511.9541625977 -8371322.3098754883 0 0 0 0 2437191.4878124539 947698.91017341614 0 947698.91017341614 -11041878.977027893 0 0 0 0 18241.30637647265 -11007.123283199966 0 -11007.123283199966 -20020.675157383084 0 0 0 0 3282882.4190919399 -840015.61393737793 0 -840015.61393737793 -9669110.0898571014 0 0 0 0 2655844.044465296 -3273680.9313011169 0 -3273680.9313011169 -6895520.682434082 0 0 0 0 2841162.9667927437 -3342889.1607208252 0 -3342889.1607208252 -7889384.3830871582 0 0 0 0 2753965.2087871358 -2386082.163772583 0 -2386082.163772583 -7784871.8648681641 0 0 0 0 2634405.2018456571 -2383001.3130340576 0 -2383001.3130340576 -4456941.2001342773 0 0 0 0 1909596.959953256 625654.55129241943 0 625654.55129241943 -5683859.5305557251 0 0 0 0 3550844.4251780771 -2558046.7822189331 0 -2558046.7822189331 -4685163.0162200928 0 0 0 0 1723558.269266054 1123715.0018615723 0 1123715.0018615723 -1105215.4524536133 0 0 0 0 -2325115.513517465 -1059887.7392501831 0 -1059887.7392501831 -2783351.2683563232 0 0 0 0 -710.08542585835312 -1424.2504740841687 0 -1424.2504740841687 -1976.8155913120136 0 0 0 0 3902447.1041808501 -4934248.015045166 0 -4934248.015045166 -3894380.8023376465 0 0 0 0 -449476.35715951398 683654.59883117676 0 683654.59883117676 -2155444.0452804565 0 0 0 0 3596798.6392657249 -1069995.5786514282 0 -1069995.5786514282 -5207081.3732910156 0 0 0 0 218504.82489639521 -1973994.4485855103 0 -1973994.4485855103 -5360767.4702529907 0 0 0 0 -2694501.1081794873 3554253.6481628418 0 3554253.6481628418 2456982.0257873535 0 0 0 0 5068526.8665766492 -1245439.6511993408 0 -1245439.6511993408 -5306513.720123291 0 0 0 0 627808.45337689016 -5909588.9498901367 0 -5909588.9498901367 3445981.9729561806 0 0 0 0 8177.3963537447835 -5869.8540008235723 0 -5869.8540008235723 -10500.560682045296 0 0 0 0 1549284.478907336 6436585.2687416077 0 6436585.2687416077 -22172200.40662384 0 0 0 0 3138881.0370569527 625479.38996124268 0 625479.38996124268 -15893389.98368454 0 0 0 0 581544.13129464258 -540432.03576660156 0 -540432.03576660156 -10497697.19543457 0 0 0 0 -2485592.1969146831 4850302.2750740051 0 4850302.2750740051 -15372952.962944031 0 0 0 0 -423576.60856193211 761699.62351989746 0 761699.62351989746 -12020154.808120728 0 0 0 0 3847936.7332028169 1258595.3009643555 0 1258595.3009643555 -16212419.184238434 0 0 0 0 2004173.0202162145 2417003.6569328308 0 2417003.6569328308 -12266431.716217041 0 0 0 0 2207140.1076115305 868352.76121520996 0 868352.76121520996 -19268349.061706543 0 0 0 0 57578.038396954536 3334703.2417926788 0 3334703.2417926788 -13135888.289466858 0 0 0 0 1705687.7455720194 1133962.5589141846 0 1133962.5589141846 -15186787.281350613 0 0 0 0 1637543.640567597 1866581.6907577515 0 1866581.6907577515 -12605250.911819458 0 0 0 0 1269895.7792387917 3004012.538646698 0 3004012.538646698 -12205549.462364197 0 0 0 0 1295288.680962353 97928.818477630615 0 97928.818477630615 -11639239.418374062 0 0 0 0 1991.3571105107499 2063506.6306924182 0 2063506.6306924182 -9759490.6035842896 0 0 0 0 1097120.7505119708 794703.31050109863 0 794703.31050109863 -8888234.8183860779 0 0 0 0 462.4761717444552 1374654.7659596764 0 1374654.7659596764 -7173332.6112442017 0 0 0 0 3280332.2564888494 -6747312.5568656921 0 -6747312.5568656921 -1210096.2836494446 0 0 0 0 1803972.8526353915 503684.09214782715 0 503684.09214782715 -7975517.8683166504 0 0 0 0 939852.74621110992 1307617.7797384262 0 1307617.7797384262 -8488361.2338180542 0 0 0 0 14172573.83291173 189930367.70479655 0 189930367.70479655 69479130.928565979 0 0 0 0 38734073.683444977 15117291.902326584 0 15117291.902326584 -34288135.191387177 0 0 0 0 833194.98201719113 -450627.55503674597 0 -450627.55503674597 -2248479.5791300423 0 0 0 0 -56112622.88087368 -34099398.455465317 0 -34099398.455465317 -83964662.325212479 0 0 0 0 -197374956.01325798 61707383.385757446 0 61707383.385757446 122500638.76825333 0 0 0 0 -226232750.40723538 -43945304.821936846 0 -43945304.821936846 99912357.706790924 0 0 0 0 -235910267.65866494 -14144298.537301064 0 -14144298.537301064 63977410.590854645 0 0 0 0 -293963172.18753719 8608992.8190670013 0 8608992.8190670013 77795186.438657284 0 0 0 0 -214985980.97047043 5488820.7779464722 0 5488820.7779464722 61937638.530839205 0 0 0 0 37305627.330740929 10837146.036037445 0 10837146.036037445 -46865360.519439697 0 0 0 0 13828484.723896027 16054746.730268478 0 16054746.730268478 -26571227.748451233 0 0 0 0 -4819865.193063736 63940318.477673531 0 63940318.477673531 -76330784.127483368 0 0 0 0 54239017.44203949 -2712742.9104318619 0 -2712742.9104318619 -21651618.333302498 0 0 0 0 -7402210.6773269773 268150.50541175902 0 268150.50541175902 -19600280.353357315 0 0 0 0 72137071.703968048 -8551670.8939666748 0 -8551670.8939666748 1406964.7990226746 0 0 0 0 7834806.5680561066 -4758444.4221611023 0 -4758444.4221611023 3218099.8122329712 0 0 0 0 23694869.654987335 25786688.879053116 0 25786688.879053116 -34819615.128686905 0 0 0 0 34288194.196635246 4053452.1309156418 0 4053452.1309156418 -4407769.0369186401 0 0 0 0 15425642.097177267 20751103.089775562 0 20751103.089775562 11980409.482543945 0 0 0 0 14579336.119073868 16617634.479393959 0 16617634.479393959 -5998525.069188118 0 0 0 0 1075984.7671710732 -648380.7379973866 0 -648380.7379973866 -2676234.0528025497 0 0 0 0 76726537.005045652 -51342022.376919985 0 -51342022.376919985 32926911.455352783 0 0 0 0 86282713.582302928 28767392.114890337 0 28767392.114890337 -79394331.152812958 0 0 0 0 171809667.36380935 -22060016.897886038 0 -22060016.897886038 -246012972.86313629 0 0 0 0 188378803.32931721 77982170.081171274 0 77982170.081171274 -57006084.203586578 0 0 0 0 -215159338.1220665 15040055.758006096 0 15040055.758006096 47468094.293682098 0 0 0 0 -224950357.23306322 195137917.49719906 0 195137917.49719906 -918394419.69070053 0 0 0 0 -175026302.61610746 -113856323.53191614 0 -113856323.53191614 199969177.68579483 0 0 0 0 286010015.92891312 261577851.54893398 0 261577851.54893398 -269995934.30645943 0 0 0 0 -182073250.07904816 -51321528.398789883 0 -51321528.398789883 -130311860.00330353 0 0 0 0 -198787165.87825584 -73049190.855847359 0 -73049190.855847359 -156795812.86704636 0 0 0 0 -282488234.6194973 -96860205.232700348 0 -96860205.232700348 89625149.374875069 0 0 0 0 -297573452.47734547 -7035362.9329223633 0 -7035362.9329223633 -140809812.20737457 0 0 0 0 -376753358.07711864 -210313226.55691743 0 -210313226.55691743 -167251441.2102356 0 0 0 0 -803949928.08514786 -309793584.80535889 0 -309793584.80535889 -283757726.35356808 0 0 0 0 -146963618.64400673 -440814905.77763462 0 -440814905.77763462 -1234119031.5384712 0 0 0 0 -25393395.596344471 -138233854.92549562 0 -138233854.92549562 -510374563.83431244 0 0 0 0 74353543.830623299 9544737.534733355 0 9544737.534733355 -429566351.89256287 0 0 0 0 76147048.941623688 -35939728.661775589 0 -35939728.661775589 -775609014.55550003 0 0 0 0 -54282705.1201334 -200713968.56875229 0 -200713968.56875229 -551854780.37858295 0 0 0 0 63740825.877642632 -86319705.074022293 0 -86319705.074022293 -514887251.55064535 0 0 0 0 100278910.9090786 -10043013.072357178 0 -10043013.072357178 -503791356.20557833 0 0 0 0 15795329.368736982 8587053.6378536224 0 8587053.6378536224 -459487487.43922806 0 0 0 0 93278808.515798569 -14220054.823057175 0 -14220054.823057175 -493985671.71311378 0 0 0 0 79345874.333874941 -43631012.95954895 0 -43631012.95954895 -421103591.73598099 0 0 0 0 63309595.76988554 -59680217.279844284 0 -59680217.279844284 -362015574.39707947 0 0 0 0 17863656.512584209 -75552672.910890102 0 -75552672.910890102 -195097078.47891712 0 0 0 0 74504802.411207199 -50252567.361791611 0 -50252567.361791611 -359811535.00791383 0 0 0 0 -158323337.08139586 9974632.284101963 0 9974632.284101963 11721193.176412582 0 0 0 0 57117552.599751949 12423640.244166374 0 12423640.244166374 -272187473.48886251 0 0 0 0 -33180426.292829514 -110022960.60652876 0 -110022960.60652876 -338401107.14836502 0 0 0 0 52144205.734306812 -143679237.66696167 0 -143679237.66696167 -763462210.15548706 0 0 0 0 1516328.9943327904 -91095340.559919357 0 -91095340.559919357 -715234931.01138687 0 0 0 0 -24383566.087845325 -131852302.1750145 0 -131852302.1750145 -630432112.33924103 0 0 0 0 -55249162.545967013 -98618256.282843351 0 -98618256.282843351 -661129683.57173157 0 0 0 0 49579988.641517162 -129994385.82962227 0 -129994385.82962227 -701251316.73646545 0 0 0 0 -83890051.036334038 -96179239.519185066 0 -96179239.519185066 -441411553.51318264 0 0 0 0 -4864589.3343334198 -123581443.71636581 0 -123581443.71636581 -522706019.32183218 0 0 0 0 -24427555.598656654 -192043329.87410831 0 -192043329.87410831 -665731433.41563988 0 0 0 0 27231607.005551338 30336105.217571259 0 30336105.217571259 -394308651.47578573 0 0 0 0 41082393.113228798 30830331.472034454 0 30830331.472034454 -289742692.54772711 0 0 0 0 84613462.594425201 -22720764.329208374 0 -22720764.329208374 -139290549.59835815 0 0 0 0 103655707.4853735 70769720.172801971 0 70769720.172801971 -297324376.4995265 0 0 0 0 105514116.11680508 -24685779.589851379 0 -24685779.589851379 -324314129.29057312 0 0 0 0 42565010.19375515 -34401711.244842529 0 -34401711.244842529 -507519509.08848667 0 0 0 0 2025306.4459412098 -67577972.559551477 0 -67577972.559551477 -390595793.80886459 0 0 0 0 -44909313.971713305 18474797.1717453 0 18474797.1717453 -420834162.14261246 0 0 0 0 -1262620.5648792051 -147882.79694731673 0 -147882.79694731673 -98968.100824706722 0 0 0 0 -31032071.494150162 -34063383.938381195 0 -34063383.938381195 -330605325.29102468 0 0 0 0 -75176788.841253281 -45985229.954429626 0 -45985229.954429626 -327128898.12500477 0 0 0 0 -19377760.750641823 -80205926.78721714 0 -80205926.78721714 -438790252.01428604 0 0 0 0 4194341.0137863159 -31291339.250429153 0 -31291339.250429153 -432686770.76187515 0 0 0 0 2443855.7669873238 -69325155.261468887 0 -69325155.261468887 -349537940.16994476 0 0 0 0 49966155.017736435 39708337.476043701 0 39708337.476043701 -264948630.15450287 0 0 0 0 96804769.977433205 -8988585.276342392 0 -8988585.276342392 -348370159.02143097 0 0 0 0 20873020.048284531 -42205594.004234314 0 -42205594.004234314 -621518839.1306262 0 0 0 0 56519243.150082111 -63674348.786709785 0 -63674348.786709785 32806490.138849258 0 0 0 0 18114902.123604774 -45953451.450157166 0 -45953451.450157166 32194861.296899796 0 0 0 0 26833226.711503506 17822936.146417618 0 17822936.146417618 11361275.140827179 0 0 0 0 14642666.660772324 18388981.599824905 0 18388981.599824905 25333588.205703735 0 0 0 0 -43687594.638312578 9753242.5640034676 0 9753242.5640034676 -66000156.959289551 0 0 0 0 -442116.20709911885 -1466193.2255073835 0 -1466193.2255073835 -1163451.6543635651 0 0 0 0 -32414676.490131378 79062516.033966064 0 79062516.033966064 96243481.329040527 0 0 0 0 -37488.947535477346 -52533.673500704812 0 -52533.673500704812 36487.474577337503 0 0 0 0 8119832.5113625526 18062564.147734165 0 18062564.147734165 39564206.698043823 0 0 0 0 23447424.81006813 25710571.549711227 0 25710571.549711227 -5836237.1042842865 0 0 0 0 110241872.69027138 80987982.365940094 0 80987982.365940094 -34466603.101085663 0 0 0 0 94489672.445560455 91758529.180421829 0 91758529.180421829 1734206.7497329712 0 0 0 0 -31503710.469708443 -35562792.620628357 0 -35562792.620628357 -386877.82642459869 0 0 0 0 313188.91871866817 -597262.91002860852 0 -597262.91002860852 -258934.31475993246 0 0 0 0 113425792.15209198 -60433887.916390419 0 -60433887.916390419 29884618.433481216 0 0 0 0 176621300.5931406 -14089409.113599777 0 -14089409.113599777 -18561819.368843079 0 0 0 0 65669257.509593964 -44675068.347126007 0 -44675068.347126007 24618123.506437302 0 0 0 0 -111841184.69673634 -53041258.833138466 0 -53041258.833138466 46493710.666498184 0 0 0 0 -218789802.36490321 12461503.483146667 0 12461503.483146667 16476242.871915817 0 0 0 0 -450907.79236735124 419315.3994460972 0 419315.3994460972 -166.52445381088182 0 0 0 0 -536431.17241503065 391161.30072911549 0 391161.30072911549 -517211.18391470192 0 0 0 0 11654728.918872833 25824126.192302704 0 25824126.192302704 18811967.500555038 0 0 0 0 -23305059.682695389 -3458155.3941707611 0 -3458155.3941707611 -17993130.388119951 0 0 0 0 15489545.083003998 28618460.270945072 0 28618460.270945072 -17490650.012788773 0 0 0 0 40021363.118328094 -6126942.2250423431 0 -6126942.2250423431 4832000.5452799797 0 0 0 0 -83533365.550574303 21640654.723064899 0 21640654.723064899 -185797786.82133675 0 0 0 0 -111334936.80900717 4545240.4685297012 0 4545240.4685297012 -14352017.081726074 0 0 0 0 -60170911.578378677 -36289108.997330666 0 -36289108.997330666 -66138303.225149632 0 0 0 0 -92659987.674991965 53470030.62507391 0 53470030.62507391 -50953722.265346527 0 0 0 0 27779231.744847298 29559927.605480194 0 29559927.605480194 -48202730.925327301 0 0 0 0 7460718.6536884308 -24504955.725493431 0 -24504955.725493431 -43276234.932265759 0 0 0 0 -7944153.3025217056 -32398458.937054634 0 -32398458.937054634 24442671.527350903 0 0 0 0 53985750.94315815 26239167.835857868 0 26239167.835857868 -9412107.7150936127 0 0 0 0 -13971396.077391624 -55379918.23488903 0 -55379918.23488903 -51277369.805832148 0 0 0 0 -91875653.184088469 -20997328.624647856 0 -20997328.624647856 -4712900.0053787231 0 0 0 0 -19234804.552803993 5883979.106359005 0 5883979.106359005 -30907605.89487648 0 0 0 0 1494330.4472532272 -4819883.5213260651 0 -4819883.5213260651 10034163.358917236 0 0 0 0 126046405.05734119 12006878.764594913 0 12006878.764594913 -11971552.754325867 0 0 0 0 354378.69257076224 38305.807260858361 0 38305.807260858361 -301071.75048166048 0 0 0 0 -442033.69790669461 -1642084.8332828446 0 -1642084.8332828446 -1068511.0330284219 0 0 0 0 143508762.99041367 -111054101.86545849 0 -111054101.86545849 18823208.759560823 0 0 0 0 93757917.794268608 -56401602.910806894 0 -56401602.910806894 -431415.02291297913 0 0 0 0 100606875.81911612 -7586992.0900478363 0 -7586992.0900478363 -48765504.34765625 0 0 0 0 67599029.355195522 -42703876.625745773 0 -42703876.625745773 31540158.104054451 0 0 0 0 38171547.114463806 840554.12760639191 0 840554.12760639191 -5065600.2965116501 0 0 0 0 29330828.869253635 -610237.00048923492 0 -610237.00048923492 -5785342.2125291824 0 0 0 0 -169417.78522159206 143839.67185827089 0 143839.67185827089 44481.669302386581 0 0 0 0 27549922.011423588 -3653269.6235437393 0 -3653269.6235437393 11584666.710789919 0 0 0 0 -428789.21083018789 -1644256.7425115197 0 -1644256.7425115197 -992559.58990200516 0 0 0 0 142988017.54626894 -60385873.856360912 0 -60385873.856360912 -35004627.895061493 0 0 0 0 66002163.696389198 22967650.330224276 0 22967650.330224276 9561052.4425458908 0 0 0 0 169980912.57415676 -18462120.552342415 0 -18462120.552342415 -31090600.129235268 0 0 0 0 6584365.5505609512 -35322267.009905338 0 -35322267.009905338 1135090.7395801544 0 0 0 0 -2980184.8778376579 -17552363.312042236 0 -17552363.312042236 -31528437.588642597 0 0 0 0 -100753651.57225847 -39896778.455459356 0 -39896778.455459356 15151428.813577652 0 0 0 0 -46204053.553189278 -43512646.290084839 0 -43512646.290084839 3926990.4392933846 0 0 0 0 -32086127.049499035 -7014032.8546886444 0 -7014032.8546886444 20395046.680970192 0 0 0 0 57158546.459097862 -45596466.813925266 0 -45596466.813925266 -20355958.50676918 0 0 0 0 -385347.72705591028 -1373522.989072233 0 -1373522.989072233 -620018.9957709033 0 0 0 0 -46586961.65944159 -36810311.741620302 0 -36810311.741620302 7478261.4086561203 0 0 0 0 -60712746.941855907 -33926991.321528912 0 -33926991.321528912 16528027.818130493 0 0 0 0 -88533253.927253723 -26021035.583257198 0 -26021035.583257198 17853736.936674118 0 0 0 0 -72791513.448731422 -15829299.023881435 0 -15829299.023881435 -10232238.146944046 0 0 0 0 -85452847.682797432 -13518038.16087389 0 -13518038.16087389 24331427.377058029 0 0 0 0 -72890232.979443073 -6863377.0835046768 0 -6863377.0835046768 21725561.175052643 0 0 0 0 -84558403.511177778 4502673.4861168861 0 4502673.4861168861 14004178.215429306 0 0 0 0 -86438480.376302719 13608015.106505394 0 13608015.106505394 -6270304.1802434921 0 0 0 0 -55150174.18273735 619239.71781826019 0 619239.71781826019 26925984.455101967 0 0 0 0 -1617276.5293774605 39281774.596759558 0 39281774.596759558 -5597070.6151790619 0 0 0 0 -71498033.354576111 24002280.324949265 0 24002280.324949265 42856838.643193722 0 0 0 0 -125593287.09046364 -28966582.905094624 0 -28966582.905094624 22189530.448191643 0 0 0 0 -109457767.78953743 27300906.268135071 0 27300906.268135071 34626683.883143425 0 0 0 0 -199300011.36465454 -87952021.732995987 0 -87952021.732995987 -45370306.650327682 0 0 0 0 -174710754.64738464 97703631.845321655 0 97703631.845321655 -75349495.923593521 0 0 0 0 -27199905.048770905 6828537.8770475388 0 6828537.8770475388 -28950286.862598419 0 0 0 0 -26281681.369500697 -3920967.7090347409 0 -3920967.7090347409 -10614738.691549301 0 0 0 0 88496532.955062151 -25472467.977836609 0 -25472467.977836609 -171888175.94562149 0 0 0 0 50824596.553658009 -80479988.821465731 0 -80479988.821465731 -33815392.642268181 0 0 0 0 395831.28961200826 -274613.73482313426 0 -274613.73482313426 -939394.70325713791 0 0 0 0 4515364.4294543266 -23661630.57663703 0 -23661630.57663703 46061093.207216263 0 0 0 0 -286822338.22867298 61354377.801194191 0 61354377.801194191 23113242.629270554 0 0 0 0 -190835584.74055719 103279322.7209301 0 103279322.7209301 -107134463.04673767 0 0 0 0 17952435.349358559 62707481.453116298 0 62707481.453116298 -76510826.08333683 0 0 0 0 35268523.735582352 6478159.76060009 0 6478159.76060009 -64247553.951997519 0 0 0 0 -642427.17763477378 537946.6918296623 0 537946.6918296623 787158.5114527652 0 0 0 0 72743438.33741951 -9131229.5324707031 0 -9131229.5324707031 -76119160.580960274 0 0 0 0 -965735.87058850005 926382.45611048141 0 926382.45611048141 1292184.8306270419 0 0 0 0 18113239.023986816 36304242.879567146 0 36304242.879567146 -70186632.17654705 0 0 0 0 140428049.58672237 32419756.650743008 0 32419756.650743008 -73461018.599622726 0 0 0 0 -40151903.815250397 35174732.199013352 0 35174732.199013352 97788217.307739258 0 0 0 0 21828306.972669601 -61199787.457406044 0 -61199787.457406044 44876525.599727154 0 0 0 0 79480392.011019707 72747864.379056454 0 72747864.379056454 12773504.792266846 0 0 0 0 114589727.93999624 -17479771.629172802 0 -17479771.629172802 -30369188.348445892 0 0 0 0 30733200.548769951 -38622720.071247816 0 -38622720.071247816 67470329.173540115 0 0 0 0 244408.26625147555 626434.75626957696 0 626434.75626957696 -808846.14529683022 0 0 0 0 -2158917.6211795807 26210277.553612232 0 26210277.553612232 -7528702.865149498 0 0 0 0 -48922463.617458344 1808289.7793645859 0 1808289.7793645859 72450189.569415569 0 0 0 0 -21744094.924241066 79698599.855823517 0 79698599.855823517 -43439310.650263309 0 0 0 0 -632099.73601548374 568788.52627158933 0 568788.52627158933 817151.96419476718 0 0 0 0 694856.42251873016 -27614385.48456192 0 -27614385.48456192 17267175.834168434 0 0 0 0 35969701.936531067 35490722.780777931 0 35490722.780777931 -16669360.18918395 0 0 0 0 -11918326.039764404 -57329353.683462143 0 -57329353.683462143 -35939883.950695157 0 0 0 0 2127515.1646988504 -760599.74161632871 0 -760599.74161632871 -4515176.8831198681 0 0 0 0 351720.10276889801 -4837102.2078704834 0 -4837102.2078704834 -7252059.2125301361 0 0 0 0 4614061.2236976624 -1043657.8575134277 0 -1043657.8575134277 -13551667.159893036 0 0 0 0 3123151.0383780831 -2748392.671301133 0 -2748392.671301133 -8546124.4297119677 0 0 0 0 5166929.4141016006 -1827136.1416563988 0 -1827136.1416563988 -6071984.3777198792 0 0 0 0 -29626654.334259987 -34078578.005012512 0 -34078578.005012512 49149450.352924347 0 0 0 0 100627573.18091774 27539324.25257206 0 27539324.25257206 -47813381.904875278 0 0 0 0 1905303.7507095942 -3201070.7007788029 0 -3201070.7007788029 -9924594.5390621778 0 0 0 0 23535980.070552826 1508894.7538673878 0 1508894.7538673878 -22075788.185455322 0 0 0 0 63229456.938305855 -17600683.37533617 0 -17600683.37533617 -13279104.969022751 0 0 0 0 1023303.6104825977 -5950099.7780905506 0 -5950099.7780905506 -8706223.8446279783 0 0 0 0 8570108.713010788 -7407511.5367431641 0 -7407511.5367431641 -3668891.1829590797 0 0 0 0 3465513.4028381188 -2167529.1774369478 0 -2167529.1774369478 -13206480.38473868 0 0 0 0 77472836.250428677 -23284483.791536331 0 -23284483.791536331 -46467681.724693298 0 0 0 0 -424414.3372433139 -4101847.6077528335 0 -4101847.6077528335 -12348630.243973605 0 0 0 0 26037207.429652214 22584668.482440948 0 22584668.482440948 -1928005.9862232208 0 0 0 0 127554225.92090702 14997716.419246674 0 14997716.419246674 -36016763.261972427 0 0 0 0 2208060.7979630651 -992812.18109814264 0 -992812.18109814264 -6745932.4011623096 0 0 0 0 62926659.627400398 -13938949.824935913 0 -13938949.824935913 -31884788.608240128 0 0 0 0 41198256.687250137 -23140008.741131783 0 -23140008.741131783 -29064124.44459939 0 0 0 0 676894.93289756775 15338205.143702507 0 15338205.143702507 -36768544.159482956 0 0 0 0 79705610.683546066 -33653048.197203636 0 -33653048.197203636 -16971021.567962646 0 0 0 0 28201297.74066925 -22588577.268144846 0 -22588577.268144846 -19322091.103005409 0 0 0 0 -8602226.2857952118 -3773138.638633728 0 -3773138.638633728 -61722288.051139832 0 0 0 0 -4694677.6948542595 5794208.7027778625 0 5794208.7027778625 -113719765.12199211 0 0 0 0 -79118616.785408974 -60786020.469571114 0 -60786020.469571114 -44011223.36794281 0 0 0 0 -34649609.274868965 -24447083.074459076 0 -24447083.074459076 -15212797.303703308 0 0 0 0 -54191270.548075438 -40939504.34164834 0 -40939504.34164834 9129467.9269866943 0 0 0 0 -22584045.606280327 -31649268.084220886 0 -31649268.084220886 2368579.6972808838 0 0 0 0 -36631709.320467472 -26016793.65055275 0 -26016793.65055275 7291113.9969177246 0 0 0 0 -18939925.117843628 -40646382.250461578 0 -40646382.250461578 -8413871.7865066528 0 0 0 0 8547905.9733123779 -26567202.410942078 0 -26567202.410942078 -1202810.8870010376 0 0 0 0 -22351464.038144112 -28906868.214586258 0 -28906868.214586258 29881263.962997437 0 0 0 0 12050705.874108315 -16249618.537384033 0 -16249618.537384033 28037462.913433075 0 0 0 0 50873928.189798355 -55836550.906169891 0 -55836550.906169891 3296312.4513320923 0 0 0 0 -7105054.7385519296 -40741864.00089854 0 -40741864.00089854 -12077742.774162292 0 0 0 0 -5816647.529335022 2679766.3678302765 0 2679766.3678302765 -52483516.643217087 0 0 0 0 9281988.2889966965 15223994.907691956 0 15223994.907691956 -9111934.7632236481 0 0 0 0 50774752.61631918 -54279517.263652802 0 -54279517.263652802 -63570044.748973846 0 0 0 0 -270455.34293685434 -336091.1949508097 0 -336091.1949508097 203271.3718196759 0 0 0 0 80625847.162176132 -9021349.2474212646 0 -9021349.2474212646 -34069567.702892303 0 0 0 0 -397018.44244824396 -5366758.1069032764 0 -5366758.1069032764 -7382360.1707542427 0 0 0 0 46192004.825846672 -26322674.180923462 0 -26322674.180923462 -13763912.445373535 0 0 0 0 77065448.21936202 -79006812.656941414 0 -79006812.656941414 20525859.463798523 0 0 0 0 108718983.13124466 -35469527.903766632 0 -35469527.903766632 3897310.3983230591 0 0 0 0 47490003.097010612 -50705169.641521454 0 -50705169.641521454 50282737.980232239 0 0 0 0 55965122.760198474 -69308719.206441879 0 -69308719.206441879 -8738508.7493591309 0 0 0 0 6986162.763712883 -5470341.0390586853 0 -5470341.0390586853 -9349275.0301151276 0 0 0 0 118445.46385526657 -3856673.5467596054 0 -3856673.5467596054 -3485453.2675056458 0 0 0 0 1077541.0724514993 -3841684.6564854123 0 -3841684.6564854123 -10087892.364317643 0 0 0 0 90997838.537399292 -82047345.710300446 0 -82047345.710300446 -14552543.112625122 0 0 0 0 10669391.344418526 -10087736.581401348 0 -10087736.581401348 -5240408.2353439331 0 0 0 0 69248935.294679642 4694398.8515701294 0 4694398.8515701294 10987380.641345978 0 0 0 0 62888652.717622757 -58579633.813846588 0 -58579633.813846588 23294896.953544617 0 0 0 0 65599430.123395681 -57888061.829910278 0 -57888061.829910278 -9312257.7861709595 0 0 0 0 75521244.375929832 -31167657.648349762 0 -31167657.648349762 -2019036.0743560791 0 0 0 0 78144994.659711123 -33247585.708995819 0 -33247585.708995819 -41414433.774475098 0 0 0 0 -44438939.630824089 -54517156.54618454 0 -54517156.54618454 -40969392.968425751 0 0 0 0 147942593.62529624 -68481539.430642605 0 -68481539.430642605 -119756010.48233795 0 0 0 0 -138750967.55251408 -167889690.99957275 0 -167889690.99957275 -55111291.427452087 0 0 0 0 -11027615.924975395 27889701.021076202 0 27889701.021076202 -94405185.181492418 0 0 0 0 -250146483.87841129 126757936.17585754 0 126757936.17585754 -95053053.002474844 0 0 0 0 63050840.513480008 140573580.78152418 0 140573580.78152418 -330564981.56563568 0 0 0 0 -18864335.684753656 -4941217.1622686386 0 -4941217.1622686386 -22426814.076637268 0 0 0 0 9698194.7129048109 31585356.333227158 0 31585356.333227158 -142192432.82481384 0 0 0 0 76627897.512731552 32095140.817653656 0 32095140.817653656 -248024918.22439194 0 0 0 0 17271058.256720066 -7398728.2143325806 0 -7398728.2143325806 -166314890.13479042 0 0 0 0 18596522.415293694 13834846.583530426 0 13834846.583530426 -188987301.49798393 0 0 0 0 12036443.593432188 -27582725.011196136 0 -27582725.011196136 -149127086.97132874 0 0 0 0 -477140.27680389723 -516390.45114864968 0 -516390.45114864968 299123.859662503 0 0 0 0 -12312042.645345569 24273737.684638977 0 24273737.684638977 -71795997.91412735 0 0 0 0 96231073.859528303 -86676722.608139038 0 -86676722.608139038 -105774472.90517616 0 0 0 0 -2300710.7648544312 73490800.639035225 0 73490800.639035225 -52602098.390277863 0 0 0 0 107326.67576105465 465712.95892520441 0 465712.95892520441 -280413.18015849963 0 0 0 0 25020021.845802069 92901429.022729874 0 92901429.022729874 -212736742.27183151 0 0 0 0 78452087.365054607 1792829.7077007294 0 1792829.7077007294 -13695004.170049667 0 0 0 0 64562829.344265461 -3197628.1074733734 0 -3197628.1074733734 -8595200.109375 0 0 0 0 78798583.565794468 6841116.8330078125 0 6841116.8330078125 37553271.409122467 0 0 0 0 225596905.36924529 -52013796.566233635 0 -52013796.566233635 -91483539.608287811 0 0 0 0 144458320.159168 83929899.641555786 0 83929899.641555786 -304891244.04954529 0 0 0 0 -155497230.35431242 393353389.60894966 0 393353389.60894966 -181403339.75391388 0 0 0 0 86434639.960661888 395624414.18042755 0 395624414.18042755 -420333279.31799316 0 0 0 0 64713688.541763991 28547768.087424159 0 28547768.087424159 -86291112.205932617 0 0 0 0 -330020466.57735968 174794721.3219223 0 174794721.3219223 -105072449.1687088 0 0 0 0 395025.9598501916 599108.3750007276 0 599108.3750007276 -1414859.3566984534 0 0 0 0 -148364276.9801755 381152140.49386787 0 381152140.49386787 -188809109.20968628 0 0 0 0 -342820436.08651257 427298041.28778458 0 427298041.28778458 -102468666.25164795 0 0 0 0 121204115.82522821 -239663056.34438419 0 -239663056.34438419 -197005847.19786072 0 0 0 0 118873088.53032446 15881363.70979023 0 15881363.70979023 -2027876.7449684143 0 0 0 0 605757.44841151044 689812.63981980062 0 689812.63981980062 -2727179.6145952269 0 0 0 0 85229911.192012787 -2110657.5312423706 0 -2110657.5312423706 -9552674.4716949463 0 0 0 0 72458316.759920597 15160155.140594482 0 15160155.140594482 11481029.984760284 0 0 0 0 199208.5853045524 845111.05943015311 0 845111.05943015311 -521452.28692909703 0 0 0 0 82779346.461033821 17163827.853713989 0 17163827.853713989 5520091.0120754242 0 0 0 0 -13672543.699854374 56144173.477233887 0 56144173.477233887 10847622.671964645 0 0 0 0 148919428.01310349 18691207.999452591 0 18691207.999452591 -68585966.308933258 0 0 0 0 -2835906.4073297977 63264877.915557981 0 63264877.915557981 -2248219.4556369781 0 0 0 0 93610171.436388016 -50432216.471055031 0 -50432216.471055031 3480678.6499270797 0 0 0 0 -829687.30351609644 -1342060.4131532013 0 -1342060.4131532013 -1731554.7743713185 0 0 0 0 35677844.132353783 -15430014.193224907 0 -15430014.193224907 34760797.507743835 0 0 0 0 50452850.486355782 -3270372.8480014801 0 -3270372.8480014801 13531284.425121307 0 0 0 0 36847671.36923027 -16302716.192017078 0 -16302716.192017078 713386.81613445282 0 0 0 0 13276531.329780579 6778064.0198097229 0 6778064.0198097229 -19282942.489868164 0 0 0 0 2760059.4660885697 679784.97139778361 0 679784.97139778361 -3082967.0285880323 0 0 0 0 -577928393.38715553 266107766.04958916 0 266107766.04958916 -25132285.400192261 0 0 0 0 -245632.13251646422 -1131673.6286068838 0 -1131673.6286068838 -1358064.8848768957 0 0 0 0 -3504603.1861263514 -9299064.4602036476 0 -9299064.4602036476 -209451318.70207596 0 0 0 0 21189768.946342468 -27653885.661865234 0 -27653885.661865234 -11421756.736934185 0 0 0 0 -1968560.6837635376 -4127213.0595904333 0 -4127213.0595904333 -7498845.8720370065 0 0 0 0 -90997467.242732048 166556925.17298698 0 166556925.17298698 -92669124.731307983 0 0 0 0 -63845575.927996635 195037813.61810684 0 195037813.61810684 -207169953.2522541 0 0 0 0 -130479658.34153318 216187472.20669937 0 216187472.20669937 -52659244.347373962 0 0 0 0 -119483588.35204792 140909821.83623886 0 140909821.83623886 42670416.325275421 0 0 0 0 -91667411.471295357 189119965.42090988 0 189119965.42090988 -78876230.297195435 0 0 0 0 -122556930.96351814 190236201.70118332 0 190236201.70118332 -35476366.627017975 0 0 0 0 -155137256.0853653 139255928.91769028 0 139255928.91769028 -66763694.776174188 0 0 0 0 -2537772.6215679711 -3823132.1049829284 0 -3823132.1049829284 -5684461.6360333618 0 0 0 0 2710179.9825115204 -136394024.89973259 0 -136394024.89973259 -51062077.612960815 0 0 0 0 -95942453.400904298 142031601.74699712 0 142031601.74699712 -66655519.176712036 0 0 0 0 -645605.90915345214 -568978.34374164836 0 -568978.34374164836 -130478.04012230597 0 0 0 0 152710412.75889778 -103622153.78386688 0 -103622153.78386688 -47696478.933959961 0 0 0 0 -2376708.1090658428 -3094871.9539472638 0 -3094871.9539472638 -4099877.514418548 0 0 0 0 260465878.8553772 -361749101.66532898 0 -361749101.66532898 -303951308.14214325 0 0 0 0 4388516.8899669647 143953094.51259804 0 143953094.51259804 195221653.01001358 0 0 0 0 -134209948.96799803 12572799.798171997 0 12572799.798171997 -240657430.92678833 0 0 0 0 -213850626.86921883 -57658377.929911613 0 -57658377.929911613 -120904952.3095932 0 0 0 0 -182875390.08886743 47244422.306658268 0 47244422.306658268 -249016823.44368744 0 0 0 0 -205997577.84812689 -74090261.116161823 0 -74090261.116161823 -770571701.14731598 0 0 0 0 39335272.280837059 -212267117.41293716 0 -212267117.41293716 -949661712.26742935 0 0 0 0 -351850376.33337307 -249451664.71851158 0 -249451664.71851158 -587625869.59275246 0 0 0 0 -105559546.56333923 -35383252.117969751 0 -35383252.117969751 -516557435.33626938 0 0 0 0 -328508214.07404041 29945127.078805923 0 29945127.078805923 -229227614.51761246 0 0 0 0 -164056197.97294307 153370856.99353266 0 153370856.99353266 -85628862.251068115 0 0 0 0 -108237891.48050785 77595144.390686035 0 77595144.390686035 -288980148.07843018 0 0 0 0 6719317.2269334793 138280764.42914391 0 138280764.42914391 -131947233.09332657 0 0 0 0 -116215544.57813168 57334290.438592911 0 57334290.438592911 -52959016.538869619 0 0 0 0 212843709.43533134 -58209421.646255493 0 -58209421.646255493 -21641711.059782982 0 0 0 0 -105545036.81575966 -76644830.524436951 0 -76644830.524436951 19446083.376383781 0 0 0 0 -45148949.121922493 -248835093.9481144 0 -248835093.9481144 -289211434.23059845 0 0 0 0 -2389954.0474743843 -315431243.26277351 0 -315431243.26277351 -192604644.41662502 0 0 0 0 181652.57678928948 170525.23607801134 0 170525.23607801134 -1054860.1021840274 0 0 0 0 -39540252.858791351 -89076515.49102211 0 -89076515.49102211 -358065325.43357277 0 0 0 0 -67816852.09479332 -92877380.547143936 0 -92877380.547143936 -61531324.186359406 0 0 0 0 -43422456.116153717 -130185989.57730484 0 -130185989.57730484 -159828503.70749664 0 0 0 0 -185705348.547369 -246711507.40970612 0 -246711507.40970612 -158509668.97572899 0 0 0 0 -72450710.953649521 -134096714.39813995 0 -134096714.39813995 -72898317.233909607 0 0 0 0 -106060598.20299578 -74378258.927256584 0 -74378258.927256584 42040538.819633484 0 0 0 0 -33831365.903085709 24405229.178188324 0 24405229.178188324 26433334.833479881 0 0 0 0 -1077956.9574788015 -313018.33142959513 0 -313018.33142959513 -78610.77503856644 0 0 0 0 -99398429.19192028 -11995032.277620316 0 -11995032.277620316 6084409.7672195435 0 0 0 0 29708424.242926598 -23788885.122022629 0 -23788885.122022629 -39897351.999523163 0 0 0 0 -89723538.932495117 7581707.4637641907 0 7581707.4637641907 3134949.8232688904 0 0 0 0 1332814.8760797977 56461202.418363571 0 56461202.418363571 -99313150.855056763 0 0 0 0 -1009223.7424807316 158065.86352950707 0 158065.86352950707 -1120893.1459081036 0 0 0 0 -272417183.92782402 24565799.463598251 0 24565799.463598251 28182774.267745972 0 0 0 0 -155166981.37733078 -380424216.31165314 0 -380424216.31165314 -376009647.26467323 0 0 0 0 -51565742.505187511 -258029526.6210947 0 -258029526.6210947 -271529006.04782104 0 0 0 0 -94392857.643035889 -117450232.94799805 0 -117450232.94799805 -84272789.030288696 0 0 0 0 -407278991.33114624 -275001830.90900421 0 -275001830.90900421 -120649832.40792084 0 0 0 0 55576141.337037563 39844217.082040787 0 39844217.082040787 -96506014.89730072 0 0 0 0 25382584.156869054 53746856.069311619 0 53746856.069311619 -23489131.941623688 0 0 0 0 -23037744.466076851 115553014.93630791 0 115553014.93630791 -69157245.309173584 0 0 0 0 7039939.2208418846 119545269.54548073 0 119545269.54548073 -87260462.207614899 0 0 0 0 115532.3715979979 533210.06685101427 0 533210.06685101427 -264899.29324905574 0 0 0 0 134283123.72137791 2223385.8465573788 0 2223385.8465573788 -38384701.366744995 0 0 0 0 8462158.5068740845 99880793.871658325 0 99880793.871658325 -69124983.338864326 0 0 0 0 86622462.67282486 58444520.341680527 0 58444520.341680527 -103943417.37413025 0 0 0 0 54743310.618263721 10907495.669790268 0 10907495.669790268 -13135516.994693756 0 0 0 0 462843.57446000981 421764.61224123999 0 421764.61224123999 -2446614.9772378951 0 0 0 0 46553059.867324948 31195244.334983826 0 31195244.334983826 -54555920.919502258 0 0 0 0 -58878326.043576956 146465682.87915444 0 146465682.87915444 -189855629.73207474 0 0 0 0 -52501335.279080391 -144739337.84758759 0 -144739337.84758759 -335190616.34133434 0 0 0 0 16764459.513661861 32416202.958839417 0 32416202.958839417 -53410958.781094551 0 0 0 0 39036842.5847826 -1287969.9537234306 0 -1287969.9537234306 -123456394.68941116 0 0 0 0 12679083.007085294 74892021.82850939 0 74892021.82850939 -47644516.690181732 0 0 0 0 72538011.095871449 66577895.808835983 0 66577895.808835983 -72726593.295545578 0 0 0 0 54870552.157279491 -43540580.244344711 0 -43540580.244344711 -16328824.735548019 0 0 0 0 164114785.09152341 -37445157.843029022 0 -37445157.843029022 -32002768.938163757 0 0 0 0 99885525.866678238 52862923.83049202 0 52862923.83049202 -94736382.324176788 0 0 0 0 83689638.866023064 43841935.536054611 0 43841935.536054611 -42574778.002532959 0 0 0 0 -29142666.16441679 48286591.135272503 0 48286591.135272503 -40540867.19802475 0 0 0 0 419681.02085036505 371951.80861620326 0 371951.80861620326 -139703.13258652762 0 0 0 0 270141047.79280615 -57387146.912438393 0 -57387146.912438393 -71987645.382892609 0 0 0 0 552581.48443937302 -144908687.58922768 0 -144908687.58922768 -88192203.928926468 0 0 0 0 -14542437.624368191 -41256351.340942383 0 -41256351.340942383 13345586.837505341 0 0 0 0 -36890971.126437187 -132191915.41552687 0 -132191915.41552687 -102355826.59875107 0 0 0 0 -119237333.06328487 -129606027.83547592 0 -129606027.83547592 -78587549.609233856 0 0 0 0 -97427012.468137741 -162694675.08823013 0 -162694675.08823013 -113215883.84149384 0 0 0 0 -147426471.54398012 -145265902.65066242 0 -145265902.65066242 -66428992.234169006 0 0 0 0 -80548759.309153557 -118097894.47811127 0 -118097894.47811127 -115801255.62053299 0 0 0 0 -124550268.25179768 -136917093.77788544 0 -136917093.77788544 -63577309.866380692 0 0 0 0 -4366420.6747568883 1589383.5060380567 0 1589383.5060380567 186505.27856822871 0 0 0 0 -101459503.1623702 -160459838.85877514 0 -160459838.85877514 -142370688.64198303 0 0 0 0 -27489237.243039131 8177322.9121570587 0 8177322.9121570587 79079932.119838715 0 0 0 0 -20917602.996232986 -50677169.558090687 0 -50677169.558090687 12839738.51656723 0 0 0 0 -35634656.579270482 -15264234.810411453 0 -15264234.810411453 29737427.634391785 0 0 0 0 -57114936.432239056 -74977598.386959076 0 -74977598.386959076 -34456468.443668365 0 0 0 0 -16571625.319258213 -42659183.923732758 0 -42659183.923732758 58003915.968647003 0 0 0 0 -20528119.096346617 63015758.248855591 0 63015758.248855591 136801094.44414139 0 0 0 0 36259808.371835232 49541758.411365509 0 49541758.411365509 29892207.256227493 0 0 0 0 -93063609.48786974 26743027.383468628 0 26743027.383468628 42847754.991189957 0 0 0 0 -68086460.455257177 -70186963.874674797 0 -70186963.874674797 -162901451.68663406 0 0 0 0 -133504527.4419136 -148956587.97522163 0 -148956587.97522163 -88441767.714952469 0 0 0 0 -147701851.77846289 -319129988.75241852 0 -319129988.75241852 -357786626.14027405 0 0 0 0 -2001948.3639381714 890606.5780067509 0 890606.5780067509 -241633.22064107563 0 0 0 0 38416326.667329401 -59051682.195156097 0 -59051682.195156097 100540917.21545696 0 0 0 0 -299379989.44548416 181227535.3757782 0 181227535.3757782 56550257.942718506 0 0 0 0 -215847.95737910736 495561.41619595885 0 495561.41619595885 -406141.45041420683 0 0 0 0 437626738.9830904 83749759.933734894 0 83749759.933734894 -611677995.65593004 0 0 0 0 103868024.48460293 -471402274.66215897 0 -471402274.66215897 -705884463.16076469 0 0 0 0 -291105988.79222107 -31884757.782905579 0 -31884757.782905579 112333164.48615265 0 0 0 0 137573879.40900993 -35773088.445985794 0 -35773088.445985794 -54538383.111997604 0 0 0 0 150743876.05478144 30744169.849227905 0 30744169.849227905 -130884747.18904877 0 0 0 0 1641594.8935080171 -23962306.809035182 0 -23962306.809035182 -29889719.804069519 0 0 0 0 367108.90990841389 10866834.016375422 0 10866834.016375422 -36258505.614120483 0 0 0 0 -31371532.267604828 -13680999.600204468 0 -13680999.600204468 -10756988.275482178 0 0 0 0 444931.93356728554 -2784800.9542541504 0 -2784800.9542541504 -9118300.1576662064 0 0 0 0 -3020169.71024663 -2894278.4460146921 0 -2894278.4460146921 -2300969.0485643037 0 0 0 0 -3828972.6285972362 -3061696.2126694666 0 -3061696.2126694666 -9082045.677086588 0 0 0 0 -9443826.1886903234 191494.81609415077 0 191494.81609415077 1105226.9497844502 0 0 0 0 39379715.349369049 50297096.511550903 0 50297096.511550903 9380210.765378952 0 0 0 0 -34852427.512939453 -14279856.785812378 0 -14279856.785812378 -4973741.9046936035 0 0 0 0 -26132635.198915482 -24695645.308425903 0 -24695645.308425903 -16842426.75384903 0 0 0 0 391036.47067316156 510916.49230042845 0 510916.49230042845 26863.309004990384 0 0 0 0 611075.37976062298 -2081241.5066261292 0 -2081241.5066261292 -11528958.038859367 0 0 0 0 -901358.99001348019 -2547902.7336559296 0 -2547902.7336559296 -14432000.586387634 0 0 0 0 -2838298.005201906 525679.64634561539 0 525679.64634561539 -8196587.755241394 0 0 0 0 -2765868.5644705296 726028.42214584351 0 726028.42214584351 -8286477.379486084 0 0 0 0 -1723160.3109636307 -419312.54513931274 0 -419312.54513931274 -7078196.6150188446 0 0 0 0 -36946211.911687851 265171.15055274963 0 265171.15055274963 23770458.841552734 0 0 0 0 -5397216.3418803541 538163.48235497437 0 538163.48235497437 -5418984.6082149874 0 0 0 0 -2646769.791067481 743729.88086509705 0 743729.88086509705 -7529186.3094596863 0 0 0 0 -2724935.7962736636 977043.36971712112 0 977043.36971712112 -8146415.408782959 0 0 0 0 -2621810.270606041 15594920.194046021 0 15594920.194046021 18704429.545448303 0 0 0 0 -4611709.806106979 -554735.84178538993 0 -554735.84178538993 611822.93992710114 0 0 0 0 -1482638.3474082125 -192638.87544990028 0 -192638.87544990028 549023.07379055023 0 0 0 0 70110747.162557602 4332239.5774078369 0 4332239.5774078369 -15409907.455833435 0 0 0 0 27983159.64128828 -90320282.267287254 0 -90320282.267287254 -102326018.02888489 0 0 0 0 -89460923.374549866 -61075529.864719391 0 -61075529.864719391 -62243608.335464478 0 0 0 0 -23874105.049209595 57455138.848957062 0 57455138.848957062 -6719882.5935249329 0 0 0 0 -111093445.69200134 -36558933.928792953 0 -36558933.928792953 2391450.7180099487 0 0 0 0 -259888198.20784664 -180221112.28936195 0 -180221112.28936195 -96933954.042121887 0 0 0 0 -251945859.34389305 -2045084.0021896362 0 -2045084.0021896362 -81263375.252346039 0 0 0 0 -128006600.95187998 -111907581.41922569 0 -111907581.41922569 -62375319.312294006 0 0 0 0 -171687462.63854504 -95810449.27482605 0 -95810449.27482605 -50515258.132053375 0 0 0 0 -116510064.89789248 -7405627.9925880432 0 -7405627.9925880432 -11964389.109893799 0 0 0 0 -24029600.783261299 -34014716.648723602 0 -34014716.648723602 -46888231.003507495 0 0 0 0 -95857558.694098473 4706253.3339385986 0 4706253.3339385986 19883458.661266327 0 0 0 0 -5968808.3116694596 3035418.6296762433 0 3035418.6296762433 552138.07027751021 0 0 0 0 -67679689.54281044 -35612791.315404892 0 -35612791.315404892 3152321.335723877 0 0 0 0 31238704.184644699 2423771.9599113464 0 2423771.9599113464 -13645127.770787239 0 0 0 0 -30768704.805699348 -10342579.896680832 0 -10342579.896680832 -18541021.216871262 0 0 0 0 -881155.31306882855 -912910.81833081925 0 -912910.81833081925 -759264.95806226507 0 0 0 0 -3542102.6106866137 -2881640.5614245869 0 -2881640.5614245869 2239944.7042922862 0 0 0 0 -23283031.062637329 -16493057.167922974 0 -16493057.167922974 -14738652.679138184 0 0 0 0 40199577.650769234 18954058.648361206 0 18954058.648361206 -31948370.773433685 0 0 0 0 -31201956.027090073 -6345774.8921165466 0 -6345774.8921165466 30678455.582271576 0 0 0 0 -18436780.30724144 -37501671.172916412 0 -37501671.172916412 -56226662.391239166 0 0 0 0 -19169535.43243885 -31903418.622440338 0 -31903418.622440338 -40302624.022533417 0 0 0 0 -1856062.6775736115 -1564067.8771287529 0 -1564067.8771287529 1458484.3566560075 0 0 0 0 -48247980.472316742 -42424603.900749207 0 -42424603.900749207 -29418395.818313599 0 0 0 0 -10999134.460626602 -335534.22482299805 0 -335534.22482299805 -23079188.549552679 0 0 0 0 1891813.3709652424 8678428.3534584045 0 8678428.3534584045 9434792.358663559 0 0 0 0 2770613.2771720886 -11273137.70652771 0 -11273137.70652771 -68483426.419652939 0 0 0 0 4201062.9784050547 1204465.4467065781 0 1204465.4467065781 -9379375.080832256 0 0 0 0 -32892520.87417841 -33376358.185813904 0 -33376358.185813904 -4068712.7613220215 0 0 0 0 -45795080.267408371 -54207549.075244904 0 -54207549.075244904 -34622482.315816879 0 0 0 0 -35410583.699663162 -25023521.798556328 0 -25023521.798556328 -4654990.0259094238 0 0 0 0 9693609.557598114 -18233477.264648438 0 -18233477.264648438 -22208185.700401306 0 0 0 0 3299840.2456982452 -351344.39224241674 0 -351344.39224241674 -3673493.4128949307 0 0 0 0 -43539066.574458361 -22642805.107364178 0 -22642805.107364178 -3681592.5656509399 0 0 0 0 -41529373.753018379 -33231162.317826748 0 -33231162.317826748 -327511.61975097656 0 0 0 0 -2897369.251776427 -6209581.8814964294 0 -6209581.8814964294 -14965831.681365967 0 0 0 0 -137081.23466008902 -977244.0797624588 0 -977244.0797624588 -12515319.518173218 0 0 0 0 4653135.6884536743 1066093.4062156677 0 1066093.4062156677 -4315993.8422851562 0 0 0 0 2352965.622759481 -1941864.4355056342 0 -1941864.4355056342 -9716425.2900067158 0 0 0 0 2281602.0494765174 191285.56443326082 0 191285.56443326082 -7646242.0816790648 0 0 0 0 1090566.9906486534 -400350.30545286462 0 -400350.30545286462 -4244195.9991809689 0 0 0 0 -5816788.1418161392 -5742331.0797042847 0 -5742331.0797042847 -1694026.1251983643 0 0 0 0 4744620.1420869827 998852.64365291595 0 998852.64365291595 -4904920.8452854156 0 0 0 0 4812986.3584821224 1004922.0195960999 0 1004922.0195960999 -4925999.6964702606 0 0 0 0 2160123.7860324685 2776022.7497530542 0 2776022.7497530542 -7824263.1419347823 0 0 0 0 2265719.6609667297 3480550.401475125 0 3480550.401475125 -1206215.0282566957 0 0 0 0 17159200.290610075 10962053.29460001 0 10962053.29460001 -9103301.6800795794 0 0 0 0 5584126.2024296522 1443583.3705825806 0 1443583.3705825806 -4507614.1786079407 0 0 0 0 -10222061.831298828 -7751248.1953895092 0 -7751248.1953895092 3087499.1804990768 0 0 0 0 -1727456.3110430241 -23958453.682138443 0 -23958453.682138443 -14928913.254503965 0 0 0 0 15748569.463891655 1015416.7728757858 0 1015416.7728757858 -77655837.802481651 0 0 0 0 -22107164.053637683 25547950.533355117 0 25547950.533355117 15935970.573839188 0 0 0 0 6431435.961075902 8277474.3202381134 0 8277474.3202381134 -2900911.823059082 0 0 0 0 -1706933.3132798076 -1519402.3890457153 0 -1519402.3890457153 -3549481.4503645897 0 0 0 0 -9633807.6212509274 9754311.84790802 0 9754311.84790802 4613912.3423309326 0 0 0 0 854592.03133279074 826302.30194945121 0 826302.30194945121 -9425055.5461548567 0 0 0 0 -293063.20983288652 -332081.59875635989 0 -332081.59875635989 -458401.6710105259 0 0 0 0 69163144.83639431 30983381.017018318 0 30983381.017018318 -81631973.859107018 0 0 0 0 -11720875.672180414 36270682.137405396 0 36270682.137405396 -51329178.264191628 0 0 0 0 -3485369.2372398376 14750030.715269089 0 14750030.715269089 -70191816.765707493 0 0 0 0 -269444.17851577426 -384657.60786078312 0 -384657.60786078312 634902.23621660937 0 0 0 0 68607.703277992565 -692604.39171006705 0 -692604.39171006705 12827.530797877349 0 0 0 0 456464.71315872669 38347757.150549412 0 38347757.150549412 -5238478.2768173218 0 0 0 0 -12666938.73924017 661686.82275390625 0 661686.82275390625 -77153183.357065201 0 0 0 0 65726795.616482258 -94223178.972486258 0 -94223178.972486258 113118831.17308998 0 0 0 0 117280359.14988929 20314261.337104917 0 20314261.337104917 12310487.238636017 0 0 0 0 -11198519.702297926 -37316645.169663906 0 -37316645.169663906 10202971.367660046 0 0 0 0 23611336.646638989 14408494.257260799 0 14408494.257260799 17968733.513349533 0 0 0 0 225484444.24569353 -166089081.59889174 0 -166089081.59889174 74242023.154769897 0 0 0 0 196799547.38917217 -50693143.990560293 0 -50693143.990560293 782335.24936103821 0 0 0 0 -28697422.846130192 -9526398.6640305519 0 -9526398.6640305519 40275753.825182915 0 0 0 0 24907797.473856162 -8593820.3314081579 0 -8593820.3314081579 -18929091.354711533 0 0 0 0 -5547234.3640354872 -16712387.144572735 0 -16712387.144572735 -9373422.6701133251 0 0 0 0 29717436.271802902 -12423734.300899506 0 -12423734.300899506 -19483704.994334221 0 0 0 0 -4414090.6939899921 1368898.3827457428 0 1368898.3827457428 -7404682.9918365479 0 0 0 0 -3141284.0960711837 1935297.5208740234 0 1935297.5208740234 -10410836.123781204 0 0 0 0 -642591.2060598135 -1532025.1508045197 0 -1532025.1508045197 -17765743.255256653 0 0 0 0 -3077325.9828854203 2563643.0001621246 0 2563643.0001621246 -15001168.811182022 0 0 0 0 -22591560.119992137 6152501.6683020592 0 6152501.6683020592 16466480.930087894 0 0 0 0 314688.43243907089 1625531.3362940433 0 1625531.3362940433 -8903503.7283835523 0 0 0 0 13614873.147500224 -1708456.951048851 0 -1708456.951048851 -22468385.208553314 0 0 0 0 109750.65748829281 2133748.5088733113 0 2133748.5088733113 -8672874.5123964362 0 0 0 0 944462.82026994228 823451.14721870422 0 823451.14721870422 -7095210.2284870148 0 0 0 0 -3954333.0666529536 472581.41722106934 0 472581.41722106934 -6353870.151622504 0 0 0 0 -2139754.8959845603 -791985.59291553497 0 -791985.59291553497 -6800263.8296432495 0 0 0 0 -2317923.2501551509 -254872.65760421753 0 -254872.65760421753 -6346274.2962390035 0 0 0 0 -3897640.9547314793 1423739.7332901647 0 1423739.7332901647 -5364260.8761074506 0 0 0 0 -23684044.155828476 51968618.888386726 0 51968618.888386726 7926258.7596893311 0 0 0 0 -76603631.988380432 61253014.933425903 0 61253014.933425903 -5766429.2346191406 0 0 0 0 38833500.797503471 -3562394.9981842041 0 -3562394.9981842041 -35950736.500419617 0 0 0 0 -35369169.296072006 18904124.635883331 0 18904124.635883331 20362300.530136108 0 0 0 0 18720711.254605293 48905544.0001297 0 48905544.0001297 -79826412.904258728 0 0 0 0 -1730960.9620562792 1949442.2737779617 0 1949442.2737779617 -5797114.5739412308 0 0 0 0 33057175.062922478 -5251093.9534549713 0 -5251093.9534549713 -11936008.131519318 0 0 0 0 -2879192.5815185658 1385476.322830352 0 1385476.322830352 -6465096.6548766084 0 0 0 0 -2201464.7283101324 879420.87405240536 0 879420.87405240536 -6352461.3167457581 0 0 0 0 14034693.675461769 2484018.2559244633 0 2484018.2559244633 -29096036.119951248 0 0 0 0 3437901.6624903679 11077391.972609043 0 11077391.972609043 -19956354.124867916 0 0 0 0 6971428.601219058 18741742.771906614 0 18741742.771906614 -17870071.898065567 0 0 0 0 -3610490.4020838737 7636616.8722774982 0 7636616.8722774982 -3212999.7753534317 0 0 0 0 3322451.8687384129 8588206.5524344444 0 8588206.5524344444 -18108897.906609535 0 0 0 0 -1672323.5976494849 2281274.5303564072 0 2281274.5303564072 -3992985.4457359314 0 0 0 0 -771859.14541339362 3460504.0668321811 0 3460504.0668321811 -7657083.2927699648 0 0 0 0 -316200.96502032876 5742308.5516967773 0 5742308.5516967773 -5547460.5014038086 0 0 0 0 1075997.3628806472 2107799.9149436951 0 2107799.9149436951 -1165477.0292972922 0 0 0 0 -542560.91967084515 3077753.3065215563 0 3077753.3065215563 -8953936.3996451087 0 0 0 0 438319408.95939159 -6091360.0041980743 0 -6091360.0041980743 -235600092.33585358 0 0 0 0 -1597792.0697038698 2317266.4785995763 0 2317266.4785995763 -4863883.2087455606 0 0 0 0 -1228867.7636760091 3138833.4047618434 0 3138833.4047618434 -6297509.7022034004 0 0 0 0 -3029989.3386270404 1561194.0832614899 0 1561194.0832614899 -574365.47155493498 0 0 0 0 30958842.967785835 -22016814.728957176 0 -22016814.728957176 -72660547.216575623 0 0 0 0 5248518.46742028 1359438.5745220184 0 1359438.5745220184 -9877353.4226112366 0 0 0 0 -2924216.1789802341 1830381.7219375712 0 1830381.7219375712 -2262855.8802785194 0 0 0 0 -153776.59357550414 18090.693925173953 0 18090.693925173953 38223.131844293326 0 0 0 0 8088539.8240623474 154518880.69579315 0 154518880.69579315 20253238.13709259 0 0 0 0 -55055451.280096054 -5365307.40259552 0 -5365307.40259552 -24173221.56477356 0 0 0 0 -47159488.224527359 53047639.509670258 0 53047639.509670258 -72756145.606178284 0 0 0 0 -177573.40659337025 -103467.91963652149 0 -103467.91963652149 106595.12619008683 0 0 0 0 -970371.60325142532 -584347.24414543132 0 -584347.24414543132 -945569.66074209288 0 0 0 0 -708941107.41465759 -595786982.51186466 0 -595786982.51186466 -285617766.27475739 0 0 0 0 -428012733.87857056 299328096.79211044 0 299328096.79211044 -215023337.51924133 0 0 0 0 -30640417.038885117 308639208.95262146 0 308639208.95262146 -974102965.12457943 0 0 0 0 -55788719.864965439 205422378.49173737 0 205422378.49173737 -206829044.65652466 0 0 0 0 80168115.589753151 -435349904.22335434 0 -435349904.22335434 -559122899.91797829 0 0 0 0 -452345933.7571373 -362900067.27030563 0 -362900067.27030563 -111615411.59144115 0 0 0 0 33966317.717886448 -348788644.63251972 0 -348788644.63251972 -536619054.36925507 0 0 0 0 -218849884.49090958 -659356493.03353882 0 -659356493.03353882 -917907123.47281313 0 0 0 0 -180775244.87908173 -32406970.830034256 0 -32406970.830034256 160500356.08777046 0 0 0 0 5506984.2100691795 -506766917.32145071 0 -506766917.32145071 -339927290.56912994 0 0 0 0 723363.0324452715 -581210.59990832582 0 -581210.59990832582 -1472308.9323403332 0 0 0 0 -268694596.07814407 -655072452.69796753 0 -655072452.69796753 -337915549.83179778 0 0 0 0 -30928452.814957619 279473469.67666531 0 279473469.67666531 697625013.42680359 0 0 0 0 561652230.49703217 267225966.93242073 0 267225966.93242073 -110319166.52365685 0 0 0 0 -228599222.42642403 205847715.16519165 0 205847715.16519165 -235114004.94040489 0 0 0 0 357507851.97554684 520567125.86679745 0 520567125.86679745 -1256174518.7874756 0 0 0 0 -465695226.7650032 -677890247.76425552 0 -677890247.76425552 -94256221.877891541 0 0 0 0 20780479.138739586 651298288.93066311 0 651298288.93066311 -1082638225.974762 0 0 0 0 -1302064.5924123889 -1266174.4302949854 0 -1266174.4302949854 -1445373.6468791142 0 0 0 0 -255290204.65385246 362183499.69392204 0 362183499.69392204 -843592896.48022461 0 0 0 0 252668812.05618668 -44158406.616970062 0 -44158406.616970062 -817204845.47719193 0 0 0 0 480972674.07983398 218098756.29521561 0 218098756.29521561 -1040320578.7678547 0 0 0 0 558865056.86674476 -625027064.03568602 0 -625027064.03568602 -794056895.44508362 0 0 0 0 -2012984.7487800312 1876930.3105651997 0 1876930.3105651997 -3701767.7532707574 0 0 0 0 -1839414853.1417389 -661948825.67473602 0 -661948825.67473602 -640793336.37554932 0 0 0 0 -35789221.21814537 -1312653747.2694435 0 -1312653747.2694435 -1366681853.167984 0 0 0 0 -381838101.00826073 -648162039.51333809 0 -648162039.51333809 -287211072.86071014 0 0 0 0 255288545.09315491 228055092.01938629 0 228055092.01938629 42198767.930450439 0 0 0 0 177997682.91652584 275217504.31584215 0 275217504.31584215 183051088.42407227 0 0 0 0 4601740.6794762611 53179248.580471039 0 53179248.580471039 -56425074.923266411 0 0 0 0 -3465286.9844949599 3558587.1847467702 0 3558587.1847467702 -2824759.8098817421 0 0 0 0 140188899.40194988 111284228.97876263 0 111284228.97876263 149599594.03600788 0 0 0 0 212715951.52610302 74087199.258094788 0 74087199.258094788 -122546909.54391861 0 0 0 0 -216163098.10629082 -21458874.905007362 0 -21458874.905007362 8534430.2077646255 0 0 0 0 203567776.39741564 -2050268.9971241951 0 -2050268.9971241951 -226352900.28996754 0 0 0 0 -534437.6088796492 544499.62219136674 0 544499.62219136674 -577458.9069225213 0 0 0 0 12751675.929013729 -8681641.5211277008 0 -8681641.5211277008 3662340.3707866669 0 0 0 0 -3146342.3262194106 2226329.0755078979 0 2226329.0755078979 -1579471.2254618094 0 0 0 0 -156261389.04733372 376615141.24823594 0 376615141.24823594 384211165.0699482 0 0 0 0 -145105246.76102304 -130796670.18802166 0 -130796670.18802166 -77436650.511434555 0 0 0 0 63213250.882443428 -128140070.97135353 0 -128140070.97135353 -435983069.66559029 0 0 0 0 73075742.178499222 5662191.0981559753 0 5662191.0981559753 -379828238.58488083 0 0 0 0 36792044.82281208 -35825742.351018906 0 -35825742.351018906 -237018004.33839464 0 0 0 0 23698477.916267395 -61198499.791332245 0 -61198499.791332245 -241634870.04569626 0 0 0 0 -23423203.905217171 241368095.82204247 0 241368095.82204247 -349341756.53504944 0 0 0 0 64025003.329055786 -15424739.789426804 0 -15424739.789426804 -393051332.59084511 0 0 0 0 1014395.4777565002 -13166633.624303818 0 -13166633.624303818 -198621314.01519012 0 0 0 0 2217728.1763591766 89037712.517650604 0 89037712.517650604 -278874698.60699081 0 0 0 0 -44091554.636235237 52323931.517372131 0 52323931.517372131 -157954533.86520767 0 0 0 0 12216568.730173111 18029562.241863251 0 18029562.241863251 -164004728.78887272 0 0 0 0 -27338091.199224472 93197314.270462036 0 93197314.270462036 -292364918.42302704 0 0 0 0 -48359796.13884306 -1069351.890709877 0 -1069351.890709877 54329636.746328354 0 0 0 0 -5461327.3914958974 3414554.1574971201 0 3414554.1574971201 -2039501.8664178778 0 0 0 0 -40214902.550397873 -7793174.5759658813 0 -7793174.5759658813 -71168132.380451202 0 0 0 0 124473.78466629982 41591525.209988594 0 41591525.209988594 -45901342.821533203 0 0 0 0 -31120020.608767033 -66840326.526292801 0 -66840326.526292801 -62031946.956066132 0 0 0 0 8947707.1085910797 -25739401.50674057 0 -25739401.50674057 -71079908.231231689 0 0 0 0 -10149460.511106968 -2113929.5790066719 0 -2113929.5790066719 -76854163.929672241 0 0 0 0 111405505.57498264 112161206.5241642 0 112161206.5241642 77288179.080997467 0 0 0 0 3451834.9054105282 54728059.380371928 0 54728059.380371928 77211972.984375 0 0 0 0 -3837526.4872065308 4128548.2810440999 0 4128548.2810440999 -3163523.4229364116 0 0 0 0 148860655.07596374 62216154.810989857 0 62216154.810989857 -8988289.3510131836 0 0 0 0 108026375.91103458 55742347.175630569 0 55742347.175630569 -3704203.4221363068 0 0 0 0 63281200.396911144 59767964.231721878 0 59767964.231721878 -1605202.2606105804 0 0 0 0 63835515.438763618 49948540.366031647 0 49948540.366031647 -3259119.7635116577 0 0 0 0 -1240200.1577231968 -388794.25635817647 0 -388794.25635817647 1370824.9684779374 0 0 0 0 103500726.17782211 43369938.662568092 0 43369938.662568092 -30955784.341899872 0 0 0 0 20620636.044327259 6600687.1719388962 0 6600687.1719388962 -6700308.4029636383 0 0 0 0 -16242831.455591202 9106501.6087322235 0 9106501.6087322235 2070795.0590331852 0 0 0 0 -1009909.766383453 3891014.8013242474 0 3891014.8013242474 -978225.83173385123 0 0 0 0 -12272373.713943481 19270870.659399033 0 19270870.659399033 -14154717.505764961 0 0 0 0 13288251.179121017 23626567.729624748 0 23626567.729624748 7113455.8557262421 0 0 0 0 79822968.897797585 6403602.7766222954 0 6403602.7766222954 -3793268.8081235886 0 0 0 0 137075824.78159666 -9916122.1472101212 0 -9916122.1472101212 -26607764.810465813 0 0 0 0 112510609.08515644 36304356.940151691 0 36304356.940151691 -29325434.891847134 0 0 0 0 118706672.6981163 29823062.41454649 0 29823062.41454649 -46349572.957967758 0 0 0 0 82054500.679193974 -3113370.4227595329 0 -3113370.4227595329 -43375627.058433533 0 0 0 0 88074615.888672352 7919397.1975779533 0 7919397.1975779533 -26721322.75563097 0 0 0 0 108645297.4378624 13380365.554441452 0 13380365.554441452 -71780990.431098938 0 0 0 0 131983780.82110405 50202429.564797878 0 50202429.564797878 -51980222.260901451 0 0 0 0 54933418.411028385 -1523599.620680809 0 -1523599.620680809 -46752817.139043331 0 0 0 0 53125530.216262341 16381335.984391212 0 16381335.984391212 -82628042.677433968 0 0 0 0 61370337.54193306 36007990.411165237 0 36007990.411165237 -55128953.665971756 0 0 0 0 -51394272.593194008 14534099.256136894 0 14534099.256136894 -26522810.960419178 0 0 0 0 -3355096.3947120607 18081728.815015614 0 18081728.815015614 -20806833.080674171 0 0 0 0 150139381.1677382 -48047181.69670105 0 -48047181.69670105 8027639.2007389069 0 0 0 0 67965106.843894482 27033696.230428696 0 27033696.230428696 16323374.866083145 0 0 0 0 196557565.35473633 30151013.990388393 0 30151013.990388393 -33920570.347665787 0 0 0 0 58889773.317875862 -682846.67720127106 0 -682846.67720127106 -54033669.830354214 0 0 0 0 204279.42802834511 3234292.4743537903 0 3234292.4743537903 -25720507.306061745 0 0 0 0 -58160077.484109402 48406727.366491795 0 48406727.366491795 -25913068.251171112 0 0 0 0 19487545.298355371 44141424.588383794 0 44141424.588383794 -56133831.181744576 0 0 0 0 -843236.46941568272 1371439.4307349245 0 1371439.4307349245 161704.32861224562 0 0 0 0 113988741.155159 18020395.953135967 0 18020395.953135967 -24279982.390913963 0 0 0 0 -293642.61895793944 326972.93210506369 0 326972.93210506369 117692.81014561281 0 0 0 0 263484703.8472929 -56836728.543375015 0 -56836728.543375015 -36819097.288808823 0 0 0 0 -108974654.65478039 78028663.543775558 0 78028663.543775558 -92488785.664925575 0 0 0 0 8871.3313680740539 42889.107184437802 0 42889.107184437802 126624.72136230581 0 0 0 0 -163668903.08055925 134921756.79541922 0 134921756.79541922 -77552671.349259734 0 0 0 0 145701744.51938868 -141147676.5669117 0 -141147676.5669117 -1122024.3542118073 0 0 0 0 149222100.89747691 -41126251.133051872 0 -41126251.133051872 -3006259.0806732178 0 0 0 0 281936.68691901164 202091.37401569262 0 202091.37401569262 159723.92453444889 0 0 0 0 46515603.685271263 -33790131.885027409 0 -33790131.885027409 -52690759.491275787 0 0 0 0 -84293215.915831566 200162906.7026124 0 200162906.7026124 -74008465.77191329 0 0 0 0 455973.73286325438 238664.30169119034 0 238664.30169119034 125639.89184356946 0 0 0 0 98450189.93785429 -116730120.07706213 0 -116730120.07706213 13495488.177005768 0 0 0 0 95718409.05134964 -107592466.98435593 0 -107592466.98435593 -3530747.1240310669 0 0 0 0 25015627.718282223 -77535501.744311452 0 -77535501.744311452 433818.04179191589 0 0 0 0 80657417.344530582 -101544917.87436676 0 -101544917.87436676 14982649.406169891 0 0 0 0 91140455.110671759 -66804038.875510216 0 -66804038.875510216 -58264246.773560524 0 0 0 0 34125717.927708626 -41233449.914776325 0 -41233449.914776325 -49473480.815504551 0 0 0 0 25100718.293716431 9696818.6684741974 0 9696818.6684741974 -2710315.4207248688 0 0 0 0 56184046.480520248 -5736131.6710369587 0 -5736131.6710369587 -45836596.468381882 0 0 0 0 39529289.264631271 13465080.421390533 0 13465080.421390533 -110600733.84677982 0 0 0 0 41236484.058249474 -25573703.984415054 0 -25573703.984415054 -60017419.431919098 0 0 0 0 -8062307.7073965073 54218139.253641129 0 54218139.253641129 -96412039.499981642 0 0 0 0 23077932.592586994 -25389478.138793468 0 -25389478.138793468 -45483145.127925873 0 0 0 0 -7571128.2869400978 -21988457.333516598 0 -21988457.333516598 -31663131.023565292 0 0 0 0 24314169.178015232 -7671022.6614937782 0 -7671022.6614937782 -75986663.629580498 0 0 0 0 175426.78413820267 -4195287.5968623161 0 -4195287.5968623161 -19796227.839197636 0 0 0 0 204144.89487010986 -104492.84931912459 0 -104492.84931912459 -16003384.19089222 0 0 0 0 -677491.87907028198 13465062.697230339 0 13465062.697230339 -35651432.245768547 0 0 0 0 -117421.5313359499 -91449169.780391455 0 -91449169.780391455 -2883072.9638023376 0 0 0 0 25596870.859997272 -18309011.027656555 0 -18309011.027656555 2275874.7733528614 0 0 0 0 -24871412.301417112 1277869.5403430462 0 1277869.5403430462 4904412.313949585 0 0 0 0 254249.3157746559 -50362.578628531191 0 -50362.578628531191 46567.578526059166 0 0 0 0 826882.67233094294 -566446.31501171133 0 -566446.31501171133 -210788.80924308114 0 0 0 0 652378.15914317337 -132802.69858910376 0 -132802.69858910376 -720734.96661078744 0 0 0 0 -27288233.35925442 25626029.814979076 0 25626029.814979076 -9520952.2912731171 0 0 0 0 25806786.181424618 -37313779.715950966 0 -37313779.715950966 64637821.389958382 0 0 0 0 133447617.35626578 73747076.076814651 0 73747076.076814651 36052568.008806229 0 0 0 0 180864500.4851923 134785022.23767185 0 134785022.23767185 82906457.153833389 0 0 0 0 85443243.305706263 -113748705.20916939 0 -113748705.20916939 30714284.774949074 0 0 0 0 252491816.52679437 30603936.360199094 0 30603936.360199094 -47705168.409484863 0 0 0 0 207537461.08216286 -139153638.79303646 0 -139153638.79303646 -53717163.055944443 0 0 0 0 140970911.55185938 -31973127.074516296 0 -31973127.074516296 -33113797.921455383 0 0 0 0 114687838.60301614 -33992868.110261917 0 -33992868.110261917 -32487121.769869089 0 0 0 0 123314298.14820719 -10952297.765068531 0 -10952297.765068531 -42137118.360647202 0 0 0 0 154426759.91915041 22064176.890916348 0 22064176.890916348 -13836979.255390167 0 0 0 0 12188997.27453208 27716157.163200378 0 27716157.163200378 26623301.171214104 0 0 0 0 -25259545.464524195 17769455.467593193 0 17769455.467593193 43379557.449384689 0 0 0 0 801037.32453316054 -1164870.1919030147 0 -1164870.1919030147 -1313722.7127724476 0 0 0 0 46368341.400601923 -26005893.079964161 0 -26005893.079964161 -14532772.106729507 0 0 0 0 86414878.357400656 989463.23152732849 0 989463.23152732849 -20294843.94402504 0 0 0 0 88681850.561685324 -10359794.513851166 0 -10359794.513851166 -10332921.131214857 0 0 0 0 493405.94039697311 -1713646.4011520385 0 -1713646.4011520385 -571632.8755345121 0 0 0 0 1393222.2461095154 -1573638.91695261 0 -1573638.91695261 -971512.46611404419 0 0 0 0 4434693.6719216108 2311187.835316658 0 2311187.835316658 -2132058.5549030304 0 0 0 0 10763.76645461368 -215819.23744278401 0 -215819.23744278401 -725176.28186990973 0 0 0 0 108903365.46291614 -42063047.362662315 0 -42063047.362662315 32722658.246881485 0 0 0 0 88572112.640175581 -10912646.022390366 0 -10912646.022390366 -5219766.0874204636 0 0 0 0 124800017.42645574 -17169179.745854378 0 -17169179.745854378 -19083489.527528763 0 0 0 0 14179707.390902877 21498060.681885242 0 21498060.681885242 -11097935.048301697 0 0 0 0 -524492.23681372555 -346942.9567268556 0 -346942.9567268556 -51557.95175229758 0 0 0 0 196910691.42433929 -134369772.6539793 0 -134369772.6539793 -16675667.930245876 0 0 0 0 14046280.933672071 10825206.912276268 0 10825206.912276268 3313078.2980918884 0 0 0 0 407052.89020791149 -1044715.741531704 0 -1044715.741531704 -2855842.3122440223 0 0 0 0 425581.39539423096 557125.48286694475 0 557125.48286694475 -232121.18833781965 0 0 0 0 -6299530.9221406728 -7249536.082983017 0 -7249536.082983017 -826337.59398269653 0 0 0 0 19336518.255237117 -10282275.479500532 0 -10282275.479500532 -8562701.272151947 0 0 0 0 -661104.01753854752 -54056765.186966896 0 -54056765.186966896 -70568229.194437504 0 0 0 0 -122224248.70754147 -44227919.101949692 0 -44227919.101949692 -54089374.00009346 0 0 0 0 -126045.11074761394 -59549.832770312671 0 -59549.832770312671 212460.89610424172 0 0 0 0 -6394661.6880423725 -27243409.986114085 0 -27243409.986114085 -55932028.970436096 0 0 0 0 -843140.68792310357 32543034.657284379 0 32543034.657284379 -31203425.461187363 0 0 0 0 814548.49833258218 -92129.24565785611 0 -92129.24565785611 -848141.93187269382 0 0 0 0 53226377.868911505 7005300.1763978004 0 7005300.1763978004 -10423083.082622528 0 0 0 0 362509.92126765708 -50832.591928901384 0 -50832.591928901384 -377116.59743928351 0 0 0 0 150261535.04038024 165180.77041912079 0 165180.77041912079 -10543086.62405017 0 0 0 0 -1648267.1060032845 -56731953.270964384 0 -56731953.270964384 -69689167.465852737 0 0 0 0 148639531.90214682 10390573.046425819 0 10390573.046425819 44791252.797317505 0 0 0 0 -22146856.06621027 -45418210.155912399 0 -45418210.155912399 81214812.488517761 0 0 0 0 71046581.627846718 -88520162.866804123 0 -88520162.866804123 -74646480.382309198 0 0 0 0 -221665200.02631009 -233327844.99840534 0 -233327844.99840534 -105340553.76941299 0 0 0 0 -46952853.532103062 -127638385.48192215 0 -127638385.48192215 -127986441.62768555 0 0 0 0 -39769113.864775181 -31021415.941200256 0 -31021415.941200256 -63563529.950531006 0 0 0 0 -57447207.583312035 -68653341.828458786 0 -68653341.828458786 -262284250.2120018 0 0 0 0 -56177008.226495743 -95441873.196793556 0 -95441873.196793556 -175325590.6660862 0 0 0 0 -10035468.811223507 -89524056.286136627 0 -89524056.286136627 -100950063.49392319 0 0 0 0 -196907372.84198129 -117133683.85804772 0 -117133683.85804772 45861321.467102051 0 0 0 0 565420.42640885024 141743.13576174923 0 141743.13576174923 -1958947.8664761288 0 0 0 0 -4460954.4264745712 -6013612.7378258705 0 -6013612.7378258705 2383479.4335765839 0 0 0 0 -13285037.579850674 -45361990.328083992 0 -45361990.328083992 -134249839.47165489 0 0 0 0 -29798752.86536479 -133694616.32869053 0 -133694616.32869053 -170427587.31547165 0 0 0 0 155435648.33714056 -67675559.589542389 0 -67675559.589542389 -391261311.59811401 0 0 0 0 108473571.95594525 -19841158.4532938 0 -19841158.4532938 -170140709.88118362 0 0 0 0 64392009.774027824 92016322.789983749 0 92016322.789983749 -135846134.86664581 0 0 0 0 39088159.053560257 -210462445.28163719 0 -210462445.28163719 -30033519.808087826 0 0 0 0 -392202.8200655058 -198110.27539710654 0 -198110.27539710654 138328.88824851997 0 0 0 0 27974654.681604326 -211387019.23064756 0 -211387019.23064756 140042890.28878784 0 0 0 0 -171278.46666763397 213932.64413399948 0 213932.64413399948 233079.79637289699 0 0 0 0 -19341715.43808651 -26404366.202804565 0 -26404366.202804565 -85383062.645278931 0 0 0 0 -81206774.552677155 12485998.675333023 0 12485998.675333023 -11173464.386592865 0 0 0 0 -5639655.4991570562 21791922.934189558 0 21791922.934189558 -2082581.9323596954 0 0 0 0 -113092067.86904272 -155369178.24009418 0 -155369178.24009418 -185507984.73600197 0 0 0 0 83363.541829381167 -408351.03467518091 0 -408351.03467518091 -1041604.1809540577 0 0 0 0 535258.19501750171 76183795.648009539 0 76183795.648009539 -266313312.18035698 0 0 0 0 -56424060.801211119 -58089047.735525131 0 -58089047.735525131 -39384841.182623863 0 0 0 0 -38227564.688225627 -108511925.16255188 0 -108511925.16255188 -151655475.40568161 0 0 0 0 10911541.925948143 -51483492.912353516 0 -51483492.912353516 -86701904.226593018 0 0 0 0 54922381.577566624 -61028231.217308044 0 -61028231.217308044 -244016117.49186224 0 0 0 0 58657743.627045155 -80894030.497106552 0 -80894030.497106552 -244543334.61238098 0 0 0 0 28992277.622951031 103747899.93369675 0 103747899.93369675 -220120410.05810523 0 0 0 0 60449176.078549981 -44204027.519289017 0 -44204027.519289017 -209030994.93290329 0 0 0 0 64522460.569605544 -36730980.703001976 0 -36730980.703001976 -503888626.14557648 0 0 0 0 -65873562.540692449 270754134.61215973 0 270754134.61215973 -377760930.16830063 0 0 0 0 -39781140.915939659 153122348.65053463 0 153122348.65053463 10480320.559669495 0 0 0 0 -14327016.079174161 84533727.03984642 0 84533727.03984642 -39150389.188858032 0 0 0 0 -4170619.2372977734 44653204.488466263 0 44653204.488466263 -11771841.958122253 0 0 0 0 -18084570.990918517 67101769.156785488 0 67101769.156785488 -3328691.0969314575 0 0 0 0 150069918.3393448 -81113369.058019161 0 -81113369.058019161 -335412695.29657364 0 0 0 0 146002961.25709531 -156433871.8903923 0 -156433871.8903923 -497558937.18786812 0 0 0 0 -247618075.73499143 -212220301.81476974 0 -212220301.81476974 -159049718.9835434 0 0 0 0 -364878780.47327447 169066643.30436516 0 169066643.30436516 38529710.766136169 0 0 0 0 -71464500.83216545 44430370.530698776 0 44430370.530698776 51810627.99936676 0 0 0 0 -111444442.01978779 9227978.310798645 0 9227978.310798645 311118423.80021667 0 0 0 0 -162806757.60558009 116954864.83408928 0 116954864.83408928 450667482.56364441 0 0 0 0 115999085.89109683 36059413.556602478 0 36059413.556602478 4212027.0180740356 0 0 0 0 46246426.993064344 -75349369.828460693 0 -75349369.828460693 188707975.47711945 0 0 0 0 -270856.18252147874 243023.5189066208 0 243023.5189066208 -907301.72662554309 0 0 0 0 -6785573.6003845334 -9577485.9931974411 0 -9577485.9931974411 199397520.49509561 0 0 0 0 -10496552.776570439 8233979.5336418152 0 8233979.5336418152 -3484350.0698814392 0 0 0 0 1670977.7693548203 1213796.0829868317 0 1213796.0829868317 -2124618.7500858307 0 0 0 0 -39043.120693261815 310182.55900153983 0 310182.55900153983 -22017.424817102961 0 0 0 0 -100807720.34897444 -157428444.6993103 0 -157428444.6993103 479442052.15634608 0 0 0 0 675851.51726616954 603721.31222250895 0 603721.31222250895 -2076916.669020623 0 0 0 0 683025.82518267632 1394441.1045093536 0 1394441.1045093536 -1276362.1795082092 0 0 0 0 -2529435.08198452 -275065.47397232056 0 -275065.47397232056 58877589.345331192 0 0 0 0 15760583.126689196 13755188.975993156 0 13755188.975993156 59199197.619106293 0 0 0 0 -649349.34536881326 1914963.766150875 0 1914963.766150875 -560996.5685042562 0 0 0 0 56067307.290890813 -9810626.2885742188 0 -9810626.2885742188 129009106.71511078 0 0 0 0 12420426.670884728 -116019654.49411011 0 -116019654.49411011 108491671.77034664 0 0 0 0 -35702596.467066824 56532831.377471924 0 56532831.377471924 136007467.71429443 0 0 0 0 49727249.098132312 -105387331.76946259 0 -105387331.76946259 245883262.16082954 0 0 0 0 87918628.503504336 60793072.622810364 0 60793072.622810364 280351830.81918335 0 0 0 0 -134198.40700424596 57583.765776142478 0 57583.765776142478 158818.04118463024 0 0 0 0 1139626.6105734706 2134470.7050571442 0 2134470.7050571442 -1561778.377166748 0 0 0 0 -5435824.4319722652 -426001.36940360069 0 -426001.36940360069 979113.68300247192 0 0 0 0 213386.65552952659 1162673.9608795042 0 1162673.9608795042 -2201988.5365907317 0 0 0 0 19763414.643764019 42386801.083688736 0 42386801.083688736 5357944.6077375412 0 0 0 0 1915874.3071305752 5802312.2946901321 0 5802312.2946901321 -981276.92845821381 0 0 0 0 11110784.991174579 -61141381.771544933 0 -61141381.771544933 -57036258.278699875 0 0 0 0 7847698.0497698784 63517006.591112137 0 63517006.591112137 -13928196.86460495 0 0 0 0 22822798.286207676 -42287579.888507843 0 -42287579.888507843 -30677479.852243423 0 0 0 0 -90483491.528794885 91790705.616682053 0 91790705.616682053 108478306.9131155 0 0 0 0 115978632.23954731 -36543870.162666321 0 -36543870.162666321 -306763971.13230896 0 0 0 0 13949929.785003662 69030669.616036415 0 69030669.616036415 104001104.04888916 0 0 0 0 -118356.45286111283 250515.14976453176 0 250515.14976453176 -302686.30058062449 0 0 0 0 -23180872.990243167 -107473621.35265636 0 -107473621.35265636 -122670733.56079865 0 0 0 0 1945994.560290575 -69735678.112724304 0 -69735678.112724304 -67717879.776087761 0 0 0 0 18826714.497435689 -38211796.013115883 0 -38211796.013115883 -27690770.232963562 0 0 0 0 -23258337.856565237 8667444.6466245651 0 8667444.6466245651 7213303.270652771 0 0 0 0 -11994505.120996952 11617560.451685905 0 11617560.451685905 -10169955.90619278 0 0 0 0 -106384.58414666215 28443.586156046484 0 28443.586156046484 -329472.87390618026 0 0 0 0 -9480919.0627057552 -73004434.812143326 0 -73004434.812143326 -98713278.936623573 0 0 0 0 -173752308.75143027 -45067015.912494659 0 -45067015.912494659 -25006747.221172333 0 0 0 0 -71085897.090198994 9999719.2635002136 0 9999719.2635002136 3761425.567817688 0 0 0 0 -88629888.32582663 -91073936.082125425 0 -91073936.082125425 -53160483.681610107 0 0 0 0 29645527.052591793 -76859768.485604286 0 -76859768.485604286 -73672455.711956024 0 0 0 0 -9653640.385088861 -80257340.623384476 0 -80257340.623384476 -50439298.557565689 0 0 0 0 103681724.0643537 -63840499.029880524 0 -63840499.029880524 -117955331.90018177 0 0 0 0 -23842585.610862672 21763761.055964947 0 21763761.055964947 14364681.306966782 0 0 0 0 -45108385.840784252 88391014.010770798 0 88391014.010770798 -193743912.71638632 0 0 0 0 -100930055.43552688 -159659780.46345425 0 -159659780.46345425 -180362039.63135719 0 0 0 0 -121325444.46754822 52782692.201126099 0 52782692.201126099 41052.454141616821 0 0 0 0 1617039.0594533682 -16142830.37310791 0 -16142830.37310791 -3165507.2488857508 0 0 0 0 141820972.8124088 105937566.94829941 0 105937566.94829941 -75978900.406478882 0 0 0 0 10197698.962707877 -21930091.043706894 0 -21930091.043706894 13550180.556468964 0 0 0 0 -182569.574038947 531345.52877226518 0 531345.52877226518 -844646.67663879879 0 0 0 0 31209364.857291877 -81230904.73416996 0 -81230904.73416996 -28680774.566205978 0 0 0 0 143233064.40492502 -10920490.799472809 0 -10920490.799472809 -46901662.230215073 0 0 0 0 58267584.737883389 -66844411.529587746 0 -66844411.529587746 -81756744.961589813 0 0 0 0 170804741.65093493 127944073.25577545 0 127944073.25577545 -50763514.037624359 0 0 0 0 -182125.04787731051 534175.65528557147 0 534175.65528557147 -822550.68396302313 0 0 0 0 146651189.53880996 12454811.936940193 0 12454811.936940193 -77817752.982130051 0 0 0 0 82260070.188453317 -363079.04266738892 0 -363079.04266738892 -68746454.369350433 0 0 0 0 44123363.612590969 97071020.798000336 0 97071020.798000336 -312164392.5075531 0 0 0 0 -134562981.9422617 -213076570.67282963 0 -213076570.67282963 -198102458.39393997 0 0 0 0 -2011570.6133978367 -61933185.776737213 0 -61933185.776737213 -26316230.918582916 0 0 0 0 -2015862.923309207 -61856717.067193985 0 -61856717.067193985 -19082886.112541199 0 0 0 0 -4003565.6150630713 -47751677.382871628 0 -47751677.382871628 -56719979.036903381 0 0 0 0 23851404.211245298 -78448110.701152802 0 -78448110.701152802 -24818891.477067947 0 0 0 0 -5580389.4847854376 -59970673.754621506 0 -59970673.754621506 -27313945.434732437 0 0 0 0 23832451.41077432 -38056821.357975006 0 -38056821.357975006 -72556691.791954041 0 0 0 0 -30494274.094959646 -17399384.31192112 0 -17399384.31192112 -27247090.949463844 0 0 0 0 -26620579.970997434 -18210101.504528046 0 -18210101.504528046 -15767847.435157776 0 0 0 0 58606.920703692136 159749.62648926117 0 159749.62648926117 -142855.22662952589 0 0 0 0 41051254.353176475 -22049365.102279663 0 -22049365.102279663 -94073339.299354553 0 0 0 0 18172681.948676109 -121627148.10583878 0 -121627148.10583878 -95551630.513131142 0 0 0 0 45796752.629437804 -50685830.788555145 0 -50685830.788555145 -97990418.430538177 0 0 0 0 21222437.033905029 -6244114.3718414307 0 -6244114.3718414307 -60206165.350723267 0 0 0 0 -96505.872570492269 86001.698004629463 0 86001.698004629463 -85474.718720242381 0 0 0 0 -82425283.46881783 -109998276.91975021 0 -109998276.91975021 10806000.155295253 0 0 0 0 57000395.570709459 12051404.704950809 0 12051404.704950809 -54787038.667591095 0 0 0 0 46849930.632259205 -14925765.070031166 0 -14925765.070031166 -37999512.648365021 0 0 0 0 755627.43499135971 17500289.397392273 0 17500289.397392273 -92883593.352967501 0 0 0 0 -32039174.564674854 -16139346.07093811 0 -16139346.07093811 -53848320.649169922 0 0 0 0 -60562149.228939071 -58038626.44413662 0 -58038626.44413662 -108076174.0145874 0 0 0 0 -58924749.946808942 -4850241.7746711969 0 -4850241.7746711969 -85191081.107727051 0 0 0 0 29378878.41978991 19078977.977935791 0 19078977.977935791 -101353870.82276917 0 0 0 0 18538682.038645625 -11410956.396713257 0 -11410956.396713257 -88534053.334320068 0 0 0 0 -12445075.356776834 60084003.746639252 0 60084003.746639252 -46110709.850929737 0 0 0 0 -24069996.699075162 -562124.39194488525 0 -562124.39194488525 64864476.245349884 0 0 0 0 12326112.644525409 26578951.972905159 0 26578951.972905159 18599969.940963745 0 0 0 0 409178.88884735107 -1627897.792427063 0 -1627897.792427063 -8262121.6577367783 0 0 0 0 27917.006993102725 27057.393578831106 0 27057.393578831106 -1139040.7990522338 0 0 0 0 -10931937.538359523 -23635703.635162354 0 -23635703.635162354 -13893378.655916214 0 0 0 0 -19481917.652042087 -7438186.1321665049 0 -7438186.1321665049 5125438.3019790649 0 0 0 0 43236.056364242038 -128937.29024373036 0 -128937.29024373036 -148353.94210835919 0 0 0 0 1357704.4724154323 -420320.63162231445 0 -420320.63162231445 759607.21474981308 0 0 0 0 -50177986.583953962 -96181852.847588062 0 -96181852.847588062 -209904130.4816246 0 0 0 0 42754027.451400757 44939804.267347336 0 44939804.267347336 70865338.626890182 0 0 0 0 -104920.68010414491 236186.66793562076 0 236186.66793562076 -337542.52069374546 0 0 0 0 -104538795.79565139 85445676.433898687 0 85445676.433898687 91296108.082847595 0 0 0 0 36457885.133633375 -20000017.304344177 0 -20000017.304344177 -390901528.91755676 0 0 0 0 13416732.98890936 -70471615.312747538 0 -70471615.312747538 -248675072.21074677 0 0 0 0 -23484129.180622518 -108609384.3759346 0 -108609384.3759346 -206568606.37944412 0 0 0 0 -74831994.489864349 -60580983.012516022 0 -60580983.012516022 -90700636.9099617 0 0 0 0 11244880.025542498 134338.4524230957 0 134338.4524230957 -106190255.77729464 0 0 0 0 -25986473.707528502 27654798.203629494 0 27654798.203629494 -86933517.764213562 0 0 0 0 -31869977.39038372 187024900.8275032 0 187024900.8275032 -32623272.23289299 0 0 0 0 119124149.986696 64473035.061267853 0 64473035.061267853 -293385081.4087944 0 0 0 0 -43725421.229040027 259527702.06676865 0 259527702.06676865 -45118858.754592896 0 0 0 0 -13324829.495883942 51792582.916889191 0 51792582.916889191 264510736.09227753 0 0 0 0 1050964.6254733801 -1671455.5187826157 0 -1671455.5187826157 -283235.92066574097 0 0 0 0 88478.350893706083 -6613530.6516923904 0 -6613530.6516923904 2444341.4903533459 0 0 0 0 45016.606021216372 -1295136.9106863651 0 -1295136.9106863651 -308425.44334248826 0 0 0 0 251960.59318282927 -448688.58399675973 0 -448688.58399675973 -2642716.1183128906 0 0 0 0 679217.76440429688 -482493.25814676285 0 -482493.25814676285 -353075.18098449707 0 0 0 0 809922.42681391933 -1222053.6135398047 0 -1222053.6135398047 -2220910.4521566024 0 0 0 0 366373.63119224407 -405427.99978379393 0 -405427.99978379393 -1005175.5364319207 0 0 0 0 901198.67210364342 -960700.92883682251 0 -960700.92883682251 -560907.30738067627 0 0 0 0 1170427.4638915062 -846904.62977981567 0 -846904.62977981567 -587135.06528091431 0 0 0 0 834946.93175244331 -1319204.6419577599 0 -1319204.6419577599 -1035230.8815803528 0 0 0 0 551262.44089975022 -1113809.7482921919 0 -1113809.7482921919 -3710087.1722923005 0 0 0 0 -176703.40970631846 -1024711.4594063284 0 -1024711.4594063284 -4428944.5764832878 0 0 0 0 3186176.1670885086 -3557512.8813762665 0 -3557512.8813762665 604017.08278369904 0 0 0 0 1603165.8188083784 -1853569.9851471893 0 -1853569.9851471893 -4682526.7856894545 0 0 0 0 330196.83425456285 -892467.76152873039 0 -892467.76152873039 -355382.36197662354 0 0 0 0 561206.22048925224 -2215833.7034964762 0 -2215833.7034964762 -253363.9393551629 0 0 0 0 33759838.481376052 -98954541.202125549 0 -98954541.202125549 314129473.50940037 0 0 0 0 -981130.33139850886 -619211.24602711108 0 -619211.24602711108 -1417772.3326774035 0 0 0 0 21989498.779707909 20718090.070926666 0 20718090.070926666 119826220.43954086 0 0 0 0 2901182.7452535294 -6524257.6830450594 0 -6524257.6830450594 4575920.186958313 0 0 0 0 1126360.6231793761 -5358290.1807661057 0 -5358290.1807661057 5344324.9335975647 0 0 0 0 -18946.238615016933 -2483100.5552296517 0 -2483100.5552296517 1742285.9134657728 0 0 0 0 -324796.1577937603 -3973430.5167452097 0 -3973430.5167452097 4696359.8178024292 0 0 0 0 -59083.244710465253 -755680.48154075933 0 -755680.48154075933 88443.409204997122 0 0 0 0 -6868803.0288616419 -8904522.4616069794 0 -8904522.4616069794 -7099557.6050071716 0 0 0 0 84096.956929922104 -1610429.1935758591 0 -1610429.1935758591 194746.56860160828 0 0 0 0 -43129.278810501099 -12165250.693902969 0 -12165250.693902969 -16332226.22030735 0 0 0 0 617482.45764923096 -5620811.8103170395 0 -5620811.8103170395 -12939077.385232925 0 0 0 0 -392096.99772368441 -1188963.2723147213 0 -1188963.2723147213 -130270.53599274904 0 0 0 0 -918902.34786844254 1891732.7621679306 0 1891732.7621679306 7211875.2284908295 0 0 0 0 -23175.992241740227 -1250241.0738582611 0 -1250241.0738582611 -5015282.1917266846 0 0 0 0 170520.19319149852 -327906.72489881516 0 -327906.72489881516 -6323750.8233833313 0 0 0 0 57382.024865984917 -112662.41703605652 0 -112662.41703605652 -7141951.8223381042 0 0 0 0 -41525939.395042419 77167895.703346252 0 77167895.703346252 87347257.84985733 0 0 0 0 -103007.09324761666 -855836.39582443237 0 -855836.39582443237 -5916369.2863602638 0 0 0 0 214083.95209677471 -89102.741863274947 0 -89102.741863274947 -2382314.2514526383 0 0 0 0 -275991.73634607345 -1502951.0971183777 0 -1502951.0971183777 -6132677.8706035614 0 0 0 0 -866843.52962117642 -1192152.2308158875 0 -1192152.2308158875 -5207242.9940910339 0 0 0 0 21318.490746298805 -191300.71996688843 0 -191300.71996688843 -4907088.9071631432 0 0 0 0 6960731.1125940084 -3022311.5583906174 0 -3022311.5583906174 4224895.6469306946 0 0 0 0 -573819.79638761282 -930125.40703392029 0 -930125.40703392029 -2359668.4460029602 0 0 0 0 172758.09809101815 -695720.80650184816 0 -695720.80650184816 -6237369.1187186427 0 0 0 0 390484.93235707283 -804173.82496070862 0 -804173.82496070862 -2371229.6243667603 0 0 0 0 357030.18208700418 -378655.06596183777 0 -378655.06596183777 -4653424.4369716644 0 0 0 0 93934.760078305961 159133.08634093357 0 159133.08634093357 -155998.16632721946 0 0 0 0 556066.64417183399 -1387666.5766410828 0 -1387666.5766410828 -2240963.2022094727 0 0 0 0 867927.95266112685 245289.16906023026 0 245289.16906023026 -1687733.820098877 0 0 0 0 -117801.7816888208 -459487.37969045294 0 -459487.37969045294 -2186169.0567352194 0 0 0 0 3705131.7885417342 5618276.1324853897 0 5618276.1324853897 1735090.5060424805 0 0 0 0 -1331416.9827857614 -1035144.3209629059 0 -1035144.3209629059 -4034418.4832706451 0 0 0 0 -117352.751419682 222744.42332895007 0 222744.42332895007 210507.97462109104 0 0 0 0 -3989769.5233153701 1692360.4787416458 0 1692360.4787416458 3851695.1471710205 0 0 0 0 -12159972.58972764 -698958.65765762329 0 -698958.65765762329 -187966.20390748978 0 0 0 0 849908.43929064274 5735385.8433647156 0 5735385.8433647156 647472.30056905746 0 0 0 0 2956286.283785671 3795544.8288574219 0 3795544.8288574219 2114770.3331031799 0 0 0 0 -23170372.351593018 -23977887.172609329 0 -23977887.172609329 -27510091.88049984 0 0 0 0 5040943.3064310718 2194769.1924698222 0 2194769.1924698222 -9476027.3077780697 0 0 0 0 -24436023.787851632 -35177355.156916738 0 -35177355.156916738 -47092544.780849457 0 0 0 0 5127424.8926717807 2649940.3033699458 0 2649940.3033699458 -9542699.5281638205 0 0 0 0 6942284.6445479989 20518987.938383818 0 20518987.938383818 10534464.625892639 0 0 0 0 9180425.0973687172 5530685.7314214706 0 5530685.7314214706 1012620.2262935638 0 0 0 0 -8830049.0766147375 18389852.720052719 0 18389852.720052719 -7991643.7248878479 0 0 0 0 19153279.122576177 25163798.631632566 0 25163798.631632566 5201838.66522789 0 0 0 0 8514792.280708909 6747635.4057168961 0 6747635.4057168961 3139124.2339859009 0 0 0 0 -1652548.4244744778 -6917697.3578081131 0 -6917697.3578081131 -12791833.330909252 0 0 0 0 11576657.690844536 8260594.1894493103 0 8260594.1894493103 -8527931.6726837158 0 0 0 0 6935617.0298688412 -2498479.0779027939 0 -2498479.0779027939 -30105139.283317566 0 0 0 0 -9056266.9914662838 11693429.422336578 0 11693429.422336578 -34910013.405801773 0 0 0 0 -10052019.81904006 -14233000.461732864 0 -14233000.461732864 -15490884.105849266 0 0 0 0 -5596393.9189145565 12291297.106430054 0 12291297.106430054 -35350012.337657928 0 0 0 0 26534356.15075326 -12958148.602423668 0 -12958148.602423668 -35655856.109498978 0 0 0 0 -3672757.7887568474 10361718.405603409 0 10361718.405603409 -37058101.841201782 0 0 0 0 46279.200786199508 357897.91237121448 0 357897.91237121448 -287761.99246653169 0 0 0 0 -21526240.414736703 4025936.7869546413 0 4025936.7869546413 -31796371.433235168 0 0 0 0 2979080.454379797 10264594.740962982 0 10264594.740962982 -37117171.520017624 0 0 0 0 39434.957048049837 68066.832716398872 0 68066.832716398872 -383699.12343862094 0 0 0 0 -8840976.2477605343 -6598279.2749557495 0 -6598279.2749557495 -10417258.148000717 0 0 0 0 6473576.7990900278 11680019.04488945 0 11680019.04488945 -35505929.582547188 0 0 0 0 15858381.261026502 -7798665.496006012 0 -7798665.496006012 -28101348.405694962 0 0 0 0 -886230.48966121674 -1309428.6317596436 0 -1309428.6317596436 -6217626.1742370129 0 0 0 0 -1326456.2812682986 -2281092.3571710587 0 -2281092.3571710587 -8357834.8534965515 0 0 0 0 -16036977.897109002 -3841401.7766971588 0 -3841401.7766971588 -2727426.9014625549 0 0 0 0 -7736774.4740823507 -35289186.242152214 0 -35289186.242152214 -12257592.826393127 0 0 0 0 -25619257.857278824 22717418.102508545 0 22717418.102508545 -30594735.721405029 0 0 0 0 1143702.6364049911 8064460.9844017029 0 8064460.9844017029 -24174603.914413452 0 0 0 0 845516.40075280005 664005.21780204773 0 664005.21780204773 -2107149.8500732016 0 0 0 0 29283279.008810639 29561713.303417206 0 29561713.303417206 -29766329.577136993 0 0 0 0 -17330274.044874668 48751213.768307686 0 48751213.768307686 -2881050.4642105103 0 0 0 0 -58048677.561725289 48709677.455921173 0 48709677.455921173 5644486.8824234009 0 0 0 0 82128462.962986469 96590791.331039429 0 96590791.331039429 14849647.92350769 0 0 0 0 -9867653.3396946192 853833.41891098022 0 853833.41891098022 -14979553.166795731 0 0 0 0 38723127.212037921 -70546764.961479187 0 -70546764.961479187 -48167247.83506012 0 0 0 0 140389099.80234537 -40214180.906863213 0 -40214180.906863213 -4866830.247505188 0 0 0 0 -36882263.240992337 -58243381.395227075 0 -58243381.395227075 -71998441.552211761 0 0 0 0 -30081934.835658908 52857.285110473633 0 52857.285110473633 -56414273.363571167 0 0 0 0 -2050760.7300781328 -176111.10825478751 0 -176111.10825478751 1014716.7651770413 0 0 0 0 -23902802.494924903 -40777143.652280807 0 -40777143.652280807 -54710663.028110504 0 0 0 0 -38381119.879859924 -36724508.866685867 0 -36724508.866685867 -50462664.400623798 0 0 0 0 671004.57960509206 331247.22911248729 0 331247.22911248729 -1044155.5350960754 0 0 0 0 12612795.190219641 30473172.159337997 0 30473172.159337997 -48087049.081386566 0 0 0 0 -1724218.0538156759 -756396.98522623349 0 -756396.98522623349 1227130.3702865168 0 0 0 0 -53130425.219940186 -16403099.87336731 0 -16403099.87336731 -93102649.184082031 0 0 0 0 -20279004.431917667 -65267210.705974579 0 -65267210.705974579 -20842692.129135132 0 0 0 0 -31617465.828855515 -43521036.359193802 0 -43521036.359193802 -51508765.88174057 0 0 0 0 -32069881.527633667 -35125218.227472305 0 -35125218.227472305 -40820134.038764 0 0 0 0 -24902499.121800423 -29233727.607561111 0 -29233727.607561111 -46194008.69405508 0 0 0 0 16870975.381981134 6541175.8127946854 0 6541175.8127946854 -7251381.3924636841 0 0 0 0 15809159.582112312 20640767.211938858 0 20640767.211938858 9684972.7915973663 0 0 0 0 4946180.8329225518 2801681.1627211636 0 2801681.1627211636 -9802985.5575184859 0 0 0 0 -24623820.916819572 -24014666.372501373 0 -24014666.372501373 -51934963.490451813 0 0 0 0 -21614184.3638587 -38044657.666007042 0 -38044657.666007042 -69381728.841777802 0 0 0 0 -51143619.320811272 -48309780.476997375 0 -48309780.476997375 -51426162.598587871 0 0 0 0 3411150.2001438141 -14934900.475326538 0 -14934900.475326538 -53573484.279515505 0 0 0 0 -33259599.963513136 -86083840.834705353 0 -86083840.834705353 -92665778.084686279 0 0 0 0 -30701676.901041031 -53010049.994613647 0 -53010049.994613647 -77950990.441812515 0 0 0 0 -13052883.107772827 2969050.6672172546 0 2969050.6672172546 -23142606.288422585 0 0 0 0 -2529103.0411231257 278773.24591704831 0 278773.24591704831 734501.53593590111 0 0 0 0 23909791.528787613 29926474.532603741 0 29926474.532603741 -24044577.597446442 0 0 0 0 3643220.3010878069 1817794.5784915406 0 1817794.5784915406 -11206044.59805819 0 0 0 0 -448992.81874376535 -67159092.954988003 0 -67159092.954988003 -73220746.570869446 0 0 0 0 -21639439.46736145 -27944176.542865753 0 -27944176.542865753 -5929288.5069503784 0 0 0 0 4516106.8871261403 2619610.1320940834 0 2619610.1320940834 -10308602.076111484 0 0 0 0 14057958.778075695 24606476.614429474 0 24606476.614429474 13572517.32349968 0 0 0 0 2059151.8961863518 11665844.290282249 0 11665844.290282249 7657684.8058791161 0 0 0 0 14982579.452618837 -10376135.678182602 0 -10376135.678182602 -94516422.963968277 0 0 0 0 97874.522052420769 257610.25825586729 0 257610.25825586729 -208295.77263895841 0 0 0 0 10651782.338193893 6358869.560546875 0 6358869.560546875 -1991219.3314304352 0 0 0 0 1114967.7786324024 10614098.462993622 0 10614098.462993622 3403016.2858161926 0 0 0 0 17296747.118584037 8584463.8559612036 0 8584463.8559612036 -644707.0795211792 0 0 0 0 7445994.6603905261 -3555101.854501009 0 -3555101.854501009 -13704116.914649963 0 0 0 0 78948.103612485225 455893.86441769078 0 455893.86441769078 -352604.11991853081 0 0 0 0 5038740.1963062286 -39907186.65395546 0 -39907186.65395546 -107054071.05282593 0 0 0 0 14153102.760906935 -26093191.285098076 0 -26093191.285098076 -86396521.364566803 0 0 0 0 -7886415.8952846527 -38715390.330087662 0 -38715390.330087662 -84617135.030361176 0 0 0 0 -8672951.476701498 -47679989.011389256 0 -47679989.011389256 -61054898.415153503 0 0 0 0 1014314.8121902943 -26541936.831856251 0 -26541936.831856251 -70786484.963195801 0 0 0 0 593097.49041076505 -783337.53234389471 0 -783337.53234389471 -1011606.9700486977 0 0 0 0 60046573.118913174 1076623.0837001801 0 1076623.0837001801 -17838755.496349335 0 0 0 0 -35470867.894766808 -35207547.616073608 0 -35207547.616073608 -23769946.365958214 0 0 0 0 -68134362.011009693 -57333963.960180283 0 -57333963.960180283 -30861409.238288879 0 0 0 0 -18987780.602663994 -44005048.211818695 0 -44005048.211818695 -58355719.430747986 0 0 0 0 -26531717.666324854 -34148897.455596924 0 -34148897.455596924 -45731764.749526978 0 0 0 0 -16291298.010178566 -22473009.061912537 0 -22473009.061912537 -35147012.631738663 0 0 0 0 -16977929.694429398 -20489829.9100914 0 -20489829.9100914 -15281491.591255188 0 0 0 0 -4828124.5023767948 -10448796.392742634 0 -10448796.392742634 -37346987.951053619 0 0 0 0 12870088.862563819 -15884101.220101118 0 -15884101.220101118 -76584127.806674957 0 0 0 0 -1185752.3849549294 -24894811.09333992 0 -24894811.09333992 -56457292.502763748 0 0 0 0 -3919642.0449864864 -16984831.193984985 0 -16984831.193984985 -76599141.338569641 0 0 0 0 1427702.9724707603 7289156.6842975616 0 7289156.6842975616 -72535677.496620178 0 0 0 0 1714110.8721389771 -17150862.644752502 0 -17150862.644752502 -39719555.00629282 0 0 0 0 -2640369.7792934775 -25680984.205135345 0 -25680984.205135345 -10152115.225028992 0 0 0 0 40448222.384805202 -11221527.452606201 0 -11221527.452606201 -35778675.650253773 0 0 0 0 -200422.48568537831 1494825.9528172016 0 1494825.9528172016 -20026577.460273743 0 0 0 0 35296834.912678897 101958901.44670439 0 101958901.44670439 -26922303.167993546 0 0 0 0 22141963.055374742 -35158153.037294388 0 -35158153.037294388 -90608318.835395813 0 0 0 0 3694731.6273219585 -111758966.25964928 0 -111758966.25964928 -230739832.89766312 0 0 0 0 97709970.722849965 84535658.311290741 0 84535658.311290741 -277910088.18199301 0 0 0 0 -168226368.13092464 19196278.494911194 0 19196278.494911194 130269296.46794891 0 0 0 0 -286903.34012581117 314802.03537012264 0 314802.03537012264 -257033.75649363734 0 0 0 0 -30256663.387926102 -4326233.090965271 0 -4326233.090965271 -5295368.2260627747 0 0 0 0 -322239863.72299844 -81461203.515195847 0 -81461203.515195847 116860175.49213791 0 0 0 0 -126720.85488961157 458777.22894986533 0 458777.22894986533 -441592.08572342061 0 0 0 0 26031648.873690128 -19933333.821568489 0 -19933333.821568489 -31600043.769715309 0 0 0 0 -1600962.3033549786 -7527944.3166666031 0 -7527944.3166666031 -10641045.488294601 0 0 0 0 -28208019.548810482 4227803.6768512726 0 4227803.6768512726 7168748.9808959961 0 0 0 0 10160.913063989021 447344.46377761383 0 447344.46377761383 -338918.77653080598 0 0 0 0 4678584.0435433388 5656446.556968689 0 5656446.556968689 -2779654.3652706146 0 0 0 0 16985696.746786177 -26098984.863822937 0 -26098984.863822937 -29932370.275234222 0 0 0 0 -29748419.909855843 33088109.753562927 0 33088109.753562927 -33562553.266405106 0 0 0 0 24973471.668106318 -24867517.17943573 0 -24867517.17943573 -159861582.12884331 0 0 0 0 76887.164005400846 240426.20505096205 0 240426.20505096205 -280972.05200108886 0 0 0 0 25446674.412175279 -35585298.346298218 0 -35585298.346298218 -105136938.36305618 0 0 0 0 10755374.35177771 -32017978.903367996 0 -32017978.903367996 -106003148.24041939 0 0 0 0 -47758473.54447484 -35448619.299983978 0 -35448619.299983978 -71789824.579864502 0 0 0 0 -21276244.139658451 16719833.212745667 0 16719833.212745667 -100336232.47022247 0 0 0 0 3986916.7469871044 -10680347.895355225 0 -10680347.895355225 -86342604.823417664 0 0 0 0 14900147.577812195 -36062283.918457031 0 -36062283.918457031 -48330366.727289438 0 0 0 0 -6645344.61024189 -37755426.641563416 0 -37755426.641563416 -48391676.642181396 0 0 0 0 -16962663.872568309 -13606205.286737442 0 -13606205.286737442 -41908536.958106995 0 0 0 0 10426860.348567486 -9799883.6135253906 0 -9799883.6135253906 -41379998.143771172 0 0 0 0 -853566.41550195217 -20710911.741545677 0 -20710911.741545677 -20889543.660804749 0 0 0 0 24901874.149271965 -19471667.077890396 0 -19471667.077890396 -23649920.217321396 0 0 0 0 17675719.32810092 -30892996.364845276 0 -30892996.364845276 -9380418.6788134575 0 0 0 0 -2944992.8440517783 -15025781.258439064 0 -15025781.258439064 -47629066.873756409 0 0 0 0 778395.16007781029 -9976816.001247406 0 -9976816.001247406 -70241899.025245667 0 0 0 0 -7910080.1704583764 -20013182.643266678 0 -20013182.643266678 -31036012.948364258 0 0 0 0 3695270.7835690081 -3452832.5734553337 0 -3452832.5734553337 -40075071.049087524 0 0 0 0 -1847263.371052742 -20836031.201885223 0 -20836031.201885223 -22154498.658893585 0 0 0 0 -5792570.7598950863 -9568033.5931434631 0 -9568033.5931434631 -24670352.027910233 0 0 0 0 -28173563.968487918 -25736445.325866699 0 -25736445.325866699 -17844161.71884346 0 0 0 0 -7641795.0951932967 -21547000.84008646 0 -21547000.84008646 -54650134.51934433 0 0 0 0 7997636.1391929612 -37640715.287622452 0 -37640715.287622452 -58420871.484570503 0 0 0 0 -13712501.638773493 -71876479.167266846 0 -71876479.167266846 -111068959.55672455 0 0 0 0 36804801.563044414 -39742341.047807217 0 -39742341.047807217 -111303547.69848251 0 0 0 0 147453.90556220475 -219797.56254616508 0 -219797.56254616508 -1005424.156016279 0 0 0 0 -106998011.87681925 136363043.19963741 0 136363043.19963741 -10374664.825914383 0 0 0 0 -125187293.35072255 -102929702.10664749 0 -102929702.10664749 -74442177.923440933 0 0 0 0 -55476686.007488668 -35231970.230286598 0 -35231970.230286598 -8699598.24858284 0 0 0 0 -17073263.754636705 1779171.2341258526 0 1779171.2341258526 -4685559.164352417 0 0 0 0 3224837.8921505213 764820.32476425171 0 764820.32476425171 -14036120.264619827 0 0 0 0 8998439.3632199764 -7279563.9916887283 0 -7279563.9916887283 -6385812.6664085388 0 0 0 0 579124.25763133983 -975386.82981534605 0 -975386.82981534605 -2695198.9641265105 0 0 0 0 -4450004.813397646 -503002.31859016418 0 -503002.31859016418 2662826.9530982971 0 0 0 0 6724764.8018409014 -2256794.4998273849 0 -2256794.4998273849 1340531.154882431 0 0 0 0 3248584.6058202982 -6520668.6260585785 0 -6520668.6260585785 2537883.6206555367 0 0 0 0 -6903181.8379589468 -6489396.7013778687 0 -6489396.7013778687 2630827.2605810165 0 0 0 0 -13669874.22956029 -9499217.736615181 0 -9499217.736615181 556650.83899307251 0 0 0 0 -1706984.7836686503 -6188161.1728949547 0 -6188161.1728949547 -770448.24230575562 0 0 0 0 -9902830.9339425191 -7192031.0817584991 0 -7192031.0817584991 -11143529.19787693 0 0 0 0 -12361983.598155066 -18865907.404981852 0 -18865907.404981852 -9023545.5895576477 0 0 0 0 -4578373.4147644043 -10813839.990505219 0 -10813839.990505219 -2113830.3431015015 0 0 0 0 2658131.581862092 -24859884.9241395 0 -24859884.9241395 520210.54572677612 0 0 0 0 11315885.38286972 -23005435.563339233 0 -23005435.563339233 4596821.1274452209 0 0 0 0 3318185.8100874424 -8209443.9950008392 0 -8209443.9950008392 -6592144.042804718 0 0 0 0 30671435.207566738 -16689069.202953339 0 -16689069.202953339 -5503243.97605896 0 0 0 0 541153.28591697989 -2070781.921496822 0 -2070781.921496822 -708484.46906178258 0 0 0 0 1587898.1914420128 -4793769.5302600861 0 -4793769.5302600861 924069.53937530518 0 0 0 0 828352.00271032529 -5270676.6952639632 0 -5270676.6952639632 -3050827.6948141046 0 0 0 0 6082213.6301422119 -14679443.888044357 0 -14679443.888044357 -5629868.6158213615 0 0 0 0 -248253.79749602079 -4135279.1046695709 0 -4135279.1046695709 -2070533.3750076294 0 0 0 0 -27872.374285772297 -5755484.1229304448 0 -5755484.1229304448 -833831.78649618477 0 0 0 0 5627695.0691326857 -11448094.598245621 0 -11448094.598245621 389095.78164100647 0 0 0 0 -3469583.052893281 -14943600.044722557 0 -14943600.044722557 -133061.56463241577 0 0 0 0 -785982.33382722735 -9921425.7621479034 0 -9921425.7621479034 1233274.6612281799 0 0 0 0 -5031982.5690574646 -7188022.8478145599 0 -7188022.8478145599 14763545.913993835 0 0 0 0 2528385.8355035782 -5536310.0881995093 0 -5536310.0881995093 -7310410.4026093008 0 0 0 0 -154988.72141991928 -2982966.5517156208 0 -2982966.5517156208 2435282.3280960247 0 0 0 0 2021165.1796298027 -5843029.2033424377 0 -5843029.2033424377 5271330.2866287231 0 0 0 0 563706.29862434615 -3706999.3145041135 0 -3706999.3145041135 -1806585.0966494754 0 0 0 0 -3120186.9455405474 -10916594.592832565 0 -10916594.592832565 3060233.3254852295 0 0 0 0 1096051.668725152 -3777817.3495831229 0 -3777817.3495831229 -3728334.7369783502 0 0 0 0 -3425969.3311066628 -4370347.2857055664 0 -4370347.2857055664 -1120072.1054077148 0 0 0 0 7883694.9252309799 -17433533.703201771 0 -17433533.703201771 1373656.318031311 0 0 0 0 -4567282.4712433815 -14976791.101257324 0 -14976791.101257324 7020088.1295928955 0 0 0 0 2798772.7663321495 -16001097.641357422 0 -16001097.641357422 12527693.459580421 0 0 0 0 47665947.16867733 -35820289.635904312 0 -35820289.635904312 -4784199.0712928772 0 0 0 0 3710851.8487694534 -4888069.7450158885 0 -4888069.7450158885 -8410713.6315167639 0 0 0 0 1052829.8049910069 -4129331.6766691208 0 -4129331.6766691208 4120193.3424243927 0 0 0 0 4609431.4993333817 -16598472.322170258 0 -16598472.322170258 5204609.5741119385 0 0 0 0 -693551.10740829865 -6894473.1002974352 0 -6894473.1002974352 -11262803.413608249 0 0 0 0 -279043.45610367134 -5507090.4790105196 0 -5507090.4790105196 -12948644.579168435 0 0 0 0 37844965.973802567 -25737922.530157089 0 -25737922.530157089 -19144470.453876495 0 0 0 0 -7381902.3246984482 -19041453.517004013 0 -19041453.517004013 -4724283.660697937 0 0 0 0 -7568459.5059767365 -19956808.753147364 0 -19956808.753147364 -8350689.2471466064 0 0 0 0 5010081.5197594166 -26140025.742362022 0 -26140025.742362022 -4503303.7351248562 0 0 0 0 -3947660.203214407 -16764884.955415726 0 -16764884.955415726 -3275690.557434082 0 0 0 0 -317205.43369335774 -5243962.4043547837 0 -5243962.4043547837 2042629.0848695673 0 0 0 0 -22857420.289427549 -23993213.587383151 0 -23993213.587383151 -5197141.3214416504 0 0 0 0 -16655201.349282265 -19250240.238025665 0 -19250240.238025665 -4644449.7019557953 0 0 0 0 -88253.394120358862 246365.63481204212 0 246365.63481204212 637127.51558586303 0 0 0 0 -22795581.10062027 -23374747.500383377 0 -23374747.500383377 -3493716.1616516113 0 0 0 0 -18801531.109870911 -25682671.863243103 0 -25682671.863243103 -4918767.6196899414 0 0 0 0 -20131256.660745621 -25285426.030197144 0 -25285426.030197144 -4350093.7403297424 0 0 0 0 -19543707.369720459 -27885504.055618286 0 -27885504.055618286 -13402773.322872162 0 0 0 0 -33603464.537785053 -28280327.758237839 0 -28280327.758237839 -14142629.842262268 0 0 0 0 -19552747.559056487 -20759234.522051107 0 -20759234.522051107 -10174213.025493622 0 0 0 0 1171133.188830018 -8744510.1856536865 0 -8744510.1856536865 -3988683.0162887573 0 0 0 0 2495533.6383411884 -4336014.2226791382 0 -4336014.2226791382 -249342.2578125 0 0 0 0 320809.05071750312 -4356529.6509100525 0 -4356529.6509100525 -3349137.9271898754 0 0 0 0 -1000749.6603867993 -3885724.4856551997 0 -3885724.4856551997 3982808.3767896015 0 0 0 0 2739137.8905367851 -2910571.4590644836 0 -2910571.4590644836 -3634821.6268367767 0 0 0 0 3132958.8194336891 -5764199.1304512024 0 -5764199.1304512024 -1306578.0516891479 0 0 0 0 3465663.9261879921 -3113758.224029541 0 -3113758.224029541 -3580178.8688812256 0 0 0 0 -125598.49565587012 -4749244.9969566651 0 -4749244.9969566651 -36224.070081579499 0 0 0 0 -5628843.0191642046 -7468252.4588279724 0 -7468252.4588279724 429352.80902099609 0 0 0 0 69470.072328527807 -183622.42246873304 0 -183622.42246873304 -624266.21352442913 0 0 0 0 10024372.416671082 -10574276.902861118 0 -10574276.902861118 -9257592.2094802856 0 0 0 0 -720914.09285068512 -9915579.1632614136 0 -9915579.1632614136 -5344515.9411125183 0 0 0 0 4233897.8536887467 -6628628.0243453979 0 -6628628.0243453979 -4989915.0939445496 0 0 0 0 5584638.1626803428 -15757114.636714935 0 -15757114.636714935 -18482700.664295197 0 0 0 0 -14907530.565181255 -12740302.958190918 0 -12740302.958190918 -6493555.8658599854 0 0 0 0 328544.91319128568 -4224964.3630207246 0 -4224964.3630207246 -3529625.0461190231 0 0 0 0 -3693579.1334838271 -14671473.898192406 0 -14671473.898192406 -6815008.381401062 0 0 0 0 -2490046.5184302125 -5500968.429522044 0 -5500968.429522044 5871210.702065656 0 0 0 0 -1604259.2618288994 -25845445.629236221 0 -25845445.629236221 -15119469.725761414 0 0 0 0 -10824275.627757072 -15755429.36516571 0 -15755429.36516571 -32618.637844085693 0 0 0 0 -40217751.96264267 -19460770.888580322 0 -19460770.888580322 -14331490.512268066 0 0 0 0 -26239465.211927652 -30273849.337268829 0 -30273849.337268829 -16429737.4608078 0 0 0 0 10362916.820368052 27349071.110551834 0 27349071.110551834 -41707147.804382324 0 0 0 0 -939781.21090658114 -1368348.2971193902 0 -1368348.2971193902 -518594.40362358466 0 0 0 0 -533045.26037350856 -1480998.8682420701 0 -1480998.8682420701 -1086345.3531049788 0 0 0 0 1669517.3806355 -47734576.710380554 0 -47734576.710380554 42049447.58265686 0 0 0 0 -24828708.201438904 9591814.99168396 0 9591814.99168396 -81927655.81149292 0 0 0 0 -29006106.877372742 -38394836.705917358 0 -38394836.705917358 39437581.044143677 0 0 0 0 87305290.405576468 5183833.8997735977 0 5183833.8997735977 -12910883.018844604 0 0 0 0 -526419.36460850772 -642735.31622636504 0 -642735.31622636504 429233.418251656 0 0 0 0 126342335.68783522 -21854696.694719315 0 -21854696.694719315 -65801899.579925537 0 0 0 0 -26919584.740221977 28652105.363265991 0 28652105.363265991 -36615266.010839701 0 0 0 0 80772217.095949173 -142319957.54400635 0 -142319957.54400635 -43842894.163797617 0 0 0 0 14187079.946663857 -59181024.901397705 0 -59181024.901397705 10555222.840633392 0 0 0 0 -528762.77805403271 -255854.91266279668 0 -255854.91266279668 122997.9195730947 0 0 0 0 63040394.589095116 -121220557.14981079 0 -121220557.14981079 68849492.594398499 0 0 0 0 191817467.3446455 -68628708.537044525 0 -68628708.537044525 -16480997.369476318 0 0 0 0 -57880694.364946604 -67577535.252616882 0 -67577535.252616882 -11097392.783920288 0 0 0 0 -7478118.6942811012 -17064714.085075378 0 -17064714.085075378 -31267522.41809845 0 0 0 0 -31334435.97625351 -8755403.4804582596 0 -8755403.4804582596 -16517313.813697815 0 0 0 0 5956057.6775237322 -16388484.170013428 0 -16388484.170013428 -23195153.502830505 0 0 0 0 83928468.423564911 -59518450.413009644 0 -59518450.413009644 -23164429.006244659 0 0 0 0 11020691.897780597 -9429691.143652916 0 -9429691.143652916 -15358388.841812134 0 0 0 0 20174847.609173775 -70949254.842281342 0 -70949254.842281342 -17214482.853702545 0 0 0 0 41331902.414799213 -24392870.349121094 0 -24392870.349121094 -9403544.1977233887 0 0 0 0 17651050.90188992 -8477320.4636917114 0 -8477320.4636917114 -20588773.442386627 0 0 0 0 20026937.220029116 -2154503.7281303406 0 -2154503.7281303406 -5072348.1755828857 0 0 0 0 11455096.650297508 3954146.4206619263 0 3954146.4206619263 -15046603.313077927 0 0 0 0 4398708.6397626344 2232833.6247646809 0 2232833.6247646809 -8787035.3146133423 0 0 0 0 -8108120.9815477133 -10888935.685562134 0 -10888935.685562134 -9559388.5783882141 0 0 0 0 8464080.5710306317 -8132732.8079376221 0 -8132732.8079376221 -20283357.101448059 0 0 0 0 8629173.7276647091 -4618102.436925292 0 -4618102.436925292 2610450.4941253662 0 0 0 0 -237381.90093841864 -324550.89782031067 0 -324550.89782031067 -454920.07494391501 0 0 0 0 30534952.82977128 -4812446.7048912048 0 -4812446.7048912048 -12813019.059617996 0 0 0 0 36683470.011896729 16094067.951225281 0 16094067.951225281 -25257194.10212326 0 0 0 0 -187381.96725189581 234831.04264160758 0 234831.04264160758 -44666.726893231273 0 0 0 0 12557171.542250767 11374873.498334169 0 11374873.498334169 1440546.3351974487 0 0 0 0 -30224939.016619667 -44958287.384230137 0 -44958287.384230137 -36392283.838928223 0 0 0 0 -18943534.83675307 9933557.3088755608 0 9933557.3088755608 -18219572.641433716 0 0 0 0 -19698.161547006894 -621031.78520611301 0 -621031.78520611301 -21291.407547824783 0 0 0 0 6858621.9466997385 -31559978.023338318 0 -31559978.023338318 83145546.939077735 0 0 0 0 3234775.284266293 -42034237.936477661 0 -42034237.936477661 -53060225.357674599 0 0 0 0 78304902.549781501 -18230791.826188087 0 -18230791.826188087 60182202.356391907 0 0 0 0 29564364.662515163 -60436267.152366638 0 -60436267.152366638 11182508.339599609 0 0 0 0 28546905.037341475 -4714022.7008018494 0 -4714022.7008018494 -57109082.789031982 0 0 0 0 -7185792.4183108807 -57344231.088581085 0 -57344231.088581085 -37164288.685112 0 0 0 0 29577902.863303185 -49214222.628368378 0 -49214222.628368378 -54940813.498752594 0 0 0 0 45112212.373761654 -39400376.345352173 0 -39400376.345352173 -24800205.139198303 0 0 0 0 61681361.764112473 -50914605.757400513 0 -50914605.757400513 35465113.914100647 0 0 0 0 56056361.129900694 -5579419.2667922974 0 -5579419.2667922974 964823.65670776367 0 0 0 0 53967958.927933216 -38562368.847595215 0 -38562368.847595215 49500202.664726257 0 0 0 0 32399137.732092381 -9707361.0661506653 0 -9707361.0661506653 15516411.17124939 0 0 0 0 103707721.69522047 -1174982.2883071899 0 -1174982.2883071899 -940754.60148620605 0 0 0 0 37327586.723317146 -60624368.827896118 0 -60624368.827896118 21040788.066618919 0 0 0 0 45577419.589912415 -34268552.780017853 0 -34268552.780017853 22423074.357116699 0 0 0 0 32717262.602817059 -52487649.966278076 0 -52487649.966278076 29129176.861328125 0 0 0 0 53340358.023703098 -94937087.282184601 0 -94937087.282184601 -34912789.171272278 0 0 0 0 -33004480.007071227 14185280.989183426 0 14185280.989183426 -69865863.934249878 0 0 0 0 49658491.90909481 -88018464.081748962 0 -88018464.081748962 10706626.102134705 0 0 0 0 1091919.7469059341 27239.545372817665 0 27239.545372817665 -1306109.5571361482 0 0 0 0 -35689607.870751381 51282290.662826538 0 51282290.662826538 -83783368.421264648 0 0 0 0 -4824355.4172780514 80698591.131732941 0 80698591.131732941 -80820627.147216797 0 0 0 0 -41751188.578485489 58482311.144714355 0 58482311.144714355 57741403.662261963 0 0 0 0 -41784519.091505051 61150138.378326416 0 61150138.378326416 -51292189.389968872 0 0 0 0 -72122473.742565632 91630891.377826691 0 91630891.377826691 -63844717.123943329 0 0 0 0 -30562108.169845581 101381290.70310974 0 101381290.70310974 -64263401.781967163 0 0 0 0 -30826069.722853661 98972540.522247314 0 98972540.522247314 -6984468.2866363525 0 0 0 0 -102339161.1732626 101706208.84248352 0 101706208.84248352 -78362740.020294189 0 0 0 0 -38959834.208003521 91185185.914207458 0 91185185.914207458 -90306879.83366394 0 0 0 0 -105380107.91484451 100765832.88895798 0 100765832.88895798 -87085438.43794632 0 0 0 0 -75363659.285812259 106950057.24042511 0 106950057.24042511 -91170395.315414429 0 0 0 0 -93770469.038132668 79290030.163574219 0 79290030.163574219 -68588137.205394745 0 0 0 0 10576479.918404579 573992.17323303223 0 573992.17323303223 -1095021.2971115112 0 0 0 0 -32487476.358269691 -15004601.978111267 0 -15004601.978111267 30144659.947935104 0 0 0 0 1317005.3199457948 156617.84954625368 0 156617.84954625368 -1220675.3159243762 0 0 0 0 292583.80541701429 -117201.07174442522 0 -117201.07174442522 -266031.07023135573 0 0 0 0 49421594.232905149 16123012.106561661 0 16123012.106561661 1407320.1729278564 0 0 0 0 -62138652.311588287 47463062.074687958 0 47463062.074687958 -74808550.65927124 0 0 0 0 -77083846.153905392 85093276.026599884 0 85093276.026599884 -66577235.063732147 0 0 0 0 399051.12851356529 -171376.39979007654 0 -171376.39979007654 -463503.67942143604 0 0 0 0 51503363.783481121 12971722.104438782 0 12971722.104438782 -4771161.2949962616 0 0 0 0 19209005.509644032 -43354511.366542816 0 -43354511.366542816 -85736987.7613554 0 0 0 0 14585107.042508364 58120254.11055088 0 58120254.11055088 15674720.941375732 0 0 0 0 119530464.55814695 -15372907.57510376 0 -15372907.57510376 -111074754.29536819 0 0 0 0 -29749516.388589621 -51898259.154128075 0 -51898259.154128075 19529642.317977905 0 0 0 0 552744.29408982908 -538365.7711047167 0 -538365.7711047167 -26812.151392489672 0 0 0 0 -46761486.938307285 4400051.7105712891 0 4400051.7105712891 9368563.4585313797 0 0 0 0 14419677.316527843 175170.3767375946 0 175170.3767375946 -66748565.418319702 0 0 0 0 12169155.246142864 5453073.2728919983 0 5453073.2728919983 -15466148.957126617 0 0 0 0 3581801.4724777937 -23560104.607952356 0 -23560104.607952356 -55845779.383842468 0 0 0 0 4591765.6831586361 -16223330.128795624 0 -16223330.128795624 -19631690.838418961 0 0 0 0 -18918470.213551223 -18206678.035721779 0 -18206678.035721779 -13454572.221351624 0 0 0 0 -53693998.828867078 -52462920.689308167 0 -52462920.689308167 -41957829.29384613 0 0 0 0 18919049.993312836 -39451606.795963287 0 -39451606.795963287 -41032140.064237595 0 0 0 0 22502322.746747971 -9140267.8452777863 0 -9140267.8452777863 -10402031.735729218 0 0 0 0 652647.20448493958 -26396505.736877441 0 -26396505.736877441 -7966243.0361366272 0 0 0 0 12227489.370934486 -24147487.366214752 0 -24147487.366214752 -67441640.280832291 0 0 0 0 -31110.902094256599 -1032078.9510495998 0 -1032078.9510495998 -35804.527671360876 0 0 0 0 -18453884.980879545 -33338181.847330093 0 -33338181.847330093 2066559.8121546507 0 0 0 0 -18958336.742250681 -12681039.655931473 0 -12681039.655931473 22123182.953460693 0 0 0 0 -3159.6128695970401 -595812.02955439873 0 -595812.02955439873 -21825.543999030953 0 0 0 0 55741079.396478653 3832377.0389251709 0 3832377.0389251709 -51162543.438336134 0 0 0 0 54985914.39421463 -10613372.189414978 0 -10613372.189414978 13310759.875167847 0 0 0 0 -10215205.046463013 -26744811.80676651 0 -26744811.80676651 64110957.771514893 0 0 0 0 -41535678.167525768 -27120221.23195076 0 -27120221.23195076 15333834.013408661 0 0 0 0 98446049.015617132 55657765.59814167 0 55657765.59814167 -7289170.1664581299 0 0 0 0 63104968.427078247 -6261890.7475967407 0 -6261890.7475967407 15621062.682568491 0 0 0 0 68971872.727639675 -15550352.841136932 0 -15550352.841136932 4505329.4360046387 0 0 0 0 68234412.898415565 -16455173.63067627 0 -16455173.63067627 3415939.805229187 0 0 0 0 8897514.452750206 -1199960.5077171326 0 -1199960.5077171326 -4497078.4158248901 0 0 0 0 33286508.466815948 16343807.013828278 0 16343807.013828278 -57720605.994525909 0 0 0 0 1427536.4894987834 2431693.2945849812 0 2431693.2945849812 -6719178.0666663274 0 0 0 0 6890910.6120605469 -2897253.3542785645 0 -2897253.3542785645 -4971022.1005325317 0 0 0 0 7346573.558590889 -2407858.4381752014 0 -2407858.4381752014 -4655930.0367584229 0 0 0 0 4615364.6942842007 -541963.68352127075 0 -541963.68352127075 -2614239.5887489319 0 0 0 0 518508.1651602257 753621.08421572996 0 753621.08421572996 -3095782.430510981 0 0 0 0 4481298.7859840393 -349214.30997085571 0 -349214.30997085571 -2424116.4933052063 0 0 0 0 721895.42637176358 641043.5827561738 0 641043.5827561738 -3128351.0616889279 0 0 0 0 5435090.5223722458 -1672369.2923431396 0 -1672369.2923431396 -2935467.9343528748 0 0 0 0 2365989.4376955703 -2039530.7417362761 0 -2039530.7417362761 -3341790.9330944419 0 0 0 0 6906042.5335302353 -1563910.8269319534 0 -1563910.8269319534 -3643268.6139221191 0 0 0 0 5018800.4479093552 2534048.5816574097 0 2534048.5816574097 -8788990.3364105225 0 0 0 0 5916624.6913824081 -2225377.8573093414 0 -2225377.8573093414 -3860583.1362686157 0 0 0 0 227846.51007117936 236916.88290698314 0 236916.88290698314 -341730.43473103084 0 0 0 0 1836986.504519539 -936097.66855849419 0 -936097.66855849419 -3989921.6994328499 0 0 0 0 6097828.8835449219 -501189.02496528625 0 -501189.02496528625 -4612158.3009719849 0 0 0 0 1392927.2730772584 1260806.4949368108 0 1260806.4949368108 -7088394.0989749283 0 0 0 0 12084945.644075274 418289.15462970734 0 418289.15462970734 -6422367.8420715332 0 0 0 0 -676619.13706302643 -23987465.730995178 0 -23987465.730995178 -6277669.5512466431 0 0 0 0 1521343.2423485557 -1810469.6054872833 0 -1810469.6054872833 -2418100.5479099974 0 0 0 0 8722810.8998813629 4115068.786857605 0 4115068.786857605 -8357411.2281284332 0 0 0 0 14888691.931760788 -2849675.051908493 0 -2849675.051908493 -4743007.6136894226 0 0 0 0 3191786.587509728 -4314882.4106315691 0 -4314882.4106315691 -5648350.8589954674 0 0 0 0 1941181.5692162791 721778.95453179604 0 721778.95453179604 -6994517.8738552108 0 0 0 0 8664066.7006654739 207304.71179199219 0 207304.71179199219 -5799995.9264144897 0 0 0 0 8705471.6639637947 -458916.55483627319 0 -458916.55483627319 -4853307.8539590836 0 0 0 0 4969957.9167019725 355617.3636007309 0 355617.3636007309 -3786014.1305046082 0 0 0 0 1081022.2779157581 953922.11745912069 0 953922.11745912069 -3956611.3694885522 0 0 0 0 3898243.6139221191 -2698319.378080368 0 -2698319.378080368 -3356669.4694747925 0 0 0 0 3250043.1647567749 -1974535.7579345703 0 -1974535.7579345703 -4054412.7056574821 0 0 0 0 1978119.1929791197 -2263883.5195459574 0 -2263883.5195459574 -4259266.0752751678 0 0 0 0 13229653.847611904 -1349323.5845603943 0 -1349323.5845603943 -2397543.4706268311 0 0 0 0 1004484.7110928062 -783558.47408850631 0 -783558.47408850631 -2913142.1714833602 0 0 0 0 1160935.2294976711 -1604865.3712081909 0 -1604865.3712081909 -3628063.4330348969 0 0 0 0 1260423.6990902424 -1988090.8432892561 0 -1988090.8432892561 -6855900.7675094604 0 0 0 0 3056306.9747879505 -78655.833433151245 0 -78655.833433151245 -5765948.7285556793 0 0 0 0 1833259.8682358176 -1090924.002377436 0 -1090924.002377436 -3866452.0379290674 0 0 0 0 3898589.7452702522 -2210259.0019197464 0 -2210259.0019197464 -5227866.2381210327 0 0 0 0 3106978.021063149 -539460.1327009201 0 -539460.1327009201 -5298998.235376358 0 0 0 0 1833263.2194435508 -1528295.1103593893 0 -1528295.1103593893 -4259211.823326461 0 0 0 0 1215033.6097822073 -252996.73044447508 0 -252996.73044447508 -4113423.3467496485 0 0 0 0 2904867.3579697609 -1226524.5421323776 0 -1226524.5421323776 -5154708.6376924515 0 0 0 0 1730497.0038885293 -589433.6722911885 0 -589433.6722911885 -5215981.0856215805 0 0 0 0 261281.09769654274 -1612804.4243841171 0 -1612804.4243841171 -7005540.1254482269 0 0 0 0 341774.07670101896 -484234.79233264923 0 -484234.79233264923 -5033664.9556369781 0 0 0 0 1149457.6369743845 97196.830524862045 0 97196.830524862045 -5452550.3930517742 0 0 0 0 13601129.10324645 19175447.997310638 0 19175447.997310638 -6040499.8596951962 0 0 0 0 -519290.39003967837 -182395.08627745975 0 -182395.08627745975 -1409960.7471880428 0 0 0 0 3798945.4006105065 -27659691.126485229 0 -27659691.126485229 -53781496.94956398 0 0 0 0 -23024016.323307991 50459026.541164398 0 50459026.541164398 -8895119.7839713097 0 0 0 0 3141834.3824540079 622447.4224820137 0 622447.4224820137 -5801177.0249137878 0 0 0 0 -13794007.301708579 -1197834.5919816494 0 -1197834.5919816494 -8887241.7191514969 0 0 0 0 -12304758.025736332 1039802.8665642738 0 1039802.8665642738 -7440816.2793064117 0 0 0 0 -3591438.783993721 6886082.6678743362 0 6886082.6678743362 -3206817.173746407 0 0 0 0 -14037487.693302631 2237000.2519483566 0 2237000.2519483566 -3940288.7255897522 0 0 0 0 -2774174.8758606911 -1865265.8185920715 0 -1865265.8185920715 -3035833.7435584068 0 0 0 0 -42690406.182702541 40581267.232378483 0 40581267.232378483 31276272.204633713 0 0 0 0 -328237.70670796034 -33137.335176396882 0 -33137.335176396882 -229315.78676288249 0 0 0 0 -52030682.698654175 1111237.6847114563 0 1111237.6847114563 1734047.1346354485 0 0 0 0 -23754816.314906478 13819468.891111255 0 13819468.891111255 -10075641.928900719 0 0 0 0 -19513744.97849226 -1591448.331217289 0 -1591448.331217289 564915.88787126541 0 0 0 0 -196025492.41488075 51724126.356660843 0 51724126.356660843 -15218393.188595362 0 0 0 0 9363187.7420668602 10714801.397621632 0 10714801.397621632 2588812.9712772369 0 0 0 0 374892.53737389063 -118604.18504514452 0 -118604.18504514452 -831490.8267547423 0 0 0 0 -38480960.441347599 37496739.024787664 0 37496739.024787664 -15484941.548753738 0 0 0 0 55339958.628186941 -189329820.40002632 0 -189329820.40002632 -14099220.987281799 0 0 0 0 41108328.478886306 2387440.3346760273 0 2387440.3346760273 -14557403.286828995 0 0 0 0 -32417481.306649208 11004211.89467144 0 11004211.89467144 64105901.908439636 0 0 0 0 27676342.790558636 -37217906.321215987 0 -37217906.321215987 -2451795.2020263672 0 0 0 0 -12635722.957792997 -27977298.332771778 0 -27977298.332771778 -3627487.0574007034 0 0 0 0 1036523.8620517254 3929306.6624507904 0 3929306.6624507904 -14576382.33584585 0 0 0 0 -3947959.7874150276 -936879.50971317291 0 -936879.50971317291 -4130759.8354711533 0 0 0 0 13476893.576418161 3557839.8531150818 0 3557839.8531150818 -26945624.254505157 0 0 0 0 571136.56150662899 -1980750.3339958191 0 -1980750.3339958191 -5776677.875412859 0 0 0 0 1215508.8861768036 -124679.00398973236 0 -124679.00398973236 -4402566.2830030639 0 0 0 0 -19887365.9629426 26605825.746878624 0 26605825.746878624 18228746.417366028 0 0 0 0 2259265.0231066197 44146.376291275024 0 44146.376291275024 -4543377.004442215 0 0 0 0 836299.5976562053 -1022909.5888764858 0 -1022909.5888764858 -3573920.1123962402 0 0 0 0 786962.87750440836 -1428194.8360285759 0 -1428194.8360285759 -4664203.367220819 0 0 0 0 1481752.8188194386 -574237.67999646766 0 -574237.67999646766 -4606840.4218399944 0 0 0 0 1567400.6414839553 -472198.69067740906 0 -472198.69067740906 -3488597.9651005389 0 0 0 0 -318125.85480855405 -2065272.8776746988 0 -2065272.8776746988 -7027505.7492427826 0 0 0 0 -123548.34442219138 -749629.52116298676 0 -749629.52116298676 -4042668.7788763046 0 0 0 0 225545.29004640959 197733.2751627937 0 197733.2751627937 -4789849.2996991174 0 0 0 0 -656549.02590632439 -6488926.3514995575 0 -6488926.3514995575 -2771585.2849609852 0 0 0 0 173700.48161543068 -1637398.8480953749 0 -1637398.8480953749 -6181301.7362444196 0 0 0 0 -1405839.4320219494 12688405.418077171 0 12688405.418077171 -10360359.61640358 0 0 0 0 3153605.3834338188 117387.1255235672 0 117387.1255235672 -14570205.910516739 0 0 0 0 3564540.8755015582 -1414511.2221610546 0 -1414511.2221610546 -9490984.6072654724 0 0 0 0 5142259.87573874 -1726769.0758810043 0 -1726769.0758810043 -9618705.5376033783 0 0 0 0 1929027.6388568878 2428713.2293524742 0 2428713.2293524742 -17112117.675603628 0 0 0 0 2030829.8838574677 -84560.751989569748 0 -84560.751989569748 -4269260.4685807331 0 0 0 0 3192969.6441414356 2762763.5268745422 0 2762763.5268745422 -18223499.598645687 0 0 0 0 1158158.3020083904 8113256.1191887856 0 8113256.1191887856 -20571695.287982941 0 0 0 0 1357724.5995137524 1279784.1940172319 0 1279784.1940172319 -6077959.2041427772 0 0 0 0 -3882530.4381337166 9679906.8812320232 0 9679906.8812320232 -24712344.140319824 0 0 0 0 714444.65081998135 -890251.92521956633 0 -890251.92521956633 -868839.76646065712 0 0 0 0 -2037054.1591789722 -6998999.2931470871 0 -6998999.2931470871 -920151.19415950775 0 0 0 0 -500784.24073767662 -7118827.4076337814 0 -7118827.4076337814 -6266035.6313555241 0 0 0 0 6512374.1044853926 -9744573.9844766855 0 -9744573.9844766855 -19962131.340999603 0 0 0 0 1973267.8909959793 -1974031.1940960884 0 -1974031.1940960884 1017644.7683210373 0 0 0 0 1980445.5164464116 -1411367.2867585421 0 -1411367.2867585421 -10690359.455949783 0 0 0 0 969937.48270606995 4651733.021437645 0 4651733.021437645 -4886174.2366747856 0 0 0 0 2867530.5261955261 2035834.0251402855 0 2035834.0251402855 -17360948.28181839 0 0 0 0 861614.94654307771 1554281.2718236698 0 1554281.2718236698 -5455803.7396273836 0 0 0 0 2770449.2029812336 5892910.3169548512 0 5892910.3169548512 -6939356.29646492 0 0 0 0 2428048.2836159468 4616455.433619976 0 4616455.433619976 -7455450.4626159668 0 0 0 0 2277014.8035929203 6162722.4772326946 0 6162722.4772326946 -4074965.9465520382 0 0 0 0 4111809.6764931679 330688.33805561066 0 330688.33805561066 -6456840.2295532227 0 0 0 0 3485102.8125315607 -3898069.7394655943 0 -3898069.7394655943 -4152890.6733322144 0 0 0 0 -2666260.6112821102 -523840.21289253235 0 -523840.21289253235 -5578524.7669296265 0 0 0 0 459416.4171693325 -1494187.9560699463 0 -1494187.9560699463 -8082311.8271789551 0 0 0 0 1085198.5990960598 -287150.56268310547 0 -287150.56268310547 -6369930.4155938625 0 0 0 0 4998259.7516899109 9507759.2891120911 0 9507759.2891120911 -696922.71112823486 0 0 0 0 383166.77558534569 1538993.0700723687 0 1538993.0700723687 -3938107.0787107823 0 0 0 0 8823046.3639154434 5341402.6014404297 0 5341402.6014404297 -5052024.729598999 0 0 0 0 129206.23604224221 -79969.804734434932 0 -79969.804734434932 -109204.24801458232 0 0 0 0 1986855.0716500282 6701911.0053596497 0 6701911.0053596497 8681800.3636207581 0 0 0 0 332781.43575380067 -257272.75196272787 0 -257272.75196272787 -1067228.0958910477 0 0 0 0 -3273317.6249980927 647919.59941101074 0 647919.59941101074 -10124692.00718689 0 0 0 0 2269100.2910217564 675323.21209796029 0 675323.21209796029 -6737507.2284088666 0 0 0 0 -1692097.13725546 2500836.8341803551 0 2500836.8341803551 -1225505.2705116272 0 0 0 0 1322129.8918059915 3269888.0343747139 0 3269888.0343747139 -1733786.8458709717 0 0 0 0 -2888819.4805305004 -5402220.146982193 0 -5402220.146982193 -1084199.8093223572 0 0 0 0 -4935711.0684165955 7905713.1966152191 0 7905713.1966152191 -10230763.257675648 0 0 0 0 -84256.272054302157 24757.968289781129 0 24757.968289781129 -40491.777042543516 0 0 0 0 -3145593.1128227711 -2149220.1783046722 0 -2149220.1783046722 1442614.1283130646 0 0 0 0 5230054.2322728336 -1098547.353758812 0 -1098547.353758812 -3741710.1751823425 0 0 0 0 4032515.6565089226 1749002.9853887558 0 1749002.9853887558 -8227090.7353248596 0 0 0 0 -3170562.1319894791 2572014.1489133835 0 2572014.1489133835 -1635243.763671875 0 0 0 0 -6110829.6773114204 -10606217.760046005 0 -10606217.760046005 2163979.7085180283 0 0 0 0 67415.306983500195 434405.089081079 0 434405.089081079 -462657.48292904813 0 0 0 0 234536.184577696 183869.20342164207 0 183869.20342164207 -2135186.2831044868 0 0 0 0 -13784370.592250347 3605294.2705192566 0 3605294.2705192566 -7057883.4951839447 0 0 0 0 -4719344.3967679143 -16013758.900606155 0 -16013758.900606155 7695584.952000618 0 0 0 0 -12827158.424391761 -5302312.2909917831 0 -5302312.2909917831 18490007.527328491 0 0 0 0 10156253.943190664 4245882.0156083107 0 4245882.0156083107 -5065832.3884353638 0 0 0 0 9000743.8609335423 1886725.2512722015 0 1886725.2512722015 -11002043.902065277 0 0 0 0 12570078.971593231 4005167.5316591263 0 4005167.5316591263 -20375542.328575134 0 0 0 0 150823.06044790873 -331984.27962455945 0 -331984.27962455945 -220232.97501565516 0 0 0 0 13359123.899750113 6083393.8492765427 0 6083393.8492765427 -15509297.765808105 0 0 0 0 15570134.992275953 25625910.040707588 0 25625910.040707588 -182111822.60624743 0 0 0 0 7923981.4714077413 -536416.22587060928 0 -536416.22587060928 -16237971.55837059 0 0 0 0 -61758222.755017996 81486813.914793968 0 81486813.914793968 51390955.809360504 0 0 0 0 29762729.953738332 -36128679.769893646 0 -36128679.769893646 20851917.41724968 0 0 0 0 1121454.0448527166 -3899852.534957503 0 -3899852.534957503 -3503633.0295765959 0 0 0 0 -7512652.4785689116 -32447356.457918167 0 -32447356.457918167 60307833.934916377 0 0 0 0 -25702973.772448897 17004730.955781937 0 17004730.955781937 7091389.503112793 0 0 0 0 -34600423.951629877 -5937938.1664705276 0 -5937938.1664705276 37043657.289255142 0 0 0 0 153139.65929508209 -5496426.6949942112 0 -5496426.6949942112 -962567.2439250946 0 0 0 0 1589325.8978047743 -1439382.2672331082 0 -1439382.2672331082 -7726520.7268113028 0 0 0 0 2446375.8529376388 747828.51179409027 0 747828.51179409027 15734016.857246399 0 0 0 0 16658228.863283098 -21784132.179544449 0 -21784132.179544449 11773934.253446579 0 0 0 0 1370509.0898857815 -543341.4671462765 0 -543341.4671462765 -2260595.0558013692 0 0 0 0 2912758.2773499489 -344738.9997882843 0 -344738.9997882843 -4834857.0451984406 0 0 0 0 2420892.6593517242 -3775133.0639013904 0 -3775133.0639013904 -8250376.8313475586 0 0 0 0 18320625.369430542 -6467053.2714056969 0 -6467053.2714056969 -1890914.4626617432 0 0 0 0 1535868.7032027245 -1392958.1856880188 0 -1392958.1856880188 -2944529.9387435913 0 0 0 0 3558128.9296857119 -1351835.0851049423 0 -1351835.0851049423 -5852965.8621520996 0 0 0 0 2022693.3382757946 -1607777.4720193036 0 -1607777.4720193036 -4667926.1556516774 0 0 0 0 3702864.6060595214 -622679.67622494698 0 -622679.67622494698 -4955468.7759933472 0 0 0 0 1088722.7250863703 -422342.44479719736 0 -422342.44479719736 -6192292.3383460846 0 0 0 0 2228092.4888491631 -376921.87469482422 0 -376921.87469482422 -3490339.3837394714 0 0 0 0 -473985.92898356915 -3122069.9356746674 0 -3122069.9356746674 -1565018.8194351196 0 0 0 0 331335.45984341268 -1225901.1979894796 0 -1225901.1979894796 -3663320.4525860692 0 0 0 0 279031.23336433631 -166350.34507697634 0 -166350.34507697634 -331367.86233239993 0 0 0 0 855445.47342129413 446590.22194959037 0 446590.22194959037 -4479715.9455118924 0 0 0 0 1718854.7950222492 -1446139.1537485123 0 -1446139.1537485123 -4723710.5986423492 0 0 0 0 3061084.5931177139 -988533.01618003845 0 -988533.01618003845 -7334831.1094789505 0 0 0 0 -955956.97163152695 -3460858.596786499 0 -3460858.596786499 1386523.5170173645 0 0 0 0 5262131.4554507136 -1130427.8350553513 0 -1130427.8350553513 -9484409.4945526123 0 0 0 0 174999.35163789988 2428510.7168798447 0 2428510.7168798447 -10910049.842487335 0 0 0 0 2660468.95411098 1914072.4181804657 0 1914072.4181804657 -7424723.3301239014 0 0 0 0 309857.04716441175 -404608.39832720626 0 -404608.39832720626 -375623.63125415705 0 0 0 0 958853.15370310913 -489393.95714316983 0 -489393.95714316983 -2794003.9465737995 0 0 0 0 1143913.5114260425 -1696843.9215327359 0 -1696843.9215327359 -1417580.0937659666 0 0 0 0 2613429.7045643926 -951324.28866577148 0 -951324.28866577148 -5553484.79114151 0 0 0 0 1065863.5398114622 -7353797.8746089935 0 -7353797.8746089935 -6520981.3346977234 0 0 0 0 -1235297.7557919063 -6827200.385684967 0 -6827200.385684967 -18051822.485572338 0 0 0 0 -1896.6092403799867 -2636648.8869609833 0 -2636648.8869609833 -10687923.410449982 0 0 0 0 221100.96690311277 403085.49484482221 0 403085.49484482221 -1660031.696670616 0 0 0 0 -2255538.819165735 -1272776.4398186207 0 -1272776.4398186207 -7109049.936416626 0 0 0 0 -196278.50600872553 -719808.36933769472 0 -719808.36933769472 -1177445.8524574349 0 0 0 0 -687419.56212329865 -1660715.8156967163 0 -1660715.8156967163 -6138642.5941619873 0 0 0 0 -4038.9803621917008 436678.34912138805 0 436678.34912138805 -1922294.1739823725 0 0 0 0 -66490.179949991405 -478814.94452857971 0 -478814.94452857971 -4679485.6978988647 0 0 0 0 -2044701.9090900042 629676.12200450897 0 629676.12200450897 -6898019.8631820679 0 0 0 0 57128.22653378523 -2869621.99426651 0 -2869621.99426651 -13367417.093391418 0 0 0 0 -1523669.3368461933 -6009280.564950943 0 -6009280.564950943 -23010050.101932526 0 0 0 0 -5818972.541072919 -9760471.4306793213 0 -9760471.4306793213 -14460001.481436729 0 0 0 0 -4808211.3033636343 -2781482.9957606792 0 -2781482.9957606792 -5004504.1101264954 0 0 0 0 74989.097849226746 -24306.516655813903 0 -24306.516655813903 -609522.87138065323 0 0 0 0 -10459112.877221247 -10216790.09661293 0 -10216790.09661293 -19223463.657058716 0 0 0 0 -4418651.6381208273 -15248152.744300842 0 -15248152.744300842 -31672907.234027863 0 0 0 0 -713533.1510667766 -11409609.710733771 0 -11409609.710733771 -33547768.704116821 0 0 0 0 -10366.772633399592 -3369486.5651264191 0 -3369486.5651264191 -19049910.302647114 0 0 0 0 9711.0300533402733 -4503974.2825279236 0 -4503974.2825279236 -50138128.209587097 0 0 0 0 -1647793.3737271652 -11973514.956941605 0 -11973514.956941605 -33489825.687177896 0 0 0 0 1624.9174692030329 -219332.11582946777 0 -219332.11582946777 -59599569.196990967 0 0 0 0 5581182.0277539557 -7002071.0989131927 0 -7002071.0989131927 -51425037.336732864 0 0 0 0 5850929.8863367122 -6065466.1503288746 0 -6065466.1503288746 -67188053.954345703 0 0 0 0 2714516.3436675817 13366185.69203949 0 13366185.69203949 -90678846.087848663 0 0 0 0 8113736.0811910648 -13216967.75966835 0 -13216967.75966835 -103663095.20579529 0 0 0 0 9661179.9112296142 9809059.7606391907 0 9809059.7606391907 -76804680.523529053 0 0 0 0 8117818.4541482627 -8145854.3116340637 0 -8145854.3116340637 -72573313.042722702 0 0 0 0 1561796.1655989755 -22504684.393676758 0 -22504684.393676758 -69545843.911705017 0 0 0 0 7538431.6082099583 -5894670.4980316162 0 -5894670.4980316162 -79922567.361289978 0 0 0 0 848095.58610475063 -14367192.568675995 0 -14367192.568675995 -58531420.913116455 0 0 0 0 812242.03558537923 -15688444.362140656 0 -15688444.362140656 -50385016.470283508 0 0 0 0 -401029.39956214279 -10329442.567135811 0 -10329442.567135811 -45930070.237281799 0 0 0 0 -6905021.2140081897 -21641749.944759369 0 -21641749.944759369 -41360297.203903198 0 0 0 0 -3159431.0540841706 -12564183.49030304 0 -12564183.49030304 -37061643.558197021 0 0 0 0 -11148048.941315142 -22212045.484222412 0 -22212045.484222412 -34791860.863601685 0 0 0 0 -12428401.729140677 -9156701.732301712 0 -9156701.732301712 -15083833.995292664 0 0 0 0 -10970102.84166266 -16253651.897197723 0 -16253651.897197723 -34284127.009101868 0 0 0 0 -10781320.299310349 -7497067.460357666 0 -7497067.460357666 -19951499.499607086 0 0 0 0 -3631177.2032964826 -1505608.0124130249 0 -1505608.0124130249 -15278101.18287468 0 0 0 0 -22416748.339383468 -12729638.553791046 0 -12729638.553791046 -11337787.645233154 0 0 0 0 -36732623.267330714 -35625863.840229034 0 -35625863.840229034 -30274108.881614685 0 0 0 0 -6948958.5750060156 -30311946.656478882 0 -30311946.656478882 -75192385.545272827 0 0 0 0 -6091327.22233433 -16613756.589915514 0 -16613756.589915514 -46804906.995819092 0 0 0 0 -7578447.5889540706 -31120764.797286987 0 -31120764.797286987 -55675784.674383163 0 0 0 0 1053578.7210631475 -17440849.813642263 0 -17440849.813642263 -80579830.867919922 0 0 0 0 1222081.8149632965 -15912438.602687836 0 -15912438.602687836 -79472101.6745224 0 0 0 0 4519875.2408256056 -13542735.484992981 0 -13542735.484992981 -120802973.84918976 0 0 0 0 5969446.0807640571 -35461070.717311859 0 -35461070.717311859 -77177127.652069092 0 0 0 0 -1962398.743111629 -58407114.110099792 0 -58407114.110099792 -143151809.61954498 0 0 0 0 33636369.680017605 -32415096.701589584 0 -32415096.701589584 -134616739.28981018 0 0 0 0 24305286.168847676 -18692764.349287987 0 -18692764.349287987 -133901269.53729248 0 0 0 0 9447532.0548021123 29029621.268013 0 29029621.268013 -165773641.22664261 0 0 0 0 -113668421.79876664 -173855861.7720108 0 -173855861.7720108 -295237534.16358185 0 0 0 0 21572978.657571077 71174766.914085388 0 71174766.914085388 -374744911.86767197 0 0 0 0 49666764.595292032 -48560956.254513741 0 -48560956.254513741 -242078696.4107666 0 0 0 0 -120384857.17064583 186800641.97866821 0 186800641.97866821 -230198897.06436539 0 0 0 0 9021209.1122580208 -109787793.07487869 0 -109787793.07487869 -342460851.20650291 0 0 0 0 -85733486.157333225 -115668380.72996521 0 -115668380.72996521 -92040464.508087158 0 0 0 0 -69441214.532020822 -72190266.181941986 0 -72190266.181941986 -45846258.714035034 0 0 0 0 -41973291.320390478 -37479446.978370667 0 -37479446.978370667 -25694862.261756897 0 0 0 0 -74092491.143510431 -43736800.971196175 0 -43736800.971196175 -20024093.579162598 0 0 0 0 -129500210.97726023 20187968.667610168 0 20187968.667610168 -81488749.503845215 0 0 0 0 -192166027.24355906 148867924.95507431 0 148867924.95507431 -211559919.37325668 0 0 0 0 590267.01224220521 -50751.582933299243 0 -50751.582933299243 -1068374.9820582494 0 0 0 0 102725693.20107889 44140740.178314209 0 44140740.178314209 19353975.559875488 0 0 0 0 -54145930.636493683 -3573267.9640350342 0 -3573267.9640350342 46576255.598236084 0 0 0 0 40781190.701502219 -2953765.5014686584 0 -2953765.5014686584 -11330676.140022278 0 0 0 0 23411.390647943947 -1191260.6999822706 0 -1191260.6999822706 -2048322.1755166575 0 0 0 0 77037.00856073224 -124127.38521444425 0 -124127.38521444425 -96013.965275171213 0 0 0 0 22435107.762233287 53812189.515159607 0 53812189.515159607 46888230.624542236 0 0 0 0 94411048.396040618 -44922293.734352112 0 -44922293.734352112 2766025.0485115051 0 0 0 0 -19708144.674602821 -19945031.99029541 0 -19945031.99029541 -25480896.839420319 0 0 0 0 -10105134.052027941 2704291.6408920288 0 2704291.6408920288 -759935.75436401367 0 0 0 0 -67163944.864052594 -36643896.615509033 0 -36643896.615509033 33762938.691711426 0 0 0 0 -26506618.334265381 4254291.2468109131 0 4254291.2468109131 7638543.03465271 0 0 0 0 18152850.54333365 11991152.508659363 0 11991152.508659363 -8931040.1995162964 0 0 0 0 -14254318.228587657 -929687.30968475342 0 -929687.30968475342 -7636675.4669532776 0 0 0 0 -29204562.587500393 -21552280.858158588 0 -21552280.858158588 -15354430.96836853 0 0 0 0 -5367826.5466803312 494607.41871643066 0 494607.41871643066 -7303184.6931610107 0 0 0 0 -11565630.966451854 -2862953.567855835 0 -2862953.567855835 -7802396.0620956421 0 0 0 0 8179284.2416892946 5911039.4717826843 0 5911039.4717826843 -9562850.0130901337 0 0 0 0 6989467.5248245932 257880.82602834702 0 257880.82602834702 -1190512.7119750977 0 0 0 0 24235694.058053747 -8645090.2156214714 0 -8645090.2156214714 -6063970.7073745728 0 0 0 0 10490905.578662902 2431926.9268302917 0 2431926.9268302917 -6315503.8590049744 0 0 0 0 4760842.3898543417 2711159.2268066406 0 2711159.2268066406 -5017997.3580551147 0 0 0 0 4961312.620167084 3278946.332824707 0 3278946.332824707 -3515510.9077529907 0 0 0 0 984912.30215644836 -5243121.9000778198 0 -5243121.9000778198 -7325012.0746917725 0 0 0 0 -5575232.5293931961 -14966937.501031876 0 -14966937.501031876 -20114346.47177124 0 0 0 0 1780310.1523166997 1041138.869262835 0 1041138.869262835 -2371707.4360026736 0 0 0 0 2312190.7217364907 5998677.7865638733 0 5998677.7865638733 -368421.39065551758 0 0 0 0 4223260.2333448716 3151948.3354721069 0 3151948.3354721069 -2653668.9309234619 0 0 0 0 2512532.6505499408 6303276.6935100555 0 6303276.6935100555 -7200643.763092041 0 0 0 0 -5179525.7694475427 2261469.8036651611 0 2261469.8036651611 -2685592.6327209473 0 0 0 0 -913628.6807509698 -448187.43721389771 0 -448187.43721389771 -14955787.79712677 0 0 0 0 -3894070.2795147765 4774680.4384498596 0 4774680.4384498596 -2768217.2953796387 0 0 0 0 -835804.93386873975 -10407472.745018005 0 -10407472.745018005 -21026289.663551331 0 0 0 0 645831.14197008801 -575173.5493324101 0 -575173.5493324101 -2521277.2077144161 0 0 0 0 -3815279.6460160688 -1716166.3832473755 0 -1716166.3832473755 3483720.0249633789 0 0 0 0 -1346681.4863102138 -1495601.0938110352 0 -1495601.0938110352 -7607561.9057769775 0 0 0 0 -232928.32050827378 321223.64506847039 0 321223.64506847039 -2786189.7571403384 0 0 0 0 -809264.68642221019 -147606.7654209137 0 -147606.7654209137 -1697776.9969482422 0 0 0 0 -940677.12948966026 -259235.56388092041 0 -259235.56388092041 -2715748.7900695801 0 0 0 0 -1620320.0660157134 -377161.34425209463 0 -377161.34425209463 -1663863.4535686933 0 0 0 0 1161151.1714277044 -1423815.6110038757 0 -1423815.6110038757 -8846601.0663299561 0 0 0 0 566786.20945324376 -366833.93314743042 0 -366833.93314743042 -8817461.7192306519 0 0 0 0 34037.116335226572 -483529.45272959955 0 -483529.45272959955 -1824699.1971309455 0 0 0 0 -703060.80342814326 -733221.22561836243 0 -733221.22561836243 -3593291.6507148743 0 0 0 0 -1789630.2777491566 1017045.6849287376 0 1017045.6849287376 -2066098.3122532656 0 0 0 0 -4274842.0243797302 13910276.999141693 0 13910276.999141693 127741041.40947342 0 0 0 0 10771562.823500156 74749025.371429443 0 74749025.371429443 103783038.44505978 0 0 0 0 -2692552.0616528927 464373.66430305131 0 464373.66430305131 -1323542.6052028583 0 0 0 0 -36786986.041818619 69488975.936225891 0 69488975.936225891 204925310.57370281 0 0 0 0 25089519.713947296 21478650.235641479 0 21478650.235641479 12041979.728637695 0 0 0 0 -1069845.6520746946 -564513.77310943604 0 -564513.77310943604 -718984.09833908081 0 0 0 0 849866.67860908853 -1034654.0781653523 0 -1034654.0781653523 -1904953.053631111 0 0 0 0 -3567871.748049736 -3810761.9788284302 0 -3810761.9788284302 -5073388.8240947723 0 0 0 0 -1982843.2221249482 -1942045.3533616569 0 -1942045.3533616569 -2339969.0250275973 0 0 0 0 -1763834.2354600877 -352361.12553215027 0 -352361.12553215027 -634083.2543258667 0 0 0 0 463172.00688358978 522010.23449392058 0 522010.23449392058 -1717493.2505391166 0 0 0 0 -3978005.1896315999 -1330173.7793238945 0 -1330173.7793238945 -123355.22293659486 0 0 0 0 -2712255.6594562531 29568836.136724472 0 29568836.136724472 -2660195.4870223999 0 0 0 0 -834863.25921058655 -87390.843856811523 0 -87390.843856811523 3808566.025642395 0 0 0 0 -24882565.838050842 22718199.345733643 0 22718199.345733643 70011473.766136169 0 0 0 0 -3858183.5229440983 468872.96919806115 0 468872.96919806115 -961634.74556948058 0 0 0 0 -509451.46043747012 -421731.4343231786 0 -421731.4343231786 363364.13156143576 0 0 0 0 37852204.189716339 -60599954.967590332 0 -60599954.967590332 62811325.952629089 0 0 0 0 -31674961.235530853 -51949072.195285797 0 -51949072.195285797 -9006313.9278259277 0 0 0 0 -3609109.3849995709 -707590.86882790364 0 -707590.86882790364 -950737.98930565082 0 0 0 0 -2047572.4081093669 -475677.40407180786 0 -475677.40407180786 1194915.9076728821 0 0 0 0 -31656026.169388771 -42244737.854736328 0 -42244737.854736328 10929931.964500427 0 0 0 0 -3410600.9645216945 -761835.5355033949 0 -761835.5355033949 -1051370.0718770707 0 0 0 0 -45566738.052139282 -45722911.531616211 0 -45722911.531616211 10060519.908172607 0 0 0 0 -1465497.1466503143 -21567464.471694946 0 -21567464.471694946 -14385661.586025238 0 0 0 0 -66768495.787713051 46266988.718891144 0 46266988.718891144 122215913.37717247 0 0 0 0 -54899046.640325546 21779217.240097046 0 21779217.240097046 212658380.9100666 0 0 0 0 16851322.005218506 -12405135.743849754 0 -12405135.743849754 150365688.9715271 0 0 0 0 -40867646.898771286 -33363504.424705505 0 -33363504.424705505 108770475.56340408 0 0 0 0 -2621456.8409729004 -13464445.868747711 0 -13464445.868747711 197699911.55821228 0 0 0 0 -7551678.3515720367 20579324.449829102 0 20579324.449829102 156711604.27248001 0 0 0 0 8801924.3346776962 9526093.0025939941 0 9526093.0025939941 275592503.15949249 0 0 0 0 2012567.5469447374 -54577685.551607132 0 -54577685.551607132 154658412.42497253 0 0 0 0 4653807.5337581635 -23494103.818092346 0 -23494103.818092346 96420000.935646057 0 0 0 0 -42394551.3897295 -40154133.337421417 0 -40154133.337421417 198179103.81060791 0 0 0 0 -4301695.4704815131 232302.01636827737 0 232302.01636827737 103201.56539643649 0 0 0 0 -38897546.821527481 -41551566.868141174 0 -41551566.868141174 162488476.56044769 0 0 0 0 -14629168.431799889 -67872357.028915405 0 -67872357.028915405 67614832.130081177 0 0 0 0 13996479.193845749 -2333235.1391029358 0 -2333235.1391029358 138616361.42797852 0 0 0 0 -6950094.2341794968 -42337081.252218246 0 -42337081.252218246 162289880.53684998 0 0 0 0 -3814546.7664864426 -918136.30478896946 0 -918136.30478896946 -65131.799668243155 0 0 0 0 -23194320.610291958 -1522047.9928741455 0 -1522047.9928741455 6302749.7669830322 0 0 0 0 -40408759.536209106 -59968847.293109894 0 -59968847.293109894 115366847.82231903 0 0 0 0 -43121855.948785782 -88384077.605293274 0 -88384077.605293274 50471215.043014526 0 0 0 0 10771796.520580292 -85535644.147140503 0 -85535644.147140503 47576596.640726089 0 0 0 0 -4675376.7740319073 -396401.3481623698 0 -396401.3481623698 -250880.61961975694 0 0 0 0 -1767092.0982336998 2462265.7224960327 0 2462265.7224960327 2478777.6346931458 0 0 0 0 -7158031.9748637676 6790376.1903839111 0 6790376.1903839111 -985925.21116924286 0 0 0 0 -17441475.727188826 1607562.971414566 0 1607562.971414566 2220308.981918335 0 0 0 0 -9727112.7527047396 -6551699.0156745911 0 -6551699.0156745911 -3871096.9498901367 0 0 0 0 -10284424.784887791 13175671.051063538 0 13175671.051063538 -1756249.5305175781 0 0 0 0 6483426.1885459423 1708215.5443954468 0 1708215.5443954468 -1239892.6639862061 0 0 0 0 -1898009.5653085709 2812428.1667861938 0 2812428.1667861938 -2456058.5993347168 0 0 0 0 -5650838.140378952 -12615591.618431091 0 -12615591.618431091 -1218974.8058624268 0 0 0 0 -1728112.8887572289 -1468032.0323562622 0 -1468032.0323562622 4596159.9975242615 0 0 0 0 -1994092.2963627316 -1811000.0056804568 0 -1811000.0056804568 -7988.4808757230639 0 0 0 0 3899430.9643025398 -3494478.1182022095 0 -3494478.1182022095 -197478.51853942871 0 0 0 0 34683.490263570799 105347.76311593316 0 105347.76311593316 -140836.66446653428 0 0 0 0 -1283611.4438744187 15986343.31797564 0 15986343.31797564 37957793.413208008 0 0 0 0 -17081348.232255936 -44777161.511413574 0 -44777161.511413574 19903322.580738068 0 0 0 0 12671804.547232151 -23868800.146996975 0 -23868800.146996975 -85645980.326393127 0 0 0 0 -7465591.5222740173 -65738284.883060455 0 -65738284.883060455 -45013571.414627075 0 0 0 0 723082.85846489016 -60762.636398250237 0 -60762.636398250237 -688812.78467289358 0 0 0 0 1854472.0920171738 -15070972.274858475 0 -15070972.274858475 -42309023.460720062 0 0 0 0 14639075.682330132 -33078805.307228088 0 -33078805.307228088 -55591622.136199951 0 0 0 0 -24859895.217618942 -25392515.174848557 0 -25392515.174848557 -21644199.800300598 0 0 0 0 587401.06196346367 -308450.25834736228 0 -308450.25834736228 -1178688.5669054706 0 0 0 0 1347111.591012001 -434057.91929626465 0 -434057.91929626465 -1673826.727935791 0 0 0 0 -7203849.5596039295 -37427571.211678505 0 -37427571.211678505 -39098692.063392639 0 0 0 0 -58257097.843537331 -29314909.95136261 0 -29314909.95136261 -19627475.306304932 0 0 0 0 -9484587.0574216843 -38759865.920243263 0 -38759865.920243263 -80079661.027999878 0 0 0 0 -413840.66556453705 -9353817.7814254761 0 -9353817.7814254761 -18419157.284660339 0 0 0 0 -3038714.3660106659 5587625.7501792908 0 5587625.7501792908 -4529771.9800567627 0 0 0 0 2231280.2277780832 405525.7632787656 0 405525.7632787656 -2243734.4406374767 0 0 0 0 -8934200.0131015778 -41812955.138168335 0 -41812955.138168335 -55219011.415740967 0 0 0 0 6142120.7997713089 4769213.3366546631 0 4769213.3366546631 -49085910.696955204 0 0 0 0 940672.53548152419 784004.3462481536 0 784004.3462481536 -967917.27055936679 0 0 0 0 1935640.8145382404 -1166156.2441158295 0 -1166156.2441158295 -1823940.9104690552 0 0 0 0 7403185.8558239639 -559018.01912879944 0 -559018.01912879944 -5222941.3245239258 0 0 0 0 12118075.084980905 -967743.64086914062 0 -967743.64086914062 -6639563.5385055542 0 0 0 0 1175572.0063462027 -722818.56226923596 0 -722818.56226923596 -3551958.8300173655 0 0 0 0 1120977.7353038788 -582862.18866729736 0 -582862.18866729736 -1505319.0169830322 0 0 0 0 161262.91907787323 -727125.34857559204 0 -727125.34857559204 -1508056.2494087219 0 0 0 0 1110356.5902523994 -423007.56652832031 0 -423007.56652832031 -2265819.4337844849 0 0 0 0 -103765287.17957735 11474199.000131607 0 11474199.000131607 -301003866.98403168 0 0 0 0 574692.76802110672 -782020.90825653076 0 -782020.90825653076 -2398492.8911895752 0 0 0 0 159260262.563694 232794748.65991974 0 232794748.65991974 -126810698.14239502 0 0 0 0 2460343.2488207817 -809361.60557365417 0 -809361.60557365417 -2268501.3038825989 0 0 0 0 1755357.9808268188 -905277.11566675454 0 -905277.11566675454 -1385934.1950740786 0 0 0 0 -20372035.962652206 -28301321.833908081 0 -28301321.833908081 -73745480.284471512 0 0 0 0 14927897.313881874 -11774648.97694397 0 -11774648.97694397 -258878211.98745728 0 0 0 0 6983556.1694617271 21325582.805168152 0 21325582.805168152 -94137839.439109802 0 0 0 0 137857791.29137513 258217596.13768244 0 258217596.13768244 10098528.632820129 0 0 0 0 167905855.94559813 36184302.651435852 0 36184302.651435852 -162977782.58216858 0 0 0 0 412033.81817144994 -558423.23767448775 0 -558423.23767448775 -21623.868638184853 0 0 0 0 -62794503.218008757 224147621.35123825 0 224147621.35123825 265896656.74363708 0 0 0 0 -87240385.677274704 45230370.545944214 0 45230370.545944214 -2424603.4508495331 0 0 0 0 -102159383.76037934 -80327201.924551964 0 -80327201.924551964 -341616963.7822113 0 0 0 0 -51682040.066488981 -119065461.26369572 0 -119065461.26369572 -269020930.1676178 0 0 0 0 -84438879.066016674 96898162.307357788 0 96898162.307357788 -109014939.23952866 0 0 0 0 34546205.314209938 132132709.67684746 0 132132709.67684746 -142862954.08934784 0 0 0 0 -101623310.24417543 -181982343.19526672 0 -181982343.19526672 -228394985.52459717 0 0 0 0 52885418.593431436 -114074548.02173442 0 -114074548.02173442 -295957645.29329681 0 0 0 0 30526248.693392754 -76269711.663162231 0 -76269711.663162231 -282170508.61624146 0 0 0 0 -49793832.948123828 -77116404.123795986 0 -77116404.123795986 -196967714.89901733 0 0 0 0 -53331817.870555401 102909928.41739273 0 102909928.41739273 -147675436.49802399 0 0 0 0 -13817738.9238832 1652429.4803657532 0 1652429.4803657532 8832772.0638008118 0 0 0 0 178016893.16582823 -13659034.610006332 0 -13659034.610006332 -81830091.395492554 0 0 0 0 94010986.227591038 47268142.1159935 0 47268142.1159935 -74308722.905838013 0 0 0 0 38330566.96634984 38230259.881561279 0 38230259.881561279 117322576.72035217 0 0 0 0 1620477.4018604928 -1503677.9108076748 0 -1503677.9108076748 -333817.22658065706 0 0 0 0 -19258587.783724785 5654974.4343452454 0 5654974.4343452454 -145041901.02934647 0 0 0 0 81171278.814018011 28346524.035661697 0 28346524.035661697 6620696.5278167725 0 0 0 0 -4605685.03951931 8760734.60521698 0 8760734.60521698 -221110238.76622391 0 0 0 0 -6215674.0341672897 -24108195.232757568 0 -24108195.232757568 -176175979.08129501 0 0 0 0 26219725.038899422 21962685.032657623 0 21962685.032657623 -363345417.82216263 0 0 0 0 1019916.2282942859 -1280430.3510969244 0 -1280430.3510969244 -1157227.8649443062 0 0 0 0 70199.105240345001 -1323524.2360608578 0 -1323524.2360608578 -2540623.4155883789 0 0 0 0 235648.2125415802 -884926.85689926147 0 -884926.85689926147 -2243150.2856903076 0 0 0 0 28760.047146128491 -1649757.4053031355 0 -1649757.4053031355 -1059028.4254834708 0 0 0 0 -175706.57488560677 -1431424.0400724411 0 -1431424.0400724411 -2557764.3148994446 0 0 0 0 821583.43491015863 154281.47818251699 0 154281.47818251699 -385090.29078040086 0 0 0 0 83896436.246728897 52605346.65568161 0 52605346.65568161 -28868118.584957123 0 0 0 0 52433986.49180603 122482374.84637642 0 122482374.84637642 -153905801.20438385 0 0 0 0 -40796394.948749542 18968435.255508423 0 18968435.255508423 -14899510.658096313 0 0 0 0 218453.69253826141 169826817.00040627 0 169826817.00040627 560548318.79801941 0 0 0 0 463377.10661830101 -297775.18009353057 0 -297775.18009353057 -337506.10865579545 0 0 0 0 -177828.85615390725 -101393.72376704216 0 -101393.72376704216 -61498.790649103001 0 0 0 0 -32536711.949007034 130093118.92438507 0 130093118.92438507 202190767.81414795 0 0 0 0 -548549819.98915863 -412578626.40003109 0 -412578626.40003109 232162261.23554993 0 0 0 0 148207.60408075061 482275.22438287921 0 482275.22438287921 -2314939.4922392294 0 0 0 0 -267525792.09763479 -561958430.29109573 0 -561958430.29109573 212119620.13195801 0 0 0 0 113069164.50285912 465745363.62896729 0 465745363.62896729 -186481506.58927155 0 0 0 0 -12627856.875142574 75921293.850119114 0 75921293.850119114 10857963.020530701 0 0 0 0 164681098.1728735 154639536.27386093 0 154639536.27386093 -198495444.11300659 0 0 0 0 -612569.55618667603 -33751735.402557373 0 -33751735.402557373 -2623064.236541748 0 0 0 0 -12529064.604261398 26760751.669475555 0 26760751.669475555 -157169894.9541626 0 0 0 0 -12553052.850194931 29193513.680625916 0 29193513.680625916 -268584888.48516464 0 0 0 0 -11039847.987923622 82160247.987683296 0 82160247.987683296 -142786544.54992676 0 0 0 0 -50005319.537265778 17910210.399780273 0 17910210.399780273 -80004155.401519775 0 0 0 0 -55092913.738145828 -8713041.1811141968 0 -8713041.1811141968 -179525719.79079056 0 0 0 0 28359754.96998024 -11843715.216514587 0 -11843715.216514587 -206492501.1437912 0 0 0 0 137666.7179578339 -48533.088395465165 0 -48533.088395465165 -53704.972475238144 0 0 0 0 7811379.2634735107 -46969620.421604156 0 -46969620.421604156 -96100494.779541016 0 0 0 0 -1305482.9343354004 -1638700.2728746813 0 -1638700.2728746813 871402.13533320744 0 0 0 0 1599363.2841758728 -14923331.167747498 0 -14923331.167747498 -161587076.74356079 0 0 0 0 -68062052.311351299 -105657047.3802619 0 -105657047.3802619 -141453957.48376465 0 0 0 0 138339591.21384335 20379425.417350769 0 20379425.417350769 -133159939.87537384 0 0 0 0 46995723.817735672 -86549416.118988037 0 -86549416.118988037 -98493395.468452454 0 0 0 0 -18473746.277671814 46507350.245246887 0 46507350.245246887 -42742705.651390076 0 0 0 0 -431000.44668151438 -581492.41645899415 0 -581492.41645899415 295633.52660935372 0 0 0 0 -11588057.076416969 -5533427.0285568237 0 -5533427.0285568237 38193924.317504883 0 0 0 0 -11695196.004505157 -1106749.659040451 0 -1106749.659040451 14135173.466339111 0 0 0 0 -8298076.6708641052 333705.35400009155 0 333705.35400009155 2877270.2226333618 0 0 0 0 655843.69090513978 -3763273.3004147946 0 -3763273.3004147946 174254.00247458369 0 0 0 0 -2572499.6332503557 -6025238.3699426651 0 -6025238.3699426651 7762228.6640777588 0 0 0 0 -65212678.602235734 10146702.974006414 0 10146702.974006414 1699039.9942359924 0 0 0 0 -228781088.63973808 -232853552.65182877 0 -232853552.65182877 89378761.612483978 0 0 0 0 647770.92769634328 -664359.37104325555 0 -664359.37104325555 -1435782.9182452932 0 0 0 0 -159971744.59494781 -99587598.148178101 0 -99587598.148178101 81657623.386871338 0 0 0 0 -104678411.81770134 -308384568.94688797 0 -308384568.94688797 133274769.51319885 0 0 0 0 -179409978.09662056 -161065694.25683975 0 -161065694.25683975 -93646060.015106201 0 0 0 0 -21320637.891147614 90540523.885242462 0 90540523.885242462 -489546891.58015442 0 0 0 0 -49046193.007354736 70425041.099105835 0 70425041.099105835 -2162274.0177612305 0 0 0 0 21121027.327626228 -83458701.157999039 0 -83458701.157999039 104162799.99449158 0 0 0 0 -6492587.335975647 -15725373.139076233 0 -15725373.139076233 18163185.037399292 0 0 0 0 -129991243.00901794 38787940.410430908 0 38787940.410430908 277465484.95922852 0 0 0 0 -146807642.39312553 -203767373.14923477 0 -203767373.14923477 149929558.189888 0 0 0 0 -163562081.07931519 -127605053.104599 0 -127605053.104599 214743910.47233582 0 0 0 0 -89497415.783463478 -155105602.07844162 0 -155105602.07844162 -119427281.67671204 0 0 0 0 -142651382.60356712 -208470851.52005768 0 -208470851.52005768 117495248.63688278 0 0 0 0 68374235.940544128 134192397.50131226 0 134192397.50131226 -127098739.1786499 0 0 0 0 768291.89157356741 1576191.1709237173 0 1576191.1709237173 -7193524.7875474952 0 0 0 0 -76933285.771858215 -102362453.15385437 0 -102362453.15385437 -247760613.03170776 0 0 0 0 -74032366.360395432 -128110224.24241257 0 -128110224.24241257 -90989438.372524261 0 0 0 0 -45935313.050829649 8171221.0866956711 0 8171221.0866956711 -13345473.780769348 0 0 0 0 9372972.7946567535 -4279557.6255264282 0 -4279557.6255264282 -15497955.296318054 0 0 0 0 -217056386.34421921 -106695379.06890869 0 -106695379.06890869 -20777204.583740234 0 0 0 0 2592788.3825750351 -8513536.4744300842 0 -8513536.4744300842 -15109934.424674034 0 0 0 0 -7303337.9915084839 -3186302.673573494 0 -3186302.673573494 5440234.6400737762 0 0 0 0 171741.91439469717 684124.04690671712 0 684124.04690671712 -2705460.0323928613 0 0 0 0 -25376101.707115173 -17451003.249973297 0 -17451003.249973297 -240563363.71852875 0 0 0 0 -76742.865674567642 -695604.96870074328 0 -695604.96870074328 -2512486.075151667 0 0 0 0 -59042727.550777435 -12763127.504394531 0 -12763127.504394531 -325865151.59487152 0 0 0 0 -55816581.996715546 -39113230.265380859 0 -39113230.265380859 -174457842.56494141 0 0 0 0 -17471329.616615295 -184812891.41740799 0 -184812891.41740799 -42536349.935852051 0 0 0 0 -231865926.88951683 53206867.520179749 0 53206867.520179749 -274563386.7600174 0 0 0 0 -6381629.5698547363 -302841.37076568604 0 -302841.37076568604 -7839908.799598217 0 0 0 0 350747684.81534195 162782264.60469818 0 162782264.60469818 67604878.098438263 0 0 0 0 269068098.94244766 105057748.87542725 0 105057748.87542725 243859849.14743042 0 0 0 0 426979.58075426333 73627.992343695834 0 73627.992343695834 -341052.50403870083 0 0 0 0 -2943531.2835703227 675639.62003968097 0 675639.62003968097 179198.44038644806 0 0 0 0 -6712796.5665431023 -15146845.659427643 0 -15146845.659427643 -6309399.6701927185 0 0 0 0 -123187404.21855545 -59392741.438735962 0 -59392741.438735962 -36655201.972305298 0 0 0 0 -57640026.611275673 -98034806.931529999 0 -98034806.931529999 -90398201.647369385 0 0 0 0 11067357.472622275 10667045.624568462 0 10667045.624568462 -143637347.72265625 0 0 0 0 -13492382.685777664 -40477841.993644714 0 -40477841.993644714 -149561151.45132446 0 0 0 0 -17080130.912006378 -71742152.00177002 0 -71742152.00177002 -85913810.859562874 0 0 0 0 -39374561.362294674 -139876857.16361809 0 -139876857.16361809 -282807626.60377502 0 0 0 0 7708605.3800230026 42161752.387012482 0 42161752.387012482 -63401981.879276276 0 0 0 0 -7988055.8762779236 52462755.813842773 0 52462755.813842773 -31595874.693652153 0 0 0 0 1281852.1060158329 2183855.087165527 0 2183855.087165527 -1791074.2754818611 0 0 0 0 -151268981.05699635 -90740727.441829681 0 -90740727.441829681 -55092230.316059113 0 0 0 0 -61497646.892915815 -177481817.29478723 0 -177481817.29478723 -114913783.78469086 0 0 0 0 8283783.1081027985 -185227695.92528152 0 -185227695.92528152 -6395980.0769348145 0 0 0 0 74900261.617609024 22974470.411533356 0 22974470.411533356 -3963814.867729187 0 0 0 0 -61507632.133372307 -171185514.24546814 0 -171185514.24546814 -197511544.25720215 0 0 0 0 -6460404.0809792727 -4416066.6698215008 0 -4416066.6698215008 -3304040.4930801392 0 0 0 0 -3069445.5253683552 -468042.79907416366 0 -468042.79907416366 -4185168.0110409744 0 0 0 0 395645.40197218076 1827576.355797587 0 1827576.355797587 -944067.60796826519 0 0 0 0 1097024.872047646 883366.18899887428 0 883366.18899887428 -518536.66565111279 0 0 0 0 -339704488.66576004 -50977233.219802856 0 -50977233.219802856 -248015415.31924438 0 0 0 0 -1488400.8476514434 1055112.8110396266 0 1055112.8110396266 -653159.62831607834 0 0 0 0 3325421.90224123 4004921.2800216675 0 4004921.2800216675 2168773.2378158569 0 0 0 0 -399166569.75933743 -454837597.94644165 0 -454837597.94644165 -159297931.94898987 0 0 0 0 440177264.52974415 267037613.68846893 0 267037613.68846893 -835261492.52484512 0 0 0 0 -42566356.935046196 26964267.239385605 0 26964267.239385605 188272494.24998856 0 0 0 0 270706458.45924568 194016173.45343781 0 194016173.45343781 -465125449.36457825 0 0 0 0 -1268491.954764843 1054747.7755050659 0 1054747.7755050659 290061.41292572021 0 0 0 0 -3627725.7027293462 1351656.8802048005 0 1351656.8802048005 -1197281.4585947599 0 0 0 0 -3359175.1953909397 -1474548.3561019897 0 -1474548.3561019897 1583918.4691028595 0 0 0 0 237214.90392737812 -42154.244197621942 0 -42154.244197621942 -578401.7653735131 0 0 0 0 -92141814.170061111 -78979075.248455048 0 -78979075.248455048 -118769406.32551455 0 0 0 0 -3974460.5973476856 -1034259.0160395 0 -1034259.0160395 -563842.03596598282 0 0 0 0 -230205832.22036123 -150815958.8803196 0 -150815958.8803196 -2624925.1170883179 0 0 0 0 -3461858.5609738035 188580.81076096091 0 188580.81076096091 -303025.02311085537 0 0 0 0 -125807574.16521806 -90634592.458046198 0 -90634592.458046198 -45779503.638694763 0 0 0 0 -221739889.94600487 -85545148.862785339 0 -85545148.862785339 -9356213.0625 0 0 0 0 410306.52996605635 -3985765.1498908997 0 -3985765.1498908997 -6027545.7311248779 0 0 0 0 3261317.9179959297 -1486909.7847061157 0 -1486909.7847061157 -3716714.564743042 0 0 0 0 -6300340.6049249172 3616729.9254302979 0 3616729.9254302979 4089791.6405258179 0 0 0 0 -211250292.27329636 -60375264.720024109 0 -60375264.720024109 -14725892.095932007 0 0 0 0 -2630548.3003513017 241366.57896507345 0 241366.57896507345 -264060.39876082167 0 0 0 0 644529.76339626312 -6327996.7165374756 0 -6327996.7165374756 -2332088.1876068115 0 0 0 0 7290283.4261243343 3316536.847984314 0 3316536.847984314 -1488641.9378738403 0 0 0 0 55635.592202886823 -15922.413801141083 0 -15922.413801141083 -158857.77624354511 0 0 0 0 7052689.8520781994 -4331055.5914497375 0 -4331055.5914497375 -4638038.23387146 0 0 0 0 3411119.7733039856 -182193094.58227539 0 -182193094.58227539 -233447434.02986908 0 0 0 0 -341868036.03887749 -45065365.913619995 0 -45065365.913619995 10700893.397613525 0 0 0 0 -206445065.81021118 -125506346.30846024 0 -125506346.30846024 -113674900.79037476 0 0 0 0 -327925.21191465482 524120.37870727852 0 524120.37870727852 174754.03770594671 0 0 0 0 -207155236.8352108 5518823.7445487976 0 5518823.7445487976 -110432227.12702942 0 0 0 0 -198311013.69284439 -103785842.15242004 0 -103785842.15242004 -13058878.051483154 0 0 0 0 -373043561.3075285 -134911824.13665009 0 -134911824.13665009 -14907659.471069336 0 0 0 0 -205952455.48900223 -257508895.0892334 0 -257508895.0892334 -148674996.6913147 0 0 0 0 -43077848.476222992 -143862949.83984375 0 -143862949.83984375 -86898244.328582764 0 0 0 0 103889728.80824471 -58377762.98348999 0 -58377762.98348999 -162328071.76513672 0 0 0 0 -60873375.407949448 -127372625.25372314 0 -127372625.25372314 -77141339.838195801 0 0 0 0 -54052185.937389374 -124768813.81765747 0 -124768813.81765747 -31184619.088897705 0 0 0 0 -145649747.81556034 -189298931.38436508 0 -189298931.38436508 -66063537.694854736 0 0 0 0 -61844171.984563828 -132926703.52740479 0 -132926703.52740479 -13206204.346115112 0 0 0 0 -61426552.57529068 -121604707.88237 0 -121604707.88237 -750245.68509292603 0 0 0 0 46455167.810897827 -8257238.1244812012 0 -8257238.1244812012 -46101428.041931152 0 0 0 0 2867551.2780685425 -54638247.010345459 0 -54638247.010345459 -2113812.2441396713 0 0 0 0 -61754555.822489738 -66574377.885826111 0 -66574377.885826111 -71039810.285324097 0 0 0 0 -134370479.42993546 -42837341.616928101 0 -42837341.616928101 -21291478.440670013 0 0 0 0 -120973912.1235199 -63454086.543575287 0 -63454086.543575287 -57041250.393516541 0 0 0 0 -100079102.04255867 -22739248.881309509 0 -22739248.881309509 -31274759.537475586 0 0 0 0 -40165643.853340149 -28256962.689201355 0 -28256962.689201355 -18585242.079444885 0 0 0 0 69160899.480863571 -37289549.165111542 0 -37289549.165111542 -51981568.28849411 0 0 0 0 78591833.145143509 -85364261.451343536 0 -85364261.451343536 -8600724.1248650551 0 0 0 0 62763908.505332947 -37320622.655223846 0 -37320622.655223846 -2197550.503880024 0 0 0 0 1152276.7432169649 -4336007.6572178826 0 -4336007.6572178826 -14401676.538745116 0 0 0 0 48174597.198814392 -60848216.60188961 0 -60848216.60188961 50117331.549957275 0 0 0 0 1000291.1746840551 -537284.10339131579 0 -537284.10339131579 -2119768.462949302 0 0 0 0 -132833062.8943398 -47568062.226713419 0 -47568062.226713419 90916695.846435547 0 0 0 0 88982694.106889725 -13370465.916828156 0 -13370465.916828156 -31716165.027942657 0 0 0 0 3287353.7008447647 -51558481.908798218 0 -51558481.908798218 -26791876.066452026 0 0 0 0 6449648.8078298569 -34759061.032382965 0 -34759061.032382965 -16981301.032905579 0 0 0 0 58108304.21859169 -36928695.534740448 0 -36928695.534740448 -36754763.416648865 0 0 0 0 115403159.05833054 -11725952.03900528 0 -11725952.03900528 -28212994.912549019 0 0 0 0 131860286.32760906 -42495979.08810997 0 -42495979.08810997 -39619547.616523743 0 0 0 0 70933063.402519226 -44419008.197559357 0 -44419008.197559357 -17173707.500102997 0 0 0 0 65994885.361892819 -20345273.524466515 0 -20345273.524466515 -42714027.831123352 0 0 0 0 -8677041.0427932739 -26571772.9233284 0 -26571772.9233284 -24600001.54164505 0 0 0 0 -76591590.812712669 -38549895.865432739 0 -38549895.865432739 -20674145.987449646 0 0 0 0 -10391476.59622407 -34141765.361249924 0 -34141765.361249924 -44502416.074493408 0 0 0 0 -144168035.08994865 -29701809.790245056 0 -29701809.790245056 -24858946.060379028 0 0 0 0 -75506590.001554489 -52073968.483276367 0 -52073968.483276367 -19977424.873077393 0 0 0 0 -71350210.297637939 -64900778.765541077 0 -64900778.765541077 -5951896.3659667969 0 0 0 0 -121209796.69482422 -64453574.832862854 0 -64453574.832862854 -5574264.8940124512 0 0 0 0 -3524317.5476136208 -31404841.433263779 0 -31404841.433263779 -23590775.710632324 0 0 0 0 -59046995.856170654 -140664506.37654114 0 -140664506.37654114 -30752974.484783411 0 0 0 0 -138359827.16779709 -118218765.64935303 0 -118218765.64935303 -1080077.9942779541 0 0 0 0 -98637216.356750488 -127416587.48100281 0 -127416587.48100281 -1239130.4669339657 0 0 0 0 -141104634.31192017 -122305140.46115875 0 -122305140.46115875 -7067702.1722869873 0 0 0 0 -184552662.83965874 -82786273.536651611 0 -82786273.536651611 3301191.3330383301 0 0 0 0 -107235730.09457588 -84867237.605819702 0 -84867237.605819702 3111444.1321706772 0 0 0 0 -93393684.010679245 -90328941.874984741 0 -90328941.874984741 -17335361.656311035 0 0 0 0 -85485264.877719879 -100776800.77853394 0 -100776800.77853394 -3609221.8067207336 0 0 0 0 -124821228.04915524 -101903026.5074234 0 -101903026.5074234 -2092028.9672698975 0 0 0 0 -71915425.902967453 -115289676.0025692 0 -115289676.0025692 -25700903.371047974 0 0 0 0 -74197346.989053726 -120309978.13784027 0 -120309978.13784027 -11379314.563690186 0 0 0 0 -89534374.546136856 -116083679.23114014 0 -116083679.23114014 -12395279.663860321 0 0 0 0 -66036851.478995323 -127125514.03672791 0 -127125514.03672791 -12792128.652145386 0 0 0 0 -74218455.754020631 -119803710.39371347 0 -119803710.39371347 -10898413.684738159 0 0 0 0 -61632422.784193397 -112732272.63228989 0 -112732272.63228989 -25466448.662826538 0 0 0 0 -60678967.300899506 -99898043.931030273 0 -99898043.931030273 -49001841.371543884 0 0 0 0 -62093340.934042931 -90094461.484535217 0 -90094461.484535217 -30805271.031326294 0 0 0 0 -60191936.826310158 -83162392.910255432 0 -83162392.910255432 -17447097.383178711 0 0 0 0 -46121063.336001396 -86872836.622169495 0 -86872836.622169495 -66783603.894958496 0 0 0 0 -41630287.331731796 -74476750.188400269 0 -74476750.188400269 -41672804.234020233 0 0 0 0 -44852218.508789062 -94395394.22240448 0 -94395394.22240448 -47226398.923271179 0 0 0 0 -45827290.846379757 -100225845.11695862 0 -100225845.11695862 -81071577.764221191 0 0 0 0 3821380.8458515406 -50985161.600322723 0 -50985161.600322723 -31114452.08380127 0 0 0 0 -51592638.012469292 -47261720.248550415 0 -47261720.248550415 -17238447.795768738 0 0 0 0 -64147407.630529404 -73062475.581062317 0 -73062475.581062317 -21046632.964481354 0 0 0 0 -56424749.483857393 -69304126.861719131 0 -69304126.861719131 -20176791.770614624 0 0 0 0 -42624712.453150749 -72106970.927547455 0 -72106970.927547455 -47316921.654815674 0 0 0 0 -30556659.022631645 -57504671.777259827 0 -57504671.777259827 -30279713.331632614 0 0 0 0 -30957417.549386024 -57503804.42156601 0 -57503804.42156601 -22783949.654396057 0 0 0 0 8193603.1606626511 -43370975.459575653 0 -43370975.459575653 -36440137.328849792 0 0 0 0 -25294744.08507514 -43774700.703468323 0 -43774700.703468323 -19305720.967483521 0 0 0 0 -23848899.082103491 -42120252.489673615 0 -42120252.489673615 -66485449.445663452 0 0 0 0 -40140315.344873428 -4460976.8931159973 0 -4460976.8931159973 -50649704.19077301 0 0 0 0 -12196540.081782341 -18979298.916000366 0 -18979298.916000366 -42098508.661766052 0 0 0 0 -32367673.452027321 -48574091.491714478 0 -48574091.491714478 -42551215.29569149 0 0 0 0 -32983938.641950607 -55508193.311347961 0 -55508193.311347961 -79615849.61917305 0 0 0 0 -8330993.1945333481 -13982815.80944252 0 -13982815.80944252 -129109494.78671265 0 0 0 0 -21281304.861489296 -61386954.430755615 0 -61386954.430755615 -99923988.811187744 0 0 0 0 70697364.909753799 5053554.2282180786 0 5053554.2282180786 -131281005.08763123 0 0 0 0 -14411352.388321161 -857146.60261058807 0 -857146.60261058807 -99472634.847793579 0 0 0 0 -39138633.090719223 90095536.746761322 0 90095536.746761322 -184302515.90465546 0 0 0 0 224080.75920464098 11536.858203765005 0 11536.858203765005 -170449.69828302041 0 0 0 0 -67688565.243187904 27958558.223464966 0 27958558.223464966 -85104201.514596939 0 0 0 0 -20121703.427065849 25233291.736362457 0 25233291.736362457 -72134679.041191101 0 0 0 0 -32199877.504636765 -22304043.149333954 0 -22304043.149333954 -31235581.710197449 0 0 0 0 -33100191.311645508 15301197.623975754 0 15301197.623975754 -135202033.14174652 0 0 0 0 -44791440.359874725 23095565.43554306 0 23095565.43554306 -66558299.438995361 0 0 0 0 -7980951.10496521 24294290.716205597 0 24294290.716205597 -32896670.067962646 0 0 0 0 -18101359.077902794 -45805838.094528198 0 -45805838.094528198 172947558.36291504 0 0 0 0 -29194035.815639734 11422058.81541729 0 11422058.81541729 14521569.425964355 0 0 0 0 65705501.885887146 -46005011.27022171 0 -46005011.27022171 -32175089.781364441 0 0 0 0 4473416.6119089127 -59293477.447898865 0 -59293477.447898865 10833517.503803968 0 0 0 0 63851973.652623236 -23929374.091306686 0 -23929374.091306686 -15360614.58467865 0 0 0 0 8755282.0812879801 -47074427.472555161 0 -47074427.472555161 -20048597.731552124 0 0 0 0 62055710.645641327 -48852954.528196335 0 -48852954.528196335 -22785413.183586121 0 0 0 0 174809790.83095455 50323861.015796661 0 50323861.015796661 5041187.8595314026 0 0 0 0 198783185.06670856 -76240952.144424438 0 -76240952.144424438 -20262372.458953857 0 0 0 0 106653627.99311638 -157620417.18510818 0 -157620417.18510818 -41492730.170475006 0 0 0 0 98901087.262723446 154148639.0355072 0 154148639.0355072 -32453214.178276062 0 0 0 0 61150721.868070722 -39215796.044372559 0 -39215796.044372559 -209997950.57772827 0 0 0 0 -77316795.704891205 148299675.39867592 0 148299675.39867592 -8739154.278503418 0 0 0 0 -34345377.990699768 50363302.51083374 0 50363302.51083374 5139417.6416168213 0 0 0 0 26775951.136888742 42441954.147951126 0 42441954.147951126 -196485661.66531372 0 0 0 0 -74417174.970661163 100704907.33888245 0 100704907.33888245 -97531092.919786453 0 0 0 0 3775890.2340297699 1576083.4745178223 0 1576083.4745178223 -486577.42318725586 0 0 0 0 660825.90562039125 -276432.72441618145 0 -276432.72441618145 -741929.54536309466 0 0 0 0 -57204883.837515831 65823622.303127289 0 65823622.303127289 -103660735.0352416 0 0 0 0 -2459962.2242431641 33060208.951560974 0 33060208.951560974 -198760996.53847885 0 0 0 0 -6897301.5773444176 -2609692.5092353821 0 -2609692.5092353821 1791181.6984558105 0 0 0 0 1142417.1547379114 -16442.850609831512 0 -16442.850609831512 -686120.72964041494 0 0 0 0 -46646946.521060944 130647327.40338516 0 130647327.40338516 -196853556.99079227 0 0 0 0 291817.6423262388 -48516.084888424724 0 -48516.084888424724 -406981.55376025289 0 0 0 0 -104958129.93756104 107378187.72766113 0 107378187.72766113 -111050637.95655632 0 0 0 0 -41468071.827601433 84130229.010108948 0 84130229.010108948 -120905657.24131012 0 0 0 0 -38214618.358439445 104785000.1891861 0 104785000.1891861 -115522233.30830383 0 0 0 0 -24865862.842812061 86823276.297119141 0 86823276.297119141 -127897986.9737854 0 0 0 0 -73827195.278096199 119928782.04233551 0 119928782.04233551 -142426799.87957001 0 0 0 0 -82140352.988271713 98183255.687194824 0 98183255.687194824 -113725750.11405945 0 0 0 0 -73915049.722723842 125653191.35423899 0 125653191.35423899 -158968186.46118927 0 0 0 0 -66873461.940567017 89821149.439998627 0 89821149.439998627 -122005931.0154953 0 0 0 0 -94796492.858575493 160469949.8152515 0 160469949.8152515 -187248160.36604309 0 0 0 0 -95184668.961385727 123178512.25093842 0 123178512.25093842 -136743570.48126221 0 0 0 0 -121861026.73566556 151402153.25082827 0 151402153.25082827 -145621817.80927277 0 0 0 0 -76009280.456227303 134771892.9354248 0 134771892.9354248 -161156840.23613739 0 0 0 0 -139673248.18156147 188987756.91332245 0 188987756.91332245 -183626262.28131866 0 0 0 0 -114585626.47652197 141219977.7232132 0 141219977.7232132 -123071949.16779232 0 0 0 0 -72584647.805209637 92711297.061449051 0 92711297.061449051 -115939828.11065674 0 0 0 0 -108597252.47920609 224078142.05714417 0 224078142.05714417 -264351073.67014313 0 0 0 0 -86095461.444396019 242272786.2025795 0 242272786.2025795 -253059519.08668137 0 0 0 0 -142224859.84418297 205796705.92026997 0 205796705.92026997 -197409781.87340546 0 0 0 0 -105470557.61185849 190616397.21386909 0 190616397.21386909 -230036327.43161774 0 0 0 0 -109008732.10105896 156362492.27889633 0 156362492.27889633 -187748340.76068878 0 0 0 0 -83679014.403949738 127246541.66567993 0 127246541.66567993 -155260575.86020279 0 0 0 0 -67155804.224146247 176958093.88524103 0 176958093.88524103 -210472977.81454468 0 0 0 0 -56019113.216237068 227615390.14151382 0 227615390.14151382 -246140380.06154633 0 0 0 0 -57586056.825716019 162711011.86071014 0 162711011.86071014 -195626362.38012695 0 0 0 0 -105835115.44465065 248449200.93823624 0 248449200.93823624 -245389890.55767822 0 0 0 0 -59801338.779948235 219810085.06904221 0 219810085.06904221 -257947272.83550262 0 0 0 0 9902151.2835006714 162345204.75951004 0 162345204.75951004 -239974227.11045074 0 0 0 0 -27524047.011972427 125992921.31603813 0 125992921.31603813 -186200698.87989807 0 0 0 0 -21433601.38067627 123489648.02337646 0 123489648.02337646 -189440780.53871918 0 0 0 0 -40602448.700650215 93113117.404586792 0 93113117.404586792 -141213958.41506958 0 0 0 0 -58626666.931591034 126299019.35208893 0 126299019.35208893 -164162985.61657715 0 0 0 0 -28555471.446632385 142354386.42646027 0 142354386.42646027 -207864332.88589096 0 0 0 0 -14130583.278253317 89790579.507884979 0 89790579.507884979 -155305473.25317383 0 0 0 0 -30794375.610056877 100899195.4825058 0 100899195.4825058 -119685403.40370178 0 0 0 0 -22828684.541307449 90454173.793056488 0 90454173.793056488 -148497843.83132935 0 0 0 0 -1851681.9004707336 -924898.74053192139 0 -924898.74053192139 -1233632.0700626373 0 0 0 0 -14689537.747518539 58651288.827507019 0 58651288.827507019 -160446153.34640503 0 0 0 0 8984191.8580570221 4536688.8576965332 0 4536688.8576965332 -119155852.8644619 0 0 0 0 -42980202.667754173 72934412.559135437 0 72934412.559135437 -94503091.70388031 0 0 0 0 465416.58852698561 66726.784912293777 0 66726.784912293777 -295977.85172466189 0 0 0 0 -24799243.81537056 144108831.44277382 0 144108831.44277382 -142332545.91992188 0 0 0 0 587196.18183106603 -201928.19846602529 0 -201928.19846602529 -529718.18110322021 0 0 0 0 -37887249.697753906 85962764.564178467 0 85962764.564178467 -102305585.55036545 0 0 0 0 37522607.10720396 129707339.27272034 0 129707339.27272034 -260165108.6427536 0 0 0 0 3682277.2865619659 65408109.508743286 0 65408109.508743286 -125903878.57263947 0 0 0 0 24604329.773696899 66817701.817962646 0 66817701.817962646 -172220171.86087608 0 0 0 0 12277901.355414391 -18491563.874252319 0 -18491563.874252319 27123175.935821533 0 0 0 0 97883962.995232165 47443420.366461992 0 47443420.366461992 -227024758.4439621 0 0 0 0 104121559.24494267 -5124070.883769989 0 -5124070.883769989 -199663771.51338196 0 0 0 0 -35109460.235484123 160175985.1425972 0 160175985.1425972 -286230088.00466919 0 0 0 0 -7700595.1009588242 18034483.370281219 0 18034483.370281219 -346842880.99757004 0 0 0 0 -99236045.954591274 113897214.43780899 0 113897214.43780899 -395381281.14803314 0 0 0 0 -41367531.478874207 107242999.77055359 0 107242999.77055359 -478853173.98157501 0 0 0 0 -120686839.93581676 343740989.98161125 0 343740989.98161125 -404617366.33797073 0 0 0 0 -1845112.8215026855 112556204.40777206 0 112556204.40777206 -263007444.91271973 0 0 0 0 -21104835.879849911 212852601.34802628 0 212852601.34802628 -317276650.17650604 0 0 0 0 -67917243.146408796 255789078.41566181 0 255789078.41566181 -269719685.55896759 0 0 0 0 -72934198.423869133 245673213.13542175 0 245673213.13542175 -265410726.67942047 0 0 0 0 -83987963.357124329 276344052.74619293 0 276344052.74619293 -268148652.28046155 0 0 0 0 -147816707.27742624 231401283.93751335 0 231401283.93751335 -163034241.85969162 0 0 0 0 -77898154.750175476 263917381.76980782 0 263917381.76980782 -242980321.67985153 0 0 0 0 -110473223.84263325 259038374.24864197 0 259038374.24864197 -234143453.65781403 0 0 0 0 -265913406.92147827 117821380.23384857 0 117821380.23384857 -32418758.230799675 0 0 0 0 -151889798.65086269 252850685.04709816 0 252850685.04709816 -215966488.74389648 0 0 0 0 -193735837.30050087 279543513.71934509 0 279543513.71934509 -212337963.46575403 0 0 0 0 -550254162.7328074 219356202.10903168 0 219356202.10903168 -52738411.157306671 0 0 0 0 -95833910.765349865 -41502744.540784836 0 -41502744.540784836 970316.93228149414 0 0 0 0 -122827.20496613439 903751.6212425679 0 903751.6212425679 -1732602.8639055416 0 0 0 0 -300532534.61766386 492415073.58296585 0 492415073.58296585 -606970648.69261551 0 0 0 0 -125515642.91054773 -19772702.822686195 0 -19772702.822686195 -947734301.69591522 0 0 0 0 -589867939.04232192 -45504242.816839218 0 -45504242.816839218 -337782446.54030609 0 0 0 0 -235461519.26775932 86773558.618804932 0 86773558.618804932 -293370078.64128113 0 0 0 0 -142442281.74634647 36803548.48506546 0 36803548.48506546 -160301470.65637589 0 0 0 0 -163271806.93477154 -20000190.800804138 0 -20000190.800804138 -224709131.20608521 0 0 0 0 -130624054.82924747 -37656018.425930023 0 -37656018.425930023 -204262567.40173721 0 0 0 0 -194522536.40802288 -40535555.40155983 0 -40535555.40155983 -73521184.958221436 0 0 0 0 -137713386.91028786 -94274282.706188202 0 -94274282.706188202 -147090747.70617676 0 0 0 0 -308163474.51058638 -117407357.84513521 0 -117407357.84513521 -240010268.05541992 0 0 0 0 -74878779.548336029 -717560.00636291504 0 -717560.00636291504 -225583476.39169312 0 0 0 0 -77720315.6929636 -46789839.213127136 0 -46789839.213127136 -493963852.45045471 0 0 0 0 -39984011.318000793 -81370651.759529114 0 -81370651.759529114 -279496129.04269218 0 0 0 0 -37064396.936462402 -60127967.976467133 0 -60127967.976467133 -140734560.76817322 0 0 0 0 2784117.8725032806 65925972.960830688 0 65925972.960830688 -140298697.55225372 0 0 0 0 18471946.364498138 -74287192.048717499 0 -74287192.048717499 -175422104.20772457 0 0 0 0 -22490745.422142029 -91379740.475395203 0 -91379740.475395203 -166091747.34513474 0 0 0 0 -63429214.812880039 -121175393.11877823 0 -121175393.11877823 -118079460.91149902 0 0 0 0 -78267647.48541069 -101747024.43796158 0 -101747024.43796158 -92768662.313674927 0 0 0 0 -14628918.813408375 -70652242.866952896 0 -70652242.866952896 -114753854.60229492 0 0 0 0 -45248487.441526413 -107980008.53501892 0 -107980008.53501892 -91736555.419960022 0 0 0 0 -46446809.155614853 -101039668.24118042 0 -101039668.24118042 -96462932.604278564 0 0 0 0 -151441353.4576664 -104257820.40581512 0 -104257820.40581512 -143023870.96878815 0 0 0 0 -63659198.673462868 -94754032.19474411 0 -94754032.19474411 -144096204.28325272 0 0 0 0 -98030031.085908175 -50839189.59556365 0 -50839189.59556365 -100777939.43074036 0 0 0 0 -101697582.82534885 -112778385.13047028 0 -112778385.13047028 -80050971.957191467 0 0 0 0 -68745373.055239886 -120735338.13643265 0 -120735338.13643265 -61065363.773483276 0 0 0 0 -66997123.625630647 -80560854.104421973 0 -80560854.104421973 -50551154.179534912 0 0 0 0 -54762150.137807846 -103151650.65839386 0 -103151650.65839386 -39165384.779144287 0 0 0 0 -53868323.626888275 -115188323.08309174 0 -115188323.08309174 -50876424.573669434 0 0 0 0 -54014623.950296402 -107564608.83576202 0 -107564608.83576202 -64261750.523010254 0 0 0 0 -54500913.264417648 -100473858.59649658 0 -100473858.59649658 -94886452.509277344 0 0 0 0 -57379197.127624512 -117664463.38538361 0 -117664463.38538361 -76700661.149108887 0 0 0 0 -57731168.185935974 -99226267.020393372 0 -99226267.020393372 -35310356.070007324 0 0 0 0 -51164317.996149063 -124838864.77275085 0 -124838864.77275085 -47210808.880088806 0 0 0 0 -61467260.708217502 -111501696.79746866 0 -111501696.79746866 -43667500.050567627 0 0 0 0 -53305136.948863983 -124118231.51541901 0 -124118231.51541901 -30607767.696968079 0 0 0 0 -55894294.086352825 -114368425.77732658 0 -114368425.77732658 -27773555.718826294 0 0 0 0 -44425230.059238434 -126109204.17391968 0 -126109204.17391968 -16998515.781215668 0 0 0 0 -46052917.618929684 -99266341.741286755 0 -99266341.741286755 2716669.8227996826 0 0 0 0 -5633892.2623939514 -93266341.363525391 0 -93266341.363525391 2689996.0438995361 0 0 0 0 -32779873.508448601 -116387916.4163208 0 -116387916.4163208 22426180.550964355 0 0 0 0 -36938664.170438766 -101725299.25072479 0 -101725299.25072479 -2163566.4799919128 0 0 0 0 -22669123.450110435 -98726552.628910065 0 -98726552.628910065 -4380247.040435791 0 0 0 0 -52008084.01121521 -131571241.25127411 0 -131571241.25127411 -11069429.62461853 0 0 0 0 -79416741.191570044 -57672068.79492569 0 -57672068.79492569 12365113.874694824 0 0 0 0 -25744361.673281789 -47992415.54198885 0 -47992415.54198885 11754008.067512512 0 0 0 0 -46008338.092251778 -74630944.214996338 0 -74630944.214996338 2111342.3276062012 0 0 0 0 -40357572.609806061 -114057430.86081696 0 -114057430.86081696 -28158980.267032623 0 0 0 0 -37375369.08296299 -66054738.952522278 0 -66054738.952522278 67695148.725723267 0 0 0 0 -35412785.948978424 -97082578.6534729 0 -97082578.6534729 19159741.74805069 0 0 0 0 -29689803.360925913 5532038.192527771 0 5532038.192527771 45227056.165847778 0 0 0 0 -58703423.826926231 -61295887.696422577 0 -61295887.696422577 82476954.759504318 0 0 0 0 -102960352.86147499 -41555374.465953827 0 -41555374.465953827 25443233.953090668 0 0 0 0 -112603154.27669144 51241766.934328079 0 51241766.934328079 29770702.27520752 0 0 0 0 -61307799.962566376 27730836.100233078 0 27730836.100233078 -46597454.628890991 0 0 0 0 -158423019.44464302 -2488477.8104515076 0 -2488477.8104515076 -54910997.900695801 0 0 0 0 -91058917.257266045 -85837032.600070953 0 -85837032.600070953 -32097278.212989807 0 0 0 0 -85834087.40355587 -12170502.361915588 0 -12170502.361915588 -67266066.297668457 0 0 0 0 27811134.947651863 40869842.270042419 0 40869842.270042419 -131477946.95256805 0 0 0 0 -41309268.605746508 57269795.703714371 0 57269795.703714371 -6969.8118515014648 0 0 0 0 -42701584.256419659 104648969.72244644 0 104648969.72244644 -114117650.88631821 0 0 0 0 -55099330.520421505 14681443.362636566 0 14681443.362636566 -57572675.629329681 0 0 0 0 -99890010.285439253 80477090.834942818 0 80477090.834942818 -136184912.16859436 0 0 0 0 -16207951.329912186 3422087.823223114 0 3422087.823223114 49174430.82006073 0 0 0 0 -64678311.435994148 74607483.276428223 0 74607483.276428223 100012478.62065887 0 0 0 0 20066323.93246913 70466970.046138763 0 70466970.046138763 -2794037.4795837402 0 0 0 0 6307933.8888230324 46880938.038215637 0 46880938.038215637 78077109.440429688 0 0 0 0 76088741.36712265 94658580.630268097 0 94658580.630268097 -867957.26955795288 0 0 0 0 -486253.68900255032 917869.21839600243 0 917869.21839600243 -4113540.9084610566 0 0 0 0 388250.10472986102 -1408733.3626823425 0 -1408733.3626823425 -670843.76826095581 0 0 0 0 19208894.984134018 -5677771.3260879517 0 -5677771.3260879517 -24934861.372192383 0 0 0 0 25936272.283995315 96390020.257513881 0 96390020.257513881 -133507004.90990448 0 0 0 0 62670806.343807697 5299536.0544776917 0 5299536.0544776917 25311708.192497253 0 0 0 0 91630964.200387478 42085956.901195526 0 42085956.901195526 -397725558.70458221 0 0 0 0 99532096.239055872 -90133897.214046478 0 -90133897.214046478 -207477557.4769907 0 0 0 0 86006610.529960856 -71408962.857539177 0 -71408962.857539177 48897371.222145081 0 0 0 0 -27751.863191146898 591291.2698099697 0 591291.2698099697 -3371538.7595127746 0 0 0 0 126435299.58387768 26430620.295357704 0 26430620.295357704 -92280717.791397095 0 0 0 0 -15467852.5227741 -138981156.26965332 0 -138981156.26965332 -631739672.58563232 0 0 0 0 -66076.367260765866 285675.40280532278 0 285675.40280532278 -319229.5765969865 0 0 0 0 203348534.11840034 -72631183.152458191 0 -72631183.152458191 -610980890.70220184 0 0 0 0 170935971.52672625 23511384.465869904 0 23511384.465869904 -893451884.35888672 0 0 0 0 165254074.16249323 -14001211.512756348 0 -14001211.512756348 -409732534.26010418 0 0 0 0 47581028.909323692 104909295.41473389 0 104909295.41473389 -420464728.27407455 0 0 0 0 139819193.33265042 57494744.892730713 0 57494744.892730713 -587972573.24806976 0 0 0 0 -13833710.687930107 53663690.643009186 0 53663690.643009186 -152036642.51877403 0 0 0 0 2441790.0575017929 94529020.420833588 0 94529020.420833588 -207237555.66008377 0 0 0 0 90655667.39046137 15903842.932040811 0 15903842.932040811 -338730900.0643692 0 0 0 0 -223709385.36930609 61516708.582929611 0 61516708.582929611 -137879191.18243408 0 0 0 0 -88481979.394724846 168176610.14943695 0 168176610.14943695 -327599249.55893707 0 0 0 0 47906886.350961208 100626387.81711197 0 100626387.81711197 -395025517.83416939 0 0 0 0 183365148.46973372 136872290.22901917 0 136872290.22901917 -875770116.74755669 0 0 0 0 -250838141.4537605 344051466.33748531 0 344051466.33748531 -582714891.07853699 0 0 0 0 140246752.82748157 51626475.88290596 0 51626475.88290596 -522258095.98165894 0 0 0 0 189755985.29231858 41923602.289287567 0 41923602.289287567 -586340859.85894012 0 0 0 0 218075505.36334395 49649549.033924103 0 49649549.033924103 -531481891.64266205 0 0 0 0 51491846.559309006 -211258769.35402679 0 -211258769.35402679 -632399061.0612812 0 0 0 0 20998713.186546087 -62574696.773422241 0 -62574696.773422241 -83551611.518650055 0 0 0 0 98315205.257066846 158428956.59669495 0 158428956.59669495 167367072.66670609 0 0 0 0 91914125.802052736 105782816.0183773 0 105782816.0183773 -43606191.335363388 0 0 0 0 194156.20136309648 2486961.9811208355 0 2486961.9811208355 -4494080.0306803845 0 0 0 0 43683761.246404171 21022060.278791428 0 21022060.278791428 -50926486.015174866 0 0 0 0 109201440.66646659 -73289216.420635223 0 -73289216.420635223 49678701.430435181 0 0 0 0 291664519.26574492 13322579.67962265 0 13322579.67962265 -240752325.83756256 0 0 0 0 124025669.28207684 92586819.170127869 0 92586819.170127869 -269710164.74300003 0 0 0 0 98477984.756089494 -43576576.211179256 0 -43576576.211179256 -271580200.85308838 0 0 0 0 40441561.334985733 59206053.448326111 0 59206053.448326111 -153699667.57889175 0 0 0 0 206972281.43146181 -11119973.921871185 0 -11119973.921871185 -483478449.70406342 0 0 0 0 176581676.08010244 46414783.1198349 0 46414783.1198349 -499489848.67723465 0 0 0 0 127288874.21820174 39040397.018838882 0 39040397.018838882 -642526839.50591278 0 0 0 0 151552717.49893069 110592421.01175308 0 110592421.01175308 -628333321.17297363 0 0 0 0 -16371389.914625764 45180301.686473846 0 45180301.686473846 -633088175.77411652 0 0 0 0 -328961879.81216925 18453903.883293152 0 18453903.883293152 -567010415.05183935 0 0 0 0 -12539617.288910866 -14603123.523872375 0 -14603123.523872375 -568050727.50883806 0 0 0 0 -107035753.87838301 -74086877.582027435 0 -74086877.582027435 -422182368.63993073 0 0 0 0 28594116.816055417 15351085.403781891 0 15351085.403781891 -588168455.17672348 0 0 0 0 -74454360.942187905 -101987159.31866837 0 -101987159.31866837 -697224602.32528687 0 0 0 0 2731545.5975141488 -36532834.16136837 0 -36532834.16136837 -412136588.62427139 0 0 0 0 -109779853.12001508 65887225.804409027 0 65887225.804409027 -434287938.02462387 0 0 0 0 67561145.852215767 43065214.468780518 0 43065214.468780518 -433908075.19364792 0 0 0 0 34229751.985485196 -28191351.129764557 0 -28191351.129764557 -195867199.48560905 0 0 0 0 -71400242.227888465 13992771.044282913 0 13992771.044282913 -211736124.93019104 0 0 0 0 -43088582.566855304 -9937220.2795872688 0 -9937220.2795872688 -48992220.567977905 0 0 0 0 -27368854.637332022 40296678.400649071 0 40296678.400649071 -28828380.861076355 0 0 0 0 -31180384.776970267 -24344394.243976593 0 -24344394.243976593 -114254607.48872757 0 0 0 0 1638254.0810150206 10983198.070148468 0 10983198.070148468 -228996082.5943346 0 0 0 0 -41697388.964159966 -21540977.836460114 0 -21540977.836460114 -233820343.07577801 0 0 0 0 -20771.212035830646 35013666.755178452 0 35013666.755178452 -254445424.38681412 0 0 0 0 44220980.245640114 -29801301.809963226 0 -29801301.809963226 -533597552.35087204 0 0 0 0 67792.897600473021 34346095.165872574 0 34346095.165872574 -450934536.46136665 0 0 0 0 -1395311.6239535064 -70852185.784835815 0 -70852185.784835815 -346525851.62852478 0 0 0 0 47790784.192071676 89513154.069932938 0 89513154.069932938 -555114227.13696671 0 0 0 0 10145.429318636006 65757790.679384887 0 65757790.679384887 -485059336.55354309 0 0 0 0 -129459.60005246656 405458.05968650244 0 405458.05968650244 -868167.97935554851 0 0 0 0 -3043189.6643141992 -2654462.469417572 0 -2654462.469417572 7450397.1157131195 0 0 0 0 46771818.148481257 71988934.015707016 0 71988934.015707016 -759373283.58026886 0 0 0 0 -186485293.58980623 262695468.29369354 0 262695468.29369354 -369785114.35384369 0 0 0 0 -93034377.621176779 232539367.77899933 0 232539367.77899933 -1079070555.8061371 0 0 0 0 -85481.818736511268 231930.36066373996 0 231930.36066373996 -480971.19126966596 0 0 0 0 -93195345.039883137 -318466329.0634613 0 -318466329.0634613 -1038353791.463243 0 0 0 0 -79112.624647752033 602378.73389889672 0 602378.73389889672 -1202989.6907195468 0 0 0 0 -3501250.6426196396 -413394.81633377075 0 -413394.81633377075 4655909.432144165 0 0 0 0 -23035.910539895296 7178935.0975418091 0 7178935.0975418091 -8522638.5797042847 0 0 0 0 -5772772.6503317803 3810233.9066696167 0 3810233.9066696167 -8942556.0061683655 0 0 0 0 -26574804.328061327 -12440509.553365707 0 -12440509.553365707 10631309.075618744 0 0 0 0 5023873.3320426419 7662957.3623085022 0 7662957.3623085022 -6657943.5202407837 0 0 0 0 3632999.6070407927 3085634.4569778442 0 3085634.4569778442 -27731007.453147888 0 0 0 0 -64502.146180721233 31337.273722842336 0 31337.273722842336 16688.644860425964 0 0 0 0 -959207.15392628312 -1443943.3655509949 0 -1443943.3655509949 2739165.9942588806 0 0 0 0 1179585.9250958711 -657792.06973266602 0 -657792.06973266602 -547779.52888298035 0 0 0 0 -182043.50668902707 -2164.9417584761977 0 -2164.9417584761977 39863.79483337421 0 0 0 0 -628404.25205612183 -639666.12243652344 0 -639666.12243652344 874967.37815856934 0 0 0 0 4833397.4580527171 2436473.5948410034 0 2436473.5948410034 -25036007.337201118 0 0 0 0 93798.999091910067 -317505.61745807715 0 -317505.61745807715 -1256831.9396063983 0 0 0 0 -32139.304579773179 -186863.33810083754 0 -186863.33810083754 -1082165.6186038172 0 0 0 0 -126586.92488028482 -740785.14246368408 0 -740785.14246368408 -4507064.3464279175 0 0 0 0 31415.519447956944 -78047.017218768597 0 -78047.017218768597 -581752.0028515216 0 0 0 0 -208.87195996884216 -150203.046875 0 -150203.046875 -583643.62722396851 0 0 0 0 7475.9769284454578 -1806384.8038635254 0 -1806384.8038635254 -5153591.3246765137 0 0 0 0 -1578278.6179394778 -1963829.5150985718 0 -1963829.5150985718 -37029380.466976166 0 0 0 0 -90526.630973623192 -203819.50858390704 0 -203819.50858390704 -501518.64392161742 0 0 0 0 16970.338446875281 9864852.6606758423 0 9864852.6606758423 -16799354.105865479 0 0 0 0 -4260837.0582921561 11384169.814271927 0 11384169.814271927 -8698988.0908813477 0 0 0 0 -2131940.2764662886 2161230.6903588772 0 2161230.6903588772 -13597978.541534424 0 0 0 0 3757221.0296598747 2415577.4032840729 0 2415577.4032840729 -12925210.47518158 0 0 0 0 -3100104.5179679301 -1609273.9060316086 0 -1609273.9060316086 -14256076.688201904 0 0 0 0 39286060.638902001 33196300.842647552 0 33196300.842647552 -72801231.805084229 0 0 0 0 -31241905.284099981 72149770.759815216 0 72149770.759815216 13608369.839532495 0 0 0 0 14209456.267776713 78800874.210659027 0 78800874.210659027 -109730211.34204483 0 0 0 0 111159.45465175121 36970868.771154404 0 36970868.771154404 -9037294.3691368103 0 0 0 0 -69906645.589913934 110499732.00366974 0 110499732.00366974 -103365633.77732992 0 0 0 0 213808.48251190782 41425910.344449997 0 41425910.344449997 -230795690.53929901 0 0 0 0 -6805619.084326827 89093681.175373077 0 89093681.175373077 -83215654.463175774 0 0 0 0 73748006.877167672 31087174.166351318 0 31087174.166351318 -177269744.33420563 0 0 0 0 64630834.948577583 78785664.083328247 0 78785664.083328247 -55300066.649852753 0 0 0 0 102628168.26976112 -46639661.399507523 0 -46639661.399507523 -9229922.5946998596 0 0 0 0 391643.61592132691 -410032.10527468286 0 -410032.10527468286 -311295.16377362609 0 0 0 0 192876384.75592309 -39731985.530426025 0 -39731985.530426025 6286909.0107727051 0 0 0 0 91138388.748575151 -31448647.484176636 0 -31448647.484176636 31338993.419780731 0 0 0 0 192581613.52497506 -41142339.50579834 0 -41142339.50579834 -379755.52809143066 0 0 0 0 28842206.678535178 55170453.458255768 0 55170453.458255768 9387760.7059326172 0 0 0 0 132489678.01381792 14759609.502044678 0 14759609.502044678 6051251.7860450745 0 0 0 0 121295026.71597604 79775957.304729462 0 79775957.304729462 100938243.78835297 0 0 0 0 30391594.032118157 27781058.439874649 0 27781058.439874649 77198427.576480865 0 0 0 0 217778286.75856897 -63494780.164970398 0 -63494780.164970398 15283364.608795166 0 0 0 0 345187.70836875227 66911.352851288393 0 66911.352851288393 -466112.89499360695 0 0 0 0 6728830.4457581043 -1062039.1540374756 0 -1062039.1540374756 -1115259.1017150879 0 0 0 0 119550092.92518114 -5188148.0140132904 0 -5188148.0140132904 8922740.4912261963 0 0 0 0 258163776.66663375 12486223.399272919 0 12486223.399272919 11172179.155516624 0 0 0 0 174569099.93402433 106174718.78009796 0 106174718.78009796 60775816.011703491 0 0 0 0 186117000.90905949 93843519.871765137 0 93843519.871765137 70122977.195007324 0 0 0 0 124035912.32785986 -824321.74384689331 0 -824321.74384689331 109687428.84872627 0 0 0 0 38780614.424799502 35544690.125051022 0 35544690.125051022 74904814.390167236 0 0 0 0 34786805.788634956 43275829.6889534 0 43275829.6889534 12876076.21221453 0 0 0 0 -16879718.369479023 62108023.997270584 0 62108023.997270584 69731882.829463959 0 0 0 0 14717009.62988843 24202917.083732605 0 24202917.083732605 86051769.439268112 0 0 0 0 -57758.267391574576 33123522.214945346 0 33123522.214945346 87583147.65813446 0 0 0 0 7875744.2866651341 24647132.224308014 0 24647132.224308014 78757967.547168732 0 0 0 0 11798052.700331926 40630046.401977539 0 40630046.401977539 85028820.893825531 0 0 0 0 18604498.553366423 19365155.670581818 0 19365155.670581818 56913927.569889069 0 0 0 0 11773.302369150933 38410695.557315826 0 38410695.557315826 59981967.137542725 0 0 0 0 -17394519.616003349 19486771.482334137 0 19486771.482334137 18727354.390804768 0 0 0 0 21702912.738323212 31889272.587903976 0 31889272.587903976 19125909.405960083 0 0 0 0 2326913.7449532747 810205.089012146 0 810205.089012146 -45902974.699005127 0 0 0 0 21476461.090438262 29588412.230476379 0 29588412.230476379 -99317652.184232712 0 0 0 0 -32992.050247367901 41245214.043041229 0 41245214.043041229 -43251205.208534241 0 0 0 0 44627038.861733198 71954842.342376709 0 71954842.342376709 -42764316.523177147 0 0 0 0 30388662.958620846 66243436.956689835 0 66243436.956689835 35567262.81313324 0 0 0 0 23238327.305837452 22550089.4610672 0 22550089.4610672 -61062437.017834663 0 0 0 0 -8924288.3513271883 57693955.819264889 0 57693955.819264889 13905599.777557373 0 0 0 0 72575300.998766005 46078022.170166016 0 46078022.170166016 12469508.473405838 0 0 0 0 65737649.12506222 97229301.199896097 0 97229301.199896097 21407380.919326782 0 0 0 0 154718076.1493904 79731420.627323151 0 79731420.627323151 24839182.489089966 0 0 0 0 32258328.041130401 60429531.764654636 0 60429531.764654636 45531128.061439514 0 0 0 0 37197042.51916942 46274618.094357252 0 46274618.094357252 101904180.95381927 0 0 0 0 111749149.73805007 26326120.018413544 0 26326120.018413544 58185486.879219055 0 0 0 0 98356181.042841852 69817024.662138939 0 69817024.662138939 81647014.118972778 0 0 0 0 125620726.28604811 122637982.54955292 0 122637982.54955292 62714770.715776443 0 0 0 0 23849080.310091972 3707475.9058227539 0 3707475.9058227539 -18379697.219892502 0 0 0 0 15651104.965729713 9258528.0917358398 0 9258528.0917358398 16953557.551239014 0 0 0 0 21887472.231458187 24205514.698947906 0 24205514.698947906 -22353523.334358215 0 0 0 0 11762667.770594597 -11248793.959754944 0 -11248793.959754944 -2494335.6499938965 0 0 0 0 609698.34048471344 1253061.0413866322 0 1253061.0413866322 -4506472.6638192087 0 0 0 0 -2462513.0781226158 -8745227.2470436096 0 -8745227.2470436096 5652303.4877319336 0 0 0 0 79172068.903059661 66855948.319927216 0 66855948.319927216 8457983.083480835 0 0 0 0 229671781.30010742 127679128.78361893 0 127679128.78361893 -501553.00874328613 0 0 0 0 130140314.10840154 131129417.72498703 0 131129417.72498703 24532608.625991821 0 0 0 0 144192448.86877903 96497811.217657566 0 96497811.217657566 -2332104.5971374512 0 0 0 0 100596852.86588025 157825592.63347244 0 157825592.63347244 124316991.28069496 0 0 0 0 137934404.74818945 -35900778.650259018 0 -35900778.650259018 3130626.8223543167 0 0 0 0 2613429.981796667 1089761.1310647167 0 1089761.1310647167 -2906382.1466695573 0 0 0 0 3911031.1678847075 3262983.4035959244 0 3262983.4035959244 -6861575.4322128296 0 0 0 0 -11500575.509697914 -32979188.993682861 0 -32979188.993682861 13286620.215744019 0 0 0 0 388962.99447695201 643032.7568490319 0 643032.7568490319 -1052945.3525155485 0 0 0 0 6423935.1584467888 3713808.4718551636 0 3713808.4718551636 -10760540.383476257 0 0 0 0 1126894.2492870993 1311429.5294363033 0 1311429.5294363033 -4997019.4387300611 0 0 0 0 1322328.5267212391 9498.6729297637939 0 9498.6729297637939 -7296941.1169319153 0 0 0 0 4814398.3521294594 2278891.0897216797 0 2278891.0897216797 -6749604.9551544189 0 0 0 0 3394107.311611414 4006827.5821094513 0 4006827.5821094513 -993414.01049804688 0 0 0 0 1115706.6323113441 8870115.9235992432 0 8870115.9235992432 8092007.5102882385 0 0 0 0 4811932.1923269033 1659556.8304367065 0 1659556.8304367065 -7794.1356735229492 0 0 0 0 2647549.3592038155 12381152.621154785 0 12381152.621154785 -3130359.0454597473 0 0 0 0 4945982.1232509613 7320701.7987670898 0 7320701.7987670898 2246460.0741348267 0 0 0 0 -2979432.3964700699 7872790.2963294983 0 7872790.2963294983 4510017.3022460938 0 0 0 0 6623424.3200492859 1936580.1527481079 0 1936580.1527481079 8131181.0330810547 0 0 0 0 19484328.173012018 17070639.79598999 0 17070639.79598999 24694496.311676025 0 0 0 0 5915690.5353633165 12276538.897238731 0 12276538.897238731 27568976.116943359 0 0 0 0 -1634.7569129823241 19520.486480556428 0 19520.486480556428 -19872.799346469343 0 0 0 0 73922.366902430076 85210.361149452627 0 85210.361149452627 -129274.90469089523 0 0 0 0 9676481.7704353333 -9109284.8438720703 0 -9109284.8438720703 -8886226.7302703857 0 0 0 0 5619972.6605911255 15123868.788818359 0 15123868.788818359 29420841.786315918 0 0 0 0 279079.3173728371 -91900.120226537809 0 -91900.120226537809 -330336.61821565777 0 0 0 0 -230780.40345978737 3330394.5677471161 0 3330394.5677471161 -2740052.0065383911 0 0 0 0 -734337.94823312759 -350186.17986297607 0 -350186.17986297607 -2942053.5376696587 0 0 0 0 690719.90454770951 130917.31492446922 0 130917.31492446922 -963283.81801300123 0 0 0 0 804684.14716367889 -72016.46799448505 0 -72016.46799448505 -1085095.5459506214 0 0 0 0 7748834.1317789555 1358973.8712253571 0 1358973.8712253571 -2260529.1719894409 0 0 0 0 7535782.1463508606 -2382319.3758544922 0 -2382319.3758544922 -10099359.563171387 0 0 0 0 24303950.031338215 -484332.9601020813 0 -484332.9601020813 -4073220.3967285156 0 0 0 0 11610557.670512199 -5754778.9724502563 0 -5754778.9724502563 3402983.185218811 0 0 0 0 -34288.334933798295 548905.47478778102 0 548905.47478778102 -318568.18377421983 0 0 0 0 162408.91509628296 225211.0036315918 0 225211.0036315918 -148602.67880249023 0 0 0 0 510516.66017924179 650678.5440365877 0 650678.5440365877 -3252449.9378766911 0 0 0 0 1485212.0409967974 3651976.8899268508 0 3651976.8899268508 -6450255.9849319458 0 0 0 0 40499.31579875946 1325312.2577590942 0 1325312.2577590942 -137430.52584075928 0 0 0 0 41476.001087226439 528343.10821393505 0 528343.10821393505 -29430.591267149895 0 0 0 0 451623.84632110596 553091.24899291992 0 553091.24899291992 451094.02789306641 0 0 0 0 256093.31701756502 258576.97417492419 0 258576.97417492419 -2862.6583028435707 0 0 0 0 361245.00165781914 294895.40830380656 0 294895.40830380656 -1594213.8535648603 0 0 0 0 1807551.5833168179 -10320671.96197474 0 -10320671.96197474 -2920558.5844955444 0 0 0 0 1767815.7777744592 2516115.2435999122 0 2516115.2435999122 -2668542.5769043993 0 0 0 0 -1303037.5291857719 -4799377.8268661499 0 -4799377.8268661499 -8392457.3327026367 0 0 0 0 1193824.5549820359 -1608205.1647728477 0 -1608205.1647728477 -3813809.9543185346 0 0 0 0 -5589819.9394536018 -1308149.3530321121 0 -1308149.3530321121 -4405662.7007904053 0 0 0 0 7417021.8345793486 -7008368.7635889053 0 -7008368.7635889053 -3569863.8560218811 0 0 0 0 4279446.1074914932 -1509767.2714080811 0 -1509767.2714080811 -2264289.3708486557 0 0 0 0 -300735.28357696533 2117264.6874046326 0 2117264.6874046326 -8981892.8946943283 0 0 0 0 1939096.6182579994 610458.02969741821 0 610458.02969741821 -8700195.5383148193 0 0 0 0 12469260.816447258 -1666781.0238714218 0 -1666781.0238714218 -20748701.153045654 0 0 0 0 8438183.4529986382 -9890169.4499759674 0 -9890169.4499759674 4093393.4473419189 0 0 0 0 487169.32542333985 112550.88685354218 0 112550.88685354218 -876212.40465123393 0 0 0 0 -20914819.28858757 21403773.120666504 0 21403773.120666504 -13524164.551288605 0 0 0 0 257455.11136785615 -24726.547505615279 0 -24726.547505615279 -340034.35512683913 0 0 0 0 -5470393.9031610489 5948564.8616981506 0 5948564.8616981506 4450257.3607330322 0 0 0 0 23159670.255404234 -40105138.450725555 0 -40105138.450725555 16943595.250778198 0 0 0 0 16697543.773262501 -7257038.5928497314 0 -7257038.5928497314 -17402071.335014343 0 0 0 0 14049131.774251938 35878577.93548584 0 35878577.93548584 9440819.3532676697 0 0 0 0 -4147976.8874177933 1694103.1051025391 0 1694103.1051025391 19126035.502166748 0 0 0 0 231884.12884175754 47109.13107816875 0 47109.13107816875 -313652.12146318331 0 0 0 0 18931563.339590549 38490787.652259827 0 38490787.652259827 -12037394.591789246 0 0 0 0 5502364.161945343 -4101289.729724884 0 -4101289.729724884 -4418223.8124313354 0 0 0 0 10952581.218136787 5698404.8274230957 0 5698404.8274230957 -1074236.2442016602 0 0 0 0 1036181.8992081401 950213.48483142629 0 950213.48483142629 -4780248.9654957987 0 0 0 0 1137422.7931838036 4381969.57421875 0 4381969.57421875 33008589.786649704 0 0 0 0 -3350712.7779760361 -3879499.2247886658 0 -3879499.2247886658 -2625824.1762542725 0 0 0 0 278736.47413994122 753966.62556637637 0 753966.62556637637 -13194.7016447559 0 0 0 0 1987976.1130671501 -608851.6376953125 0 -608851.6376953125 -722458.32681274414 0 0 0 0 1227661.5477437177 1478153.2252029311 0 1478153.2252029311 -2589848.286808366 0 0 0 0 3064952.5617229939 -3077742.2852172852 0 -3077742.2852172852 374764.9228515625 0 0 0 0 779873.94685413665 -1756560.5547921956 0 -1756560.5547921956 -891550.74352978542 0 0 0 0 1248733.8220733246 -316528.41373934108 0 -316528.41373934108 -1333491.6664347202 0 0 0 0 1400205.8562259674 5152391.9256973267 0 5152391.9256973267 -12014657.058308125 0 0 0 0 5041580.3874120712 3115420.8633537292 0 3115420.8633537292 -12249398.780246735 0 0 0 0 1717773.6835206058 -401450.35278744996 0 -401450.35278744996 -3190446.5687366389 0 0 0 0 1487831.6632184982 2785050.4882202148 0 2785050.4882202148 -10179633.995697021 0 0 0 0 3206693.1652812958 -218667.53867340088 0 -218667.53867340088 9666544.5617523193 0 0 0 0 2317282.2757940292 -13691321.696773529 0 -13691321.696773529 1323063.3229827881 0 0 0 0 -15997003.761335611 -1230933.2319107056 0 -1230933.2319107056 9684523.9183624983 0 0 0 0 36275134.638456225 -41909588.940465927 0 -41909588.940465927 43098573.586463928 0 0 0 0 11951782.047034502 3806746.069776535 0 3806746.069776535 3208928.4868392944 0 0 0 0 491893.18221567228 -374220.36614673235 0 -374220.36614673235 -708455.26404550672 0 0 0 0 5465193.6018639803 12391668.552406311 0 12391668.552406311 6524603.5382766724 0 0 0 0 -27673640.701612711 7302288.7978172302 0 7302288.7978172302 11926855.088756561 0 0 0 0 -40282651.171550512 -31212700.892425537 0 -31212700.892425537 -2645870.5735998154 0 0 0 0 38761701.678080618 3938576.0775060654 0 3938576.0775060654 -121358695.19973755 0 0 0 0 14721489.104276419 -6810826.6758613586 0 -6810826.6758613586 -1660929.9927368164 0 0 0 0 22104009.487362385 -3212166.6158885956 0 -3212166.6158885956 -100215619.22668457 0 0 0 0 -17811789.677914143 1408159.2395324707 0 1408159.2395324707 12365390.891492367 0 0 0 0 10075821.096171618 -9687072.5237846375 0 -9687072.5237846375 -5807386.7670288086 0 0 0 0 3290104.210214952 -906959.35678283684 0 -906959.35678283684 -4197910.466427587 0 0 0 0 28257.698569493368 460556.981766399 0 460556.981766399 -520917.1584924885 0 0 0 0 8165521.8677556515 -1961592.6863918304 0 -1961592.6863918304 -5060496.048614502 0 0 0 0 2914826.4247021675 -2028623.4182519913 0 -2028623.4182519913 -2175133.8484268188 0 0 0 0 5721905.8490073681 -2472523.7684288025 0 -2472523.7684288025 -7811373.8770294189 0 0 0 0 2413744.1662067883 -298489.09229107015 0 -298489.09229107015 -2891942.9841107391 0 0 0 0 5373296.9956111908 2092875.0437698364 0 2092875.0437698364 -8303686.481098175 0 0 0 0 13693851.185035229 -3336060.6916923523 0 -3336060.6916923523 -15665576.03842926 0 0 0 0 12406874.608344793 -933289.38177680969 0 -933289.38177680969 -3152642.3871383667 0 0 0 0 -4504313.9864556789 5112510.363451004 0 5112510.363451004 3663974.3820133209 0 0 0 0 1311112.3217636046 -2236266.2334026555 0 -2236266.2334026555 -2919202.6731805392 0 0 0 0 3993032.3549540127 437268.40623066202 0 437268.40623066202 -2776330.5037423698 0 0 0 0 42462598.057161331 17837771.856229782 0 17837771.856229782 3605813.0895730257 0 0 0 0 2296686.2286190721 943940.17355744354 0 943940.17355744354 -1256111.6732366423 0 0 0 0 35288121.813015461 -50751988.461174011 0 -50751988.461174011 34121120.612257838 0 0 0 0 -73309283.71800673 23043325.936946869 0 23043325.936946869 91284103.300420523 0 0 0 0 39981138.36671257 -20482670.70949173 0 -20482670.70949173 8057184.8316110373 0 0 0 0 737859.42084483849 528066.30644582212 0 528066.30644582212 -336626.79954989674 0 0 0 0 90844307.599598825 -118687113.76293695 0 -118687113.76293695 47263001.437011719 0 0 0 0 98167403.255565166 -42597361.545246124 0 -42597361.545246124 -14941908.360736847 0 0 0 0 57015812.809663415 -21140079.568473339 0 -21140079.568473339 -25046905.170318604 0 0 0 0 214146782.64839935 23906253.394189835 0 23906253.394189835 -34296755.742845535 0 0 0 0 247698881.14826584 -169361150.17803574 0 -169361150.17803574 -89663001.51867485 0 0 0 0 237583277.2718972 -48667754.60082531 0 -48667754.60082531 -179812505.6031723 0 0 0 0 34936536.596828938 36298904.28326416 0 36298904.28326416 -14069452.814687729 0 0 0 0 52421772.846746445 39493320.201690674 0 39493320.201690674 -14295452.884738922 0 0 0 0 62474376.229886651 16672532.716767311 0 16672532.716767311 -14176933.430747986 0 0 0 0 28088074.958419323 -10658305.500513077 0 -10658305.500513077 -1805589.9420089722 0 0 0 0 7577266.2270293236 321057.02016448975 0 321057.02016448975 -5300412.1642150879 0 0 0 0 58367262.089828491 -12878743.266439438 0 -12878743.266439438 -5307959.9321169853 0 0 0 0 16272093.087027073 6577201.9279384613 0 6577201.9279384613 11755553.675327301 0 0 0 0 12529157.377693653 -4195240.5845527649 0 -4195240.5845527649 -8184338.4772644043 0 0 0 0 -4659206.190977335 -4137707.2093696594 0 -4137707.2093696594 3549113.7034187317 0 0 0 0 6471944.4327893257 -8483175.1524047852 0 -8483175.1524047852 -7580858.3426399231 0 0 0 0 4078084.2949794228 1068892.7079476006 0 1068892.7079476006 -2568895.0902742976 0 0 0 0 -1214148.8284070492 -1594906.1793632507 0 -1594906.1793632507 -12944978.859397888 0 0 0 0 9822087.2586193085 -3859188.8895072937 0 -3859188.8895072937 -27910806.35906601 0 0 0 0 9956335.4885559082 17497614.173091888 0 17497614.173091888 -15681555.693200588 0 0 0 0 4799191.1597828865 14386907.858474731 0 14386907.858474731 -12684474.579613686 0 0 0 0 7162971.508603096 -11086990.09954071 0 -11086990.09954071 -14757014.827911377 0 0 0 0 326320.13020086288 2931857.5667800903 0 2931857.5667800903 4091448.8868980408 0 0 0 0 -91791.299033643212 1209107.3586858995 0 1209107.3586858995 -1304338.8333097342 0 0 0 0 -1111124.8764200211 6267068.1729431152 0 6267068.1729431152 3116338.3028335571 0 0 0 0 -1812346.5050770077 1420182.4290285483 0 1420182.4290285483 -49277.433392453939 0 0 0 0 -5440761.066133976 -10264547.186030388 0 -10264547.186030388 679241.91776275635 0 0 0 0 4889754.2129058838 -3225203.1168365479 0 -3225203.1168365479 1540012.6449203491 0 0 0 0 -2097354.8257236481 3392409.5224151611 0 3392409.5224151611 6651754.0591049194 0 0 0 0 -48474.157162562944 1097660.5950876437 0 1097660.5950876437 -1031118.4892914761 0 0 0 0 -1311062.4146987931 2745024.3669621311 0 2745024.3669621311 -1940200.9516988117 0 0 0 0 612550.59303760529 2063470.7976856232 0 2063470.7976856232 787590.86818313599 0 0 0 0 642149.28067398071 1939860.0810089111 0 1939860.0810089111 1001710.8619537354 0 0 0 0 124335.78768231487 144987.20065142401 0 144987.20065142401 198836.99806895107 0 0 0 0 1330494.269657135 1762982.1111450195 0 1762982.1111450195 1833219.1912078857 0 0 0 0 49250.290994766168 178352.84377935342 0 178352.84377935342 135940.41547651589 0 0 0 0 3093334.4648032188 4437243.8748569489 0 4437243.8748569489 392665.72766113281 0 0 0 0 -2879575.769449234 -74413.236450195312 0 -74413.236450195312 6799297.1169433594 0 0 0 0 4665661.2400665283 2250348.5324554443 0 2250348.5324554443 -2711056.5956726074 0 0 0 0 3373421.4098434448 -1768206.7176742554 0 -1768206.7176742554 -9269692.9133529663 0 0 0 0 5125287.1787261963 2763133.6596107483 0 2763133.6596107483 -6776176.1945338249 0 0 0 0 396217.4728717804 -768933.73770141602 0 -768933.73770141602 -377461.1195526123 0 0 0 0 4294696.3257169724 799347.80889129639 0 799347.80889129639 -6776942.1296386719 0 0 0 0 5592406.9375104904 3574760.9971046448 0 3574760.9971046448 -11843877.42301178 0 0 0 0 4434126.5563755035 1210057.4749603271 0 1210057.4749603271 -16653217.45337677 0 0 0 0 1402643.8418898582 -3822887.242231369 0 -3822887.242231369 -14276715.344116211 0 0 0 0 -76263.816155910492 -2433009.3791503906 0 -2433009.3791503906 -4770239.2927093506 0 0 0 0 5058984.694643259 5851228.5046234131 0 5851228.5046234131 -1456772.244354248 0 0 0 0 109429.22432395304 59662.625553186983 0 59662.625553186983 -54815.794476784766 0 0 0 0 105414.23887961637 72581.566622355953 0 72581.566622355953 -7435.2905120290816 0 0 0 0 -17215854.634868622 1127598.8235321045 0 1127598.8235321045 -12032157.644729614 0 0 0 0 -16305848.568827629 1741879.6721115112 0 1741879.6721115112 5172216.8597488403 0 0 0 0 -10759882.611744404 11558804.947654724 0 11558804.947654724 590945.51745605469 0 0 0 0 9110376.6390810013 7063355.4869155884 0 7063355.4869155884 -860549.97061157227 0 0 0 0 -2825892.9324865341 19654196.956003189 0 19654196.956003189 -14063602.836303711 0 0 0 0 1588935.6486388138 213962.71777913347 0 213962.71777913347 -1831665.4245569464 0 0 0 0 -87542166.0127244 38660402.952533722 0 38660402.952533722 6831206.6756477356 0 0 0 0 -17753032.347139359 37830303.286781311 0 37830303.286781311 -58241656.844548225 0 0 0 0 -21527871.073522091 206626715.8613596 0 206626715.8613596 -280665930.5142746 0 0 0 0 -52638278.976938248 240852938.646492 0 240852938.646492 -314704918.07930756 0 0 0 0 -57131847.051519156 173334666.15909481 0 173334666.15909481 -201965348.15146637 0 0 0 0 -14755247.337313652 123406600.05988121 0 123406600.05988121 -159832058.44733566 0 0 0 0 -36825774.211023331 25128832.813716888 0 25128832.813716888 -80515543.781261444 0 0 0 0 610099.76411644183 -132079.2447023578 0 -132079.2447023578 -1490588.9557633568 0 0 0 0 477895.15631389618 1325999.8032951355 0 1325999.8032951355 -3593620.1653594971 0 0 0 0 8521297.8859634399 3920951.5237431526 0 3920951.5237431526 -4474084.3723678589 0 0 0 0 4792899.6594047546 384482.80928039551 0 384482.80928039551 -5317549.2164611816 0 0 0 0 -150493.99859876744 -63715.883976226673 0 -63715.883976226673 211574.83233373612 0 0 0 0 -1874745.7987270355 1533791.9699707031 0 1533791.9699707031 -3569584.9687805176 0 0 0 0 -1367146.3426929498 1514817.1770966724 0 1514817.1770966724 -519293.93820866011 0 0 0 0 20072180.101810455 31694634.404708862 0 31694634.404708862 -417207305.29659271 0 0 0 0 196550974.58639526 128049150.65626526 0 128049150.65626526 -1789648.8235702515 0 0 0 0 -11893.911680812947 46353.448823459446 0 46353.448823459446 -85761.583217425272 0 0 0 0 64911970.802257538 10975420.287540436 0 10975420.287540436 10172805.807945251 0 0 0 0 63446684.140764236 12956831.656919479 0 12956831.656919479 8623526.8109588623 0 0 0 0 257441568.63616371 -2331608.0557518005 0 -2331608.0557518005 -15093535.222618103 0 0 0 0 21169338.47943306 -50394083.897506714 0 -50394083.897506714 18932611.103542328 0 0 0 0 -24193890.775239944 24514326.200130463 0 24514326.200130463 14848052.253177643 0 0 0 0 -8024695.6593036652 -3588335.8749580383 0 -3588335.8749580383 33654455.297985077 0 0 0 0 -34522168.788748741 42352212.669803619 0 42352212.669803619 6311239.2075500488 0 0 0 0 3980429.8659486771 24545133.957933426 0 24545133.957933426 -64020190.165058136 0 0 0 0 34918440.408078671 32935292.366100311 0 32935292.366100311 -6752843.7624931335 0 0 0 0 2729201.6392029752 385577.16952115297 0 385577.16952115297 -1247197.3430280255 0 0 0 0 257424925.67645359 -90361555.06306076 0 -90361555.06306076 -42030688.094295502 0 0 0 0 136256296.73072791 209070490.1240654 0 209070490.1240654 223081119.2106781 0 0 0 0 1005457.5539464699 84567.906467635185 0 84567.906467635185 -363900.9029120882 0 0 0 0 -18745817.078876019 138209766.32349014 0 138209766.32349014 304056654.09268761 0 0 0 0 368995596.27710819 401939148.23542023 0 401939148.23542023 -1621011.636592865 0 0 0 0 -22003213.537316322 74015158.437623978 0 74015158.437623978 -47394402.920572758 0 0 0 0 -122086230.98855591 463077271.28031826 0 463077271.28031826 -86907822.89250946 0 0 0 0 1817360.1350231171 256314659.55172348 0 256314659.55172348 24122559.794654846 0 0 0 0 553103027.09848213 79409096.417922974 0 79409096.417922974 -107562680.21316528 0 0 0 0 214578887.84538245 96588586.625964165 0 96588586.625964165 -83756839.611495972 0 0 0 0 156477028.15420914 236262789.486763 0 236262789.486763 -9661204.5054473877 0 0 0 0 168769398.76356602 144303918.53315735 0 144303918.53315735 8892449.1663513184 0 0 0 0 152114876.6591866 57034644.13889122 0 57034644.13889122 84819474.679702759 0 0 0 0 5925981.3656606674 254899164.09460831 0 254899164.09460831 228725816.19727707 0 0 0 0 -340081.62202689238 242767.47706957348 0 242767.47706957348 -596470.12495650444 0 0 0 0 11104588.050575256 99260520.451553345 0 99260520.451553345 -626004596.02072906 0 0 0 0 47535229.638663292 126668946.52109909 0 126668946.52109909 321758291.0048027 0 0 0 0 -150057806.4182868 390411479.99533653 0 390411479.99533653 -381031217.33035278 0 0 0 0 -155666861.76389408 433175310.30189896 0 433175310.30189896 33164948.331194878 0 0 0 0 -200628526.024037 196644612.46178818 0 196644612.46178818 -228296686.68196869 0 0 0 0 -151392404.82834721 231002180.27583694 0 231002180.27583694 -215978948.51742363 0 0 0 0 -52556048.242814064 250857750.60549927 0 250857750.60549927 -567667150.70578766 0 0 0 0 -196728056.55911535 337914725.95551068 0 337914725.95551068 -325459883.37613678 0 0 0 0 -182423285.07008553 195807445.89170837 0 195807445.89170837 -152620578.346066 0 0 0 0 -114613156.00329494 133433144.29436684 0 133433144.29436684 -142102347.01598358 0 0 0 0 -166528209.0425663 249131902.47546387 0 249131902.47546387 -234918686.15184784 0 0 0 0 -133089612.72925758 191690368.54923248 0 191690368.54923248 -183550071.72703934 0 0 0 0 -163649989.09721375 338051646.56715584 0 338051646.56715584 -123570845.81312943 0 0 0 0 -145600226.39621234 162791644.0577507 0 162791644.0577507 -132146800.09415817 0 0 0 0 -320496462.47509491 149100673.12412834 0 149100673.12412834 -132883221.09684753 0 0 0 0 -279287503.5131321 218764182.96924305 0 218764182.96924305 -76244163.280574799 0 0 0 0 -358005221.65161753 288409392.6230545 0 288409392.6230545 -47987538.403911591 0 0 0 0 -708712686.08617592 65990854.540756226 0 65990854.540756226 -60361465.356618881 0 0 0 0 -297992347.17225623 -159554203.46893883 0 -159554203.46893883 -648284686.79557419 0 0 0 0 -109611851.55136824 157825193.05215073 0 157825193.05215073 -143797452.18199158 0 0 0 0 -210455078.68666315 399070527.63784599 0 399070527.63784599 -555810476.97955322 0 0 0 0 -711882160.37893105 -153476789.59973526 0 -153476789.59973526 -30876105.60011673 0 0 0 0 -65903.238500522391 -208907.6712994352 0 -208907.6712994352 -2002464.1751826853 0 0 0 0 -352763879.54380131 463489435.55084419 0 463489435.55084419 -493221080.86779404 0 0 0 0 564719081.95619822 177294185.27028465 0 177294185.27028465 -298854836.41334915 0 0 0 0 232764903.42330647 -88998288.979511261 0 -88998288.979511261 -269775448.88242054 0 0 0 0 120931927.83670759 -66725309.030960083 0 -66725309.030960083 -183911342.02191162 0 0 0 0 66101924.111044884 -296615272.50823021 0 -296615272.50823021 -659646060.77919245 0 0 0 0 288847912.93464613 -262644452.64315033 0 -262644452.64315033 -113639059.33584785 0 0 0 0 231009408.19440603 -75416471.482467651 0 -75416471.482467651 -219739147.78939819 0 0 0 0 118140454.33685827 -274206037.28378105 0 -274206037.28378105 344602509.31688309 0 0 0 0 196478252.24173737 -316736023.70042038 0 -316736023.70042038 16203974.964521408 0 0 0 0 -69253107.231643677 -61268425.738775253 0 -61268425.738775253 231729405.32649231 0 0 0 0 -321468921.56223774 -34530913.503486633 0 -34530913.503486633 66059710.181812525 0 0 0 0 28699.857915853092 -910637.18712588307 0 -910637.18712588307 -5706542.7885535508 0 0 0 0 85166557.185545266 81319249.614059448 0 81319249.614059448 -158533794.10681152 0 0 0 0 -98780051.079594374 -152739334.375772 0 -152739334.375772 -38588491.871929169 0 0 0 0 -22959455.252475739 -101846036.15834045 0 -101846036.15834045 -1147417.184879303 0 0 0 0 -24987938.193320036 -88860335.499196529 0 -88860335.499196529 -83829896.972961426 0 0 0 0 424950.6391415986 -1572352.8139593001 0 -1572352.8139593001 -9146952.7837230004 0 0 0 0 -47000036.83755815 -118023593.4030056 0 -118023593.4030056 -11550043.105545044 0 0 0 0 134714889.72331989 7538253.4764988422 0 7538253.4764988422 -1770793.7823677063 0 0 0 0 -38107190.276713371 -148749896.79212952 0 -148749896.79212952 42770247.423641205 0 0 0 0 -16680422.623394489 -151760875.65534401 0 -151760875.65534401 -43333945.035293579 0 0 0 0 -4696429.6557531357 -165111121.50235367 0 -165111121.50235367 -95718203.005874634 0 0 0 0 79663427.917384624 -50420383.404361725 0 -50420383.404361725 -193255779.78759766 0 0 0 0 282190471.62672716 -114663131.70984793 0 -114663131.70984793 -199746431.30775452 0 0 0 0 149334872.93778753 -137832118.80609703 0 -137832118.80609703 -173197340.52159882 0 0 0 0 39446587.602704048 -20066397.042877197 0 -20066397.042877197 -265831587.79137421 0 0 0 0 55718923.816298008 -75882370.160404205 0 -75882370.160404205 -120805790.37984467 0 0 0 0 37461928.112952232 1190581.3370456696 0 1190581.3370456696 -267017149.13648605 0 0 0 0 -89922.548786697909 773238.30579990521 0 773238.30579990521 -193575.2342880643 0 0 0 0 -28178105.551803112 60056204.935287476 0 60056204.935287476 -79083035.016326904 0 0 0 0 35685384.159765482 44402084.884588242 0 44402084.884588242 -174171670.66564941 0 0 0 0 14841715.795448303 -2207321.7736701965 0 -2207321.7736701965 -193763374.30752182 0 0 0 0 34983534.060070038 34800646.715072632 0 34800646.715072632 -219661403.01071167 0 0 0 0 15290320.23495841 6231608.4515800476 0 6231608.4515800476 -150448056.55329895 0 0 0 0 -533590.4449359898 1484973.0372738782 0 1484973.0372738782 -304329.04691241588 0 0 0 0 14486636.983273029 -31091949.757450104 0 -31091949.757450104 57139541.824829102 0 0 0 0 -608882.86176057812 978306.33338652365 0 978306.33338652365 1701429.0862656906 0 0 0 0 14291448.624141216 35921920.929718018 0 35921920.929718018 38823265.780990601 0 0 0 0 -14218499.697939873 20338572.269142151 0 20338572.269142151 26045350.312282562 0 0 0 0 -14469193.505105972 4894108.5793533325 0 4894108.5793533325 48152445.204976082 0 0 0 0 -9311961.3995347023 36677559.795887947 0 36677559.795887947 41157204.500663757 0 0 0 0 -18195146.937697411 57128707.745018005 0 57128707.745018005 -428109.15467834473 0 0 0 0 -7612015.7117681503 16634597.877159119 0 16634597.877159119 23980693.012180328 0 0 0 0 -37111758.092071533 24219885.517848969 0 24219885.517848969 35997632.834381104 0 0 0 0 -8066738.9624156952 43915202.952136993 0 43915202.952136993 -204399677.62737274 0 0 0 0 -28889601.153330803 8253575.8649864197 0 8253575.8649864197 -18079313.278432369 0 0 0 0 1276705.5971428514 -1803632.209722965 0 -1803632.209722965 -12540443.618639788 0 0 0 0 138256485.15979385 -36060446.913852692 0 -36060446.913852692 -131989544.87546158 0 0 0 0 341487527.32641828 86130897.415500164 0 86130897.415500164 43524233.102851868 0 0 0 0 3144672.7199757062 -732614.48399824416 0 -732614.48399824416 -15990667.561415479 0 0 0 0 481184491.22980678 -99188795.230210304 0 -99188795.230210304 -391664120.75169373 0 0 0 0 54086390.193730354 39381125.907484055 0 39381125.907484055 -2672905.5472717285 0 0 0 0 4874039.3027192978 6361968.7131500933 0 6361968.7131500933 -2971838.2214390161 0 0 0 0 11613564.414906025 17001221.635211945 0 17001221.635211945 -2518755.6263275146 0 0 0 0 40669991.404698938 -156677271.16616058 0 -156677271.16616058 -499782918.04647827 0 0 0 0 -218009209.4704603 94338027.231294632 0 94338027.231294632 280960298.88006306 0 0 0 0 -44558841.477440149 240168645.32936954 0 240168645.32936954 -791846103.65529251 0 0 0 0 652142.79363572551 2061903.8083455854 0 2061903.8083455854 -2484607.4329253864 0 0 0 0 173583520.25865021 12469296.938777208 0 12469296.938777208 -1544123563.3412209 0 0 0 0 135552694.08187443 108339142.70892549 0 108339142.70892549 -756351941.80310822 0 0 0 0 136398396.55212981 -345925834.92107201 0 -345925834.92107201 -1264559160.8152733 0 0 0 0 264334320.13756102 -419565061.62046242 0 -419565061.62046242 -1574460341.2202377 0 0 0 0 74300980.37908724 -436727279.5959816 0 -436727279.5959816 -1505260809.0692749 0 0 0 0 151441780.6513615 -272725717.31651306 0 -272725717.31651306 -1339057335.8015537 0 0 0 0 -833425038.53439295 -750019777.15635681 0 -750019777.15635681 -1576264606.9238853 0 0 0 0 -682765159.0279355 -877277353.29243898 0 -877277353.29243898 -518391629.03523636 0 0 0 0 -422631191.97727728 -312707604.78560734 0 -312707604.78560734 225120470.96954346 0 0 0 0 85197096.987946987 -583137327.55500984 0 -583137327.55500984 -1119323611.1386375 0 0 0 0 83573199.232497215 -679613859.19953918 0 -679613859.19953918 -1579808939.9053984 0 0 0 0 137308727.65565303 -225721012.80613941 0 -225721012.80613941 -1002199939.6623383 0 0 0 0 -46774935.68527019 -387152391.52192688 0 -387152391.52192688 -755365313.62132645 0 0 0 0 -143386453.33807197 -139030323.80596924 0 -139030323.80596924 -250022593.8002739 0 0 0 0 -96447435.763629198 -201462127.81578445 0 -201462127.81578445 -456449311.58065104 0 0 0 0 -215484166.98210132 -51357795.676444054 0 -51357795.676444054 -56783242.792190552 0 0 0 0 -64337953.488487363 63275796.887653828 0 63275796.887653828 26441582.335529327 0 0 0 0 97646352.244891167 122229086.15198803 0 122229086.15198803 5522500.4534797668 0 0 0 0 17123510.228091579 -40364102.66584301 0 -40364102.66584301 -317584662.1283226 0 0 0 0 -67624738.199949011 130854887.15427208 0 130854887.15427208 46978315.805095673 0 0 0 0 117671416.49026242 43759621.282184124 0 43759621.282184124 -392888029.52458954 0 0 0 0 3329190.0267095147 7364135.7296778699 0 7364135.7296778699 -1491625.4782158849 0 0 0 0 7649193.7476730347 -1673311.3416519165 0 -1673311.3416519165 17692358.34488678 0 0 0 0 -78542749.13835597 -3374301.4749622345 0 -3374301.4749622345 189483858.87596512 0 0 0 0 2145602.5223470004 3856896.2620028183 0 3856896.2620028183 -3938936.595891282 0 0 0 0 1768045.6549525261 3010797.8210296631 0 3010797.8210296631 -1161073.1257295609 0 0 0 0 1238476.6025541439 2540348.123635605 0 2540348.123635605 -1714319.7199113872 0 0 0 0 -329555.93025493622 11003165.24981308 0 11003165.24981308 48473130.197668076 0 0 0 0 2207869.6001838446 1450055.6558208466 0 1450055.6558208466 -3440180.8504219055 0 0 0 0 1210975.8751497269 1960260.70337677 0 1960260.70337677 -1616170.8505935669 0 0 0 0 2455795.9115850925 1498314.7261900902 0 1498314.7261900902 -2204870.7902679443 0 0 0 0 2053016.382345885 2711633.2933115959 0 2711633.2933115959 -959258.36960601807 0 0 0 0 169181802.6355896 -91091843.687358856 0 -91091843.687358856 15862170.656415939 0 0 0 0 145084143.51396549 53043393.113155842 0 53043393.113155842 -58778172.825298309 0 0 0 0 117548854.89680815 -5186911.3442611694 0 -5186911.3442611694 -119165294.49056625 0 0 0 0 122886875.49120712 68472584.145765305 0 68472584.145765305 -99563086.745475769 0 0 0 0 3117445.4353556507 1649090.4286389239 0 1649090.4286389239 -5530811.0852968171 0 0 0 0 3080844.0644698143 2271489.2273731232 0 2271489.2273731232 -1564812.0340652466 0 0 0 0 3282791.3007574081 3090658.6382904053 0 3090658.6382904053 -1173037.9152479172 0 0 0 0 1635357.7339217728 2393679.447813008 0 2393679.447813008 -5319149.0188199859 0 0 0 0 -830046.32107131951 -1626560.7427102998 0 -1626560.7427102998 -3590489.0393235236 0 0 0 0 14407.821972442223 406034.21309642866 0 406034.21309642866 -964021.90498932824 0 0 0 0 123605664.69543453 268620517.27236605 0 268620517.27236605 -1451323284.9386177 0 0 0 0 -42675843.131992199 -945109637.94363403 0 -945109637.94363403 -1572862590.2412186 0 0 0 0 -122472607.72302204 -347198356.70268631 0 -347198356.70268631 -984779073.56500816 0 0 0 0 -619124.84948000184 -511874.95105821081 0 -511874.95105821081 -1087240.1034122799 0 0 0 0 59970318.873686947 69161798.758270264 0 69161798.758270264 -2054975121.1646309 0 0 0 0 152487917.61583498 485140747.160923 0 485140747.160923 -1571956679.5810814 0 0 0 0 231879041.39460999 75928304.130758286 0 75928304.130758286 -774428011.24960327 0 0 0 0 1572486.9376653433 1352346.9982471466 0 1352346.9982471466 -1452114.0718917847 0 0 0 0 -327136928.47808647 469522231.41370392 0 469522231.41370392 -717623360.47626877 0 0 0 0 -1434049578.5711935 584460046.10498047 0 584460046.10498047 552857683.66149902 0 0 0 0 663270.55759011279 1980264.6254017202 0 1980264.6254017202 -549890.65472577512 0 0 0 0 646449.10327534482 1639264.8099624745 0 1639264.8099624745 -202499.95555753261 0 0 0 0 -111998986.30259663 -49164114.518936157 0 -49164114.518936157 143590926.4861908 0 0 0 0 975460.56937853666 3679157.6619945075 0 3679157.6619945075 -2270791.0724916123 0 0 0 0 -43972043.407494903 -47379814.165807724 0 -47379814.165807724 55371306.787763596 0 0 0 0 34962124.624210782 247275272.38477278 0 247275272.38477278 -663827125.34620667 0 0 0 0 250872.20188337588 3887008.6096372493 0 3887008.6096372493 -1562658.2183386721 0 0 0 0 -2186755.290450573 5248203.0327663422 0 5248203.0327663422 2826696.138092041 0 0 0 0 3174287.1172833443 2201854.9362220764 0 2201854.9362220764 -1516553.9243965149 0 0 0 0 1750084.8677428951 2298783.1572981891 0 2298783.1572981891 -4385303.9902550615 0 0 0 0 9664495.7990274429 10509433.709327698 0 10509433.709327698 -6750050.0004730225 0 0 0 0 -3820233.924595058 11911099.840247154 0 11911099.840247154 -1160367.3241271973 0 0 0 0 2233883.5873160362 1879944.3819637299 0 1879944.3819637299 -2380731.5547504425 0 0 0 0 40251385.604408026 7440816.0180549622 0 7440816.0180549622 -26957386.906539917 0 0 0 0 1631012.72720153 635774.86330830818 0 635774.86330830818 -4184544.2334917039 0 0 0 0 23400962.2101264 2063110.6333389282 0 2063110.6333389282 -1811685.0497541428 0 0 0 0 35322209.676455021 13756931.998039246 0 13756931.998039246 -27796021.02705574 0 0 0 0 50882101.622629166 -12157916.201217651 0 -12157916.201217651 7631962.5180053711 0 0 0 0 -17749387.271101296 6697582.4466075897 0 6697582.4466075897 2951640.2683410645 0 0 0 0 -2416295.354894286 1885265.5288910884 0 1885265.5288910884 1394240.2150135227 0 0 0 0 -5570562.3773910999 29433484.964191437 0 29433484.964191437 -21251223.818000793 0 0 0 0 10766516.546050549 -13786894.413360596 0 -13786894.413360596 100622574.74256897 0 0 0 0 32556480.857042402 53762193.82716465 0 53762193.82716465 38908327.275871277 0 0 0 0 38071641.97768414 10167792.205968857 0 10167792.205968857 -2857273.0408096313 0 0 0 0 69810122.293442488 -185649853.01299667 0 -185649853.01299667 -122248309.5963974 0 0 0 0 53279131.124649048 -53026084.423488617 0 -53026084.423488617 -216216147.76962662 0 0 0 0 28935906.514915943 -139011968.497612 0 -139011968.497612 -302085398.75347519 0 0 0 0 -448698851.74500555 450400614.44475555 0 450400614.44475555 137910527.64614105 0 0 0 0 39553240.081676483 -216619474.31434631 0 -216619474.31434631 -1024026466.6811066 0 0 0 0 -669095191.94553041 -196214771.97187805 0 -196214771.97187805 19134308.895141602 0 0 0 0 120522467.8572979 -61495972.479370117 0 -61495972.479370117 -3191354.6547222137 0 0 0 0 -431804.99218842434 618334.03015467711 0 618334.03015467711 -810520.70313734934 0 0 0 0 49076793.964984968 547663670.65515375 0 547663670.65515375 75391793.787696838 0 0 0 0 -126869550.07943201 -2708390.6132183075 0 -2708390.6132183075 469462136.69810486 0 0 0 0 347363.4285315075 700752.88911969028 0 700752.88911969028 -355653.2611966664 0 0 0 0 -74097484.461284161 -76878606.467163086 0 -76878606.467163086 110849216.8273468 0 0 0 0 -1766809.78625722 1782116.1536151953 0 1782116.1536151953 -4458.3798703104258 0 0 0 0 -38638.108014724719 419810.49137560313 0 419810.49137560313 72495.269194513559 0 0 0 0 -94628918.170474052 125417605.39920807 0 125417605.39920807 624320230.49472046 0 0 0 0 143377394.09882161 83309568.709487915 0 83309568.709487915 40514738.944702148 0 0 0 0 -4464.654937596526 33783.522992413491 0 33783.522992413491 -107862.01438662037 0 0 0 0 -1062422.4753667035 1858826.4199535567 0 1858826.4199535567 -254715.72760891635 0 0 0 0 327968.07709743269 2265612.213460695 0 2265612.213460695 -708694.71977858245 0 0 0 0 5894960.502366066 -14923221.380813599 0 -14923221.380813599 46970559.118789673 0 0 0 0 86568853.889900565 152355425.44749355 0 152355425.44749355 -69410523.253498077 0 0 0 0 -4089838.7597551346 -24565425.962898254 0 -24565425.962898254 40834743.38867569 0 0 0 0 -33481241.443062782 26904678.295391083 0 26904678.295391083 40850584.31495285 0 0 0 0 21097718.075872421 5761181.1003799438 0 5761181.1003799438 -2649990.9756584167 0 0 0 0 27761745.538745046 55224670.547374725 0 55224670.547374725 -181460176.50576019 0 0 0 0 -50012244.429893732 113176948.8535347 0 113176948.8535347 -147058527.64241791 0 0 0 0 8483846.1147918552 -12676373.829128265 0 -12676373.829128265 20141135.404234886 0 0 0 0 -14780366.296143295 -39751746.480137825 0 -39751746.480137825 -9079336.751411438 0 0 0 0 -103010477.9484117 75558740.966220856 0 75558740.966220856 -39368893.142063141 0 0 0 0 153638.91246887168 301581.89065177366 0 301581.89065177366 -830084.17236290872 0 0 0 0 176101156.44326496 -292637056.20092964 0 -292637056.20092964 -770816768.2496109 0 0 0 0 243652931.33976418 -69917410.596947193 0 -69917410.596947193 -608146352.12802887 0 0 0 0 -60264653.132842541 229610947.87818909 0 229610947.87818909 -351307862.58836365 0 0 0 0 70814741.38864851 -108244196.46406174 0 -108244196.46406174 -440891436.95863533 0 0 0 0 13577737.023901105 -86375477.032842636 0 -86375477.032842636 -141047408.12916565 0 0 0 0 -133282020.12858981 -51259350.493448257 0 -51259350.493448257 -134532957.18955994 0 0 0 0 -70967075.575196505 100707469.36807632 0 100707469.36807632 -350146399.37158585 0 0 0 0 -47298672.995117441 -69128019.375143528 0 -69128019.375143528 -110228623.77996826 0 0 0 0 -12338868.124294639 62902376.135372162 0 62902376.135372162 -11442055.962135315 0 0 0 0 1304562.8574096467 -2455600.3567567314 0 -2455600.3567567314 -4187455.5656209365 0 0 0 0 -19225721.509113789 15512637.091510773 0 15512637.091510773 -63214034.418174744 0 0 0 0 4660256.0587991476 14663427.517738342 0 14663427.517738342 -70077602.955169678 0 0 0 0 110440050.00985789 41643809.11854887 0 41643809.11854887 -607379505.00617981 0 0 0 0 -122101319.55704975 179104465.12004852 0 179104465.12004852 -187659880.21294785 0 0 0 0 -125823277.38602662 -255096321.34130096 0 -255096321.34130096 -197710714.03582764 0 0 0 0 178357.6919362779 -993734.02889529709 0 -993734.02889529709 -1397505.5397782549 0 0 0 0 -185188705.20255637 346911327.04757118 0 346911327.04757118 -588488333.30534363 0 0 0 0 48597769.164083004 -18561852.881984711 0 -18561852.881984711 -247840310.41370392 0 0 0 0 104857204.52070728 10842711.498150826 0 10842711.498150826 -268077406.00455475 0 0 0 0 73146171.921423912 14060081.236392975 0 14060081.236392975 -264404979.79403687 0 0 0 0 -13660439.742774516 70505637.679402828 0 70505637.679402828 -126875759.92929077 0 0 0 0 72539057.691547155 7514296.6530609131 0 7514296.6530609131 -228637352.17676544 0 0 0 0 23940149.138367891 -32177999.168998718 0 -32177999.168998718 -130439729.78917313 0 0 0 0 27648507.6509251 -61106864.902734756 0 -61106864.902734756 -261873428.17933655 0 0 0 0 66024391.657392249 74020780.18680048 0 74020780.18680048 -171235813.28430939 0 0 0 0 -60126439.390941739 -72355407.876401901 0 -72355407.876401901 -85509361.584663391 0 0 0 0 183849.22921060663 56620.20588175999 0 56620.20588175999 -353854.66794440523 0 0 0 0 -73735787.467770234 -7928620.4050382376 0 -7928620.4050382376 -222766019.52384949 0 0 0 0 31809837.5426265 4459365.8900794983 0 4459365.8900794983 -256431056.91259956 0 0 0 0 -74058079.4477247 -3817279.4181861877 0 -3817279.4181861877 -195082065.1554718 0 0 0 0 40080353.284028292 12140554.850330353 0 12140554.850330353 -272317310.49105549 0 0 0 0 -61744152.534325123 4222493.1888618469 0 4222493.1888618469 -195097955.48864782 0 0 0 0 -76650171.620238543 -17072495.452941895 0 -17072495.452941895 -166738061.61049652 0 0 0 0 -99677539.294242382 7814247.5471687317 0 7814247.5471687317 -193600833.76250839 0 0 0 0 -125102464.98415136 51527602.987377167 0 51527602.987377167 -214893962.28976059 0 0 0 0 -180034867.74145365 11155902.186837673 0 11155902.186837673 -137384759.3897171 0 0 0 0 -163646304.7231738 65625208.430148125 0 65625208.430148125 -212752905.56394958 0 0 0 0 32485240.005890489 -65526671.931854248 0 -65526671.931854248 -166837702.0414238 0 0 0 0 -112139719.71966028 2012850.866645813 0 2012850.866645813 -58895091.089195251 0 0 0 0 33113271.901911259 -43467441.147628784 0 -43467441.147628784 -98360576.934715271 0 0 0 0 47946523.404768407 -4157441.7563881874 0 -4157441.7563881874 -178381144.73786926 0 0 0 0 90190275.014733553 -46238312.507946014 0 -46238312.507946014 -229562317.08421707 0 0 0 0 92863007.971200466 -35635510.302307129 0 -35635510.302307129 -319671475.64884567 0 0 0 0 74383199.309735298 -131544803.25119019 0 -131544803.25119019 -164359701.77085114 0 0 0 0 54409842.176902294 -26009407.92470932 0 -26009407.92470932 -126378411.82186699 0 0 0 0 5151454.8364181519 35205173.106639862 0 35205173.106639862 28068400.450775146 0 0 0 0 5449392.1440246105 39810162.306741714 0 39810162.306741714 98886785.661903381 0 0 0 0 170018096.28141165 83293629.155204773 0 83293629.155204773 -84893263.753770828 0 0 0 0 -46500712.592082739 -51389451.118677139 0 -51389451.118677139 119666913.90260315 0 0 0 0 100338266.84605289 106984357.05664086 0 106984357.05664086 -65571672.613838196 0 0 0 0 111360703.1986798 11695350.739793777 0 11695350.739793777 -2465597.9959259033 0 0 0 0 -1270657.0078803964 2650599.1164551647 0 2650599.1164551647 -2202844.0770730712 0 0 0 0 -135677.59621406929 624466.44208043627 0 624466.44208043627 -334574.20061033592 0 0 0 0 -24245454.770790633 136925088.1475625 0 136925088.1475625 -411214089.18995667 0 0 0 0 -98307476.266837984 -588349838.68693542 0 -588349838.68693542 -1572437952.1541672 0 0 0 0 -38998896.431241505 -329846072.71089935 0 -329846072.71089935 -531094599.98502922 0 0 0 0 262769316.68564954 -18457908.623991013 0 -18457908.623991013 -1575570319.3703995 0 0 0 0 -261363635.82009965 388028164.29576492 0 388028164.29576492 -1008605890.3606796 0 0 0 0 259504609.17836243 196144386.97597122 0 196144386.97597122 -1567310972.7066002 0 0 0 0 -516755253.66648412 378507778.90076721 0 378507778.90076721 -136702694.17391205 0 0 0 0 -518813568.47960067 143640612.27183151 0 143640612.27183151 86921988.749233246 0 0 0 0 -604213.06991459464 900284.50986473635 0 900284.50986473635 -1156653.6715213507 0 0 0 0 -195159414.17223763 -35400337.784294128 0 -35400337.784294128 29087598.55308342 0 0 0 0 -385540980.15356749 124927347.84413147 0 124927347.84413147 -5129646.2762680054 0 0 0 0 -155555522.64990577 16237572.92905426 0 16237572.92905426 262051913.68141937 0 0 0 0 -379048454.64897138 225844607.99007988 0 225844607.99007988 293594722.11508942 0 0 0 0 -275562280.6968227 249235240.14533234 0 249235240.14533234 -33735307.518527985 0 0 0 0 -273747156.88061374 296975629.99226952 0 296975629.99226952 102169893.15507507 0 0 0 0 -252077717.47573614 198763823.57690048 0 198763823.57690048 35295628.060874939 0 0 0 0 -124803869.30748826 92122100.844356537 0 92122100.844356537 -133811493.69145203 0 0 0 0 -184957131.03683794 59787530.439785004 0 59787530.439785004 -51060923.112047195 0 0 0 0 -309319297.26885444 171387669.54373169 0 171387669.54373169 -147878412.03098297 0 0 0 0 -200715753.26973009 80222689.114780426 0 80222689.114780426 -121718762.47984314 0 0 0 0 -692931317.23721325 472331221.97540283 0 472331221.97540283 122523662.0756073 0 0 0 0 -219052190.33299777 162476998.27507401 0 162476998.27507401 -453765534.19218445 0 0 0 0 153991516.47409239 54357421.003299713 0 54357421.003299713 -532619677.12039185 0 0 0 0 382606173.98697734 257679251.62001038 0 257679251.62001038 -927516293.33993912 0 0 0 0 164320134.42107177 23909626.454170227 0 23909626.454170227 -455778885.23797607 0 0 0 0 -225272.65973271895 140295.5024142433 0 140295.5024142433 -107915.44549433142 0 0 0 0 484359320.23803127 -468276994.2767067 0 -468276994.2767067 290114183.68963623 0 0 0 0 335580706.56342864 148869618.20553589 0 148869618.20553589 -916993992.53544807 0 0 0 0 -303967711.39785928 52654066.818986416 0 52654066.818986416 64503788.028366089 0 0 0 0 18846768.462100357 123562584.98580551 0 123562584.98580551 -317182168.55339146 0 0 0 0 -169970.3912371847 -217456.45953890868 0 -217456.45953890868 -786839.4957957305 0 0 0 0 -186581106.66604728 324489224.91667938 0 324489224.91667938 -249980291.89701939 0 0 0 0 -282943628.55690026 89535603.615142822 0 89535603.615142822 -74310231.147689819 0 0 0 0 55473305.358940773 -59787816.544528961 0 -59787816.544528961 65906370.773426056 0 0 0 0 52887.019579501648 708957.22978035372 0 708957.22978035372 -722884.00828384981 0 0 0 0 -44641.199530723286 308298.01760432846 0 308298.01760432846 -311208.44867441803 0 0 0 0 26666340.778387755 150226679.27662277 0 150226679.27662277 -169994040.94023895 0 0 0 0 174556496.0069581 -99475834.002578735 0 -99475834.002578735 -180980755.35667038 0 0 0 0 -92693147.323054343 82919408.716712952 0 82919408.716712952 159183847.95571136 0 0 0 0 -87444916.189667359 336909874.4178524 0 336909874.4178524 -438505018.66807747 0 0 0 0 -116435030.02249435 -149548155.38708305 0 -149548155.38708305 43688878.118331909 0 0 0 0 224038758.52172744 66531075.02612257 0 66531075.02612257 -1570767548.668602 0 0 0 0 24747.668060696393 338542.25864698621 0 338542.25864698621 -309502.9687749669 0 0 0 0 70912022.9425143 372833422.51649475 0 372833422.51649475 -1551551869.3138733 0 0 0 0 52824.698001701297 618769.95163451368 0 618769.95163451368 -528921.05572890118 0 0 0 0 302190534.19165653 -103588093.76212502 0 -103588093.76212502 -989666456.22193146 0 0 0 0 -348143529.1714927 341686676.92865372 0 341686676.92865372 -442303828.11667633 0 0 0 0 407648.96346924175 -12833415.095664978 0 -12833415.095664978 -724261739.73919678 0 0 0 0 121133.77880065273 241400.17408244719 0 241400.17408244719 -1288877.787590459 0 0 0 0 -16491673.04769532 277586729.12269211 0 277586729.12269211 -1568684294.2404022 0 0 0 0 -53332099.310457319 -281768763.08028984 0 -281768763.08028984 -725831374.35555267 0 0 0 0 225548341.41202891 34184761.752728462 0 34184761.752728462 -898261715.43621826 0 0 0 0 245309434.67193279 -168124403.9329567 0 -168124403.9329567 -1572558724.7295039 0 0 0 0 -147680827.29912585 148481552.87031174 0 148481552.87031174 250500997.21096802 0 0 0 0 -122200634.93666336 -243807979.33424187 0 -243807979.33424187 -223236009.61559677 0 0 0 0 59594.447282883848 4458960.1428775787 0 4458960.1428775787 3073057.1751022339 0 0 0 0 -440177242.97427803 327056718.83860016 0 327056718.83860016 31921996.836791992 0 0 0 0 292049.67160353024 -682135.77967001311 0 -682135.77967001311 -1454295.4107183665 0 0 0 0 28988146.190288048 23559825.20640564 0 23559825.20640564 15648811.794136047 0 0 0 0 178488.79596102398 -433310.72308249027 0 -433310.72308249027 -1233222.7156336345 0 0 0 0 72214.179637542489 317441.35127613018 0 317441.35127613018 -1751539.491351556 0 0 0 0 17659821.485648274 -17441380.998437881 0 -17441380.998437881 13812242.859867096 0 0 0 0 -200578596.34239364 139658911.7481575 0 139658911.7481575 -43461526.395458221 0 0 0 0 -3642194.5948401392 -69524407.200452328 0 -69524407.200452328 -62249591.178153992 0 0 0 0 -79851.778233384714 28820885.849994659 0 28820885.849994659 33654648.290664673 0 0 0 0 51604820.488858722 -30309320.692914963 0 -30309320.692914963 -142887523.47681427 0 0 0 0 42657584.243871458 -3651678.1776504517 0 -3651678.1776504517 -94341426.714111328 0 0 0 0 18882325.049483508 -43797131.072467804 0 -43797131.072467804 -18780972.046833038 0 0 0 0 194727.08912572887 65335282.810893498 0 65335282.810893498 -200542947.61453247 0 0 0 0 60510747.552106977 179771001.29256821 0 179771001.29256821 -93582271.299072266 0 0 0 0 60710897.50509803 10053207.233406067 0 10053207.233406067 -325979149.57769775 0 0 0 0 103223142.55456007 357842065.87754822 0 357842065.87754822 -641184326.32542419 0 0 0 0 -74122870.164523885 159971442.9294014 0 159971442.9294014 -236058438.76774871 0 0 0 0 261467.16386401889 79851.805587951094 0 79851.805587951094 -1112861.8671092317 0 0 0 0 -213598351.54323342 -87265.862953186035 0 -87265.862953186035 -492269774.84838867 0 0 0 0 -173731479.23948407 155583806.36600494 0 155583806.36600494 -235805766.33158255 0 0 0 0 -7982.7420579963846 256027.11577543977 0 256027.11577543977 -695621.92719308287 0 0 0 0 -216745319.84725347 193062612.76626945 0 193062612.76626945 -133828972.23200989 0 0 0 0 187698.60849241805 38331.539573084563 0 38331.539573084563 -539347.23332674801 0 0 0 0 91596726.980518043 -98875642.533257484 0 -98875642.533257484 -176361577.82950592 0 0 0 0 -78707822.242490217 141150909.09823608 0 141150909.09823608 -41716261.904230118 0 0 0 0 -417163644.93897319 345651438.65931129 0 345651438.65931129 -441154048.04179382 0 0 0 0 -345943899.71248877 8121009.9334945679 0 8121009.9334945679 -226918836.60597229 0 0 0 0 -61252961.79127419 41646614.376541138 0 41646614.376541138 -183987392.5029313 0 0 0 0 -98346855.033608556 164244523.11606979 0 164244523.11606979 -183671629.83872342 0 0 0 0 -191210816.54353651 69002137.364006042 0 69002137.364006042 -171704055.93985748 0 0 0 0 -57066195.449279547 95821267.295728683 0 95821267.295728683 -255134434.10652161 0 0 0 0 -63394773.085964441 81342015.442127228 0 81342015.442127228 -179633810.60895348 0 0 0 0 -67833512.753211856 183568423.5317812 0 183568423.5317812 -191211435.6322937 0 0 0 0 -67354612.280276597 115754176.17733383 0 115754176.17733383 -194753648.33965302 0 0 0 0 -18661046.39063856 144218328.55949402 0 144218328.55949402 -197106118.88997316 0 0 0 0 -19150901.586155951 152119010.2454834 0 152119010.2454834 -277789454.05256653 0 0 0 0 -41714134.786422223 151371744.42326736 0 151371744.42326736 -271751366.3803215 0 0 0 0 12196522.065970037 141437539.73036242 0 141437539.73036242 -301274911.61342621 0 0 0 0 29453095.619409323 80629631.095161438 0 80629631.095161438 -252779643.54305077 0 0 0 0 70313648.486089706 97550825.901221275 0 97550825.901221275 -250334870.97101593 0 0 0 0 6500439.1553707914 98543003.025091171 0 98543003.025091171 -179424765.79311371 0 0 0 0 19999699.161448523 65374981.512012482 0 65374981.512012482 -256716842.11738586 0 0 0 0 -36136207.506977424 148887951.36388397 0 148887951.36388397 -265003874.36432648 0 0 0 0 -54998333.334425449 108977355.76057053 0 108977355.76057053 -332300900.61067963 0 0 0 0 -602819.11796480371 69275996.919557571 0 69275996.919557571 -310957871.05929565 0 0 0 0 -42019096.691532373 261473357.85351562 0 261473357.85351562 -532302628.90862274 0 0 0 0 99240.883639287946 216866.98559165001 0 216866.98559165001 -904478.16439734399 0 0 0 0 -266600257.47683778 414200071.57620621 0 414200071.57620621 -421343396.28064728 0 0 0 0 -207062.87367975671 90602686.509614944 0 90602686.509614944 -37782414.132238388 0 0 0 0 -268308944.29304379 213792646.66437149 0 213792646.66437149 -248019402.93795013 0 0 0 0 -37161586.250484824 159082337.88770294 0 159082337.88770294 -326432180.78588104 0 0 0 0 -128673481.35734048 246739629.56411362 0 246739629.56411362 -362172914.27201843 0 0 0 0 -622399.47308703559 3696208.6136719696 0 3696208.6136719696 -12973315.662609402 0 0 0 0 88694684.142526627 106556988.00790262 0 106556988.00790262 -160243354.68886566 0 0 0 0 135254842.82830238 31668189.702960968 0 31668189.702960968 -50246444.504043579 0 0 0 0 24376332.602251053 9853718.5492138863 0 9853718.5492138863 -23419846.721221924 0 0 0 0 -1274348.25229184 -20752671.820690162 0 -20752671.820690162 -33378418.631923676 0 0 0 0 -11953334.129388809 37818307.582562447 0 37818307.582562447 -20478774.827996194 0 0 0 0 37410700.458952904 -4499420.3243808746 0 -4499420.3243808746 -44998282.408437729 0 0 0 0 16005196.806960225 6005919.295352459 0 6005919.295352459 -17633143.906330109 0 0 0 0 90993862.65014267 39968327.244117737 0 39968327.244117737 -18206072.652633667 0 0 0 0 -77647994.798028946 16957897.396183014 0 16957897.396183014 42463601.877388 0 0 0 0 -23947575.510311127 -110602421.28618622 0 -110602421.28618622 -56539616.087985992 0 0 0 0 -737033.72570429137 -210024.30744549632 0 -210024.30744549632 -864464.87356961332 0 0 0 0 68166684.421426535 51757429.156708241 0 51757429.156708241 -3979523.4231643677 0 0 0 0 49168856.145405173 -17744602.584679127 0 -17744602.584679127 -48500378.121292114 0 0 0 0 35425088.758236408 80557636.619112015 0 80557636.619112015 47407624.77816391 0 0 0 0 -732325.22020329069 20774.676308442838 0 20774.676308442838 285201.6570731625 0 0 0 0 -72866727.936918259 21626729.653856277 0 21626729.653856277 -6778763.2119293213 0 0 0 0 100491716.03027916 -43246916.691749573 0 -43246916.691749573 -2967306.6584625244 0 0 0 0 6392593.7175140381 -34717357.135269165 0 -34717357.135269165 -32710431.550704956 0 0 0 0 82209812.53213501 -7456358.7758560181 0 -7456358.7758560181 -72379354.162353516 0 0 0 0 43330855.571529388 -57519524.76940155 0 -57519524.76940155 -117670151.5633049 0 0 0 0 21683082.549739838 34346968.291255951 0 34346968.291255951 -96283311.038086891 0 0 0 0 22251195.57531929 19607493.796569824 0 19607493.796569824 26011742.379486084 0 0 0 0 27946952.826011658 6857812.2269592285 0 6857812.2269592285 48161508.885375977 0 0 0 0 148352139.19992447 -17911461.092605591 0 -17911461.092605591 -119624412.39434052 0 0 0 0 162506023.29123688 105893250.57272911 0 105893250.57272911 -54920155.014239311 0 0 0 0 68816618.559877634 -18979735.460437298 0 -18979735.460437298 136301529.78051758 0 0 0 0 -1708693.3051026557 1965363.8471031133 0 1965363.8471031133 1748390.2563382238 0 0 0 0 -360051.65670201648 1891855.1893791915 0 1891855.1893791915 -10704366.169439439 0 0 0 0 -70688115.179035425 -153883754.94346613 0 -153883754.94346613 -134068618.84206009 0 0 0 0 45934836.441020489 10495905.294398308 0 10495905.294398308 -166129728.24522781 0 0 0 0 35408984.922284603 -13763418.881791115 0 -13763418.881791115 43784924.158607483 0 0 0 0 13723480.577356339 54406402.549110413 0 54406402.549110413 -25460755.348434448 0 0 0 0 185783505.53785324 109610265.56438637 0 109610265.56438637 7284485.8171343803 0 0 0 0 -3624318.2369425781 3833157.3700070549 0 3833157.3700070549 -5175503.4702235702 0 0 0 0 -1930648.6098508835 941807.42298984528 0 941807.42298984528 -4596644.3074893951 0 0 0 0 1001835.2059266567 -9256407.2342741489 0 -9256407.2342741489 -17237974.656457901 0 0 0 0 -2607720.5604839325 -1369928.9394540787 0 -1369928.9394540787 -8492947.5739555359 0 0 0 0 -413050.23389881838 -984858.78374534193 0 -984858.78374534193 -405488.52918502409 0 0 0 0 7573810.2220971584 -3812725.8000926971 0 -3812725.8000926971 -18131145.928833008 0 0 0 0 10507119.196343422 2318668.3467273712 0 2318668.3467273712 -15394733.723766327 0 0 0 0 -1735278.5386719704 -3387101.6739645004 0 -3387101.6739645004 -12748011.653588772 0 0 0 0 9013533.3863413334 -48110491.802954674 0 -48110491.802954674 -34201982.915872574 0 0 0 0 7654354.4494941235 -22926384.218853951 0 -22926384.218853951 -4356139.3822841644 0 0 0 0 74359599.832244158 42740663.85771656 0 42740663.85771656 -106691820.71645355 0 0 0 0 134250111.78348511 -112818194.99672979 0 -112818194.99672979 93653010.672895849 0 0 0 0 -12014434.909745455 13153535.785629615 0 13153535.785629615 79059424.550811529 0 0 0 0 -150926029.99215561 292207621.99566305 0 292207621.99566305 -108157344.01283348 0 0 0 0 -154187715.7249918 238440514.09844446 0 238440514.09844446 -264796326.01277542 0 0 0 0 -17219.708222552137 -210248.65344241721 0 -210248.65344241721 -1035137.8381732893 0 0 0 0 42366821.57377103 -50667174.199124634 0 -50667174.199124634 51689846.692806959 0 0 0 0 25449272.609711528 -17807716.376543105 0 -17807716.376543105 23198560.820143223 0 0 0 0 -41996828.625944376 -66114092.391706049 0 -66114092.391706049 148831137.55054715 0 0 0 0 -55622568.456204772 15158228.352206111 0 15158228.352206111 -319944448.68642789 0 0 0 0 -151693805.72871935 -64136571.459731966 0 -64136571.459731966 122224449.13281417 0 0 0 0 -7489766.46824646 111235460.82929993 0 111235460.82929993 -190720890.41676331 0 0 0 0 62502102.184432983 78921927.74067831 0 78921927.74067831 -225697851.35050964 0 0 0 0 -233488.6899250366 964579.92283492628 0 964579.92283492628 -53569.941819339991 0 0 0 0 2352568.6381348078 -2716756.7649375387 0 -2716756.7649375387 -1366917.9880657876 0 0 0 0 -20550005.956144094 -18806192.598877907 0 -18806192.598877907 18804005.5487957 0 0 0 0 287471.82788987097 1833789.6147581155 0 1833789.6147581155 -11090631.847689709 0 0 0 0 309142338.16174006 62521220.27352941 0 62521220.27352941 -201563682.08181667 0 0 0 0 107070662.39823157 319470226.74878997 0 319470226.74878997 -442299002.51025653 0 0 0 0 48388409.182311296 -40447697.905228615 0 -40447697.905228615 154892108.51293182 0 0 0 0 -31811596.417798191 -69536591.680461794 0 -69536591.680461794 -96973634.043746471 0 0 0 0 -666882.82370269555 440306.70388490026 0 440306.70388490026 -233251.61806328094 0 0 0 0 -141496003.47400409 218899191.84417462 0 218899191.84417462 -50186910.350189805 0 0 0 0 -43548421.775987774 -18544445.497620344 0 -18544445.497620344 -234924697.38658285 0 0 0 0 18277733.803437948 -61218519.359839678 0 -61218519.359839678 95493287.152747095 0 0 0 0 -70847555.461183101 36232265.273516715 0 36232265.273516715 41962444.981791258 0 0 0 0 122109780.22365367 72185821.193922192 0 72185821.193922192 16818717.491710663 0 0 0 0 -1349224.415765133 999791.86099960608 0 999791.86099960608 -1012353.233077283 0 0 0 0 24973939.405851722 37706120.977516443 0 37706120.977516443 41320997.400755763 0 0 0 0 -25516802.403274089 -39108442.298444003 0 -39108442.298444003 35447741.771262646 0 0 0 0 -100567917.10641542 10481403.280440927 0 10481403.280440927 59720407.68768549 0 0 0 0 -7817451.8719085455 28682263.331972361 0 28682263.331972361 -7758356.7207255363 0 0 0 0 -1654579.0927511454 37805919.509067774 0 37805919.509067774 -29296737.536095619 0 0 0 0 -70864690.092732608 46055650.597992897 0 46055650.597992897 43656823.333852768 0 0 0 0 22468399.461699963 3623751.3757604361 0 3623751.3757604361 14950177.096397161 0 0 0 0 -2401893.4033886194 -8401126.650894165 0 -8401126.650894165 -29097664.235786438 0 0 0 0 19345358.800155818 327766.64507770538 0 327766.64507770538 -10441278.459225893 0 0 0 0 56283036.084704876 184785215.06680369 0 184785215.06680369 369495354.82347679 0 0 0 0 380332.922694701 -50106.059976157441 0 -50106.059976157441 -566173.05620871927 0 0 0 0 -64884914.979230642 4419216.4346038103 0 4419216.4346038103 65409438.948000669 0 0 0 0 -71995606.898541287 -2235802.9997125864 0 -2235802.9997125864 150712681.96542072 0 0 0 0 -86885150.725836754 38410486.680186749 0 38410486.680186749 106680289.96004558 0 0 0 0 -57744985.497196555 67433002.170657635 0 67433002.170657635 146599120.57531071 0 0 0 0 -22032633.459322631 81295956.531166077 0 81295956.531166077 91835388.05557394 0 0 0 0 -71658529.443080127 32321780.287968159 0 32321780.287968159 85827351.751376152 0 0 0 0 14822429.362879813 54511381.159754276 0 54511381.159754276 26438271.281197548 0 0 0 0 -25276847.590610422 59645400.616463959 0 59645400.616463959 57200035.688483238 0 0 0 0 -70567827.938822508 31953078.237671852 0 31953078.237671852 40498574.478244781 0 0 0 0 -15379989.579324007 18933711.668520212 0 18933711.668520212 -4874299.2853322029 0 0 0 0 626233.20171443443 -1595404.5937438298 0 -1595404.5937438298 -4866602.3957744064 0 0 0 0 -94746169.779671282 -49587618.691410303 0 -49587618.691410303 10142239.214242935 0 0 0 0 2658608.7655246258 -108250393.86147594 0 -108250393.86147594 3323613.206993103 0 0 0 0 48426676.001062155 47760464.167388916 0 47760464.167388916 -70827698.008181334 0 0 0 0 170816323.53786814 -179821057.51795697 0 -179821057.51795697 7205576.4930076599 0 0 0 0 -283994675.76546729 -117089305.51109076 0 -117089305.51109076 10192610.911986351 0 0 0 0 21843090.387570381 -59672016.841085315 0 -59672016.841085315 -38664460.294378281 0 0 0 0 -229396192.15617386 83266980.470643282 0 83266980.470643282 -50549236.440136433 0 0 0 0 104654.46564535557 -313659.85039878142 0 -313659.85039878142 -1496906.2738901735 0 0 0 0 43929413.554690897 -8867322.874673605 0 -8867322.874673605 -151540641.56471252 0 0 0 0 -119892792.16934448 635769.82701015472 0 635769.82701015472 -6008911.5086973906 0 0 0 0 -91465079.096540391 103410168.30745411 0 103410168.30745411 -74500965.125700951 0 0 0 0 -55689048.336123735 -302856539.77345514 0 -302856539.77345514 226702367.77374458 0 0 0 0 -20490750.336698413 137306386.87417507 0 137306386.87417507 -420293436.8071537 0 0 0 0 223260335.10333696 -260404410.88503742 0 -260404410.88503742 -100031630.478158 0 0 0 0 -223859718.05132663 -346812522.63116169 0 -346812522.63116169 -113905416.76159954 0 0 0 0 -187333831.40375504 282555430.39042091 0 282555430.39042091 184550065.65317869 0 0 0 0 -561140810.23486209 228769519.29846215 0 228769519.29846215 178056267.32893085 0 0 0 0 47806715.535177112 191610180.4481535 0 191610180.4481535 -422602261.36073875 0 0 0 0 66247446.355254889 98312323.645593643 0 98312323.645593643 -19741312.267841339 0 0 0 0 136939730.35542536 69278059.567111969 0 69278059.567111969 -9381002.5016651154 0 0 0 0 164427213.76179647 83295780.519080162 0 83295780.519080162 -226960583.53674316 0 0 0 0 13567227.536051989 -136737935.36013556 0 -136737935.36013556 -296091059.77695179 0 0 0 0 -2876527.1844251156 -54873810.260371685 0 -54873810.260371685 -47529861.94557476 0 0 0 0 47673102.568140268 -20745850.147003174 0 -20745850.147003174 -59276367.085369349 0 0 0 0 113169724.93751287 41734762.545238972 0 41734762.545238972 -6123841.8296666145 0 0 0 0 23139053.746117234 -17105690.827837467 0 -17105690.827837467 -43376294.530544281 0 0 0 0 47271835.652536511 -54033522.327189445 0 -54033522.327189445 -58868946.516728878 0 0 0 0 -27251179.763244629 22482784.330319405 0 22482784.330319405 -41893617.46490407 0 0 0 0 -86128.804919341346 -31013.525886856951 0 -31013.525886856951 -995549.80872516241 0 0 0 0 -52464825.531479597 7423184.2598903179 0 7423184.2598903179 -16980219.275934219 0 0 0 0 -26551807.395212151 -5070756.0803888645 0 -5070756.0803888645 -11694427.655525208 0 0 0 0 -26553363.543840408 11740879.361783504 0 11740879.361783504 -20083542.104178429 0 0 0 0 -379234.30850010348 402897.87246830366 0 402897.87246830366 -3036681.9702467266 0 0 0 0 -4447660.1515545845 7999685.3947682381 0 7999685.3947682381 -32699295.259295464 0 0 0 0 -4168134.9620350003 5958380.592469275 0 5958380.592469275 -31389986.69548893 0 0 0 0 879385.21415519714 -832617.5653924942 0 -832617.5653924942 -27876111.048630714 0 0 0 0 -3236249.8463048935 4320344.9011650085 0 4320344.9011650085 -24386932.170213699 0 0 0 0 -2847563.7611587048 2536276.9779250622 0 2536276.9779250622 -16535284.439910889 0 0 0 0 -4522245.9317902327 -224491.23802256584 0 -224491.23802256584 -10645371.101993561 0 0 0 0 -5413745.2198136747 3738938.1158015728 0 3738938.1158015728 -8959843.4437274933 0 0 0 0 -12431649.362936497 3389385.8092646599 0 3389385.8092646599 -12294646.461937904 0 0 0 0 -11930924.240805984 2688210.5031318665 0 2688210.5031318665 -14806092.139623642 0 0 0 0 -20115003.886264563 144963.73791885376 0 144963.73791885376 -7210124.4664945602 0 0 0 0 -13701024.436742783 -4616337.9808142185 0 -4616337.9808142185 -12475488.47091198 0 0 0 0 -133307412.94120163 18724638.179901838 0 18724638.179901838 366086035.02574062 0 0 0 0 -2291991.6322907805 8849939.1678655148 0 8849939.1678655148 -33922884.108341217 0 0 0 0 -123558.69921020477 1489658.0450992018 0 1489658.0450992018 -6028978.5403109835 0 0 0 0 1387526.9652633667 85129.803874969482 0 85129.803874969482 -2552826.3501853943 0 0 0 0 12203.017848475836 594114.3360312283 0 594114.3360312283 -8240920.2449835083 0 0 0 0 1113664.9680808343 -585259.8025615993 0 -585259.8025615993 -3765698.130075492 0 0 0 0 1124511.768778801 -538476.89133071899 0 -538476.89133071899 -2318262.2988739014 0 0 0 0 -2344.3501776554622 2645196.4444618952 0 2645196.4444618952 -8684680.6385126077 0 0 0 0 872279.59805541695 1618686.3279424547 0 1618686.3279424547 -7787993.7190725291 0 0 0 0 108514145.01484863 120811515.01557243 0 120811515.01557243 95931229.793876648 0 0 0 0 108456837.53614855 122776888.36013746 0 122776888.36013746 38700382.971050262 0 0 0 0 3370766.3821840286 5806957.0384254456 0 5806957.0384254456 -36549351.185985088 0 0 0 0 -2338262.0485115051 7031623.246213913 0 7031623.246213913 -35973942.468076706 0 0 0 0 3990082.3201112747 638409.76838302612 0 638409.76838302612 -14135894.299934387 0 0 0 0 -43620.530332125432 357471.48737194133 0 357471.48737194133 -2300427.0736877099 0 0 0 0 1797062.7545435429 -3295927.8885173798 0 -3295927.8885173798 -22785502.661294937 0 0 0 0 2007900.4394044876 -1546893.6784543991 0 -1546893.6784543991 -16509038.316398621 0 0 0 0 1239204.4510293007 -1342585.0695638657 0 -1342585.0695638657 -13170923.043883324 0 0 0 0 2857545.758682251 2384809.4770679474 0 2384809.4770679474 -15815485.979203701 0 0 0 0 -1910619.5042207241 -1597174.4465751648 0 -1597174.4465751648 -1998905.7488758564 0 0 0 0 6227574.285777986 -397593.82529950142 0 -397593.82529950142 -13528085.414297104 0 0 0 0 5554487.91682446 1684585.6064162254 0 1684585.6064162254 -15043282.766199112 0 0 0 0 913696.69731624168 -841764.95136264572 0 -841764.95136264572 -4905247.299459978 0 0 0 0 11101778.945289612 -16583280.97441721 0 -16583280.97441721 -24840761.620805502 0 0 0 0 2903159.2543241978 1631422.0011568069 0 1631422.0011568069 -5625804.1061270237 0 0 0 0 1586448.4149491093 -78764.806388299912 0 -78764.806388299912 -6806488.7925053053 0 0 0 0 2819385.0732800961 758258.91363573074 0 758258.91363573074 -8698355.0331764221 0 0 0 0 1312852.3645279408 91452.733806610107 0 91452.733806610107 -6040557.6246681213 0 0 0 0 337515.97619812563 1841142.7410436962 0 1841142.7410436962 -8992993.044043066 0 0 0 0 -372724.05762481689 2038493.6030654907 0 2038493.6030654907 -9323844.5370178223 0 0 0 0 356613.52033042908 876942.16841697693 0 876942.16841697693 -6636167.1150584221 0 0 0 0 1102416.1557217846 -408923.08835290419 0 -408923.08835290419 -4126000.7419175841 0 0 0 0 2382160.9610295296 84081.570404052734 0 84081.570404052734 -3130359.5542755127 0 0 0 0 2398536.9909753799 -12673.815227508545 0 -12673.815227508545 -2584272.9957885742 0 0 0 0 2103938.7759836484 -2229503.309287739 0 -2229503.309287739 -5143458.8179503772 0 0 0 0 1649344.2262164135 50762.055749760475 0 50762.055749760475 -3249364.2628511842 0 0 0 0 388374.40888389619 1808837.584893154 0 1808837.584893154 -9911214.2057609968 0 0 0 0 -25541.44794958178 1887831.0832339916 0 1887831.0832339916 -9716117.2311417647 0 0 0 0 126924.47896575928 304580.59457397461 0 304580.59457397461 -3508139.5367951393 0 0 0 0 187034.0998210907 336526.55372619629 0 336526.55372619629 -3507431.346824646 0 0 0 0 295132.05462633213 135223.65608476428 0 135223.65608476428 -1791029.2964315619 0 0 0 0 1224719.8589775395 368642.12986469129 0 368642.12986469129 -3011911.5470262803 0 0 0 0 3943961.186248064 -1621356.7584109306 0 -1621356.7584109306 -2527552.2420654297 0 0 0 0 16257934.772432327 -12868338.016111374 0 -12868338.016111374 -16558869.968147278 0 0 0 0 2564218.0568446293 -1096912.3270103494 0 -1096912.3270103494 -7655857.4792627171 0 0 0 0 3821115.7697954178 -686198.19196128845 0 -686198.19196128845 -1016501.5511131287 0 0 0 0 18584229.827526093 -4567997.2053413391 0 -4567997.2053413391 -16500169.412437439 0 0 0 0 387772.6250556265 2068029.8096572291 0 2068029.8096572291 -8863749.8571876884 0 0 0 0 -238061.41655158997 1886942.082649231 0 1886942.082649231 -9361257.8173885345 0 0 0 0 2818840.9684486389 307187.68449783325 0 307187.68449783325 -4872839.6260910034 0 0 0 0 2773784.031826973 305292.82704257965 0 305292.82704257965 -4850968.0051727295 0 0 0 0 2299441.8468875885 -656679.11182594299 0 -656679.11182594299 -2421582.3974285126 0 0 0 0 898637.76127937436 -193749.83833639557 0 -193749.83833639557 -3298979.5028062984 0 0 0 0 912277.92615466239 1485933.4855440692 0 1485933.4855440692 -8958380.1161178723 0 0 0 0 2739237.4261710052 -2554722.3367924634 0 -2554722.3367924634 -6243520.8919727057 0 0 0 0 2440065.557515061 924255.59644249873 0 924255.59644249873 -10160155.112672804 0 0 0 0 137655076.35147071 61274869.065388441 0 61274869.065388441 45631465.659858704 0 0 0 0 182475783.38722765 105902293.23888683 0 105902293.23888683 -56708897.503184319 0 0 0 0 172909011.52996778 35158070.279886246 0 35158070.279886246 36805524.485909462 0 0 0 0 3390739.648825678 -5094870.4593655951 0 -5094870.4593655951 -4750673.2539711781 0 0 0 0 10210199.22004509 -325954.65951728821 0 -325954.65951728821 -3778173.770942688 0 0 0 0 997398.91161744436 3674249.6307554245 0 3674249.6307554245 -4408154.7031786367 0 0 0 0 10645657.439910889 -304124.52126312256 0 -304124.52126312256 -3975491.8274383545 0 0 0 0 767982.98466706695 4652363.0029399097 0 4652363.0029399097 -12033618.005340368 0 0 0 0 8576210.4711341858 1241120.8287639618 0 1241120.8287639618 -3092317.3277282715 0 0 0 0 5365985.1344793541 -4067801.2755378764 0 -4067801.2755378764 -10606172.216049297 0 0 0 0 3174801.2683874783 1162651.7229925217 0 1162651.7229925217 -10526810.782124402 0 0 0 0 5560388.9716510773 -490117.44409942627 0 -490117.44409942627 -2103155.3698272705 0 0 0 0 17519357.295373917 5088736.5045986176 0 5088736.5045986176 -12722516.818122864 0 0 0 0 20264416.033761978 -2318780.2984075546 0 -2318780.2984075546 -22544658.075866699 0 0 0 0 23105904.363746643 1949463.8104858398 0 1949463.8104858398 -19157112.270900726 0 0 0 0 32963001.021144867 6949479.7406158447 0 6949479.7406158447 -24625777.775466919 0 0 0 0 24166379.692581177 13773240.398643494 0 13773240.398643494 -10530570.227495193 0 0 0 0 -1923005.5273523331 -21015671.079529762 0 -21015671.079529762 -12817724.992574692 0 0 0 0 3325671.2300750762 -1383809.4850919973 0 -1383809.4850919973 -6945237.962652497 0 0 0 0 38134974.301149368 17414531.448646545 0 17414531.448646545 -17851698.848888397 0 0 0 0 60139448.75615406 -15671862.624889374 0 -15671862.624889374 -54306598.211444855 0 0 0 0 -602030.25728531345 5203112.9689382222 0 5203112.9689382222 -15219941.763851333 0 0 0 0 16964826.04966116 22715621.900840998 0 22715621.900840998 -17000552.691387177 0 0 0 0 507815.34312879655 1634969.9473877051 0 1634969.9473877051 -1833284.6569970846 0 0 0 0 266020534.11265922 -77826865.808811188 0 -77826865.808811188 -103239793.42750931 0 0 0 0 181768695.35729885 15109819.961102486 0 15109819.961102486 -35894101.51960516 0 0 0 0 2458638.3180771894 1710074.6902304301 0 1710074.6902304301 -9421426.2629984058 0 0 0 0 172209.96407995024 5059403.4996322477 0 5059403.4996322477 2607403.1863444736 0 0 0 0 10717127.341805458 -1334645.8173799515 0 -1334645.8173799515 -1900289.3919448853 0 0 0 0 16120484.510704041 3105756.1719722748 0 3105756.1719722748 -19295554.431686401 0 0 0 0 -17551470.698622704 -8575031.4769897461 0 -8575031.4769897461 -16448938.398464203 0 0 0 0 11210316.924691319 -22870264.867789745 0 -22870264.867789745 -76396269.203186035 0 0 0 0 14474047.529022217 -3602397.5568656921 0 -3602397.5568656921 -1858824.1085793972 0 0 0 0 35824664.231089592 -6496023.7184753418 0 -6496023.7184753418 -15201818.677787781 0 0 0 0 27579041.184436798 7476111.3756866455 0 7476111.3756866455 -20619454.358314514 0 0 0 0 46200110.818019867 4858493.4420166016 0 4858493.4420166016 -22973938.653823853 0 0 0 0 16160654.426622391 -1069194.4029083252 0 -1069194.4029083252 -16292890.755602837 0 0 0 0 18601782.690757751 -8294777.315612793 0 -8294777.315612793 -31416022.512726784 0 0 0 0 31492019.949113846 1633388.8176689148 0 1633388.8176689148 -31722269.637130737 0 0 0 0 26864310.37969017 -2475651.6440238953 0 -2475651.6440238953 -29793367.12272644 0 0 0 0 16787224.096878052 -7882946.6619644165 0 -7882946.6619644165 -26182715.100776672 0 0 0 0 12486004.328402996 -18965383.3462286 0 -18965383.3462286 -45020821.733322144 0 0 0 0 14156560.822303772 -6773482.5777587891 0 -6773482.5777587891 -29657631.401473999 0 0 0 0 17050102.014400482 -11015501.579711914 0 -11015501.579711914 -35611130.51725769 0 0 0 0 -16502841.855068207 -23831436.937080383 0 -23831436.937080383 -29432335.362312317 0 0 0 0 -299048.9415862062 -845278.1710913796 0 -845278.1710913796 -629201.15058124438 0 0 0 0 -37490815.275693893 -31091027.734962463 0 -31091027.734962463 -27414312.659690857 0 0 0 0 94479102.3162117 78631523.044511795 0 78631523.044511795 24218071.338803291 0 0 0 0 -28306958.833075285 -57692234.191692829 0 -57692234.191692829 -43374639.050735474 0 0 0 0 -23033260.765315056 -12833241.58259201 0 -12833241.58259201 -22042776.073532104 0 0 0 0 18932529.103217602 -6415663.9396510124 0 -6415663.9396510124 -43847576.44241333 0 0 0 0 -5687898.0265808105 -29966853.989055634 0 -29966853.989055634 -48777218.672340393 0 0 0 0 -12646295.034154892 -27573212.297187805 0 -27573212.297187805 -30886860.092147827 0 0 0 0 -36364849.585157871 -159911124.58169842 0 -159911124.58169842 66452737.225997925 0 0 0 0 74978635.364185333 25479518.952667236 0 25479518.952667236 -85948088.093090057 0 0 0 0 -12018697.64629364 -10384472.349258423 0 -10384472.349258423 -24031893.214538574 0 0 0 0 122528168.99907875 -4637405.891494751 0 -4637405.891494751 -313532370.22551727 0 0 0 0 31371514.314052582 17424730.5210495 0 17424730.5210495 -58949587.467330933 0 0 0 0 47026792.505940437 20289031.679721832 0 20289031.679721832 -86872174.738525391 0 0 0 0 37778497.222196579 2627643.6234016418 0 2627643.6234016418 -39094463.603149414 0 0 0 0 52908440.767597198 5737949.5104904175 0 5737949.5104904175 -75023959.873031616 0 0 0 0 33800252.059332371 12807893.145011902 0 12807893.145011902 -59407167.474746704 0 0 0 0 47958039.360581398 31245887.233909607 0 31245887.233909607 -51700976.691116333 0 0 0 0 3358189.6203196635 -2839489.1852760948 0 -2839489.1852760948 -5270148.2169464342 0 0 0 0 -229837.41445541382 -18538965.476028442 0 -18538965.476028442 -17991813.782829285 0 0 0 0 18326959.961186528 -9116640.7636709213 0 -9116640.7636709213 -28489233.43572998 0 0 0 0 10722321.932430267 -11486991.152008057 0 -11486991.152008057 -19095022.665679932 0 0 0 0 -2011387.9230918884 -13253075.430000305 0 -13253075.430000305 -23543116.303184509 0 0 0 0 3029523.4833068848 -18560216.934013367 0 -18560216.934013367 -22164384.933624268 0 0 0 0 2932682.9351730347 -17298891.429756165 0 -17298891.429756165 -28262841.368888855 0 0 0 0 10472967.004479885 -13731986.702229977 0 -13731986.702229977 -26658979.859725952 0 0 0 0 2482934.0927085876 -19107919.111763 0 -19107919.111763 -29904317.805557251 0 0 0 0 15516624.211165905 -10042342.625030518 0 -10042342.625030518 -16255559.087265015 0 0 0 0 -815915.72750091553 -19055926.553024292 0 -19055926.553024292 -10602477.652942657 0 0 0 0 9524706.4637870789 -13726356.913360596 0 -13726356.913360596 -18599314.72052002 0 0 0 0 10903827.055095673 -15324260.872314453 0 -15324260.872314453 -20723673.639255524 0 0 0 0 1134732.870557785 -11124831.989494324 0 -11124831.989494324 2221736.3117599487 0 0 0 0 -333589.76047611237 1296415.2878417969 0 1296415.2878417969 -4010561.5589752197 0 0 0 0 1988541.7366466746 -518300.14603399113 0 -518300.14603399113 -10058809.786698423 0 0 0 0 399312.47510510124 2234178.5182929458 0 2234178.5182929458 -8862537.983035339 0 0 0 0 1846489.3021068573 237595.28684997559 0 237595.28684997559 -3155053.5702781677 0 0 0 0 -10901234.75030899 -9580452.1941375732 0 -9580452.1941375732 36043686.994400024 0 0 0 0 -18866272.850412369 498939.0777053833 0 498939.0777053833 24896454.378677368 0 0 0 0 9964552.4214859009 -30935670.452331543 0 -30935670.452331543 45300170.226711273 0 0 0 0 -35873.265296476893 203111.74802680872 0 203111.74802680872 -729017.95538652223 0 0 0 0 -12368288.850629807 -508376.7214050293 0 -508376.7214050293 3881429.8406677246 0 0 0 0 1911954.9266908783 -1471144.3925143722 0 -1471144.3925143722 -10600411.522585068 0 0 0 0 2919029.9740028381 -108231.63762664795 0 -108231.63762664795 -3889430.9231300354 0 0 0 0 3237753.691429615 -1355300.3373022079 0 -1355300.3373022079 -3525414.1640625 0 0 0 0 12279641.160369873 -19834490.288574219 0 -19834490.288574219 -12442477.089996338 0 0 0 0 2398205.8261366244 -1787268.3785355277 0 -1787268.3785355277 -5453168.1066367812 0 0 0 0 808816.20445640094 814194.30174198234 0 814194.30174198234 -2480039.6925595924 0 0 0 0 33876921.915981293 6920405.5572128296 0 6920405.5572128296 -27436592.025054932 0 0 0 0 1546333.0314964596 -1990446.9715307765 0 -1990446.9715307765 -2170767.361750368 0 0 0 0 18508354.554819107 -14762337.779514313 0 -14762337.779514313 6941855.5206298828 0 0 0 0 21398877.931724548 -11448419.034225464 0 -11448419.034225464 -8603364.6493225098 0 0 0 0 26050359.597961426 -5742249.352432251 0 -5742249.352432251 -11496220.428466797 0 0 0 0 41015603.243730545 -32260768.708686829 0 -32260768.708686829 -21048381.026786804 0 0 0 0 39245834.057195187 -8804793.4001140594 0 -8804793.4001140594 -56506762.83605957 0 0 0 0 35819788.862304688 -11720579.751689911 0 -11720579.751689911 -21116353.386810303 0 0 0 0 29927520.218042493 1841610.261043787 0 1841610.261043787 -8555837.6458435059 0 0 0 0 28462563.471092224 1276781.158416748 0 1276781.158416748 1265453.3378295898 0 0 0 0 35949463.123748779 -3747104.6564025879 0 -3747104.6564025879 -38062283.693660736 0 0 0 0 29923125.307766795 2089865.2921624184 0 2089865.2921624184 -20754512.091003418 0 0 0 0 25833234.712928772 -4845221.7013092041 0 -4845221.7013092041 -10450093.979003906 0 0 0 0 25711209.174362183 -1066971.7688903809 0 -1066971.7688903809 -4939072.7889099121 0 0 0 0 25471612.553192139 -417857.7255859375 0 -417857.7255859375 1759345.9172363281 0 0 0 0 21493496.410995483 -4983665.5931854248 0 -4983665.5931854248 7188193.2112426758 0 0 0 0 21291425.522377014 -6935144.9395446777 0 -6935144.9395446777 2330208.6036071777 0 0 0 0 22142225.908447266 -8836226.2287979126 0 -8836226.2287979126 -548888.61724853516 0 0 0 0 6196470.7071170807 751138.58438968658 0 751138.58438968658 -1957620.8056945801 0 0 0 0 19693015.009056091 -9384447.962310791 0 -9384447.962310791 3209035.2886199951 0 0 0 0 20406236.230560303 -7756183.9245910645 0 -7756183.9245910645 4828343.2321929932 0 0 0 0 1426118.049612036 -1254506.3470170237 0 -1254506.3470170237 -7237364.9639022416 0 0 0 0 22166170.741359711 -3294981.8641738892 0 -3294981.8641738892 12924469.767501831 0 0 0 0 183679.75555376895 -58682.046701155603 0 -58682.046701155603 -1306548.0278976373 0 0 0 0 -37468172.836612701 47403767.714454651 0 47403767.714454651 36493890.828941345 0 0 0 0 6311960.7177314758 -56701173.25214386 0 -56701173.25214386 36357935.591796875 0 0 0 0 17795932.715272903 -9352545.5023040771 0 -9352545.5023040771 7091214.648651123 0 0 0 0 624493.33737611771 -84588421.559418678 0 -84588421.559418678 -55995443.984580994 0 0 0 0 -77387.183135095285 -70264.957722800784 0 -70264.957722800784 -164369.43324305117 0 0 0 0 101792322.94026041 69329400.041721344 0 69329400.041721344 23056849.705342293 0 0 0 0 -75112483.764106631 -80327561.424080372 0 -80327561.424080372 58897508.341346741 0 0 0 0 40015433.507167652 -57243801.936247528 0 -57243801.936247528 -110413358.08557892 0 0 0 0 94653580.143920898 -4980836.3534927368 0 -4980836.3534927368 -116984559.80914688 0 0 0 0 79511837.891600609 -18649373.74905014 0 -18649373.74905014 -124610188.25449371 0 0 0 0 38838689.965671062 6070242.4879550934 0 6070242.4879550934 -34292878.554718018 0 0 0 0 60440220.339345932 -11136450.068969727 0 -11136450.068969727 -52588365.29646349 0 0 0 0 62141310.045226574 -28202888.603618622 0 -28202888.603618622 -56035579.66878891 0 0 0 0 107605842.57424492 -9464300.9214651585 0 -9464300.9214651585 -70462108.905418396 0 0 0 0 6936250.7278585434 -11222990.360614777 0 -11222990.360614777 -37534276.733211517 0 0 0 0 3868464.9255468845 -27864140.463096619 0 -27864140.463096619 -32143700.784976959 0 0 0 0 2152924.0162180066 -41833535.377817631 0 -41833535.377817631 -39812732.998348236 0 0 0 0 18944187.376097679 -1904695.2245922089 0 -1904695.2245922089 -99711665.540817261 0 0 0 0 27506268.767227769 -29870622.768227577 0 -29870622.768227577 -50780565.329784393 0 0 0 0 -16819084.954504371 -8589866.1113739014 0 -8589866.1113739014 -77864335.947353363 0 0 0 0 -17771703.079232693 65453082.247478485 0 65453082.247478485 -118443458.31281757 0 0 0 0 -55447096.780569911 57976527.371431828 0 57976527.371431828 -99413993.335533142 0 0 0 0 -20610991.851784229 26567820.169366837 0 26567820.169366837 -21574926.42448616 0 0 0 0 84077420.675670624 9365062.3086013794 0 9365062.3086013794 -66729862.165096283 0 0 0 0 168069538.0558939 116647690.70027924 0 116647690.70027924 -2319515.6607666016 0 0 0 0 -503095.02896052971 -151152.29456311278 0 -151152.29456311278 245167.44316128269 0 0 0 0 -18547390.938173592 -78126019.986028165 0 -78126019.986028165 -108545505.65248108 0 0 0 0 96409269.287771285 -7519416.3245359361 0 -7519416.3245359361 -31154012.813266754 0 0 0 0 61496188.170503616 25308569.388969421 0 25308569.388969421 27293914.283019066 0 0 0 0 74275625.653952599 8285281.5236473083 0 8285281.5236473083 -76230719.878185272 0 0 0 0 -120132604.79819053 68518883.858125687 0 68518883.858125687 -139584945.80823517 0 0 0 0 -168606198.08397937 139094290.24771881 0 139094290.24771881 -118729210.52719116 0 0 0 0 -83408712.933725357 110445050.42687225 0 110445050.42687225 -120716167.07014465 0 0 0 0 -85230758.369478703 63527157.530570984 0 63527157.530570984 -72466870.292240143 0 0 0 0 -78283678.18601501 93264605.170156479 0 93264605.170156479 -126107039.90130234 0 0 0 0 -108576334.71924096 69756794.964855194 0 69756794.964855194 -21405825.493858337 0 0 0 0 -74760042.872401357 105388127.89245796 0 105388127.89245796 -188086897.08168411 0 0 0 0 -96215592.108383656 48490446.937358856 0 48490446.937358856 -202799208.30951691 0 0 0 0 -55563020.600084633 97115638.727615356 0 97115638.727615356 -173415574.69731522 0 0 0 0 8820789.9165424109 -65595423.733617783 0 -65595423.733617783 53355316.749453068 0 0 0 0 571970.45544582931 15087.464179494418 0 15087.464179494418 -718301.49462015927 0 0 0 0 2691689.3243421614 -6547108.0792293549 0 -6547108.0792293549 21468310.44972229 0 0 0 0 3952567.5130509138 -92503883.818300247 0 -92503883.818300247 -32087938.075809479 0 0 0 0 11702207.817206062 -19686456.334942341 0 -19686456.334942341 -152617794.09627533 0 0 0 0 -65302007.512518093 23180216.667841911 0 23180216.667841911 -144691618.08759689 0 0 0 0 -46312846.853934243 45910497.102611542 0 45910497.102611542 -121304972.00885773 0 0 0 0 -84366488.72907269 119326325.74760818 0 119326325.74760818 -172085225.29964733 0 0 0 0 -91897709.476391166 101715966.38217831 0 101715966.38217831 -204913929.75917053 0 0 0 0 -83479563.916995198 61996798.226604462 0 61996798.226604462 -214339703.63738441 0 0 0 0 -93870457.554320812 47489552.12339592 0 47489552.12339592 -234284194.6283493 0 0 0 0 -162562128.14126992 82461982.660329819 0 82461982.660329819 -193518586.84348297 0 0 0 0 -111741876.62471282 129973234.78749847 0 129973234.78749847 -226164550.03396606 0 0 0 0 -153499043.45974922 94964244.363306046 0 94964244.363306046 -264226229.84273812 0 0 0 0 -182895542.31436324 44629678.207676888 0 44629678.207676888 -263150499.6510849 0 0 0 0 -102092630.05018282 327172436.92768669 0 327172436.92768669 -304101336.41700172 0 0 0 0 -63451042.41918838 259463559.70886612 0 259463559.70886612 -427112659.05534172 0 0 0 0 -122886158.04483771 77215946.763532639 0 77215946.763532639 -354045481.09977722 0 0 0 0 -90495495.691215515 236307993.80674076 0 236307993.80674076 -263342752.5302887 0 0 0 0 -135058428.00381339 218352701.59559059 0 218352701.59559059 -222561568.20259762 0 0 0 0 -99806044.33609283 157001753.6069088 0 157001753.6069088 -135593111.35953903 0 0 0 0 -184866235.65521312 237966792.49908257 0 237966792.49908257 -174678526.10021973 0 0 0 0 -251989933.30572486 222471685.43934071 0 222471685.43934071 -161180618.33709717 0 0 0 0 -76409473.433077097 368352467.76225662 0 368352467.76225662 -341964437.87208366 0 0 0 0 -236363975.88336009 368378455.6246444 0 368378455.6246444 -230694532.50525665 0 0 0 0 -92849228.415990591 316706118.23052025 0 316706118.23052025 -243277102.20978355 0 0 0 0 -122246360.49749684 289887392.97998238 0 289887392.97998238 -230954522.99619675 0 0 0 0 147005594.92792749 200055801.19031429 0 200055801.19031429 -263293887.77134323 0 0 0 0 -13341999.255816936 122985690.06886864 0 122985690.06886864 -103251337.74651241 0 0 0 0 35931718.896331787 57613829.061239243 0 57613829.061239243 -91137513.686561584 0 0 0 0 -29057158.564551234 89276550.299898624 0 89276550.299898624 -51731648.818145752 0 0 0 0 31165546.497255325 -549470.41235351562 0 -549470.41235351562 -31786110.602891922 0 0 0 0 -28698041.914020896 73279148.854597092 0 73279148.854597092 -99208866.119655609 0 0 0 0 -99572296.035063267 157448131.58109283 0 157448131.58109283 -134928091.30095577 0 0 0 0 -116943374.84633684 143140083.98474312 0 143140083.98474312 -89300265.780581236 0 0 0 0 -212203985.81799459 243102245.63837624 0 243102245.63837624 -156965491.16165638 0 0 0 0 -121002566.90873432 133201594.12475872 0 133201594.12475872 -108719124.74809265 0 0 0 0 -185209480.65908897 242037464.04221725 0 242037464.04221725 -259544941.98056984 0 0 0 0 -286894357.53138685 220253939.66796112 0 220253939.66796112 -76782564.48711586 0 0 0 0 -156041021.70657372 143991388.45089626 0 143991388.45089626 -35741018.11750412 0 0 0 0 -189395684.20909977 75936834.337108612 0 75936834.337108612 -4725471.989692688 0 0 0 0 -78166258.017451406 31708045.164844036 0 31708045.164844036 -54763848.216209412 0 0 0 0 -66113510.151545525 135099509.89669228 0 135099509.89669228 -129401927.10462761 0 0 0 0 -77529223.221700668 18040589.571611404 0 18040589.571611404 -8008875.7443656921 0 0 0 0 -80410356.048485756 30532684.377485275 0 30532684.377485275 -53153275.828794479 0 0 0 0 -71748279.163907051 76186258.65141201 0 76186258.65141201 9546545.4989356995 0 0 0 0 -95464665.7906847 -899117.72849750519 0 -899117.72849750519 17735765.545074463 0 0 0 0 -23892811.259489715 136533624.63946557 0 136533624.63946557 52819539.18573761 0 0 0 0 -8780483.2976369858 20898657.330854416 0 20898657.330854416 -68451442.735956192 0 0 0 0 -259222159.13083172 -44076215.229621887 0 -44076215.229621887 17216889.850234985 0 0 0 0 -195389938.87212634 79753679.46505928 0 79753679.46505928 40856216.637176514 0 0 0 0 -458878720.33890533 155767558.48378086 0 155767558.48378086 26490268.717632294 0 0 0 0 -386125920.68754601 256246525.95656872 0 256246525.95656872 36599950.315935135 0 0 0 0 -425130189.00716984 444208844.89847505 0 444208844.89847505 46312746.758636475 0 0 0 0 -765855820.32290506 306385118.29146576 0 306385118.29146576 89652060.087670088 0 0 0 0 -395114195.87583929 235492775.82609034 0 235492775.82609034 77614073.081190109 0 0 0 0 -938994344.64507747 556492692.74675846 0 556492692.74675846 -218745783.83170891 0 0 0 0 -330062684.11725122 369889106.26295948 0 369889106.26295948 -479007536.09077263 0 0 0 0 -511783073.89431709 -41090591.771161079 0 -41090591.771161079 -918462685.73805046 0 0 0 0 -519536656.40416265 627330981.8502388 0 627330981.8502388 -755652445.9681282 0 0 0 0 -433921311.31327558 687331846.41023636 0 687331846.41023636 -887322748.02389598 0 0 0 0 56449118.817319036 30906702.556416512 0 30906702.556416512 -925886805.90479422 0 0 0 0 -141062504.529796 24299111.550882816 0 24299111.550882816 -1903358.1375904083 0 0 0 0 -824324090.20719528 -94609395.364827752 0 -94609395.364827752 106150796.57751083 0 0 0 0 -1773095.1338106159 930088.14498654287 0 930088.14498654287 -691237.85174155235 0 0 0 0 266456696.11261988 12182389.485712051 0 12182389.485712051 -28856637.279306412 0 0 0 0 152985048.00312042 -19053861.754455566 0 -19053861.754455566 -61104147.20675087 0 0 0 0 49381161.811430484 86655939.417788506 0 86655939.417788506 59898825.187145233 0 0 0 0 -1014382.4792787996 1211887.7087770361 0 1211887.7087770361 -177590.35414204746 0 0 0 0 250001003.5091095 149927451.40697098 0 149927451.40697098 60143412.99261757 0 0 0 0 -4723517.9033173323 75830914.758471489 0 75830914.758471489 272844543.34210253 0 0 0 0 -773264.07314830017 759545.56304670544 0 759545.56304670544 54215.40456612967 0 0 0 0 -238880766.12512451 530911479.33658791 0 530911479.33658791 128270148.09307861 0 0 0 0 234958319.76841426 106005956.93148041 0 106005956.93148041 -336931109.21457177 0 0 0 0 -228457326.74794069 514859815.19890022 0 514859815.19890022 -189459801.10614491 0 0 0 0 -146007710.42412585 339697375.5179348 0 339697375.5179348 -127791170.77152443 0 0 0 0 -345479043.88743508 374757412.36617875 0 374757412.36617875 -105106532.52894783 0 0 0 0 -157606954.4454872 143876093.57675743 0 143876093.57675743 -529535285.7778244 0 0 0 0 170777804.42574775 45463068.094491005 0 45463068.094491005 -543360131.27705193 0 0 0 0 174617816.66207957 200532310.71535873 0 200532310.71535873 -326991487.05372238 0 0 0 0 457970434.18522668 405331680.81633282 0 405331680.81633282 -146863323.51979256 0 0 0 0 326808594.16630268 1041322.2670040131 0 1041322.2670040131 -78572928.492920876 0 0 0 0 589596418.47143459 123962266.00208092 0 123962266.00208092 64130521.895337105 0 0 0 0 -455957.14222705457 547103.82660990115 0 547103.82660990115 -11282.674243839458 0 0 0 0 306126804.53654516 -78945178.49067688 0 -78945178.49067688 -385921309.57828903 0 0 0 0 198619763.32747364 83857244.257561684 0 83857244.257561684 92616286.704227448 0 0 0 0 271497250.31174278 131059077.96282196 0 131059077.96282196 113713078.54097939 0 0 0 0 -65707287.983148456 -27035445.29238224 0 -27035445.29238224 -24509825.207158089 0 0 0 0 1100370.4587629286 45487.401797312312 0 45487.401797312312 -1694531.5432240837 0 0 0 0 960891445.15852785 -115302624.86504745 0 -115302624.86504745 -391774630.79707718 0 0 0 0 276530854.81526351 134832369.28954697 0 134832369.28954697 -63826137.305503845 0 0 0 0 823659459.05393219 -489389666.85237503 0 -489389666.85237503 408324393.95682049 0 0 0 0 674172525.29872012 177250766.29771554 0 177250766.29771554 -106295472.14523315 0 0 0 0 313359837.20495236 23029616.925908089 0 23029616.925908089 -169831684.1863327 0 0 0 0 338015786.17488897 -585470472.26798248 0 -585470472.26798248 -16108124.244367838 0 0 0 0 178186852.16436696 -358587334.50333214 0 -358587334.50333214 -585067494.37883472 0 0 0 0 164318401.95494148 -80313909.466711044 0 -80313909.466711044 -465371856.00133324 0 0 0 0 228231769.63473225 -129078790.37894773 0 -129078790.37894773 -429530443.97331238 0 0 0 0 95980355.44340679 -198483946.67706966 0 -198483946.67706966 -668226726.55916214 0 0 0 0 -7778240.4431634843 -115876686.07578468 0 -115876686.07578468 -889930578.4974041 0 0 0 0 371487402.09541905 47571932.296963215 0 47571932.296963215 -852230841.06091118 0 0 0 0 449185533.84111494 -66519308.256408215 0 -66519308.256408215 -1575506592.8165474 0 0 0 0 468689864.24769258 -291643242.76062107 0 -291643242.76062107 -1083690363.651907 0 0 0 0 328110900.46410459 -293350485.98698473 0 -293350485.98698473 -1078270570.4473419 0 0 0 0 -104502286.88899285 -241459443.81466675 0 -241459443.81466675 -1574642870.6854548 0 0 0 0 506722122.47127366 -33629596.979514241 0 -33629596.979514241 -1678332464.050087 0 0 0 0 601972514.77865386 -589417565.57170773 0 -589417565.57170773 -1248934388.0218983 0 0 0 0 -204508702.38842666 488664048.22971916 0 488664048.22971916 -916262791.56302643 0 0 0 0 -346729237.63802224 458400093.37647724 0 458400093.37647724 -625042842.81665576 0 0 0 0 -539321806.3001349 570205688.85176849 0 570205688.85176849 -615668354.78459573 0 0 0 0 -294243247.51629311 642435099.02072334 0 642435099.02072334 -724527698.23146057 0 0 0 0 -455977560.36502659 661714296.88120031 0 661714296.88120031 -697484996.8697834 0 0 0 0 -141285437.80635941 519763724.44312096 0 519763724.44312096 -837775363.30340385 0 0 0 0 -899571809.63188946 200733222.05987358 0 200733222.05987358 -878674527.21720123 0 0 0 0 -207400482.60845682 274434496.22609806 0 274434496.22609806 -828538472.11566925 0 0 0 0 26471574.725141406 -30809921.931623459 0 -30809921.931623459 -1052398526.063242 0 0 0 0 63071134.946753263 -483049331.86258221 0 -483049331.86258221 -664057049.11669064 0 0 0 0 -141480621.92305356 655083370.264184 0 655083370.264184 -666773861.11530495 0 0 0 0 777.88666911837061 244012.95907113876 0 244012.95907113876 -1191343.9585061148 0 0 0 0 -401240109.29088998 512359685.9464035 0 512359685.9464035 -162870103.132267 0 0 0 0 -40772151.041827172 -144490752.65900707 0 -144490752.65900707 -211063642.79388046 0 0 0 0 -100316302.41643348 619484470.96418571 0 619484470.96418571 -664635389.70625019 0 0 0 0 297756724.19298762 301640422.7403121 0 301640422.7403121 -1571853452.3410435 0 0 0 0 5902.7814220288128 422293.45510750217 0 422293.45510750217 -1202014.097075168 0 0 0 0 106406271.85570444 -437737825.12085193 0 -437737825.12085193 -527475727.18444633 0 0 0 0 13694328.384030499 117707043.98595333 0 117707043.98595333 -1571005038.0230706 0 0 0 0 -366048402.41104352 543611783.90909243 0 543611783.90909243 -858273027.06538963 0 0 0 0 -45371762.487606853 484524792.95389986 0 484524792.95389986 -1575112469.7250967 0 0 0 0 3015255.8271563798 152306776.45149899 0 152306776.45149899 -817269010.24695969 0 0 0 0 -59343628.918879285 538206367.37973738 0 538206367.37973738 -1040939453.5882149 0 0 0 0 -350138204.70992279 847324947.95370865 0 847324947.95370865 -947920791.5519104 0 0 0 0 -96793219.229490831 764491818.11958504 0 764491818.11958504 -1575633835.2885761 0 0 0 0 -272652073.82341808 573790006.53995228 0 573790006.53995228 -782502963.29055357 0 0 0 0 -272938404.0590356 685817568.15930653 0 685817568.15930653 -910117490.09514284 0 0 0 0 -1060166.0773808167 924894.85985373403 0 924894.85985373403 -2747943.413604517 0 0 0 0 -432997547.73892403 1087534699.938621 0 1087534699.938621 -1571149858.8621874 0 0 0 0 -1441212744.0634537 993516721.3509717 0 993516721.3509717 -450229178.30712223 0 0 0 0 -647133.93411468994 1474812.8042219884 0 1474812.8042219884 -6920255.460630808 0 0 0 0 -13045488.325764894 267826850.11249018 0 267826850.11249018 -179750881.81660557 0 0 0 0 -391232816.63963115 128313412.93722916 0 128313412.93722916 -50260059.787648201 0 0 0 0 -16207290.218344212 -76541314.666622162 0 -76541314.666622162 -46493742.09748745 0 0 0 0 -277310357.51786751 570924790.83749962 0 570924790.83749962 -720667596.97180653 0 0 0 0 -280094771.46971917 560931632.7385211 0 560931632.7385211 -731043054.61903191 0 0 0 0 -306934949.20210767 371849551.28049469 0 371849551.28049469 -245594978.30311775 0 0 0 0 -416678334.28810549 635330376.47526562 0 635330376.47526562 -602966346.3731823 0 0 0 0 -88245857.662214875 154100244.51028156 0 154100244.51028156 -329596703.63840342 0 0 0 0 -149834862.7248196 303012794.87550509 0 303012794.87550509 -436094845.63581848 0 0 0 0 -205973737.44351977 295628204.25476551 0 295628204.25476551 -391300879.89610863 0 0 0 0 -8067169.9491248131 55604244.941749573 0 55604244.941749573 -379990079.52228928 0 0 0 0 -2937545.5975042582 -88273145.84928894 0 -88273145.84928894 -151118054.04406738 0 0 0 0 -618669.34352359548 110211.19306344329 0 110211.19306344329 195835.29762438126 0 0 0 0 -90726494.561942339 66674008.025249481 0 66674008.025249481 28439365.884626389 0 0 0 0 543821.73013019562 52194293.132919312 0 52194293.132919312 -4512137.8671150208 0 0 0 0 -124908370.35628796 1633053.1915788651 0 1633053.1915788651 -31909865.780418396 0 0 0 0 -84383058.378463745 -44102448.156927109 0 -44102448.156927109 -2110466.4808578491 0 0 0 0 -119879061.91726172 1095961.0811915398 0 1095961.0811915398 24475587.763084412 0 0 0 0 -175128230.07270122 141100913.48197842 0 141100913.48197842 -130440565.29890633 0 0 0 0 -51983533.461410999 -61772218.975618362 0 -61772218.975618362 -77370534.765972614 0 0 0 0 227758290.94338679 38242729.30622673 0 38242729.30622673 -106942267.56613922 0 0 0 0 -316399.24332193786 1643613.1355935039 0 1643613.1355935039 -8775154.2288019136 0 0 0 0 22882792.18369627 -50326369.133073807 0 -50326369.133073807 23484501.975656509 0 0 0 0 -2673969.245020926 -5246238.2766237259 0 -5246238.2766237259 -16663825.449022293 0 0 0 0 -46328514.366644621 -28326970.009674072 0 -28326970.009674072 11589366.050981522 0 0 0 0 9754685.0245234966 -61618011.298343658 0 -61618011.298343658 -51239.711922645569 0 0 0 0 148735820.79775524 -36002872.290507317 0 -36002872.290507317 -32020772.806867599 0 0 0 0 51062421.00118959 1214944.5531096458 0 1214944.5531096458 -2751256.0547542572 0 0 0 0 18706557.940726757 -27780285.480283737 0 -27780285.480283737 3866366.2091827393 0 0 0 0 -37151862.539496422 -35237977.208540916 0 -35237977.208540916 10514937.60018158 0 0 0 0 10239667.305548906 -11063273.658233643 0 -11063273.658233643 -28333054.735883713 0 0 0 0 -38883166.30766964 -30058864.437189102 0 -30058864.437189102 3496652.9161586761 0 0 0 0 -2128359.4346090076 514482.37093383912 0 514482.37093383912 -1394068.1416206798 0 0 0 0 -3462016.6415462494 441502.94984054565 0 441502.94984054565 -4075097.769197464 0 0 0 0 -2227335.9488516804 943443.81893515075 0 943443.81893515075 113224.63659498096 0 0 0 0 152105024.80008888 97590849.472772598 0 97590849.472772598 18210227.71566391 0 0 0 0 26538123.422596931 26069661.7643013 0 26069661.7643013 35713883.149272919 0 0 0 0 -841329.83258342743 10176418.449436188 0 10176418.449436188 52094932.736068726 0 0 0 0 -3111261.5606823368 2823888.704671192 0 2823888.704671192 -1978440.8544898517 0 0 0 0 3917648.4416542053 4024810.4505729675 0 4024810.4505729675 2271048.3812866211 0 0 0 0 -2858332.780036211 57215710.624032974 0 57215710.624032974 2629142.5145339966 0 0 0 0 -36631969.409948826 -11461220.186077118 0 -11461220.186077118 839292.97415161133 0 0 0 0 -2259375.8053304134 619359.250115084 0 619359.250115084 999551.29194015078 0 0 0 0 -7412428.6611639261 12726496.682317734 0 12726496.682317734 15415276.64161396 0 0 0 0 -3766851.8632423808 2445213.6194326933 0 2445213.6194326933 -2525828.2157184668 0 0 0 0 -51994915.739647627 11613212.750794411 0 11613212.750794411 46672326.224601746 0 0 0 0 -929145.86827826581 687430.27389638778 0 687430.27389638778 -3122736.6477902923 0 0 0 0 -1154589.1741470534 558433.79584524315 0 558433.79584524315 703161.48026502691 0 0 0 0 -43370465.662376165 -21203101.909659386 0 -21203101.909659386 3053447.3553009033 0 0 0 0 -11481634.035505325 5857742.649813652 0 5857742.649813652 12690586.989845276 0 0 0 0 -44869701.943663597 -22483379.125787735 0 -22483379.125787735 9670035.4641952515 0 0 0 0 66202515.682338774 -67483863.185243726 0 -67483863.185243726 28302099.954570293 0 0 0 0 55754619.85983485 -54348866.715460181 0 -54348866.715460181 51732363.531146049 0 0 0 0 -240084.86580814573 -698677.73511152877 0 -698677.73511152877 -2266034.6049405932 0 0 0 0 -183818138.0178268 78195406.951072931 0 78195406.951072931 -49356525.427689075 0 0 0 0 -99826855.284402728 32084737.676594973 0 32084737.676594973 -29794426.818491459 0 0 0 0 -65371154.731983453 46990612.555465519 0 46990612.555465519 -105399077.43245649 0 0 0 0 -23765230.11333096 14597851.66167593 0 14597851.66167593 -157700506.39461255 0 0 0 0 -80608235.976007581 46515289.888439417 0 46515289.888439417 -102609496.67487574 0 0 0 0 -263209310.21685159 79359270.330682278 0 79359270.330682278 -17721310.104342461 0 0 0 0 -183834739.69619974 80597983.927789599 0 80597983.927789599 -49873355.652335167 0 0 0 0 -131129233.94806981 191682940.00433588 0 191682940.00433588 -305128707.47161388 0 0 0 0 -112405384.83574319 124518230.41812086 0 124518230.41812086 -233246557.81126738 0 0 0 0 65984277.764813125 -64394597.408840001 0 -64394597.408840001 2610980.3598480225 0 0 0 0 -802979633.25464439 465403152.50512123 0 465403152.50512123 33929711.250039577 0 0 0 0 41714574.872917175 -4909119.3962490559 0 -4909119.3962490559 -6785412.660574913 0 0 0 0 64805135.214919329 -29361358.063022852 0 -29361358.063022852 -31112531.957486004 0 0 0 0 66494844.346279621 -51726246.654958963 0 -51726246.654958963 -28232925.227238506 0 0 0 0 62492477.583771229 -61139011.676943779 0 -61139011.676943779 7817236.5820659399 0 0 0 0 49911191.999281406 -31832587.858840704 0 -31832587.858840704 -8162007.1618624926 0 0 0 0 58058472.386667728 -52050443.930265039 0 -52050443.930265039 29734199.746862173 0 0 0 0 98344428.977946043 -88338872.786902189 0 -88338872.786902189 36502442.392520905 0 0 0 0 71919451.846453965 -53936131.5789814 0 -53936131.5789814 12420651.839463234 0 0 0 0 68410661.32696569 -69990825.211250901 0 -69990825.211250901 22881287.645222545 0 0 0 0 95381667.699664056 -67032462.865744233 0 -67032462.865744233 11627967.579049587 0 0 0 0 62140495.067654014 -66359678.180392385 0 -66359678.180392385 20526891.495771646 0 0 0 0 69902539.373134375 -61901402.247363016 0 -61901402.247363016 1284914.4301257133 0 0 0 0 -924358.05905795528 4346512.4731119387 0 4346512.4731119387 -103403.44104259834 0 0 0 0 216200770.62143129 -65357515.309563279 0 -65357515.309563279 -4097143.8742541075 0 0 0 0 57953321.647383213 -19585924.985092163 0 -19585924.985092163 -23897389.489858627 0 0 0 0 156778.47904454 1509764.5973244754 0 1509764.5973244754 -10370573.678903108 0 0 0 0 173356645.14662415 -32087645.507755578 0 -32087645.507755578 -8883862.8891198635 0 0 0 0 105268074.86140919 -20680348.943573713 0 -20680348.943573713 -1671149.3688278198 0 0 0 0 38403797.761072189 -12869251.63002789 0 -12869251.63002789 7536793.9595775604 0 0 0 0 -791143.84177705587 4296220.5775610898 0 4296220.5775610898 151471.40312050679 0 0 0 0 51144783.310231775 12280968.685483932 0 12280968.685483932 -39155305.07913208 0 0 0 0 -171525.81784316449 1621891.0022929402 0 1621891.0022929402 -9689340.4633303843 0 0 0 0 52357434.231642753 -10854613.110160112 0 -10854613.110160112 -770465.87991881371 0 0 0 0 48330128.73235409 -13650288.153116286 0 -13650288.153116286 974120.13095545769 0 0 0 0 64661654.346880376 -60379257.366537094 0 -60379257.366537094 28349567.950738192 0 0 0 0 85379460.775345147 -39791913.832271576 0 -39791913.832271576 11728261.15701586 0 0 0 0 63932979.236666009 -56527500.969649047 0 -56527500.969649047 8143538.4842061996 0 0 0 0 38416985.908172429 -22716562.870902538 0 -22716562.870902538 7991849.9048135281 0 0 0 0 54315348.376704454 -47576928.558371067 0 -47576928.558371067 20378287.599873543 0 0 0 0 57271353.256420538 -43969945.004974723 0 -43969945.004974723 24702041.681767702 0 0 0 0 26662334.408655167 -17378290.761193991 0 -17378290.761193991 21093040.568176717 0 0 0 0 36567804.471251607 -7998994.8112105131 0 -7998994.8112105131 -151456.72945070267 0 0 0 0 51457157.720037401 -39158712.734673381 0 -39158712.734673381 30106991.175067425 0 0 0 0 13257782.705252916 -1648698.1479245424 0 -1648698.1479245424 -6442281.8848435879 0 0 0 0 -204794.84970411364 974834.94855240965 0 974834.94855240965 15105.752597258193 0 0 0 0 54786641.944265604 -22681112.375169396 0 -22681112.375169396 166069942.67529774 0 0 0 0 19228780.206437334 4771894.8440725803 0 4771894.8440725803 439400.40642060339 0 0 0 0 21940395.813612945 8506431.7913551331 0 8506431.7913551331 7790521.649982214 0 0 0 0 70320525.830569476 86707218.249442875 0 86707218.249442875 -9187141.5508055687 0 0 0 0 101652285.10578939 46684970.046366215 0 46684970.046366215 -129418036.8352623 0 0 0 0 30505105.960454494 45255994.495522261 0 45255994.495522261 -43073386.978115708 0 0 0 0 22110285.906564713 15081366.282686472 0 15081366.282686472 -46935779.525020123 0 0 0 0 23392583.397288017 52513348.025040388 0 52513348.025040388 4486808.0430278778 0 0 0 0 1521414.7127683759 -3006982.4073233604 0 -3006982.4073233604 26537799.716337919 0 0 0 0 13245808.712288454 542854.30553907156 0 542854.30553907156 11379846.714033604 0 0 0 0 -601947.75872984529 31483212.467138767 0 31483212.467138767 -12640310.15564394 0 0 0 0 -28180200.068613172 29920528.724680066 0 29920528.724680066 -5501071.5261497498 0 0 0 0 -30902862.73380971 -18664805.136728048 0 -18664805.136728048 16755729.209527314 0 0 0 0 54259831.494905829 -59456529.608878016 0 -59456529.608878016 19094160.934949875 0 0 0 0 19354390.697293341 -39713111.437027574 0 -39713111.437027574 56267826.315465689 0 0 0 0 36518150.693076789 -24930294.769379497 0 -24930294.769379497 12916885.895632267 0 0 0 0 116746385.77499081 -63055201.911595896 0 -63055201.911595896 26562115.900712967 0 0 0 0 62680806.194704294 -25674232.465689898 0 -25674232.465689898 39401353.352219224 0 0 0 0 -87272257.573504448 71021874.757267952 0 71021874.757267952 -30299793.984192371 0 0 0 0 -269420.89671820897 -935423.07412192528 0 -935423.07412192528 -3112825.8018579371 0 0 0 0 -248705863.42082858 134161732.12763357 0 134161732.12763357 84805156.936906815 0 0 0 0 114604473.18945055 -120643236.81445681 0 -120643236.81445681 61103987.328149796 0 0 0 0 -236761920.06202626 87119314.263295174 0 87119314.263295174 -86939653.930339813 0 0 0 0 29306425.967970669 -1975768.9531943798 0 -1975768.9531943798 62442614.060061574 0 0 0 0 36841502.541285276 -69464216.673958302 0 -69464216.673958302 118981659.48489404 0 0 0 0 34090395.171796918 20759167.476053715 0 20759167.476053715 19708509.565284599 0 0 0 0 159620213.14832318 -131493394.30321881 0 -131493394.30321881 -103046576.29437447 0 0 0 0 41748906.749863297 -10562528.276437044 0 -10562528.276437044 -98157399.954638958 0 0 0 0 -34644878.418417394 -26898937.594050407 0 -26898937.594050407 -100638318.40671909 0 0 0 0 70880489.008110657 80026848.690253496 0 80026848.690253496 -626672369.83819509 0 0 0 0 -13840095.140663333 44251384.67387867 0 44251384.67387867 -17433019.746937037 0 0 0 0 -71827006.245636508 3221326.0991718769 0 3221326.0991718769 36773197.390299261 0 0 0 0 3909789.6737689972 81044542.845585346 0 81044542.845585346 41870711.919025183 0 0 0 0 -37760084.76551757 35573265.36981988 0 35573265.36981988 13067700.719531059 0 0 0 0 -68608722.976485476 -63939765.340662479 0 -63939765.340662479 -45972289.526264161 0 0 0 0 -16922672.304473966 12909951.846243978 0 12909951.846243978 -52292876.189757824 0 0 0 0 1596858.5013560057 10155189.550268292 0 10155189.550268292 -286537895.95860553 0 0 0 0 102042974.70006649 -54087170.571619809 0 -54087170.571619809 -225890876.09023237 0 0 0 0 -35665789.873316079 -7247313.3712923527 0 -7247313.3712923527 -236156498.50330591 0 0 0 0 -141843094.79376119 -281277911.5918451 0 -281277911.5918451 -467004642.31135631 0 0 0 0 269582362.77210832 -403857955.05642867 0 -403857955.05642867 -1575228698.1468911 0 0 0 0 -517548105.36387342 -779695854.44914329 0 -779695854.44914329 -679730449.97884607 0 0 0 0 269333190.61253142 -402488338.00072551 0 -402488338.00072551 -1571645197.1799464 0 0 0 0 217355251.46356827 -29669264.904532611 0 -29669264.904532611 -963077491.88105524 0 0 0 0 228019079.8442243 29114754.074931502 0 29114754.074931502 -657576054.7925235 0 0 0 0 230217584.1812 307359030.4620167 0 307359030.4620167 -1574962494.8186884 0 0 0 0 13887786.983712092 271607633.72169554 0 271607633.72169554 -498142623.45490921 0 0 0 0 108020.87772882672 231975.15733815555 0 231975.15733815555 -2079207.7950165537 0 0 0 0 -286520989.30196959 842152185.72434366 0 842152185.72434366 -1572219024.5972536 0 0 0 0 -24836896.148782581 -336283011.18174422 0 -336283011.18174422 -328137479.06691742 0 0 0 0 135539864.07543474 -199585705.68695927 0 -199585705.68695927 -1571591382.913919 0 0 0 0 87879587.811559603 356935593.01863217 0 356935593.01863217 -1571931229.30023 0 0 0 0 108696847.66473016 75642679.954102993 0 75642679.954102993 -541070265.19580841 0 0 0 0 -96446596.987706125 66379269.200619936 0 66379269.200619936 -541379688.45824003 0 0 0 0 -217393314.46392858 130639876.09605789 0 130639876.09605789 -128790337.08760548 0 0 0 0 -97788615.51286754 141818096.7084105 0 141818096.7084105 23237059.554663897 0 0 0 0 -182381364.51103163 4372071.6156423092 0 4372071.6156423092 -123770409.72782421 0 0 0 0 -44319478.585545331 81120334.622765541 0 81120334.622765541 11567560.078756809 0 0 0 0 -194885591.27069259 117482614.45164251 0 117482614.45164251 3177871.1251225471 0 0 0 0 -31285912.536447912 -28316334.218135595 0 -28316334.218135595 18273882.238810062 0 0 0 0 -201955713.67269695 -35480673.793322459 0 -35480673.793322459 41679567.016664505 0 0 0 0 -126373647.72978687 26459039.734362841 0 26459039.734362841 844747.78305387497 0 0 0 0 -2735800.8859086931 1598089.0790064335 0 1598089.0790064335 -230910.76122842729 0 0 0 0 -39258916.87843594 84811609.923829436 0 84811609.923829436 -33486387.36172533 0 0 0 0 -16092170.215681434 47501778.156907558 0 47501778.156907558 -44406379.051687956 0 0 0 0 -45836446.089554951 76711645.753938317 0 76711645.753938317 -38452772.882885456 0 0 0 0 -184080.6303734986 -941824.08476675441 0 -941824.08476675441 -3673873.6128906142 0 0 0 0 -75883106.890667617 94808582.260828972 0 94808582.260828972 -49338044.893629074 0 0 0 0 -76148547.808418483 101524177.48426723 0 101524177.48426723 -111848687.62390995 0 0 0 0 103644316.27932824 76536273.325111032 0 76536273.325111032 -529445606.66323709 0 0 0 0 -47363.021798165035 -577481.22086019092 0 -577481.22086019092 -3530481.1397139141 0 0 0 0 100240844.40418752 60761856.402495265 0 60761856.402495265 -70768923.9231534 0 0 0 0 1337597.2254988253 -19166406.433238029 0 -19166406.433238029 -33712730.201134682 0 0 0 0 -76711600.529840648 76411729.197887421 0 76411729.197887421 -44268132.605554581 0 0 0 0 -1422127.7930937365 -1057848.7499681134 0 -1057848.7499681134 -1768379.6579379449 0 0 0 0 -161073.67795107138 178596.82579973422 0 178596.82579973422 -668333.24317063019 0 0 0 0 -18378617.775534213 332264327.59885144 0 332264327.59885144 -771783245.8091774 0 0 0 0 142472386.43705869 -226316692.58876753 0 -226316692.58876753 -1558179599.0597496 0 0 0 0 -285160615.96995068 -53628270.313006878 0 -53628270.313006878 159730080.27837276 0 0 0 0 -24176957.231525123 -21888350.089493752 0 -21888350.089493752 162044891.66597044 0 0 0 0 284435964.55921102 28064398.421109676 0 28064398.421109676 -1568471599.4596119 0 0 0 0 -444406.99617121951 144728.04414213437 0 144728.04414213437 -1194009.5167337274 0 0 0 0 -70268566.712154016 -305160529.94783783 0 -305160529.94783783 -895851753.9598341 0 0 0 0 -230101474.00093585 429822269.55960977 0 429822269.55960977 -392534173.78323603 0 0 0 0 -126329581.18333931 -89649008.869610071 0 -89649008.869610071 112827425.45487666 0 0 0 0 180650454.84666181 -7691540.1285159588 0 -7691540.1285159588 -67125848.199230194 0 0 0 0 -27508574.191279136 -17368432.902324378 0 -17368432.902324378 31824509.202516556 0 0 0 0 7642955.3065736294 -57305933.176073313 0 -57305933.176073313 11374474.621551275 0 0 0 0 2984232.5539397462 -3371088.4460773468 0 -3371088.4460773468 -28001935.257449031 0 0 0 0 -23551.277849223305 -1317169.0826115645 0 -1317169.0826115645 -3520248.2292070086 0 0 0 0 -447662.52456322353 141589.81620111316 0 141589.81620111316 -2570671.8567669783 0 0 0 0 -5344968.8388921246 4648338.8114607334 0 4648338.8114607334 103347871.57724762 0 0 0 0 17286532.009648852 11385676.884011269 0 11385676.884011269 -24164876.193122864 0 0 0 0 -28608414.233806372 -16844343.638134927 0 -16844343.638134927 -8004734.7703723907 0 0 0 0 -309309.14103873295 -109243.52823598438 0 -109243.52823598438 -1119774.2625956722 0 0 0 0 15380794.48132013 -28715853.652763367 0 -28715853.652763367 88686100.735924721 0 0 0 0 -658070.32024497271 -1125330.6901638331 0 -1125330.6901638331 -719664.60326209944 0 0 0 0 -4405113.6839615405 -5353863.6941065788 0 -5353863.6941065788 601377.61041021347 0 0 0 0 -1450156.457233876 -3877696.3935928345 0 -3877696.3935928345 -2542238.7289600372 0 0 0 0 3414961.6164403716 -2373352.0393170938 0 -2373352.0393170938 -11076757.190954208 0 0 0 0 3401861.1302303076 -960384.39183616638 0 -960384.39183616638 -9812582.9204349518 0 0 0 0 1974484.8383208811 -2042688.7655043602 0 -2042688.7655043602 -7597254.9468803406 0 0 0 0 2125999.1918726563 -1600088.3038737774 0 -1600088.3038737774 -9403990.6213035583 0 0 0 0 -277255.34710745572 -1928894.1206373498 0 -1928894.1206373498 -6099017.7485648552 0 0 0 0 228588.64671376688 -125563.23739422951 0 -125563.23739422951 -5135570.0500660753 0 0 0 0 1308428.3955870569 -337446.01929748058 0 -337446.01929748058 -755169.38611984253 0 0 0 0 1221052.1446135044 -1439235.5299921036 0 -1439235.5299921036 -9384235.8760995865 0 0 0 0 190599.37850964384 -122194.07969840709 0 -122194.07969840709 -5001567.3634756766 0 0 0 0 -129566.5544436264 -350999.31157114339 0 -350999.31157114339 -4389736.5842243144 0 0 0 0 38896064.288689613 -10533794.266844273 0 -10533794.266844273 -7572460.1967763901 0 0 0 0 31925129.865580678 -6442791.8038692474 0 -6442791.8038692474 -7107809.2073588371 0 0 0 0 -10345566.786625683 -13228487.438530445 0 -13228487.438530445 6654600.039188385 0 0 0 0 -1645290.543166399 -14416974.954614639 0 -14416974.954614639 6790165.327357769 0 0 0 0 2696517.5290240049 -30916472.589281559 0 -30916472.589281559 8996163.4826488495 0 0 0 0 10453432.267742395 -35959362.912939072 0 -35959362.912939072 10919308.603690147 0 0 0 0 46725833.611644626 -61504561.573166847 0 -61504561.573166847 14098263.646059036 0 0 0 0 87877228.098895073 -67355390.103069782 0 -67355390.103069782 22013373.264920712 0 0 0 0 71465900.934086829 46033319.382090807 0 46033319.382090807 -64794169.029995918 0 0 0 0 -5370193.3701608768 -4861728.5040893555 0 -4861728.5040893555 -1269566.2615413666 0 0 0 0 117288.85727781034 -43047.814076324925 0 -43047.814076324925 -270168.45719944942 0 0 0 0 110287766.44107199 47200013.495311737 0 47200013.495311737 -40853708.284675598 0 0 0 0 -52952286.106480643 -26260190.42730689 0 -26260190.42730689 37373219.061031342 0 0 0 0 -21602366.863743305 -48808603.651044846 0 -48808603.651044846 37112843.041208267 0 0 0 0 -36730088.729751587 16434205.80944252 0 16434205.80944252 1766274.0692930222 0 0 0 0 -15917841.20325315 13721422.869882107 0 13721422.869882107 -13005610.72692585 0 0 0 0 -23715125.54973349 -24070099.114883184 0 -24070099.114883184 -22689623.452236652 0 0 0 0 -229920.03079166589 44125.991703663021 0 44125.991703663021 -67.207679806393571 0 0 0 0 -57491936.202577055 451753.25999331474 0 451753.25999331474 23215610.611185074 0 0 0 0 -14758426.07298708 1266850.5039463043 0 1266850.5039463043 7340523.9505643845 0 0 0 0 -19848564.021600127 -2709778.9352924824 0 -2709778.9352924824 7310100.5573329926 0 0 0 0 -16196153.475771546 -15183458.319186211 0 -15183458.319186211 17421927.915061951 0 0 0 0 -10819270.007394791 -5691128.9390335083 0 -5691128.9390335083 8268172.5463838577 0 0 0 0 -12742363.494846761 -481326.40298771858 0 -481326.40298771858 4931354.6810503006 0 0 0 0 -11515492.500205129 -1856806.9424686432 0 -1856806.9424686432 1404885.7747516632 0 0 0 0 -6843834.2720190883 -4080440.01834023 0 -4080440.01834023 1936983.2401008606 0 0 0 0 -7645921.2412977125 -10121016.854610167 0 -10121016.854610167 5244755.9984931946 0 0 0 0 -6385377.6709740162 -5886311.2513828278 0 -5886311.2513828278 1122995.5102901459 0 0 0 0 -7678903.7209193707 -6179293.545153141 0 -6179293.545153141 2627126.6124534607 0 0 0 0 -3988246.9811988473 -2914470.7443413734 0 -2914470.7443413734 -4718433.9198989868 0 0 0 0 -718228.86799180508 -3211998.5651102066 0 -3211998.5651102066 -7743508.7671413422 0 0 0 0 14402966.250430107 20546241.905623615 0 20546241.905623615 -3394627.8675632477 0 0 0 0 12121356.328183651 14057646.763680249 0 14057646.763680249 -3694021.7097330093 0 0 0 0 11215546.88175106 8431787.3202567101 0 8431787.3202567101 202967.54902744293 0 0 0 0 12276747.936436847 16781875.430824623 0 16781875.430824623 6686507.6307578087 0 0 0 0 144972.26605221722 -130545.34805595927 0 -130545.34805595927 -827814.55499361444 0 0 0 0 13301357.618017912 22041543.070297122 0 22041543.070297122 5543509.300632 0 0 0 0 35446696.721356392 -74588228.860104084 0 -74588228.860104084 27521407.044065714 0 0 0 0 793727.67875224352 -4661556.0052924156 0 -4661556.0052924156 -6540401.0798225403 0 0 0 0 1899399.0783956051 -4845670.8170375824 0 -4845670.8170375824 -8431490.5813570023 0 0 0 0 -865987.94212158234 51569.777857132663 0 51569.777857132663 -3352635.7450355962 0 0 0 0 59322.328199446201 -5516618.4910898209 0 -5516618.4910898209 -7707295.7284765244 0 0 0 0 -19538668.002313614 -14047073.279665947 0 -14047073.279665947 -36932000.769029617 0 0 0 0 841243.84704571427 -258492.58860242012 0 -258492.58860242012 -3031784.991153521 0 0 0 0 -2732407.5081026554 -4118417.5892887115 0 -4118417.5892887115 -6324416.7552280426 0 0 0 0 -768603.43720006943 -1109022.5215010643 0 -1109022.5215010643 -5328580.9297332764 0 0 0 0 1246884.0228413343 -4420496.9346876144 0 -4420496.9346876144 -7066353.0290288925 0 0 0 0 4604457.2168931961 -3094266.8657083511 0 -3094266.8657083511 -6443918.9303966761 0 0 0 0 2735406.6503745317 -5988788.2616739273 0 -5988788.2616739273 -5785205.6366691589 0 0 0 0 1982056.308333993 -8589672.1499295235 0 -8589672.1499295235 -2294956.2745704651 0 0 0 0 -1593163.2117444873 -5464902.9743480682 0 -5464902.9743480682 -2844567.5414562225 0 0 0 0 7993224.0715645552 -13233963.544353962 0 -13233963.544353962 -458394.10266113281 0 0 0 0 4324314.1065499187 -3201742.2728948593 0 -3201742.2728948593 -5794903.2576208115 0 0 0 0 9040674.439339757 -3517981.9682197571 0 -3517981.9682197571 -7065108.565694809 0 0 0 0 9458917.269325614 1585770.6637630463 0 1585770.6637630463 -2667915.39295578 0 0 0 0 837616.89826410287 -764847.0026983358 0 -764847.0026983358 -5561470.0083255284 0 0 0 0 6763168.4225287735 -1350061.1565384865 0 -1350061.1565384865 -6558700.9430770874 0 0 0 0 -714586.48112407757 1462197.2126573471 0 1462197.2126573471 -4217102.0632222462 0 0 0 0 3146194.5230555832 -653625.30944538116 0 -653625.30944538116 -9130942.8482971191 0 0 0 0 -1037779.6728453627 134715.87842181753 0 134715.87842181753 -3922089.9927125908 0 0 0 0 5480606.1026937962 1989991.9095220566 0 1989991.9095220566 -1495100.883313179 0 0 0 0 -1840991.5116174519 -2180864.2185883522 0 -2180864.2185883522 -6040907.3249511719 0 0 0 0 -5256661.5845936239 1477846.9654159546 0 1477846.9654159546 -3085204.4743347168 0 0 0 0 5032185.0914251506 301685.13846349716 0 301685.13846349716 -10376310.915985107 0 0 0 0 2827253.6841188669 1636406.0139160156 0 1636406.0139160156 -7174277.9082450867 0 0 0 0 3981495.5191204548 1045988.9402885437 0 1045988.9402885437 -6883067.2726802826 0 0 0 0 4161223.10108459 -594910.44730377197 0 -594910.44730377197 -9834451.4857883453 0 0 0 0 3828482.8189959228 -1247451.8486123085 0 -1247451.8486123085 -10130838.251529694 0 0 0 0 -7225878.6220142841 29438327.374049187 0 29438327.374049187 119449245.03691769 0 0 0 0 21974181.739397049 19241710.142634869 0 19241710.142634869 68321236.52611208 0 0 0 0 14228582.395267963 29071781.450536013 0 29071781.450536013 22158680.011789322 0 0 0 0 6365925.0754418373 52607922.280241489 0 52607922.280241489 40243226.097655773 0 0 0 0 9845315.9672314525 25029106.876313776 0 25029106.876313776 60859001.515623093 0 0 0 0 2295828.7966842651 59323725.849423647 0 59323725.849423647 13627253.41523838 0 0 0 0 -108801584.16144824 -9565863.4880504608 0 -9565863.4880504608 230767451.91042614 0 0 0 0 -65754233.877223253 20415830.934714794 0 20415830.934714794 79804997.705560952 0 0 0 0 34433967.349885225 -3115429.0508089066 0 -3115429.0508089066 78020480.637454867 0 0 0 0 15109087.977014303 51289711.771007061 0 51289711.771007061 81660313.273824692 0 0 0 0 -57324384.360187352 76607923.924424112 0 76607923.924424112 -108740489.77934074 0 0 0 0 -180098.89800902933 -49885.227588323411 0 -49885.227588323411 -84711.342908137362 0 0 0 0 -123416286.87958771 321079573.09622139 0 321079573.09622139 -342657316.51200676 0 0 0 0 -62504208.358675539 52681598.262480259 0 52681598.262480259 -161289681.46067047 0 0 0 0 -483211.57990326255 -118206.98063275893 0 -118206.98063275893 -242748.3089738402 0 0 0 0 -23579122.461450458 54271710.194025993 0 54271710.194025993 -132869517.38304234 0 0 0 0 -27887119.05861038 60997685.65862751 0 60997685.65862751 -101997755.53820372 0 0 0 0 32110714.213795096 37307821.360536098 0 37307821.360536098 -118328006.43936634 0 0 0 0 -74631.079515482677 -31243.381513805827 0 -31243.381513805827 40824.72056550323 0 0 0 0 -29859021.905303136 59761314.577471375 0 59761314.577471375 -54248335.009375572 0 0 0 0 -22628334.064798743 17573767.873712897 0 17573767.873712897 -13891107.619822979 0 0 0 0 -627592.69225830818 112956.14571501641 0 112956.14571501641 -1486.5996675385395 0 0 0 0 -42771725.68932195 39963643.702695847 0 39963643.702695847 -26562700.099877834 0 0 0 0 1376065.2688753605 2556405.9490480423 0 2556405.9490480423 -5972431.7414712906 0 0 0 0 -11809785.576467276 1217319.3765153885 0 1217319.3765153885 386752.44246482849 0 0 0 0 -21606.527361989021 -587306.94107985497 0 -587306.94107985497 343327.42830610275 0 0 0 0 -591770.49435287539 45243.401699688053 0 45243.401699688053 -679355.86267362162 0 0 0 0 12630135.297086775 40056432.647700965 0 40056432.647700965 42299360.109120369 0 0 0 0 7521994.7544009686 39118776.260873795 0 39118776.260873795 43018737.051544309 0 0 0 0 28462602.611636877 9050644.95251441 0 9050644.95251441 9218629.6693823338 0 0 0 0 22929007.877714157 27350061.730006456 0 27350061.730006456 -11094431.186431646 0 0 0 0 -9017005.1305987835 -2043001.7018852234 0 -2043001.7018852234 1116132.0299377441 0 0 0 0 -9027101.2420015335 54823645.483122826 0 54823645.483122826 -19456817.134139538 0 0 0 0 31942941.145763397 28228730.273804426 0 28228730.273804426 -4788008.1182518005 0 0 0 0 -810018.38423088123 208605.20970604866 0 208605.20970604866 -1587697.972293546 0 0 0 0 26476193.581142664 20820230.74583149 0 20820230.74583149 -11444603.215378523 0 0 0 0 15252236.910675049 19972565.965816975 0 19972565.965816975 -5221217.0180835724 0 0 0 0 18333809.70252943 11245442.048212528 0 11245442.048212528 -20888991.798130512 0 0 0 0 17797392.878574848 15369242.221323013 0 15369242.221323013 -7266466.4388537407 0 0 0 0 23521842.502028704 5985618.4707357883 0 5985618.4707357883 -27496683.691424608 0 0 0 0 19770570.495433092 7124004.4875507355 0 7124004.4875507355 -27052913.122565985 0 0 0 0 16159262.596964359 -7898170.2464568615 0 -7898170.2464568615 -58576465.592768669 0 0 0 0 12416773.233821869 20693005.496912956 0 20693005.496912956 -36650528.009117603 0 0 0 0 21244612.437500387 11420326.943696707 0 11420326.943696707 -27466805.300271988 0 0 0 0 8737549.465174675 47706925.291511774 0 47706925.291511774 463126.65446567535 0 0 0 0 8878299.0026137847 21630954.702918507 0 21630954.702918507 -14078672.917156219 0 0 0 0 -29154795.332239866 45353976.054415703 0 45353976.054415703 -28853973.92761755 0 0 0 0 -28273729.950083494 44282898.422124863 0 44282898.422124863 -73836280.283325195 0 0 0 0 -15499431.350921154 27297582.376752853 0 27297582.376752853 -86459562.368632793 0 0 0 0 -11014533.615358353 -20726666.956166029 0 -20726666.956166029 -70331027.539177775 0 0 0 0 4286304.3656544685 2472935.9317022562 0 2472935.9317022562 -56545706.423541546 0 0 0 0 -53005815.8247298 16765150.788888335 0 16765150.788888335 -62580824.961238384 0 0 0 0 -38760925.286315084 -34541238.491505027 0 -34541238.491505027 -15240637.719962835 0 0 0 0 -5878516.2135304213 -26409844.217287302 0 -26409844.217287302 -80486324.48370266 0 0 0 0 2968249.3042974472 -14750686.639577389 0 -14750686.639577389 -36951454.928385496 0 0 0 0 -3980726.5939166546 -16056387.005691528 0 -16056387.005691528 -35536439.893856525 0 0 0 0 -14182572.189859152 -24666342.790617704 0 -24666342.790617704 -30352998.628667355 0 0 0 0 -24044585.083486736 -18017597.331808388 0 -18017597.331808388 -17492663.826731682 0 0 0 0 -25484087.332131386 -20093629.041248679 0 -20093629.041248679 -14728406.434812997 0 0 0 0 -16666284.212462544 -17302079.915540338 0 -17302079.915540338 -17482492.214254647 0 0 0 0 -16741997.220740199 -16726222.78693898 0 -16726222.78693898 -16852090.365258217 0 0 0 0 -2544720.4725484848 -13182012.011334658 0 -13182012.011334658 -21563993.877636313 0 0 0 0 68093192.307228565 44249767.563915849 0 44249767.563915849 6337774.231426239 0 0 0 0 61641052.111682892 75681875.496231794 0 75681875.496231794 36877041.176776409 0 0 0 0 -1608387.3957913262 1158438.9733550025 0 1158438.9733550025 -1972845.4615208991 0 0 0 0 -99406.139248132706 -8452377.8567501307 0 -8452377.8567501307 -14661825.660081279 0 0 0 0 146866.34108018875 -9119809.105686307 0 -9119809.105686307 -15892326.437228918 0 0 0 0 -7997538.0397882462 -9593062.160877049 0 -9593062.160877049 -15126624.519381285 0 0 0 0 -6999146.08244133 -11741487.027831554 0 -11741487.027831554 -15708276.861946583 0 0 0 0 5136219.1137361526 -7247593.8999614716 0 -7247593.8999614716 -20451330.572365999 0 0 0 0 2482872.8099908829 -11041841.392668486 0 -11041841.392668486 -21831217.348130226 0 0 0 0 1450104.8035148978 -7636334.8713619411 0 -7636334.8713619411 -17347255.67751646 0 0 0 0 9512197.6670520306 -4072196.7121524811 0 -4072196.7121524811 -18862880.009335041 0 0 0 0 4919600.8111698031 -6587711.1887774765 0 -6587711.1887774765 -19722691.862291813 0 0 0 0 12803922.24933672 858321.34592103958 0 858321.34592103958 -19784246.383272648 0 0 0 0 10162948.166269302 -5814169.6475467682 0 -5814169.6475467682 -28139811.225959778 0 0 0 0 13794054.995310545 -835951.51018714905 0 -835951.51018714905 -22531464.769235134 0 0 0 0 9080749.2799811363 -5491002.7839200497 0 -5491002.7839200497 -26341227.933182359 0 0 0 0 -1946907.2404415607 -13945097.040713668 0 -13945097.040713668 -25200507.807475805 0 0 0 0 15043728.700611115 -5100933.8781833649 0 -5100933.8781833649 -36082118.861763477 0 0 0 0 1897467.7260578573 -9577462.693141818 0 -9577462.693141818 -27354233.981468678 0 0 0 0 19621596.37126112 3631258.1196953058 0 3631258.1196953058 -25459252.2453022 0 0 0 0 15884025.456776142 3363893.7636859417 0 3363893.7636859417 -23395617.62118268 0 0 0 0 15568739.757759333 5724327.2935887575 0 5724327.2935887575 -18053197.796597481 0 0 0 0 16294420.047277927 8931664.8521981239 0 8931664.8521981239 -15336412.471458912 0 0 0 0 15146975.32066685 6595599.2787689567 0 6595599.2787689567 -13495416.699352741 0 0 0 0 15159215.676630974 4507161.6865193844 0 4507161.6865193844 -17489043.724811554 0 0 0 0 13910677.081558228 6464549.3072984219 0 6464549.3072984219 -10336288.151010156 0 0 0 0 14637261.016222 8117107.767690897 0 8117107.767690897 -11142351.878757 0 0 0 0 15321879.437638879 11409032.861632109 0 11409032.861632109 -5370580.8348731995 0 0 0 0 11366978.857783318 7181379.0491337776 0 7181379.0491337776 -5084104.7702450752 0 0 0 0 14043584.3412292 3393098.4860978127 0 3393098.4860978127 -9962831.9438942671 0 0 0 0 11561266.666644096 6638994.96011585 0 6638994.96011585 -6185038.6579809189 0 0 0 0 4569654.2182102203 2972856.8578710556 0 2972856.8578710556 -7401347.6947822571 0 0 0 0 13925101.025814652 4269000.4398933649 0 4269000.4398933649 -12813132.688452721 0 0 0 0 13215823.944972396 2884422.1966308355 0 2884422.1966308355 -14339675.649840355 0 0 0 0 14075010.416577816 2214946.0837926865 0 2214946.0837926865 -17050294.040145397 0 0 0 0 12100141.174501061 945767.2672637701 0 945767.2672637701 -16999570.492101669 0 0 0 0 6696462.2106040716 4702362.3657951355 0 4702362.3657951355 -5083642.8839015961 0 0 0 0 3863537.9123089314 2882405.8402872086 0 2882405.8402872086 -5776847.5710258484 0 0 0 0 2921373.9385133982 -720373.74296188354 0 -720373.74296188354 -17257881.028404236 0 0 0 0 6536781.3733799458 2260195.4888968468 0 2260195.4888968468 -3780326.2718448639 0 0 0 0 541504.00195365702 804566.65665093856 0 804566.65665093856 -4690401.4013710069 0 0 0 0 1844727.4462993201 -2677534.31340631 0 -2677534.31340631 -5813245.0313685117 0 0 0 0 1276822.4264521692 -572812.3743044351 0 -572812.3743044351 -9871840.8445765898 0 0 0 0 45652042.911592484 34866833.280977249 0 34866833.280977249 -4881148.9204101562 0 0 0 0 -2086502.8544436693 -28136424.454505444 0 -28136424.454505444 -1181893.9814071655 0 0 0 0 246277.239477786 -855739.96920546121 0 -855739.96920546121 -10395125.768206466 0 0 0 0 -12585090.063317418 3178868.0536031723 0 3178868.0536031723 43761904.818279266 0 0 0 0 -15730276.522546291 -34218141.994922638 0 -34218141.994922638 -53424588.493782043 0 0 0 0 3010237.8442963362 1154593.9087104797 0 1154593.9087104797 -2257680.5796146393 0 0 0 0 111975.26862716561 -242973.10999110527 0 -242973.10999110527 -1785403.0460832175 0 0 0 0 4356279.0871431828 -39814785.328568459 0 -39814785.328568459 -47445798.919975281 0 0 0 0 302955.89904977591 -306172.72857327759 0 -306172.72857327759 -1159014.3294285778 0 0 0 0 2078522.3332762718 4915128.2131195068 0 4915128.2131195068 -10964108.626346588 0 0 0 0 -18012980.665658295 -33219721.735005856 0 -33219721.735005856 746774.00120925903 0 0 0 0 -1291088.2716300897 -1621303.0453572273 0 -1621303.0453572273 -9158737.6508216858 0 0 0 0 26792812.726531982 18134225.24461174 0 18134225.24461174 1673279.9929599762 0 0 0 0 -127158.59265453601 729823.28797249496 0 729823.28797249496 -7483272.5516548157 0 0 0 0 198560.13444892236 145362.60955038946 0 145362.60955038946 -832683.10916350363 0 0 0 0 15250250.42346096 3520937.2713088989 0 3520937.2713088989 -12019572.968530655 0 0 0 0 -121095.34266479127 1082202.8564677536 0 1082202.8564677536 -9000002.5259933472 0 0 0 0 20002050.86930418 -7402861.8147659302 0 -7402861.8147659302 -27802427.875171661 0 0 0 0 22243265.841609478 -3291560.9928913116 0 -3291560.9928913116 -22543570.859771729 0 0 0 0 73542118.746375084 -5086527.5714454651 0 -5086527.5714454651 -29988801.939491272 0 0 0 0 66342638.057590902 -61171955.967184782 0 -61171955.967184782 -30484595.953903198 0 0 0 0 13503139.91757679 -46212712.911884308 0 -46212712.911884308 -15307237.860679626 0 0 0 0 784904.73726220138 -597674.21771039499 0 -597674.21771039499 -11566496.376926664 0 0 0 0 -9379100.7118577957 -15052189.146389008 0 -15052189.146389008 -12650218.475059509 0 0 0 0 8691721.1897901297 3255186.6830816269 0 3255186.6830816269 -24460278.399944305 0 0 0 0 18434275.843761086 -5705484.5401096344 0 -5705484.5401096344 -28526839.321472168 0 0 0 0 -434778.91625630856 -9403674.2681159973 0 -9403674.2681159973 -22664944.720363617 0 0 0 0 17156755.945746303 -8680697.6908750534 0 -8680697.6908750534 -34903659.63596344 0 0 0 0 26565542.094157934 -1834450.202753067 0 -1834450.202753067 -33531757.232703209 0 0 0 0 10070137.860225439 -4243508.5403020382 0 -4243508.5403020382 -18020229.746144295 0 0 0 0 9328168.5200078487 -2658310.2786412239 0 -2658310.2786412239 -14514981.681701541 0 0 0 0 10596099.791710377 -2035407.9135168791 0 -2035407.9135168791 -11030825.438338608 0 0 0 0 17768069.600887299 -1291244.0473479033 0 -1291244.0473479033 -16349132.570043087 0 0 0 0 7442967.5608429909 -3221786.2741652727 0 -3221786.2741652727 -14784196.942979574 0 0 0 0 4401773.1363657117 -3743680.7426609695 0 -3743680.7426609695 -12270403.246994019 0 0 0 0 2742298.1671950221 -8687978.2229632437 0 -8687978.2229632437 -17076465.987341642 0 0 0 0 9312084.6933977604 -5052524.4335480332 0 -5052524.4335480332 -18500160.76574856 0 0 0 0 2699812.6202188348 -1098464.7230451219 0 -1098464.7230451219 -7781883.3773973044 0 0 0 0 -8664434.9579401016 7856741.2462348938 0 7856741.2462348938 -9885299.5806064606 0 0 0 0 3816780.8291320801 5905726.5849294662 0 5905726.5849294662 -5428510.7437992096 0 0 0 0 -8763653.6679897308 -8348800.0209693909 0 -8348800.0209693909 1834827.6364822388 0 0 0 0 183904.83789864191 719669.84458749928 0 719669.84458749928 -1965896.8040677062 0 0 0 0 9411699.8483958244 -6820722.7281837463 0 -6820722.7281837463 2300023.7696475983 0 0 0 0 1902138.6514110649 -1535816.3264651997 0 -1535816.3264651997 -12785639.783172734 0 0 0 0 22643908.413635373 10630424.44161129 0 10630424.44161129 -20745743.112133026 0 0 0 0 4431248.7366511002 1019148.5827986598 0 1019148.5827986598 -9885662.9535064697 0 0 0 0 10959042.548595071 -3386405.973985672 0 -3386405.973985672 -18988898.889362335 0 0 0 0 11356302.70191953 5573947.5354676247 0 5573947.5354676247 -12516967.941364288 0 0 0 0 3451925.7941640615 934261.34338760376 0 934261.34338760376 -12957708.579757214 0 0 0 0 3477135.8948581219 -995379.04366898537 0 -995379.04366898537 -13208028.43296051 0 0 0 0 5213009.7311202884 2742093.2270736694 0 2742093.2270736694 -14452103.911533356 0 0 0 0 5944910.0521607399 -774358.67021369934 0 -774358.67021369934 -12711101.858941078 0 0 0 0 3962992.470489251 -494703.17895177472 0 -494703.17895177472 -11235648.921738435 0 0 0 0 4180274.4086856842 953915.89692306519 0 953915.89692306519 -9832713.9557504654 0 0 0 0 3274191.1937147975 -751515.04751944542 0 -751515.04751944542 -10156466.502264023 0 0 0 0 6692506.0597820282 238081.37438321114 0 238081.37438321114 -7801779.3780841827 0 0 0 0 -224496.30303622782 12452632.204540133 0 12452632.204540133 -11525701.368973732 0 0 0 0 3890605.7461184263 6756608.2133386135 0 6756608.2133386135 -6650179.5542106628 0 0 0 0 2599485.2166388035 111575.43130588531 0 111575.43130588531 -3465252.2345838547 0 0 0 0 -274629.8859899044 -3441862.7457876205 0 -3441862.7457876205 -5161994.9006438255 0 0 0 0 -47391.478047611759 398354.06364567031 0 398354.06364567031 -26535.536798647605 0 0 0 0 1904896.3115979135 12276783.792308807 0 12276783.792308807 -32318075.308057785 0 0 0 0 65682.967129838682 334034.91702893726 0 334034.91702893726 -388891.81311118323 0 0 0 0 -15141243.583669007 19429143.359354019 0 19429143.359354019 -12190651.485839844 0 0 0 0 1971819.2577790343 -675637.13410639553 0 -675637.13410639553 -9161935.4934985265 0 0 0 0 11411479.555880308 -1920924.3985061646 0 -1920924.3985061646 -11977112.434039116 0 0 0 0 7880624.0714859962 -5844239.5635890961 0 -5844239.5635890961 -16322855.876758575 0 0 0 0 4026478.7094528675 -2373879.4242649078 0 -2373879.4242649078 -7549014.4146624804 0 0 0 0 459096.97502398491 -5828296.626650095 0 -5828296.626650095 -7374196.5210800171 0 0 0 0 5242909.5803921223 -1714119.7679233551 0 -1714119.7679233551 -4618257.800283432 0 0 0 0 5919910.6832818985 57130.317495346069 0 57130.317495346069 -5949657.5085601807 0 0 0 0 5069727.7210101634 419917.36884832382 0 419917.36884832382 -2355067.4906835556 0 0 0 0 5085589.5597224236 -887188.4758348465 0 -887188.4758348465 -6852764.7397003174 0 0 0 0 3094120.6032929244 -2278302.3565632105 0 -2278302.3565632105 -6408491.6115613729 0 0 0 0 3546907.2658643983 692174.4289264679 0 692174.4289264679 -5226959.3941059113 0 0 0 0 7028437.7187891006 -484603.81480765343 0 -484603.81480765343 -2008422.9050045013 0 0 0 0 1819890.3664628544 -481141.49759123643 0 -481141.49759123643 -3227796.5131847216 0 0 0 0 -641408.34295960225 3298181.4635465657 0 3298181.4635465657 -181394.45034471899 0 0 0 0 3759487.9734528745 -3073368.7632400133 0 -3073368.7632400133 -6792765.3965623826 0 0 0 0 12816858.694888592 4365253.3290939331 0 4365253.3290939331 -11829651.183474958 0 0 0 0 1832297.7997564122 2161226.0786606818 0 2161226.0786606818 -7588799.6064728908 0 0 0 0 17043371.678452492 5429125.5190620422 0 5429125.5190620422 -11680183.166266859 0 0 0 0 520849.77841609018 3650440.7886065952 0 3650440.7886065952 -7940606.339182226 0 0 0 0 17694933.365455866 6026709.9349911213 0 6026709.9349911213 -15755654.539934158 0 0 0 0 38547863.51973629 20409496.599477768 0 20409496.599477768 -7909330.0878894329 0 0 0 0 26294224.34741497 3138289.6638379097 0 3138289.6638379097 -15689072.224298477 0 0 0 0 16421545.067747593 139091.23646092415 0 139091.23646092415 -15199384.376471043 0 0 0 0 13114377.262793779 -5348162.2160627842 0 -5348162.2160627842 -17172689.042053699 0 0 0 0 26795310.728539437 -6671287.3201053888 0 -6671287.3201053888 -25532070.33690834 0 0 0 0 -10698061.137996197 -845345.22694182396 0 -845345.22694182396 -9803820.5060024261 0 0 0 0 3620598.5519661903 -16664955.84700489 0 -16664955.84700489 -21860325.579942703 0 0 0 0 19992240.558864594 -10535295.025829554 0 -10535295.025829554 -26954372.269320726 0 0 0 0 -29893923.17781949 -39318376.753974199 0 -39318376.753974199 -35004315.174146652 0 0 0 0 19302491.841899872 -6056570.0349714756 0 -6056570.0349714756 -22788246.01406312 0 0 0 0 38939626.913636208 -5851110.1703739166 0 -5851110.1703739166 -35208414.251531601 0 0 0 0 73165904.434235573 18689688.050820827 0 18689688.050820827 -29169631.6338377 0 0 0 0 32104208.966112137 12200934.44000864 0 12200934.44000864 5642372.539645195 0 0 0 0 41633584.26627636 11779576.946676731 0 11779576.946676731 -82130072.247610807 0 0 0 0 -44000013.722319126 18960860.575045645 0 18960860.575045645 -4527429.0248990059 0 0 0 0 41146394.099907398 8106716.8878405094 0 8106716.8878405094 -13879725.54639554 0 0 0 0 22692585.871003151 39484458.858468771 0 39484458.858468771 39403121.730835408 0 0 0 0 72173876.337777615 44738921.528240561 0 44738921.528240561 -16136363.66032362 0 0 0 0 -7441769.1853249073 -10899885.671749353 0 -10899885.671749353 -14703521.833332598 0 0 0 0 77944556.290981293 33766152.30218339 0 33766152.30218339 1540680.4152088165 0 0 0 0 -1240194.7687185474 849052.14996675099 0 849052.14996675099 -3892999.6496098163 0 0 0 0 -7379514.7812211514 -8771158.132470727 0 -8771158.132470727 -14894106.577364683 0 0 0 0 2630769.3741879463 80653.521062135696 0 80653.521062135696 -5597835.3680458069 0 0 0 0 222449.19815851352 -815073.16573705431 0 -815073.16573705431 -5012530.2918509645 0 0 0 0 -233557.9006551702 2929932.0570984595 0 2929932.0570984595 -4974234.2648914438 0 0 0 0 -467577.09883594513 -6582395.1106584072 0 -6582395.1106584072 -16009405.797240734 0 0 0 0 26768672.580265045 20969051.060468197 0 20969051.060468197 -7035112.0395171642 0 0 0 0 53326758.130903244 54702831.565596223 0 54702831.565596223 35755880.107535362 0 0 0 0 218613.18591282796 334505.52470958163 0 334505.52470958163 -940291.77349813725 0 0 0 0 -8926569.5150160789 24071723.403656006 0 24071723.403656006 17573798.005310059 0 0 0 0 27899451.217158794 8505425.7837734222 0 8505425.7837734222 -41539669.275308609 0 0 0 0 -15481874.567943096 -10636277.200540543 0 -10636277.200540543 76287004.772098541 0 0 0 0 -16817355.394237518 -3963746.3120002747 0 -3963746.3120002747 41640061.026741028 0 0 0 0 18642473.351842403 -23603760.599720001 0 -23603760.599720001 -52735218.473781586 0 0 0 0 -13125660.506379128 -37309859.191291809 0 -37309859.191291809 -709331.57235336304 0 0 0 0 10549449.347533226 12016277.352258682 0 12016277.352258682 -21256950.222999573 0 0 0 0 954948.5974884443 342352.7163973432 0 342352.7163973432 -1020053.6801124918 0 0 0 0 42976770.865081787 5548025.4695892334 0 5548025.4695892334 -40756863.324862242 0 0 0 0 287375.05285585718 220657.68532366306 0 220657.68532366306 -306735.54010731704 0 0 0 0 -17631105.49227047 32213332.308015823 0 32213332.308015823 -33658974.485786438 0 0 0 0 -93222137.838766098 34678876.959274292 0 34678876.959274292 24011377.090919495 0 0 0 0 10852170.424665928 -42926754.498880386 0 -42926754.498880386 -60062427.89276123 0 0 0 0 -26462006.036065102 -54769697.534755707 0 -54769697.534755707 -41404557.672607422 0 0 0 0 314213.75340402767 421800.20816684514 0 421800.20816684514 187564.51323531568 0 0 0 0 49406716.927821159 -62408605.363454819 0 -62408605.363454819 -39054465.691848755 0 0 0 0 65779729.815425873 36379274.269584656 0 36379274.269584656 -78178948.498241425 0 0 0 0 3642293.7380473958 232167.11954085715 0 232167.11954085715 -5361393.2098094244 0 0 0 0 -18288534.771844387 530059.11337709427 0 530059.11337709427 30822537.050548553 0 0 0 0 50518469.208052635 12564320.049564362 0 12564320.049564362 -2662667.3270874023 0 0 0 0 -23710136.738717079 3411225.4640045166 0 3411225.4640045166 -3628354.8966121674 0 0 0 0 30348577.787971497 -50413667.058197021 0 -50413667.058197021 12569425.455276489 0 0 0 0 41090290.871598244 -33655903.148486137 0 -33655903.148486137 -66441317.212726593 0 0 0 0 -17190491.499368191 -18122293.536561966 0 -18122293.536561966 -5261418.8064613342 0 0 0 0 -938250.69250535965 6490739.7147750854 0 6490739.7147750854 -32797543.834911346 0 0 0 0 1128667.1091960524 -5887350.9887884073 0 -5887350.9887884073 -22674.053382495418 0 0 0 0 -45677.495045661926 -25772601.434623718 0 -25772601.434623718 -15020388.854530334 0 0 0 0 191312.28979110718 -25138039.101667404 0 -25138039.101667404 -33522521.428924561 0 0 0 0 2816345.8015560973 -5512903.5756072216 0 -5512903.5756072216 393799.606723479 0 0 0 0 8223144.3424062729 -29820712.052675247 0 -29820712.052675247 -45255859.359329224 0 0 0 0 24755208.392807007 -3488101.0126724243 0 -3488101.0126724243 -57700220.286781311 0 0 0 0 -2425443.4884619713 -18201436.836999893 0 -18201436.836999893 -33926379.847427368 0 0 0 0 4152420.1153368782 -5553038.3377581742 0 -5553038.3377581742 -39013.906749368645 0 0 0 0 25112288.150011063 -17304977.324867249 0 -17304977.324867249 -35155124.112207413 0 0 0 0 20581556.420680046 -10285710.851226807 0 -10285710.851226807 -29811693.932411194 0 0 0 0 41977093.241268158 -23995590.208126068 0 -23995590.208126068 -30720466.27879715 0 0 0 0 31497367.597574234 -5990799.4461517334 0 -5990799.4461517334 -34761393.407745361 0 0 0 0 32299478.731770277 -11849242.055927753 0 -11849242.055927753 -12728918.666351318 0 0 0 0 34392483.678791046 -28856747.447338104 0 -28856747.447338104 -7306597.9853086472 0 0 0 0 41758238.182151794 -20887582.643203735 0 -20887582.643203735 -40037568.970417023 0 0 0 0 -28395132.255992889 30874676.972740173 0 30874676.972740173 -24977728.741729736 0 0 0 0 -27119994.569388151 14652646.614189625 0 14652646.614189625 -13832184.562347412 0 0 0 0 -3790.3777462095022 639693.83701934479 0 639693.83701934479 -1395078.614555642 0 0 0 0 -6585921.9717006683 -3920619.2904205322 0 -3920619.2904205322 -28323907.611297607 0 0 0 0 -12558179.274251938 42747134.77302742 0 42747134.77302742 -67268564.18094635 0 0 0 0 915764.81622505188 12453753.75717926 0 12453753.75717926 -45959704.202529907 0 0 0 0 9909579.1679592133 -5723293.936164856 0 -5723293.936164856 -74922122.062168121 0 0 0 0 14105548.571861267 -13265304.480178833 0 -13265304.480178833 -61818774.032550812 0 0 0 0 1571566.0176529884 -278360.22500228882 0 -278360.22500228882 -10798768.475669861 0 0 0 0 2930354.3421576642 -249572.74761389149 0 -249572.74761389149 -7042418.0097376425 0 0 0 0 8884682.9318933487 437935.81874275208 0 437935.81874275208 -2865068.1056342125 0 0 0 0 32358140.644866943 7950905.0911140442 0 7950905.0911140442 -30462432.27532959 0 0 0 0 2898714.7951874537 -2707665.10943856 0 -2707665.10943856 -8283012.4313332774 0 0 0 0 959221.63486480713 -3040801.0024490356 0 -3040801.0024490356 -20973907.232932568 0 0 0 0 29673705.002361298 4846802.3135757446 0 4846802.3135757446 -30332419.874435425 0 0 0 0 28399489.941802979 -13507260.17962265 0 -13507260.17962265 -29171078.19707489 0 0 0 0 10433520.998381138 -2074146.7565956116 0 -2074146.7565956116 -3682183.8389511108 0 0 0 0 2861622.5362989507 4470981.2090522703 0 4470981.2090522703 -10496164.881299462 0 0 0 0 10695152.576193333 -596034.54682540894 0 -596034.54682540894 235330.93303871155 0 0 0 0 11925036.510551453 -2968425.633895874 0 -2968425.633895874 -25962511.124437332 0 0 0 0 22929538.232128143 13417228.569793701 0 13417228.569793701 -15210795.323303223 0 0 0 0 1437259.0630493164 17758333.811576843 0 17758333.811576843 -33001531.353591919 0 0 0 0 6275261.6015434265 1499434.9231338501 0 1499434.9231338501 -23200822.822975159 0 0 0 0 9706044.5924158096 -7314657.8229694366 0 -7314657.8229694366 -7964722.1748504639 0 0 0 0 3810245.3594993441 4506.4466461464763 0 4506.4466461464763 -11091932.279087486 0 0 0 0 3544255.7606453788 1347048.4305077624 0 1347048.4305077624 -13993874.730265025 0 0 0 0 3341470.4400137658 -222211.84876662295 0 -222211.84876662295 -7569538.5512651987 0 0 0 0 2737745.8197996616 2399754.9694395065 0 2399754.9694395065 -9901335.1895885468 0 0 0 0 19721287.823564291 7940892.5420589447 0 7940892.5420589447 -15212491.774452209 0 0 0 0 8864305.4832978249 5503195.8220949173 0 5503195.8220949173 -1671914.2378692627 0 0 0 0 115461.02324302 -542728.63775424496 0 -542728.63775424496 120001.36351760477 0 0 0 0 -10279452.960743904 8213714.7173576355 0 8213714.7173576355 -8880723.4848957062 0 0 0 0 84918.187837253325 217865.20315135829 0 217865.20315135829 -220708.88991646934 0 0 0 0 -39596645.899795055 -14374128.7721138 0 -14374128.7721138 -16121415.733909607 0 0 0 0 2637193.5677176234 44755.401488829404 0 44755.401488829404 -4207858.6268787719 0 0 0 0 -49829821.875614166 729199.47505187988 0 729199.47505187988 -9504494.6471939087 0 0 0 0 2284184.5844388008 -3146269.2109184265 0 -3146269.2109184265 -15087508.382647991 0 0 0 0 39451932.688538551 -33673948.684036255 0 -33673948.684036255 -20299095.242782593 0 0 0 0 -977284.9063597098 -2991813.7203971744 0 -2991813.7203971744 -12064253.866737366 0 0 0 0 10344145.280481339 19764289.56410408 0 19764289.56410408 -21493900.246383667 0 0 0 0 3694910.5502081541 -846160.99652187526 0 -846160.99652187526 -12332685.144813538 0 0 0 0 1667361.963677472 -1738985.8438871866 0 -1738985.8438871866 -7716648.6935155243 0 0 0 0 12513769.164309502 13078707.376449585 0 13078707.376449585 -22027359.688627243 0 0 0 0 -15618399.548906326 -18748837.107549667 0 -18748837.107549667 8997080.3725585938 0 0 0 0 10294418.821517944 -1743885.5786075592 0 -1743885.5786075592 -28171866.03237915 0 0 0 0 5687339.5833158996 -4583182.7002117876 0 -4583182.7002117876 -2144990.276963695 0 0 0 0 16923233.681040764 -19600097.592453003 0 -19600097.592453003 -29550147.859262466 0 0 0 0 24614641.834685326 8150834.9151077271 0 8150834.9151077271 -6945086.4688968658 0 0 0 0 -4005279.8872184753 -24126044.477035522 0 -24126044.477035522 -14538470.854896545 0 0 0 0 1758580.657346386 218486.4934166614 0 218486.4934166614 -2145041.2029043692 0 0 0 0 7905802.3496847153 -3521474.8141345978 0 -3521474.8141345978 -30874672.681991577 0 0 0 0 -10987498.499141693 -4122383.7837982178 0 -4122383.7837982178 20046957.04309845 0 0 0 0 -831659.70741268247 278896.65659713745 0 278896.65659713745 -20876190.339073181 0 0 0 0 2104923.9575205147 -4739181.7398204803 0 -4739181.7398204803 -19741721.437705994 0 0 0 0 6532485.1665883064 -6834068.6394386292 0 -6834068.6394386292 -26264417.321731567 0 0 0 0 7378443.1178572178 6816326.7084846497 0 6816326.7084846497 -27195360.741455078 0 0 0 0 975295.51188741997 -8783093.5248241425 0 -8783093.5248241425 829797.08127212524 0 0 0 0 18291268.22054217 -10356828.468374848 0 -10356828.468374848 -19169758.410476685 0 0 0 0 -21936.532541435212 -3711739.4598846436 0 -3711739.4598846436 -10819388.228841007 0 0 0 0 1171238.7597939298 -6552019.370672226 0 -6552019.370672226 -10859391.590164185 0 0 0 0 11390156.923481703 -5691193.6370201111 0 -5691193.6370201111 -9496234.1979217529 0 0 0 0 8643853.833758235 -617170.31709480286 0 -617170.31709480286 -18009681.627277374 0 0 0 0 188048.70343024068 259674.49628456309 0 259674.49628456309 -1162472.7663356732 0 0 0 0 13865701.50703454 -6733143.1192264557 0 -6733143.1192264557 -18566187.279312134 0 0 0 0 1158006.0263962746 -4667235.6228637695 0 -4667235.6228637695 -8225581.8072032928 0 0 0 0 2667828.0849066973 13301901.575815201 0 13301901.575815201 -15316288.61743331 0 0 0 0 806495.08817472472 587822.051576884 0 587822.051576884 -1580260.3278969564 0 0 0 0 -303332.86059142649 -5597556.1963665485 0 -5597556.1963665485 -8709990.936378479 0 0 0 0 676783.20221734047 -3662398.8249778748 0 -3662398.8249778748 -7605218.4571456909 0 0 0 0 680774.20693778992 -3308722.953994751 0 -3308722.953994751 -12354106.306209564 0 0 0 0 1574989.7429828644 1116064.5120849609 0 1116064.5120849609 -13316325.447174072 0 0 0 0 -92842.140652418137 -4419787.2553634644 0 -4419787.2553634644 -7169997.2638607025 0 0 0 0 324321.15267387161 158183.8898050487 0 158183.8898050487 -3784028.570305882 0 0 0 0 1279904.1826396035 -1868948.2917438245 0 -1868948.2917438245 -7560275.2519567944 0 0 0 0 6401209.2848690869 -690818.08547890186 0 -690818.08547890186 -7443653.0291137695 0 0 0 0 -15789926.735671759 2757696.896282196 0 2757696.896282196 24382960.835731506 0 0 0 0 563907.29703877144 275652.17296070419 0 275652.17296070419 -2604178.7223159061 0 0 0 0 855029.47393112257 -741145.13387835026 0 -741145.13387835026 -413263.20413208008 0 0 0 0 401272.96387071983 -1101630.123300801 0 -1101630.123300801 -3279202.3587785028 0 0 0 0 493717.91250511672 -1578315.7583984432 0 -1578315.7583984432 -4293017.9238262624 0 0 0 0 727039.39292204333 444342.10482766572 0 444342.10482766572 -6230255.7592471112 0 0 0 0 15213221.471068501 -15216245.642080307 0 -15216245.642080307 17726395.753601074 0 0 0 0 1767578.8694602251 -3341854.0426654816 0 -3341854.0426654816 -10281021.592582703 0 0 0 0 11124921.575501323 -27984542.966386795 0 -27984542.966386795 -64373156.703941345 0 0 0 0 -12400.451443105414 -1143014.0973596373 0 -1143014.0973596373 66961.090633237734 0 0 0 0 -20555508.435073137 23339166.678005219 0 23339166.678005219 37673852.205352783 0 0 0 0 75529534.919166446 -95944752.400341034 0 -95944752.400341034 -113195066.55603027 0 0 0 0 11392208.206501722 12000184.537109375 0 12000184.537109375 -7061766.587852478 0 0 0 0 19447372.078068793 9548705.8979740143 0 9548705.8979740143 -3610504.2108612061 0 0 0 0 16150935.283824801 -3033150.8010158539 0 -3033150.8010158539 -8243710.820148468 0 0 0 0 -237900.1027421683 -2354190.3793869531 0 -2354190.3793869531 -5769605.7053268459 0 0 0 0 3328514.240844632 -7203130.1132477596 0 -7203130.1132477596 -6949123.7494735718 0 0 0 0 7654585.178170085 -4321638.8903427124 0 -4321638.8903427124 -8219633.4211440086 0 0 0 0 7717612.6814503074 1643080.4064731598 0 1643080.4064731598 -9668245.170135498 0 0 0 0 8047539.7589678764 2767041.9292449951 0 2767041.9292449951 -8105527.3104038239 0 0 0 0 8430852.8940314054 2167533.3026790619 0 2167533.3026790619 -7710150.8841323853 0 0 0 0 149435.87228947878 1468205.028881073 0 1468205.028881073 -8645928.9879417419 0 0 0 0 6289423.8043240309 -1897088.8800077438 0 -1897088.8800077438 -10797383.700054169 0 0 0 0 3973488.7259814739 -2629805.1251144409 0 -2629805.1251144409 -4487015.3976364136 0 0 0 0 6467358.7330372334 -875178.7889251709 0 -875178.7889251709 -4416689.4797812104 0 0 0 0 -928213.48456859589 -4718289.388710022 0 -4718289.388710022 -4564813.4722747803 0 0 0 0 16398574.117071152 -2542206.5115127563 0 -2542206.5115127563 -11787035.553100586 0 0 0 0 12917389.192304611 3071408.0385131836 0 3071408.0385131836 -5635752.4674987793 0 0 0 0 480265.26105843158 75598.810091210529 0 75598.810091210529 -463689.39095609635 0 0 0 0 -18712311.641960144 -17659143.654155731 0 -17659143.654155731 -12052073.57334137 0 0 0 0 -13402737.997603416 -22744529.46257782 0 -22744529.46257782 -19718015.221272469 0 0 0 0 6004370.0234031677 -4145497.628276825 0 -4145497.628276825 -7913853.0027084351 0 0 0 0 4852729.7208051682 -96042.06033706665 0 -96042.06033706665 -5115218.5359115601 0 0 0 0 -944429.23309898376 -1712522.119102478 0 -1712522.119102478 -4435036.7660675049 0 0 0 0 11097921.763408661 -3936507.0160522461 0 -3936507.0160522461 -8952478.4083747864 0 0 0 0 3089894.9941531462 -1688648.7560372744 0 -1688648.7560372744 -5652671.7820302173 0 0 0 0 11601431.057421207 -2286120.7477684021 0 -2286120.7477684021 -8614199.9246368408 0 0 0 0 -4715376.7071659565 -13119342.360157013 0 -13119342.360157013 -7351958.5996284485 0 0 0 0 3461250.6240974227 -1133119.323185375 0 -1133119.323185375 -5031404.7798677236 0 0 0 0 9623623.6395988464 6520263.0633144379 0 6520263.0633144379 -8020501.525113374 0 0 0 0 9024636.2127761841 5734484.3333244324 0 5734484.3333244324 1679432.5964202881 0 0 0 0 -168976.83046777151 -275788.68028633296 0 -275788.68028633296 -322773.64481343143 0 0 0 0 -11409901.241354346 -10579272.991331577 0 -10579272.991331577 -33914876.299232483 0 0 0 0 -3549096.9572143555 -15144322.217632294 0 -15144322.217632294 -39280507.653303623 0 0 0 0 -5565614.062625885 -4008337.0560340881 0 -4008337.0560340881 -5541858.0817718506 0 0 0 0 6738573.4434776306 2600945.660905838 0 2600945.660905838 -20884997.440792084 0 0 0 0 17057772.037250713 5624359.2930057049 0 5624359.2930057049 -20772512.398384094 0 0 0 0 1422238.7783087918 405481.39545380138 0 405481.39545380138 -482432.69984780997 0 0 0 0 3390365.5960988998 942853.78776550293 0 942853.78776550293 -17307714.204223633 0 0 0 0 5165212.8488779068 3092906.5573158264 0 3092906.5573158264 794607.97898864746 0 0 0 0 3935332.4878550665 284806.84386415966 0 284806.84386415966 -5057489.6193073336 0 0 0 0 4574202.0785942078 1383214.2153015137 0 1383214.2153015137 4174.1984748840332 0 0 0 0 616458.34032937046 98849.715832595713 0 98849.715832595713 -356702.11598624662 0 0 0 0 -1563967.3460562229 -9009875.4214267731 0 -9009875.4214267731 -18787088.889820099 0 0 0 0 479729.78612200636 83220.158391598612 0 83220.158391598612 -471893.76602513157 0 0 0 0 -8849670.6708248854 -18406297.657030106 0 -18406297.657030106 -16148264.857624054 0 0 0 0 14309503.006045938 7165080.9497833252 0 7165080.9497833252 -9580232.9130516052 0 0 0 0 10145298.683596611 30482946.419017792 0 30482946.419017792 -14789990.355331421 0 0 0 0 6842597.356856823 -8594973.7108726501 0 -8594973.7108726501 -32876548.630596161 0 0 0 0 57829743.392257214 -28255278.852970123 0 -28255278.852970123 -25704927.585449219 0 0 0 0 23147162.019288003 26813956.198061943 0 26813956.198061943 -32914422.286430359 0 0 0 0 816380.32827297132 130411.25069550797 0 130411.25069550797 -792444.39950737543 0 0 0 0 15989848.823787689 -27429109.857048035 0 -27429109.857048035 -19168750.895065308 0 0 0 0 -2459666.6960659027 -7567489.154941082 0 -7567489.154941082 -19079609.446975708 0 0 0 0 2983319.3836810589 -18891356.700391769 0 -18891356.700391769 8719904.6351928711 0 0 0 0 -5844511.8017816544 -2386075.2733306885 0 -2386075.2733306885 -22031995.653226852 0 0 0 0 515745.88257250166 -7907.2896128483117 0 -7907.2896128483117 -878843.55631691962 0 0 0 0 -13554180.733952999 2981182.2228622437 0 2981182.2228622437 -36822857.407062531 0 0 0 0 42662433.393607378 -56954398.883390427 0 -56954398.883390427 -131036590.62665558 0 0 0 0 -162597283.26811409 -79043496.421192169 0 -79043496.421192169 -73178934.379806519 0 0 0 0 -391212985.30934429 -157021189.85773659 0 -157021189.85773659 45905642.366371155 0 0 0 0 -209004435.9375664 -344338217.9681654 0 -344338217.9681654 -321642429.74226379 0 0 0 0 -21718207.080809116 -44994248.861948013 0 -44994248.861948013 -112147931.01342583 0 0 0 0 -8715559.3018112183 -5238694.2428703308 0 -5238694.2428703308 15156655.684591293 0 0 0 0 -5669071.4830536842 -37053672.998348236 0 -37053672.998348236 1940711.3080978394 0 0 0 0 -13334686.29062891 -62239607.648685455 0 -62239607.648685455 -76727071.139633179 0 0 0 0 20329798.430212021 -37671215.104492188 0 -37671215.104492188 -100405206.74562836 0 0 0 0 1040992.3621538198 -506333.00399529748 0 -506333.00399529748 -2346731.3399753235 0 0 0 0 -11803887.564074516 -12543967.379234314 0 -12543967.379234314 -11705668.781983614 0 0 0 0 -65501923.681554794 -11302230.164764404 0 -11302230.164764404 -35692686.760124207 0 0 0 0 20683759.019842088 -32546531.269237638 0 -32546531.269237638 -81877851.483299255 0 0 0 0 4575896.5237770081 -100757728.79022598 0 -100757728.79022598 -103254166.49893188 0 0 0 0 1951318.4673843384 -9224949.747756958 0 -9224949.747756958 -19299737.393923044 0 0 0 0 1187671.677851045 -1679042.9452918563 0 -1679042.9452918563 -4241031.9878142253 0 0 0 0 834882.76822280884 -6380772.2428131104 0 -6380772.2428131104 -14902666.772567749 0 0 0 0 8537016.5987300873 -4985262.9333724976 0 -4985262.9333724976 -19042589.724380493 0 0 0 0 7711684.1834242344 -1631022.3746795654 0 -1631022.3746795654 -13944167.213882446 0 0 0 0 -3011922.1959323883 -16544877.790500641 0 -16544877.790500641 -19242100.524949074 0 0 0 0 8443172.6158320904 -3980797.1383571625 0 -3980797.1383571625 -17760623.292129517 0 0 0 0 -7993345.0276184082 -13416770.134620667 0 -13416770.134620667 -32535199.848144531 0 0 0 0 -15931874.570606232 -29306242.142692566 0 -29306242.142692566 -41650284.619839206 0 0 0 0 -3048585.095249176 -11291649.862003326 0 -11291649.862003326 -41672487.571403503 0 0 0 0 23209674.916288376 -41885113.871776581 0 -41885113.871776581 -80638044.01574707 0 0 0 0 -62726783.436141968 -46896384.486488342 0 -46896384.486488342 -32987987.899536133 0 0 0 0 -29218071.438511372 -25494955.11602211 0 -25494955.11602211 -26855629.833709717 0 0 0 0 -57232317.366469383 -16429012.348342896 0 -16429012.348342896 -12055619.026809692 0 0 0 0 -27179208.014754295 -31331287.577018738 0 -31331287.577018738 -30582945.319442749 0 0 0 0 -21959362.127252579 -25495557.036018372 0 -25495557.036018372 -24641969.856079102 0 0 0 0 -8836613.6600399017 -22115897.081798553 0 -22115897.081798553 -34561458.763977051 0 0 0 0 -121333.70103789959 -950470.37487960514 0 -950470.37487960514 -475975.73971796781 0 0 0 0 19549641.35838747 -6408299.1192398071 0 -6408299.1192398071 -12996879.288566589 0 0 0 0 -102292219.9068985 -87815807.327365875 0 -87815807.327365875 -29870993.542133331 0 0 0 0 14708462.14317131 -29199130.336231232 0 -29199130.336231232 -81753645.757650137 0 0 0 0 -78133467.859461308 -27724774.820491791 0 -27724774.820491791 -11541959.759338379 0 0 0 0 -2203740.8039021492 -7766987.0732269287 0 -7766987.0732269287 -3988282.873840332 0 0 0 0 -597986.98597371485 -2599318.4850343019 0 -2599318.4850343019 -1321455.1097588725 0 0 0 0 -8370232.3728686571 -6477090.9441051483 0 -6477090.9441051483 2540279.3871765137 0 0 0 0 484346.40362717211 -1270316.368212115 0 -1270316.368212115 -1929093.9032871984 0 0 0 0 -15731825.345505714 -12497800.797914505 0 -12497800.797914505 -10808616.992618561 0 0 0 0 -24220228.083076894 -21298079.410147727 0 -21298079.410147727 -13256560.455963135 0 0 0 0 -12609762.242666245 -21077724.139286041 0 -21077724.139286041 -23172646.74912262 0 0 0 0 -23843059.259346008 -8417324.3242912292 0 -8417324.3242912292 -11148003.253031254 0 0 0 0 -12802485.609249115 -15096268.971889496 0 -15096268.971889496 -11276354.184371948 0 0 0 0 -1222584.7058531565 -1845839.0901024612 0 -1845839.0901024612 -1183674.0477871336 0 0 0 0 -11633934.287874222 -6320112.6170253754 0 -6320112.6170253754 -3101279.7958893776 0 0 0 0 -20064079.980826378 -13565173.456735611 0 -13565173.456735611 -3840011.7797622681 0 0 0 0 -7846205.4952764511 -5308479.1298065186 0 -5308479.1298065186 -3238258.718413353 0 0 0 0 -7066876.3834972382 -10821492.258808136 0 -10821492.258808136 -7058265.255027771 0 0 0 0 -556195008.70155668 -576524562.22676468 0 -576524562.22676468 -508840331.62640262 0 0 0 0 -46892.23839385598 -101328.00646878127 0 -101328.00646878127 -1284110.303199552 0 0 0 0 -601443020.20840275 -487752810.04962969 0 -487752810.04962969 -436836412.76277542 0 0 0 0 -400406341.96794015 -414704182.56279087 0 -414704182.56279087 -460645935.71620941 0 0 0 0 -9578886.8467273712 2233536.2941665649 0 2233536.2941665649 -3058468.8844528198 0 0 0 0 -3627558.4652526379 -4929456.8871583939 0 -4929456.8871583939 -10397762.34274292 0 0 0 0 -18456978.584654808 -5149431.9626560211 0 -5149431.9626560211 -2238812.6177864075 0 0 0 0 395842.75035299035 -406541.74450200889 0 -406541.74450200889 -824215.59009327367 0 0 0 0 -16648376.513442993 -14336960.734512329 0 -14336960.734512329 -12969307.385604858 0 0 0 0 4602318.7536289096 -2445466.9639072418 0 -2445466.9639072418 -13044166.343147278 0 0 0 0 4869731.3410915136 -1491749.3653612137 0 -1491749.3653612137 -10595641.385229111 0 0 0 0 6919276.7444462776 -1277260.5363783836 0 -1277260.5363783836 -11498986.774345398 0 0 0 0 4885912.2637136579 632094.60264968872 0 632094.60264968872 -9430611.1291904449 0 0 0 0 1374685.6991409063 -1713724.666012764 0 -1713724.666012764 -8449309.1729736328 0 0 0 0 2775940.6421432495 -1298951.1926898956 0 -1298951.1926898956 -10992202.631284714 0 0 0 0 3221400.4024062753 -1394709.7968873978 0 -1394709.7968873978 -13003023.495010376 0 0 0 0 382148.75194585323 -953764.03028297424 0 -953764.03028297424 -13055732.866122246 0 0 0 0 -775762.33863404393 -2233746.9573516846 0 -2233746.9573516846 -11548504.747764587 0 0 0 0 2073763.8058567161 -200608.64661690174 0 -200608.64661690174 -6336056.6524711121 0 0 0 0 483668.57083201408 -2862973.0769329071 0 -2862973.0769329071 -12944467.115959167 0 0 0 0 -45434.484761828789 -289004.81032669824 0 -289004.81032669824 -958429.6437854562 0 0 0 0 371930.08122697473 -3097539.1322164536 0 -3097539.1322164536 -10931694.334686279 0 0 0 0 1693651.5441135964 -1266182.7382467249 0 -1266182.7382467249 -6789569.7142573353 0 0 0 0 1303751.2450054288 -1291471.2893841267 0 -1291471.2893841267 -10803473.863220215 0 0 0 0 -957168.28452205658 -5151040.8416290283 0 -5151040.8416290283 -10994493.074447632 0 0 0 0 3489505.8826360237 -2886501.7462855652 0 -2886501.7462855652 -7162244.8680366687 0 0 0 0 -4733119.67669487 -5313209.7896575928 0 -5313209.7896575928 -12086673.04306221 0 0 0 0 -4322450.6699199677 -6896826.0662231445 0 -6896826.0662231445 -13055398.232543945 0 0 0 0 -2789183.7176094055 -3877941.9876022339 0 -3877941.9876022339 -11864756.887001038 0 0 0 0 1306438.2767086029 -5892160.8843193054 0 -5892160.8843193054 -15826408.031097412 0 0 0 0 1836253.7768652439 -838267.91874694824 0 -838267.91874694824 -2771321.6236572266 0 0 0 0 -1518551.9292297363 -19152447.378173828 0 -19152447.378173828 -35438013.380737305 0 0 0 0 -1518551.9292526245 -19152447.378204346 0 -19152447.378204346 -35438013.380723953 0 0 0 0 -1518551.9292526245 -19152447.378189087 0 -19152447.378189087 -35438013.380767822 0 0 0 0 1937760.2559957816 -2885852.6234966181 0 -2885852.6234966181 -5856170.2071649618 0 0 0 0 -1983695.0533084869 -10550421.721866608 0 -10550421.721866608 -19916508.312206268 0 0 0 0 3364557.4447683403 -839490.22717704624 0 -839490.22717704624 -6350338.3136256021 0 0 0 0 -4419111.9124526978 -16267104.078163147 0 -16267104.078163147 -25294780.857452393 0 0 0 0 1918780.584895134 -15159416.696311951 0 -15159416.696311951 -31444023.533813477 0 0 0 0 -9462244.5222473145 -21035353.167095184 0 -21035353.167095184 -29674502.719558716 0 0 0 0 -13662007.373775959 -17600971.173952579 0 -17600971.173952579 -12642422.513576508 0 0 0 0 -7132681.2011032104 -15167248.069871902 0 -15167248.069871902 -16654550.060413361 0 0 0 0 -12525264.219032288 -21427306.649913788 0 -21427306.649913788 -23815975.847430229 0 0 0 0 -9752983.9618282318 -11928567.546479702 0 -11928567.546479702 -8654586.3048057556 0 0 0 0 -9419759.8230304718 -12396438.303134918 0 -12396438.303134918 -10781006.321861267 0 0 0 0 -8925605.1489810944 -12270665.524482727 0 -12270665.524482727 -15883547.471328735 0 0 0 0 -76942.114899396896 -3705838.5756988525 0 -3705838.5756988525 -13520146.603796005 0 0 0 0 3251908.8477716972 -2523838.5607617805 0 -2523838.5607617805 -9267982.6173015945 0 0 0 0 -6952291.2673559189 -13313923.557394981 0 -13313923.557394981 -15524508.994480133 0 0 0 0 -7072529.376449585 -14286854.970291138 0 -14286854.970291138 -21295783.117027283 0 0 0 0 1142227.702791959 -5993066.1041650772 0 -5993066.1041650772 -10902567.819351196 0 0 0 0 920030.82058995962 -6747088.9957370758 0 -6747088.9957370758 -13231299.830224037 0 0 0 0 3293119.2597737312 -3166702.1130867004 0 -3166702.1130867004 -17029362.336006165 0 0 0 0 3627234.8521072567 -1902786.1911578178 0 -1902786.1911578178 -12251801.078262329 0 0 0 0 3569710.8190695047 -2600752.5352621078 0 -2600752.5352621078 -7529481.9499874115 0 0 0 0 2749252.7885847092 -2869502.1516284943 0 -2869502.1516284943 -7329564.9196386337 0 0 0 0 2799107.0976195931 -3835124.5885181427 0 -3835124.5885181427 -9858732.8706741333 0 0 0 0 14095145.072047114 -3289213.7249360085 0 -3289213.7249360085 -15165181.247990131 0 0 0 0 -1265152.9786167685 -2229572.9701816305 0 -2229572.9701816305 -4375932.7210967178 0 0 0 0 -253034.02801028918 26855863.013188958 0 26855863.013188958 25126045.55332756 0 0 0 0 2712942.5310570598 -3677584.9891338348 0 -3677584.9891338348 -6108975.4528369904 0 0 0 0 179071.89761355519 -10371804.391884744 0 -10371804.391884744 -7834642.7478351593 0 0 0 0 876594.96839409822 -2479747.065340688 0 -2479747.065340688 -6907091.824515162 0 0 0 0 -10476970.070811749 -11094459.425164223 0 -11094459.425164223 -10137705.958152771 0 0 0 0 2520722.8819030351 -4563421.6719442317 0 -4563421.6719442317 -8915954.9079782218 0 0 0 0 -5774125.1186659532 -6129027.357220863 0 -6129027.357220863 -4938374.3330364255 0 0 0 0 -5600930.9241565587 -19294202.358537674 0 -19294202.358537674 2659872.8006229401 0 0 0 0 -8989267.3509159088 -10523271.339611053 0 -10523271.339611053 -10684285.094297409 0 0 0 0 -8150223.5837044716 -7484446.4622941017 0 -7484446.4622941017 -7368060.7266044617 0 0 0 0 -2012838.6344059224 -2395521.2226480627 0 -2395521.2226480627 -2681895.969822932 0 0 0 0 9038896.9085519314 6718595.8279180527 0 6718595.8279180527 5690896.3689260483 0 0 0 0 -2301044.7743475437 -2334342.9974837303 0 -2334342.9974837303 -3530870.4244308472 0 0 0 0 -1348486.6391372681 -3481234.3052921295 0 -3481234.3052921295 -5458986.7054786682 0 0 0 0 -4260971.5977910645 -1947378.0758996764 0 -1947378.0758996764 -303218.07227066997 0 0 0 0 -223126.45149048508 337786.51920466311 0 337786.51920466311 308108.79330696352 0 0 0 0 57062636.345296413 -114226077.38624001 0 -114226077.38624001 -1015276636.5005341 0 0 0 0 -203240548.60252082 -6874075.9929409027 0 -6874075.9929409027 553543011.73874474 0 0 0 0 -86646664.866414547 -83328593.974634171 0 -83328593.974634171 -1013470531.1360683 0 0 0 0 -332951198.81073308 -541219628.30307007 0 -541219628.30307007 -1575370762.9816914 0 0 0 0 40207592.81798555 -502411618.82365131 0 -502411618.82365131 -1763952260.7123032 0 0 0 0 218054080.76696634 -556711112.19975948 0 -556711112.19975948 -2285100479.1547432 0 0 0 0 -157125929.35472077 -585344768.83463812 0 -585344768.83463812 -830609170.23705864 0 0 0 0 -66815900.743767589 120789603.80248141 0 120789603.80248141 -786734362.45895767 0 0 0 0 -2659219.7453530692 -4917163.4020166397 0 -4917163.4020166397 -8104331.0069775581 0 0 0 0 29235560.81443233 -40966031.939247131 0 -40966031.939247131 4200538.1722755432 0 0 0 0 -1391811.4630748515 -735663.78890383057 0 -735663.78890383057 -4126198.9666163716 0 0 0 0 -258506.95890342895 -911690.20926893549 0 -911690.20926893549 -1395956.8121862188 0 0 0 0 38538692.940354317 -31788782.771406174 0 -31788782.771406174 6117030.2502088547 0 0 0 0 34254127.611179285 -52820180.641725063 0 -52820180.641725063 -40118021.587308884 0 0 0 0 -100496221.59497176 -66915060.404695511 0 -66915060.404695511 14807283.441026688 0 0 0 0 133829044.65609558 138057464.3807497 0 138057464.3807497 -65574549.99461174 0 0 0 0 -209422665.90243709 -806027747.51006532 0 -806027747.51006532 -1573864117.504775 0 0 0 0 -498844.84244509024 -814218.45250755735 0 -814218.45250755735 -3153162.2791431611 0 0 0 0 115098502.80105853 309396010.38718987 0 309396010.38718987 -1565944252.2545478 0 0 0 0 -155683852.23153138 -362724022.7449007 0 -362724022.7449007 -648026894.97288418 0 0 0 0 -143636745.10743582 47650738.355006695 0 47650738.355006695 24997275.242271423 0 0 0 0 -510791951.27158618 -575607908.33941913 0 -575607908.33941913 -641788334.82989883 0 0 0 0 -497741333.0584141 -704714741.87961197 0 -704714741.87961197 -755926278.2961483 0 0 0 0 -382135557.07927418 -532776339.38684916 0 -532776339.38684916 -583495161.8196907 0 0 0 0 -537846065.28675628 -543080521.75049877 0 -543080521.75049877 -561408964.77552032 0 0 0 0 -376244248.65033913 -541847129.15712929 0 -541847129.15712929 -704357434.84075546 0 0 0 0 -546034241.40404606 -553337995.38532257 0 -553337995.38532257 -509862823.91440558 0 0 0 0 -414698788.82697308 -333598800.76490402 0 -333598800.76490402 -355686243.31738281 0 0 0 0 -909236.80300924834 -584206.89145149663 0 -584206.89145149663 -3115567.6456127875 0 0 0 0 -932391.35698866844 -4630944.1536083221 0 -4630944.1536083221 -5773400.3885917664 0 0 0 0 -501640.07159190549 -4034458.6468586717 0 -4034458.6468586717 -4188255.0994245373 0 0 0 0 -1282795.8958370152 -3295139.2197986743 0 -3295139.2197986743 -2995887.9843072351 0 0 0 0 34636.529795661801 -1426661.013637363 0 -1426661.013637363 -6184966.3861414846 0 0 0 0 -8486625.2828052044 -8642156.0651493073 0 -8642156.0651493073 92550517.310642242 0 0 0 0 -396838499.56304604 -333636239.21829748 0 -333636239.21829748 -360823372.66689301 0 0 0 0 -781856123.29833102 -594840920.77793121 0 -594840920.77793121 -351801325.64935058 0 0 0 0 -733316885.756917 -810879924.63379097 0 -810879924.63379097 -690456381.24978685 0 0 0 0 -790426386.18709493 -1004021862.7513161 0 -1004021862.7513161 -1295966561.7912483 0 0 0 0 -896963509.12624824 -860092922.99490166 0 -860092922.99490166 -1238465216.6827259 0 0 0 0 -1875106658.06006 -1443111399.9883242 0 -1443111399.9883242 -1184626122.3408203 0 0 0 0 86093016.679048777 225736661.60494804 0 225736661.60494804 -996883641.65109253 0 0 0 0 -63107.085423754237 -481346.67566642014 0 -481346.67566642014 -2305328.0181524828 0 0 0 0 -143132556.30240488 -244710086.62849355 0 -244710086.62849355 211286224.24045563 0 0 0 0 -1326239796.3694677 -708422103.04582024 0 -708422103.04582024 -205021880.07064533 0 0 0 0 -917643550.57690382 -1006032300.4280186 0 -1006032300.4280186 -2183556035.2167778 0 0 0 0 -1347547339.5717037 -1042559439.2152081 0 -1042559439.2152081 -1627460266.687685 0 0 0 0 -1329846844.7598164 -382202789.32081306 0 -382202789.32081306 -1832390486.1540871 0 0 0 0 -919902026.74661255 -710425442.06125546 0 -710425442.06125546 -1574646938.6577053 0 0 0 0 -467874078.16145819 -675803345.87193871 0 -675803345.87193871 -1775989815.294405 0 0 0 0 -155274813.42293099 -670155493.63056946 0 -670155493.63056946 -1575834454.1634312 0 0 0 0 -459709133.17854577 -604112991.22084546 0 -604112991.22084546 -1267702017.5424232 0 0 0 0 -307213399.58261222 -597536459.60253143 0 -597536459.60253143 -848712874.02974701 0 0 0 0 -424299066.24226195 -837979045.80927467 0 -837979045.80927467 -1268652776.5821381 0 0 0 0 -244128502.21225423 -643933191.5916853 0 -643933191.5916853 -1024169229.5196152 0 0 0 0 22345931.461232737 -395872171.9335556 0 -395872171.9335556 -1156723777.2005901 0 0 0 0 176526515.92080241 -440061277.99094105 0 -440061277.99094105 -1571438014.3781316 0 0 0 0 385544744.80501169 -80109307.232888222 0 -80109307.232888222 -952453164.61041641 0 0 0 0 159686600.7061435 -432329619.46320915 0 -432329619.46320915 -1005565403.1552672 0 0 0 0 -98233688.558546826 -475734819.16656685 0 -475734819.16656685 -848203546.27550125 0 0 0 0 -101240813.05375952 -426944054.19965553 0 -426944054.19965553 -823745764.02715683 0 0 0 0 6541996.7260272615 -342071114.49958515 0 -342071114.49958515 -769234287.78399658 0 0 0 0 -226415623.53942925 -428406532.67334557 0 -428406532.67334557 -624659276.5562458 0 0 0 0 -224137948.90510693 -407094310.23487854 0 -407094310.23487854 -633005823.91776466 0 0 0 0 129679239.5020237 -123586083.32629395 0 -123586083.32629395 -857246742.49625778 0 0 0 0 93686640.10419172 -6702989.4941561222 0 -6702989.4941561222 -565958333.40962219 0 0 0 0 21317883.62403962 -278949813.73846602 0 -278949813.73846602 -712637979.96922684 0 0 0 0 -63742690.554242849 -249695862.64261818 0 -249695862.64261818 -692654483.28492641 0 0 0 0 213738772.12239411 -233173981.71974611 0 -233173981.71974611 -908199083.21332169 0 0 0 0 78222923.88140583 -209425903.28461838 0 -209425903.28461838 -878778098.77981949 0 0 0 0 49687521.277455986 -266850190.73974037 0 -266850190.73974037 -896925498.60858536 0 0 0 0 -174649093.68061423 -207133586.5533638 0 -207133586.5533638 -862734979.03145504 0 0 0 0 1385766.3305931261 12894.115138266236 0 12894.115138266236 -2392493.3471474797 0 0 0 0 -334986608.96642417 -811256821.91620827 0 -811256821.91620827 -1574477707.9978695 0 0 0 0 38483803.084964365 -283756608.33089757 0 -283756608.33089757 -941132598.93572617 0 0 0 0 37380998.794717312 -268080045.04466438 0 -268080045.04466438 -775739015.26258659 0 0 0 0 234600460.85750568 151156613.62448978 0 151156613.62448978 -306262020.52032852 0 0 0 0 1168925.4869543654 -31072.411622786894 0 -31072.411622786894 -2610399.9265596941 0 0 0 0 34468997.725207984 -387324788.77262783 0 -387324788.77262783 -1088146072.085537 0 0 0 0 587475776.76591647 -210244745.59090328 0 -210244745.59090328 -1574684124.107069 0 0 0 0 14107324.268081218 -398491985.96343613 0 -398491985.96343613 -825553739.37637329 0 0 0 0 286014683.92234725 -249470611.11095238 0 -249470611.11095238 -977242194.10571098 0 0 0 0 195406925.95294112 -26556009.846588135 0 -26556009.846588135 -1497521891.9040756 0 0 0 0 -36788758.622959584 31119916.560321808 0 31119916.560321808 -1177998191.8787003 0 0 0 0 314300132.06429243 354966547.97175217 0 354966547.97175217 -1651183055.8127937 0 0 0 0 723151655.05227757 -235706902.08837128 0 -235706902.08837128 -1072367883.6770954 0 0 0 0 350089.91302335623 -408160.54637009278 0 -408160.54637009278 -819473.30258458573 0 0 0 0 83667891.44976449 -17371936.726222992 0 -17371936.726222992 -791829560.64036369 0 0 0 0 357103283.80054617 68050861.173404694 0 68050861.173404694 -1290218383.9676132 0 0 0 0 488865217.34633255 -18249337.706390381 0 -18249337.706390381 -1269267742.13237 0 0 0 0 56366097.176972866 222029226.34891891 0 222029226.34891891 -943635586.58614731 0 0 0 0 90227594.230276823 64602394.629383087 0 64602394.629383087 -628141078.99277496 0 0 0 0 -271865761.68673134 329681098.02688026 0 329681098.02688026 -946065890.48385239 0 0 0 0 -221537182.18064666 -719251994.53438187 0 -719251994.53438187 -1385945642.5377502 0 0 0 0 159322413.71764326 -872196218.29195023 0 -872196218.29195023 -1855797146.9799652 0 0 0 0 711586.90703405417 -14853.494287829846 0 -14853.494287829846 -1082935.497077208 0 0 0 0 78842110.118284702 -582587937.05704498 0 -582587937.05704498 -1454375632.9446335 0 0 0 0 749325871.49555779 -327197600.14615631 0 -327197600.14615631 -851229882.3923645 0 0 0 0 671120937.76307857 358693199.11211014 0 358693199.11211014 -625251259.69542313 0 0 0 0 609511478.28318548 -120481110.40127945 0 -120481110.40127945 -1371382454.5181274 0 0 0 0 576024966.06017876 -7006333.130279541 0 -7006333.130279541 -1140271567.3779144 0 0 0 0 560674044.01250648 -317595530.26437378 0 -317595530.26437378 -1871558553.7112985 0 0 0 0 496824074.55600739 -291086895.12011719 0 -291086895.12011719 -1558784094.9506207 0 0 0 0 570641406.12394738 -84913459.452346802 0 -84913459.452346802 -1547066620.8341064 0 0 0 0 248648206.45980048 -278648972.06455994 0 -278648972.06455994 -1024140447.432785 0 0 0 0 290249627.55562353 -395386860.3325367 0 -395386860.3325367 -1330327826.6315613 0 0 0 0 558512951.3182497 -147376345.66824341 0 -147376345.66824341 -1299267804.2220612 0 0 0 0 379371002.69560432 -186242233.6979599 0 -186242233.6979599 -1272253129.8907623 0 0 0 0 375936911.97453785 -238434729.87880325 0 -238434729.87880325 -1056561863.8838501 0 0 0 0 434810307.97179556 -58322959.519687653 0 -58322959.519687653 -1087452168.5404816 0 0 0 0 300638424.62286901 -134295985.38235474 0 -134295985.38235474 -1016177633.6137047 0 0 0 0 295175365.58655643 -177341790.32637405 0 -177341790.32637405 -1068185553.0099487 0 0 0 0 221428025.6285665 -214147555.45173836 0 -214147555.45173836 -727924975.48883057 0 0 0 0 233534607.84237814 -282555666.37486839 0 -282555666.37486839 -1024079443.0088501 0 0 0 0 95058741.129624128 -150178070.73782349 0 -150178070.73782349 -540821381.4389801 0 0 0 0 86602563.582766533 -282142160.90454829 0 -282142160.90454829 -890834910.46439362 0 0 0 0 96685385.728343487 -290681724.33067322 0 -290681724.33067322 -886102355.82246208 0 0 0 0 136324897.11630964 -281508916.70862293 0 -281508916.70862293 -10463754.854766846 0 0 0 0 334184150.9196825 -219303660.40705872 0 -219303660.40705872 -565821606.75212336 0 0 0 0 187840009.25258589 -108201172.6680336 0 -108201172.6680336 -708630440.48679495 0 0 0 0 142917616.0905301 -187759663.12278128 0 -187759663.12278128 -523563203.21759796 0 0 0 0 17771978.08855629 1191310.2626571655 0 1191310.2626571655 -38067336.392881393 0 0 0 0 699082.70876410883 -633869.1124138087 0 -633869.1124138087 -1207438.8609859152 0 0 0 0 -44905764.782203078 8098649.6379804611 0 8098649.6379804611 298511087.52238846 0 0 0 0 64349667.33887881 -100044757.81387234 0 -100044757.81387234 -74174534.928947449 0 0 0 0 -71677887.347541466 -109342580.42506146 0 -109342580.42506146 -87119685.603401184 0 0 0 0 -76119453.119468689 287758059.83313179 0 287758059.83313179 -435507973.02678299 0 0 0 0 -51302436.870442867 89728663.090522766 0 89728663.090522766 -180753055.41366959 0 0 0 0 -95597714.493297815 14882396.069820404 0 14882396.069820404 115655781.11840439 0 0 0 0 1883132.9901085359 -2714737.4819812672 0 -2714737.4819812672 -3906533.8567170603 0 0 0 0 61887495.787147522 8272649.2532997131 0 8272649.2532997131 -8411795.9255180359 0 0 0 0 -1436172.0580888833 -5224295.9641486183 0 -5224295.9641486183 -6989367.8659038469 0 0 0 0 58005483.291516915 -48787923.727223396 0 -48787923.727223396 -65608430.898117065 0 0 0 0 -4361951.9974695444 -4589441.4654378891 0 -4589441.4654378891 -1311836.2188034058 0 0 0 0 425304.21993592894 -1880016.9130711742 0 -1880016.9130711742 -3712416.0181979388 0 0 0 0 -5286292.5062689781 -10414662.961010456 0 -10414662.961010456 -5898760.8297729492 0 0 0 0 -2468589.2412257195 -5411487.3785800934 0 -5411487.3785800934 -4180106.0078620911 0 0 0 0 -1796254.610168457 -8664149.5038290024 0 -8664149.5038290024 -13278747.632881165 0 0 0 0 -2075936.9370962766 -6276162.3685901165 0 -6276162.3685901165 -7046896.2839349434 0 0 0 0 2347139.5502262115 -19959138.828617096 0 -19959138.828617096 -14998781.699338913 0 0 0 0 2909508.908723549 943774.81143693998 0 943774.81143693998 -4021161.3889147826 0 0 0 0 -162891637.6658628 -304561019.33540344 0 -304561019.33540344 -531160084.33722687 0 0 0 0 -2804552.9492588043 -14565196.731266022 0 -14565196.731266022 -17662439.719181061 0 0 0 0 -89288419.872505307 -220570708.4867878 0 -220570708.4867878 -512219802.88409424 0 0 0 0 86551.413140406599 42257.294666318223 0 42257.294666318223 -177545.63678402081 0 0 0 0 59494218.10270977 -233047514.36400604 0 -233047514.36400604 -924124867.28973389 0 0 0 0 47368039.479632676 -26822422.314692736 0 -26822422.314692736 -12743253.879013062 0 0 0 0 -5021824.9413070679 -7034968.5070114136 0 -7034968.5070114136 2219510.4970703125 0 0 0 0 -1459440.2791703495 -878416.10082805529 0 -878416.10082805529 -2572476.0164043959 0 0 0 0 -158493387.49511528 -263684276.90909958 0 -263684276.90909958 -695305214.35179901 0 0 0 0 -139450076.966259 -344025884.74726868 0 -344025884.74726868 -854186904.89480591 0 0 0 0 -124318849.29871678 -404455314.95182037 0 -404455314.95182037 -807647810.61497498 0 0 0 0 -231732183.96784997 -331325558.48139668 0 -331325558.48139668 -626159037.9662056 0 0 0 0 80469007.310756564 -194324338.66479945 0 -194324338.66479945 272434691.28726196 0 0 0 0 -126507868.91190886 -523905976.3814888 0 -523905976.3814888 -1197314055.9817543 0 0 0 0 -269494.72916496731 -170553.17604055069 0 -170553.17604055069 -907917.80771184154 0 0 0 0 -229393730.28396428 -372412316.76725292 0 -372412316.76725292 -316309443.87213516 0 0 0 0 -147669991.38238835 -221511902.45767593 0 -221511902.45767593 -272409509.74148369 0 0 0 0 -330204950.65402752 -508857657.16710472 0 -508857657.16710472 -458010794.26934052 0 0 0 0 -133195791.98398185 -326591386.42250443 0 -326591386.42250443 -599458464.51701355 0 0 0 0 -170823498.51065844 -355799951.95400429 0 -355799951.95400429 -378427647.11700439 0 0 0 0 -133424008.12843364 -229463385.76439285 0 -229463385.76439285 -197111590.1847496 0 0 0 0 -101766352.81520176 -229067745.29943085 0 -229067745.29943085 -213421985.44624329 0 0 0 0 -261799955.01011097 -367953184.21010208 0 -367953184.21010208 -245122963.38937473 0 0 0 0 -208503846.457708 -401422674.49302292 0 -401422674.49302292 -328553668.8029089 0 0 0 0 -202488818.76721257 -353354872.35838842 0 -353354872.35838842 -316928893.43752289 0 0 0 0 -298683651.00205714 -306558544.90740204 0 -306558544.90740204 -336868490.72118187 0 0 0 0 -304615831.64812869 -409640953.16069221 0 -409640953.16069221 -342361814.03725624 0 0 0 0 -208224970.45765114 -421777347.20969009 0 -421777347.20969009 -425135733.25563431 0 0 0 0 -131411330.04086554 -267914065.91495705 0 -267914065.91495705 -457784265.72793198 0 0 0 0 -52604062.726654708 -205634915.37101603 0 -205634915.37101603 -522567055.51293182 0 0 0 0 222560937.10412294 125751322.16989708 0 125751322.16989708 -89815147.443344116 0 0 0 0 19823918.382395029 -60289054.927791595 0 -60289054.927791595 -355650135.14067841 0 0 0 0 22562198.183796167 -190548104.4034996 0 -190548104.4034996 -542155453.7272563 0 0 0 0 -188338925.82204103 -354025732.70272255 0 -354025732.70272255 183947790.52903366 0 0 0 0 -183266980.34944046 -378372644.99887276 0 -378372644.99887276 -363746158.24895859 0 0 0 0 -189504570.58975935 -408650676.99838543 0 -408650676.99838543 -146823346.84246063 0 0 0 0 142943899.56519336 108084883.1795311 0 108084883.1795311 -1573963275.0050344 0 0 0 0 23407.961095692161 4536267.862101078 0 4536267.862101078 -940841443.74590302 0 0 0 0 6302226.7304368243 -55665105.884702682 0 -55665105.884702682 -401775366.08541489 0 0 0 0 -4616365.0759529192 -2634322.770722717 0 -2634322.770722717 -194061949.93618774 0 0 0 0 -31949196.582258403 -188292489.56658792 0 -188292489.56658792 -1833983769.4792252 0 0 0 0 -92250224.566774532 616442698.37246323 0 616442698.37246323 -1808484894.1623306 0 0 0 0 35390.755517022568 -387167.63750694692 0 -387167.63750694692 -852680.19527647272 0 0 0 0 469380447.80779839 155243953.90259361 0 155243953.90259361 -1375861912.3787842 0 0 0 0 -256305.62477554352 -855149.82986236736 0 -855149.82986236736 -1445866.5817987472 0 0 0 0 188867027.6511718 19646953.664266586 0 19646953.664266586 -848844160.92328262 0 0 0 0 -5041269.044451315 -19605623.153506756 0 -19605623.153506756 -539848911.53889084 0 0 0 0 3271957.6869105399 -9269763.8558864594 0 -9269763.8558864594 -557017483.25010681 0 0 0 0 -7160605.5763253868 173337737.08057976 0 173337737.08057976 -888734567.91559601 0 0 0 0 -349681.31870244903 -408888.93006848358 0 -408888.93006848358 -608708.06167203747 0 0 0 0 105308647.78155346 -18910412.519760132 0 -18910412.519760132 -1736751381.3917542 0 0 0 0 -46970496.218369991 -910046127.88685989 0 -910046127.88685989 -45980936.37166214 0 0 0 0 -95627025.938782632 -434087212.21861267 0 -434087212.21861267 -719499737.61284637 0 0 0 0 -362651314.2850647 -558971822.03956223 0 -558971822.03956223 -428413267.25673676 0 0 0 0 -73260317.653566122 77465137.695583344 0 77465137.695583344 -358425250.80179214 0 0 0 0 -63187380.134450436 -798889796.38631439 0 -798889796.38631439 -1171489188.7909698 0 0 0 0 -397779664.13042712 107004792.62685013 0 107004792.62685013 -1490833849.7022781 0 0 0 0 53700110.082064688 -339738222.07542419 0 -339738222.07542419 -1442156538.1762466 0 0 0 0 -30343490.653243184 -65690365.343009949 0 -65690365.343009949 -375747560.44150925 0 0 0 0 -368465223.10158914 -209946980.28678167 0 -209946980.28678167 -1843849529.4046135 0 0 0 0 45965169.168654069 -16676378.137044907 0 -16676378.137044907 -1434489234.7193356 0 0 0 0 -410305638.67874891 433760438.04991341 0 433760438.04991341 -1603915963.921608 0 0 0 0 -29453298.987135548 114500476.72495079 0 114500476.72495079 -1575085474.429009 0 0 0 0 -516138.29098751384 -389884.1356085185 0 -389884.1356085185 -759325.69209209643 0 0 0 0 149611883.06232643 271226694.78426743 0 271226694.78426743 -1463494221.095787 0 0 0 0 33238570.908618689 344684112.24082756 0 344684112.24082756 -1112659798.0499992 0 0 0 0 -137995.12079490145 -869630.49473623373 0 -869630.49473623373 -1514379.942494371 0 0 0 0 -1652120456.8233275 -189751833.97252655 0 -189751833.97252655 -822440712.06526756 0 0 0 0 20059499.888003826 1208512930.4297123 0 1208512930.4297123 -2015394382.7774687 0 0 0 0 -591821.70243230928 -1247976.1157858819 0 -1247976.1157858819 -2039479.9173346795 0 0 0 0 -199028864.00490522 -250576419.37591553 0 -250576419.37591553 82792061.40309906 0 0 0 0 -309333278.95402479 -738090564.60943985 0 -738090564.60943985 -277123655.4547081 0 0 0 0 74405037.0595202 17125483.305488586 0 17125483.305488586 -654033485.85858929 0 0 0 0 -108285447.69333601 190285184.15432549 0 190285184.15432549 -655417967.40117645 0 0 0 0 265458307.75508213 -94052687.36485672 0 -94052687.36485672 -37021922.600906372 0 0 0 0 -1222988.8338416675 -3459756.1232530251 0 -3459756.1232530251 -5262857.8204969391 0 0 0 0 89172830.354314327 242233593.28518677 0 242233593.28518677 -97970027.948041916 0 0 0 0 -251964573.55962896 47320910.99647522 0 47320910.99647522 46293257.134231567 0 0 0 0 13184344.372980595 130530723.64270973 0 130530723.64270973 -65535469.390785217 0 0 0 0 30447376.194892913 -7605448.5754528046 0 -7605448.5754528046 -82116568.846878052 0 0 0 0 47253316.378303528 35725744.359127045 0 35725744.359127045 -34157704.566661835 0 0 0 0 39304935.202524185 35925927.719402313 0 35925927.719402313 -30311977.446775913 0 0 0 0 -35715968.463918686 -106452698.05554199 0 -106452698.05554199 -309049313.67216492 0 0 0 0 768602.96763372421 -23054322.647983551 0 -23054322.647983551 -34329933.283222198 0 0 0 0 3055835.7597217183 2215315.3462437894 0 2215315.3462437894 -3456134.1192510007 0 0 0 0 8262880.4530272484 -8784708.7667999268 0 -8784708.7667999268 -25605441.434844971 0 0 0 0 1616143.4187811078 2464433.0725826304 0 2464433.0725826304 -698366.30874214135 0 0 0 0 96237852.459556103 -80463795.075202942 0 -80463795.075202942 -79993205.854831696 0 0 0 0 661647.30975220725 1164632.3563203812 0 1164632.3563203812 -1168301.4841995239 0 0 0 0 21904645.912751198 33696425.209518433 0 33696425.209518433 -111422215.26138115 0 0 0 0 -21832338.159754753 -7533271.2409229279 0 -7533271.2409229279 41023217.178962708 0 0 0 0 -3469085.1903083324 79228215.226066589 0 79228215.226066589 112824949.73247528 0 0 0 0 319932.70283548906 -223496.09020967782 0 -223496.09020967782 -1236344.2065430488 0 0 0 0 825658.13868811051 763756.23257948691 0 763756.23257948691 170256.12231754139 0 0 0 0 -79642667.503965378 -44977603.820390701 0 -44977603.820390701 206818092.29628754 0 0 0 0 75780996.123796582 73176876.614048004 0 73176876.614048004 53726713.761253357 0 0 0 0 1372295.990280973 2655993.1137601957 0 2655993.1137601957 -446860.49910083413 0 0 0 0 35022260.317758083 8676789.9182929993 0 8676789.9182929993 -21304625.043657303 0 0 0 0 76209893.951956034 -43143263.981658936 0 -43143263.981658936 14475825.034021378 0 0 0 0 86403301.527366221 -34902055.055142403 0 -34902055.055142403 -122973938.02502441 0 0 0 0 1746818.4676383627 1601509.6666256804 0 1601509.6666256804 -266724.33042799868 0 0 0 0 13549293.286425397 29995971.120567322 0 29995971.120567322 110230291.93367767 0 0 0 0 -99231919.974254489 53296834.025497437 0 53296834.025497437 106418889.74272919 0 0 0 0 22883095.099302068 -34575579.870218277 0 -34575579.870218277 -32018343.674934387 0 0 0 0 -140047793.88446021 -191543459.1586895 0 -191543459.1586895 -119299678.00099182 0 0 0 0 27734910.981834412 97175768.826993942 0 97175768.826993942 57476722.936275482 0 0 0 0 -159563212.72902292 39898557.223644257 0 39898557.223644257 88093065.82715416 0 0 0 0 204111765.68038824 -3296124.7412304878 0 -3296124.7412304878 -415699272.91108704 0 0 0 0 351616.03748850798 -349581.66963765514 0 -349581.66963765514 -152193.44203216955 0 0 0 0 -65792264.539188325 -163824424.31166458 0 -163824424.31166458 -120154439.38769531 0 0 0 0 -301240633.36005336 -402143478.36046028 0 -402143478.36046028 -624066081.37033844 0 0 0 0 -450991610.48491836 -417359122.65485001 0 -417359122.65485001 -601454353.32168579 0 0 0 0 13991488.556080699 -14764665.4739151 0 -14764665.4739151 -451534960.04129219 0 0 0 0 35906818.566862762 -39125869.000370026 0 -39125869.000370026 -374338535.39319611 0 0 0 0 -42316086.215725139 -184458220.51055527 0 -184458220.51055527 -570446492.43545532 0 0 0 0 76669092.295620561 -153681840.8147583 0 -153681840.8147583 -684352663.72223663 0 0 0 0 180650180.56795788 -208617784.42655945 0 -208617784.42655945 -659781756.9251709 0 0 0 0 306142338.19010705 -155525478.61081696 0 -155525478.61081696 -578349134.48255539 0 0 0 0 24944598.914919823 -257732709.45763016 0 -257732709.45763016 -498997175.96459198 0 0 0 0 106780599.90374991 126648807.74488068 0 126648807.74488068 141225850.74590302 0 0 0 0 -49322669.633899584 -150452343.72388458 0 -150452343.72388458 -342838925.14768219 0 0 0 0 149974212.9090243 152873707.04175472 0 152873707.04175472 -106799590.36742401 0 0 0 0 -64720494.239614889 -118030211.41466904 0 -118030211.41466904 123144874.85598373 0 0 0 0 -2318115.8196940422 -27083569.180007935 0 -27083569.180007935 101541055.89864731 0 0 0 0 -70478530.696654797 -112789866.82543564 0 -112789866.82543564 145872020.82276917 0 0 0 0 597763.65031672444 381649.49865185283 0 381649.49865185283 -128865.48589897342 0 0 0 0 -123258535.14114845 -214770699.78128052 0 -214770699.78128052 -163212411.32367706 0 0 0 0 88341775.355607748 34506446.972000122 0 34506446.972000122 -306126663.80604362 0 0 0 0 87332121.202646017 49314277.605331421 0 49314277.605331421 -33623304.650043488 0 0 0 0 451314619.22275007 34232770.550973892 0 34232770.550973892 -503089731.65642929 0 0 0 0 -243709574.89749333 56821092.995028496 0 56821092.995028496 97158124.625862122 0 0 0 0 126570.29738883104 -186741.59924841407 0 -186741.59924841407 -1288043.0190022737 0 0 0 0 145152600.44981676 110802439.47296906 0 110802439.47296906 101503481.42575836 0 0 0 0 48697.303254030245 -8056.6056662452174 0 -8056.6056662452174 -590110.81888987869 0 0 0 0 -82862699.256213829 -217819103.28447253 0 -217819103.28447253 -165086277.79560471 0 0 0 0 64971084.916759007 -43055647.958679199 0 -43055647.958679199 -107716971.62544632 0 0 0 0 -14570090.456750207 -67401494.269619226 0 -67401494.269619226 -335106118.1397438 0 0 0 0 -103944.2441838438 -49854696.286216736 0 -49854696.286216736 110904.58740997314 0 0 0 0 50565701.349613622 6833260.8059597015 0 6833260.8059597015 -176647986.36384964 0 0 0 0 52638249.868310943 -99553321.728937149 0 -99553321.728937149 -119624105.46124268 0 0 0 0 191975005.98555097 31376215.729074478 0 31376215.729074478 -51884436.375657082 0 0 0 0 34778328.150677145 -5797453.9081335068 0 -5797453.9081335068 -20212571.276268005 0 0 0 0 102577659.39709896 -71152792.501152039 0 -71152792.501152039 -13463278.758319855 0 0 0 0 45413102.099869616 -110666906.88422656 0 -110666906.88422656 19756865.645896912 0 0 0 0 70023953.553463101 21854171.992416382 0 21854171.992416382 -53919870.043010712 0 0 0 0 -177963026.99148688 -169708317.98579407 0 -169708317.98579407 147937045.82075119 0 0 0 0 93090.589449692619 -362739.03187471419 0 -362739.03187471419 -1005066.4419779405 0 0 0 0 139164036.03202969 337018862.19687843 0 337018862.19687843 -210009518.61396027 0 0 0 0 92553.294549262064 -160493.457449276 0 -160493.457449276 -1305070.1754161566 0 0 0 0 -7191531.1130890846 127688604.132164 0 127688604.132164 -90545339.068710327 0 0 0 0 278116119.15895021 161649520.65806007 0 161649520.65806007 -237612404.65784073 0 0 0 0 -56826075.639499903 50574423.327934265 0 50574423.327934265 270460140.07828522 0 0 0 0 131643459.41989279 149126616.96259689 0 149126616.96259689 -19443068.541226387 0 0 0 0 320148580.21098459 -193802763.51802063 0 -193802763.51802063 -151065167.09766388 0 0 0 0 590112325.02061296 -125808269.14759111 0 -125808269.14759111 -256698238.61153412 0 0 0 0 157491.14252551767 -639909.06112079124 0 -639909.06112079124 -2864209.0664408244 0 0 0 0 22036.246129425039 -171038.65743489808 0 -171038.65743489808 -306945.79076099396 0 0 0 0 -329953640.1288206 -137070749.2917881 0 -137070749.2917881 97334610.942733765 0 0 0 0 -2153251.1916185021 -321009134.6889267 0 -321009134.6889267 22325946.541114807 0 0 0 0 -7149066.2105204612 16382957.655519485 0 16382957.655519485 -329770364.80975723 0 0 0 0 16592336.722079873 149995197.29944611 0 149995197.29944611 72387856.812397957 0 0 0 0 -392793720.1636281 -495726871.22245026 0 -495726871.22245026 -5087086.1792144775 0 0 0 0 -392265980.43435955 -332936911.65132141 0 -332936911.65132141 179959942.9696064 0 0 0 0 -286617336.61784172 -492444124.26731873 0 -492444124.26731873 -301435891.71054459 0 0 0 0 -260343116.14217889 -425259033.37815094 0 -425259033.37815094 -138068433.44126129 0 0 0 0 -351944166.56262398 -661500295.60807419 0 -661500295.60807419 -400284126.69743347 0 0 0 0 -315803677.09468269 -440427611.49604797 0 -440427611.49604797 -381746198.08181 0 0 0 0 -251123960.91632199 -328496571.26475143 0 -328496571.26475143 -458216364.95291138 0 0 0 0 -198875765.57169873 -363434706.0669179 0 -363434706.0669179 -436734644.43537903 0 0 0 0 -315324655.05601144 -240660921.79846573 0 -240660921.79846573 -403199478.19098663 0 0 0 0 -515289439.99462581 -332972690.22207642 0 -332972690.22207642 -189986889.51387787 0 0 0 0 -471018030.11694193 -101785144.07149124 0 -101785144.07149124 -521938289.07642365 0 0 0 0 -214041413.83369398 -124948647.01056671 0 -124948647.01056671 -612199571.18519974 0 0 0 0 -42149292.048945904 -281994641.94879913 0 -281994641.94879913 -556308632.43349838 0 0 0 0 -107012350.54822206 209067883.98767471 0 209067883.98767471 -249590836.91280746 0 0 0 0 5752109.4127569199 122844699.16784096 0 122844699.16784096 -196876549.15196228 0 0 0 0 31726101.084606886 55160961.063079834 0 55160961.063079834 41797428.901527405 0 0 0 0 -136439018.84503007 128127640.28850937 0 128127640.28850937 -127500233.98094559 0 0 0 0 -55095.801061867271 682289.70220846497 0 682289.70220846497 -216677.78048313223 0 0 0 0 -194927025.07628906 169604143.89542007 0 169604143.89542007 -139386663.20982361 0 0 0 0 -207072910.92155284 -275621105.77651739 0 -275621105.77651739 -428296036.01506805 0 0 0 0 420861.62529422651 743587.89400575263 0 743587.89400575263 -1078323.1524883509 0 0 0 0 -225853530.6154505 -249258383.65040207 0 -249258383.65040207 -214292585.87482452 0 0 0 0 -81550770.763662815 -230774481.92562866 0 -230774481.92562866 -511501945.87056541 0 0 0 0 -156926089.80302668 -281484206.13771057 0 -281484206.13771057 -495711090.70490456 0 0 0 0 -99209165.909483969 -294619001.2932148 0 -294619001.2932148 -493234997.33747101 0 0 0 0 -201283042.99349236 -114689685.16451645 0 -114689685.16451645 -37192391.369808197 0 0 0 0 1413589.7821839601 1725004.2332692984 0 1725004.2332692984 -1087896.8470323803 0 0 0 0 -77325120.29727459 25423743.066841125 0 25423743.066841125 -31132560.71778512 0 0 0 0 -18058549.845378995 -216379225.85732079 0 -216379225.85732079 -374823619.4171524 0 0 0 0 -105174782.6905247 -162991167.39563751 0 -162991167.39563751 -260211308.60766602 0 0 0 0 -38041665.772980213 -224980848.27975464 0 -224980848.27975464 -325294732.78491211 0 0 0 0 50090348.176204443 -116950455.54595947 0 -116950455.54595947 -264295339.80172729 0 0 0 0 87112819.997107506 -209766992.33271027 0 -209766992.33271027 -69862709.737182617 0 0 0 0 134777.61480017949 -72853.174831848592 0 -72853.174831848592 -198091.31670774706 0 0 0 0 -77424967.203568935 -216725840.79985809 0 -216725840.79985809 -288302805.07743263 0 0 0 0 -52057987.307260036 -258527726.12469482 0 -258527726.12469482 -374461172.80577087 0 0 0 0 -102817184.68170929 -246489891.0480957 0 -246489891.0480957 -307554238.14521027 0 0 0 0 -108604591.46781564 -227663341.94227219 0 -227663341.94227219 -349985044.25822449 0 0 0 0 -72969333.491198301 -222711205.6759491 0 -222711205.6759491 -404199785.47184753 0 0 0 0 -87087619.26099515 -305321140.06624413 0 -305321140.06624413 -461319897.54069519 0 0 0 0 -108577364.495152 -211105995.38238907 0 -211105995.38238907 -369978502.33023071 0 0 0 0 -102246086.82903743 -263404173.66373444 0 -263404173.66373444 -508279398.29741669 0 0 0 0 -202323381.65480912 -313052154.9831543 0 -313052154.9831543 -524146350.30998993 0 0 0 0 -103719275.76430368 -259896376.67310333 0 -259896376.67310333 -615583203.25440216 0 0 0 0 -179338902.26039505 -324510035.74768448 0 -324510035.74768448 -639107397.08719444 0 0 0 0 -281056911.89659166 -216930984.43809509 0 -216930984.43809509 -576294762.31377411 0 0 0 0 -161557222.51144439 -248312770.30283356 0 -248312770.30283356 -569285125.89653015 0 0 0 0 -154926160.8464179 -217569889.62737274 0 -217569889.62737274 -513095516.5518074 0 0 0 0 -445631279.00863791 -397335886.14002609 0 -397335886.14002609 -566927131.77581787 0 0 0 0 -180818985.23524499 -284594246.86360931 0 -284594246.86360931 -522561771.95046234 0 0 0 0 120849.47033963387 -10499.64505132474 0 -10499.64505132474 -545829.76991513744 0 0 0 0 -116988490.5597564 11264229.821426392 0 11264229.821426392 322580590.34607315 0 0 0 0 -41847062.326747537 -419525956.40120125 0 -419525956.40120125 -1103304475.213829 0 0 0 0 -414087.16479182523 -95838.086592137814 0 -95838.086592137814 -149993.55241172109 0 0 0 0 -1124359.1884366125 -18536724.152202606 0 -18536724.152202606 -118883694.46143723 0 0 0 0 -225214083.46618915 -242336536.90329361 0 -242336536.90329361 87309444.75472641 0 0 0 0 -202723054.42702758 -374742669.62601852 0 -374742669.62601852 -405046661.6051178 0 0 0 0 -216922898.6272819 -318867940.41953278 0 -318867940.41953278 -246953513.11066437 0 0 0 0 121396.04283243974 325083.07971503958 0 325083.07971503958 -438890.23409059457 0 0 0 0 2420866.0015839338 -86236920.0818367 0 -86236920.0818367 -259499317.31520844 0 0 0 0 -102528033.28401494 -63019288.461278915 0 -63019288.461278915 -117332920.67868805 0 0 0 0 -9045342.2376577966 -35704389.169827223 0 -35704389.169827223 -46546221.168418884 0 0 0 0 -712871.56144419312 12073139.343185186 0 12073139.343185186 -39654022.464904785 0 0 0 0 20223110.297566056 35083375.199239731 0 35083375.199239731 20797241.763153076 0 0 0 0 99453900.18094784 -11926844.979537964 0 -11926844.979537964 -56253794.153785706 0 0 0 0 26939133.037775874 -47418850.361423492 0 -47418850.361423492 -102229020.52096558 0 0 0 0 -72539869.484487712 6011224.3913555145 0 6011224.3913555145 -7134220.2032833099 0 0 0 0 -36910902.454330325 -61633393.379278183 0 -61633393.379278183 23179402.054344177 0 0 0 0 -230738331.67034626 26029504.861911774 0 26029504.861911774 34011043.240428925 0 0 0 0 -218700332.56565475 5350506.5535507202 0 5350506.5535507202 -135740385.88367081 0 0 0 0 -62679.250977778109 153021.29592201672 0 153021.29592201672 -189565.10431119986 0 0 0 0 -86347349.299588025 7505588.9804420471 0 7505588.9804420471 -60570559.300888062 0 0 0 0 -155651854.72826862 28688383.367824554 0 28688383.367824554 -335120503.85169983 0 0 0 0 -182685925.60175931 -37517437.502277374 0 -37517437.502277374 -283411364.16925049 0 0 0 0 -66559875.267388582 -56656804.80840683 0 -56656804.80840683 -737363303.50431538 0 0 0 0 -84002824.908149481 -263075385.20912552 0 -263075385.20912552 -999712177.76081848 0 0 0 0 -291306140.99846268 -365146088.47439957 0 -365146088.47439957 -796137396.29504395 0 0 0 0 -101438965.3400774 -321465496.72502899 0 -321465496.72502899 -543804072.84229279 0 0 0 0 -116265713.53567576 -90694840.188457489 0 -90694840.188457489 -648023152.36769867 0 0 0 0 -109372317.63460326 -222971869.22049713 0 -222971869.22049713 -214296293.47121429 0 0 0 0 21901929.137764096 -258633125.58461761 0 -258633125.58461761 -464982237.18262482 0 0 0 0 -93697649.656738043 -303726021.96352673 0 -303726021.96352673 -365542716.42979431 0 0 0 0 -192873385.64602947 -430680100.13999176 0 -430680100.13999176 -451996922.63083649 0 0 0 0 -122452021.59035754 -333908332.50554276 0 -333908332.50554276 -427604494.77186584 0 0 0 0 -175014703.31302857 -470709082.60437393 0 -470709082.60437393 -388549725.29967499 0 0 0 0 -206352361.53213072 -518669603.96220016 0 -518669603.96220016 -461927665.95281219 0 0 0 0 -197529179.24330878 -536180321.81405258 0 -536180321.81405258 -565382597.8146019 0 0 0 0 -230017095.92817017 -602122409.66448772 0 -602122409.66448772 -675911238.23257446 0 0 0 0 -80251700.261307329 -387452903.4755888 0 -387452903.4755888 -696876982.387146 0 0 0 0 366216951.29363632 119795565.70227242 0 119795565.70227242 -540267438.16710281 0 0 0 0 30540.916382713796 -435610.53997849382 0 -435610.53997849382 -1568034.8434831947 0 0 0 0 -433412263.30505037 -644603300.98311806 0 -644603300.98311806 -384504735.47206879 0 0 0 0 132194126.11244369 -177939765.17058182 0 -177939765.17058182 -890033040.63276672 0 0 0 0 -228327681.3887198 -547130857.26910925 0 -547130857.26910925 -1137257733.7575989 0 0 0 0 59843520.323384285 43549013.541692734 0 43549013.541692734 -337257137.25601196 0 0 0 0 228902719.13035405 32617444.40165329 0 32617444.40165329 -745718831.82313538 0 0 0 0 -185393147.06548333 -355960052.57557011 0 -355960052.57557011 -518214585.95183563 0 0 0 0 115344982.73622555 -188494415.06424713 0 -188494415.06424713 -744378212.37658691 0 0 0 0 7854770.1902697086 -177711685.03981018 0 -177711685.03981018 -682398507.10050011 0 0 0 0 -169244698.96570098 -387563263.2037468 0 -387563263.2037468 -796385022.6553638 0 0 0 0 -87853849.415053189 -442027279.33802509 0 -442027279.33802509 -995295215.67909241 0 0 0 0 -920195916.45780516 -284696236.55503845 0 -284696236.55503845 -800669645.36991882 0 0 0 0 -741433359.29071951 -45759690.295333862 0 -45759690.295333862 -989723172.79870415 0 0 0 0 -15658.144244462892 -119515.81970737129 0 -119515.81970737129 -630424.67604319751 0 0 0 0 -153075400.11597317 61037875.683027506 0 61037875.683027506 -24397245.757873535 0 0 0 0 -457760535.47881722 -460744548.27978134 0 -460744548.27978134 -436307229.08576965 0 0 0 0 -31715230.165727973 65825441.248553276 0 65825441.248553276 -316402455.22171021 0 0 0 0 -214474478.47764874 -83049012.804821014 0 -83049012.804821014 139834823.0703392 0 0 0 0 52988311.681484818 -8290432.2422580719 0 -8290432.2422580719 -47482488.649327278 0 0 0 0 -334081699.82498795 -248418904.56069565 0 -248418904.56069565 -104224474.63783836 0 0 0 0 -103447894.52752149 -339101487.27954674 0 -339101487.27954674 -514759505.70082855 0 0 0 0 -23964531.897883214 -232756320.78390336 0 -232756320.78390336 -342726913.57094955 0 0 0 0 -37019116.367769808 -190168985.94245529 0 -190168985.94245529 -183200491.54364014 0 0 0 0 246132.090771166 -101440280.48622955 0 -101440280.48622955 -342112993.79282379 0 0 0 0 49852585.255060196 -123349324.35671997 0 -123349324.35671997 -435235929.71555138 0 0 0 0 51442955.145870104 -142111781.12992382 0 -142111781.12992382 -552375152.07831573 0 0 0 0 -13959735.614148825 -17516551.982170105 0 -17516551.982170105 64373388.43494606 0 0 0 0 -50144.291082773532 -210138.11875104904 0 -210138.11875104904 -119898.73933923244 0 0 0 0 -2257287.2874022573 -646631.97404341772 0 -646631.97404341772 6316.0634894194081 0 0 0 0 -168988279.71497822 -101014962.43295288 0 -101014962.43295288 -110662602.56004143 0 0 0 0 -3429050.2150831223 148485.97152709961 0 148485.97152709961 -6158940.5200405121 0 0 0 0 -5496013.4398913383 2874671.6658287048 0 2874671.6658287048 -3006391.1941452026 0 0 0 0 -5909483.3340847492 1170580.5992612839 0 1170580.5992612839 3673372.8531570435 0 0 0 0 -5697345.2519068718 909298.94703865051 0 909298.94703865051 -1218889.6157302856 0 0 0 0 -4354211.49274683 -430278.90764427185 0 -430278.90764427185 -3105242.6741333008 0 0 0 0 -370420.44211027946 -2301642.8733805334 0 -2301642.8733805334 -2247455.988075804 0 0 0 0 7935033.517959794 -4267025.4797916412 0 -4267025.4797916412 -3322044.9248352051 0 0 0 0 -2046398.8096755147 -166133.08088684082 0 -166133.08088684082 255904.05532073975 0 0 0 0 -3364139.6759477854 -5230559.8320960999 0 -5230559.8320960999 -4577117.0746231079 0 0 0 0 -5284884.411020875 -5569741.290271759 0 -5569741.290271759 782797.9504699707 0 0 0 0 -2049109.3711318374 -3528522.1834564209 0 -3528522.1834564209 1125151.3611602783 0 0 0 0 -5306564.6190347672 -4766119.3875236511 0 -4766119.3875236511 2819976.8687210083 0 0 0 0 229822.45351520181 -6887812.4320392609 0 -6887812.4320392609 811012.12733459473 0 0 0 0 6120433.3087113276 -1412375.1808586121 0 -1412375.1808586121 -1626145.8308410645 0 0 0 0 -3370951.0088759661 -864761.8544921875 0 -864761.8544921875 -615301.94375610352 0 0 0 0 -1818454.8168079853 -2756099.7686958313 0 -2756099.7686958313 -643753.19979667664 0 0 0 0 -6660849.869576931 -1949638.2083587646 0 -1949638.2083587646 -749115.63972854614 0 0 0 0 16099931.450452805 2342539.2647857666 0 2342539.2647857666 -7790384.4752120972 0 0 0 0 -7595357.8983689547 17181255.981098175 0 17181255.981098175 -15376947.369697571 0 0 0 0 -29936608.897742271 13827214.456100464 0 13827214.456100464 -15430932.264521003 0 0 0 0 13128627.542276651 -17287801.434753418 0 -17287801.434753418 -1566376.52318573 0 0 0 0 16758032.783617765 804549.5595703125 0 804549.5595703125 -3687170.3779907227 0 0 0 0 -4362386.1264777184 -8893321.8142089844 0 -8893321.8142089844 -53380.510555267334 0 0 0 0 -3955323.1923805475 -6558653.1297607422 0 -6558653.1297607422 3756573.5183944702 0 0 0 0 -17814231.629331589 -6537277.5743103027 0 -6537277.5743103027 8805425.998374939 0 0 0 0 -12025646.863065958 4209305.6734313965 0 4209305.6734313965 -53365606.672698975 0 0 0 0 -23546845.228411242 17767751.579469681 0 17767751.579469681 -13559440.923614502 0 0 0 0 -20743890.828849539 -6672999.0342664719 0 -6672999.0342664719 40407510.631652832 0 0 0 0 7359786.1847562492 46958571.660518646 0 46958571.660518646 -48990855.555610657 0 0 0 0 -41304815.807724208 -35708566.3555336 0 -35708566.3555336 -114181897.10386658 0 0 0 0 -31278019.170998275 18953829.97090292 0 18953829.97090292 -59490614.558273315 0 0 0 0 32368826.082162321 -48492554.745639801 0 -48492554.745639801 -249432422.14115906 0 0 0 0 6179204.3952035904 25622011.881036758 0 25622011.881036758 -50012658.447570801 0 0 0 0 -13545973.769631028 -25389395.513439178 0 -25389395.513439178 -156625332.67826843 0 0 0 0 -31536907.521416664 -2193841.1736717224 0 -2193841.1736717224 -30978885.470798492 0 0 0 0 -45081565.324188232 -99431304.231349945 0 -99431304.231349945 -176505477.95888805 0 0 0 0 -69142727.59568131 -103634333.52976418 0 -103634333.52976418 -13904803.216133118 0 0 0 0 -89961130.017639816 -106891231.45497608 0 -106891231.45497608 -107646823.9610672 0 0 0 0 -56207796.710031718 -174208931.00069714 0 -174208931.00069714 -337059668.71561432 0 0 0 0 -116128469.12255102 -214801776.28043485 0 -214801776.28043485 -371375530.91172028 0 0 0 0 -110198325.59682739 -112690591.8058548 0 -112690591.8058548 -210000602.82244873 0 0 0 0 -568376.75491588993 -819990.86613565544 0 -819990.86613565544 243008.61577667668 0 0 0 0 -3556509.7891289592 21721124.786499023 0 21721124.786499023 -113081036.70651245 0 0 0 0 -59050026.771087289 -142806750.1542778 0 -142806750.1542778 -156374549.42632103 0 0 0 0 -113276606.36540857 -233837489.43172812 0 -233837489.43172812 -407760944.35805893 0 0 0 0 -90163084.614439607 -80806565.835758209 0 -80806565.835758209 -238294900.10003662 0 0 0 0 -171909564.36006713 -163531422.79813385 0 -163531422.79813385 -412170931.39388657 0 0 0 0 -255471710.57353312 -316701569.22373247 0 -316701569.22373247 -404129782.57391357 0 0 0 0 -120089987.25858068 -263791844.98307228 0 -263791844.98307228 -626362305.18561649 0 0 0 0 -141601154.76030269 -387464840.69017959 0 -387464840.69017959 -530702088.18756866 0 0 0 0 102076.27564174461 -125460.37211978063 0 -125460.37211978063 -374447.50892579369 0 0 0 0 -60512439.132119656 -286964393.00918579 0 -286964393.00918579 -531201561.37709808 0 0 0 0 -197740357.03011799 -318144750.64587212 0 -318144750.64587212 -454548048.68691635 0 0 0 0 -9979762.5060540438 -97641819.700145721 0 -97641819.700145721 -270509316.09654617 0 0 0 0 -124483561.33355045 -248382215.91798973 0 -248382215.91798973 -401545231.66536713 0 0 0 0 -110561048.4462235 -257035453.0880127 0 -257035453.0880127 -530844518.02808571 0 0 0 0 -113052955.42538428 -307051700.85932541 0 -307051700.85932541 -454803036.06083107 0 0 0 0 -48720623.740664959 -161114776.62526512 0 -161114776.62526512 -407017031.97351074 0 0 0 0 -194892105.0119276 -315903537.65307236 0 -315903537.65307236 -480366031.30749798 0 0 0 0 -124080662.65604317 -265957389.8448925 0 -265957389.8448925 -492809826.57831573 0 0 0 0 -140347488.99610984 -261529515.07842541 0 -261529515.07842541 -507325705.04386902 0 0 0 0 -120712255.88881159 -358131346.3765564 0 -358131346.3765564 -583279929.42259455 0 0 0 0 -144455361.35236406 -260234290.65335083 0 -260234290.65335083 -590027380.66541767 0 0 0 0 146928.23773367179 -167589.33970285766 0 -167589.33970285766 -766113.5275266543 0 0 0 0 -150770474.78240681 -384005708.72972107 0 -384005708.72972107 -579796884.95453644 0 0 0 0 -147558880.8009572 -291410319.54682541 0 -291410319.54682541 -594092974.74533081 0 0 0 0 -167064763.96947828 -240005170.51074982 0 -240005170.51074982 -500348228.55412292 0 0 0 0 -135684355.07550871 -261229784.48506546 0 -261229784.48506546 -596417358.31501389 0 0 0 0 -1277158.682636084 -453872.96829784475 0 -453872.96829784475 -123178.43813467771 0 0 0 0 -43513704.116710901 -25695306.083339691 0 -25695306.083339691 118134282.55482674 0 0 0 0 -1905213.4205521755 -587002.32844671607 0 -587002.32844671607 -34104.489363299683 0 0 0 0 -93609383.007068157 -122891296.80698013 0 -122891296.80698013 -287232371.15491867 0 0 0 0 -17267501.785821199 -210558104.21168137 0 -210558104.21168137 -574891028.43179321 0 0 0 0 -10241594.802751303 -21240402.97951889 0 -21240402.97951889 81959919.34457016 0 0 0 0 41572833.801868916 -17222215.301914215 0 -17222215.301914215 -7385710.6444740295 0 0 0 0 -7805209.3699831963 4164829.3782520294 0 4164829.3782520294 23064298.155750275 0 0 0 0 5966938.8625948429 -25458734.585689545 0 -25458734.585689545 20876808.379165649 0 0 0 0 40508009.6385414 -23750982.199917793 0 -23750982.199917793 -19919137.159637451 0 0 0 0 45483277.271906823 -30737193.269987583 0 -30737193.269987583 -88601526.761539459 0 0 0 0 317273.7115383934 156230.43144649826 0 156230.43144649826 -228999.97271684557 0 0 0 0 74453596.573660374 -30039279.800281525 0 -30039279.800281525 -29815011.982849121 0 0 0 0 11328540.023173809 -1289710.2546691895 0 -1289710.2546691895 -30263665.21959877 0 0 0 0 52403107.385677814 24249768.85943985 0 24249768.85943985 -14916610.562705994 0 0 0 0 26695444.899296343 -74376153.49834919 0 -74376153.49834919 -56587582.119182587 0 0 0 0 60934584.115145802 25717670.167476654 0 25717670.167476654 -1705562.5256652832 0 0 0 0 -39409236.163508654 -38746810.354003906 0 -38746810.354003906 109060077.55638313 0 0 0 0 -29471970.488068819 -51278284.757324219 0 -51278284.757324219 70694235.774486542 0 0 0 0 -26228293.473880172 -20620196.484752655 0 -20620196.484752655 -7838127.5474777222 0 0 0 0 15173630.522857666 9963168.2102470398 0 9963168.2102470398 -56504603.411239624 0 0 0 0 -7252131.1164683104 -33869997.857475281 0 -33869997.857475281 -98872066.911399841 0 0 0 0 457045.72329748562 281021.2308036536 0 281021.2308036536 -437410.15592749044 0 0 0 0 -8583708.5596342087 7463119.9290924072 0 7463119.9290924072 -32748237.851341248 0 0 0 0 -6592354.2814469337 -6934539.3937320709 0 -6934539.3937320709 61959851.797721863 0 0 0 0 11963273.081072867 31041290.961694717 0 31041290.961694717 -61312914.12997818 0 0 0 0 1562027.4633245035 -509216.37724509463 0 -509216.37724509463 -39301.167706233449 0 0 0 0 -5035985.3812462687 503849.42568016052 0 503849.42568016052 -21994315.645965576 0 0 0 0 -7933713.9574987292 21737687.496786118 0 21737687.496786118 -14422166.558055878 0 0 0 0 246680.95870323689 -42355.459206761792 0 -42355.459206761792 -301013.13740335777 0 0 0 0 -9324493.5108766556 12534102.648897171 0 12534102.648897171 26280314.423736572 0 0 0 0 14978590.874698877 61276980.444332123 0 61276980.444332123 3340807.8054084778 0 0 0 0 61357119.679690272 -56540549.183349133 0 -56540549.183349133 -82224226.974716187 0 0 0 0 -12040814.122467518 8302560.5848655701 0 8302560.5848655701 105650081.06257629 0 0 0 0 2590558.250704037 -976031.31221373193 0 -976031.31221373193 -213774.21785890497 0 0 0 0 9353660.481446743 -23355418.616771698 0 -23355418.616771698 -51473302.757522583 0 0 0 0 -15127913.721776009 168207.25834274292 0 168207.25834274292 80256883.591472626 0 0 0 0 3471579.9113980564 -1535135.8402756397 0 -1535135.8402756397 -664955.55360211432 0 0 0 0 3564332.4171056747 -8513891.4078426361 0 -8513891.4078426361 52668794.479118347 0 0 0 0 3949828.5780363083 -11967038.072345734 0 -11967038.072345734 -22694872.539398193 0 0 0 0 2082698.0944983959 -9398445.1123332977 0 -9398445.1123332977 -18974585.51272583 0 0 0 0 -4220219.4243941307 -15278046.730575562 0 -15278046.730575562 -7263160.2424850464 0 0 0 0 3739342.1416608095 -9214799.1627311707 0 -9214799.1627311707 -18955685.552078247 0 0 0 0 2493715.0883431435 -8733916.9056015015 0 -8733916.9056015015 -8822197.7588348389 0 0 0 0 -24125221.721632063 -32474172.479875088 0 -32474172.479875088 -3667426.1265106201 0 0 0 0 -4579199.1372532845 4309460.6421470642 0 4309460.6421470642 17536347.50636673 0 0 0 0 552592.64359771041 -374078.44246083498 0 -374078.44246083498 -810722.88593226112 0 0 0 0 12553340.684931383 -15249467.508702755 0 -15249467.508702755 -18958128.776321411 0 0 0 0 -3941304.8837115765 -8047523.5381526947 0 -8047523.5381526947 -8231111.521194458 0 0 0 0 -4130327.78673172 -2510165.6674957275 0 -2510165.6674957275 8271271.725769043 0 0 0 0 548751.65103333443 -1142300.5826935116 0 -1142300.5826935116 -1318866.6767729688 0 0 0 0 1768000.2456827164 -1525831.8866271973 0 -1525831.8866271973 -7066948.2824401855 0 0 0 0 -4791182.5066165924 -3932681.8398094177 0 -3932681.8398094177 -1852443.7293243408 0 0 0 0 -7027686.5437412262 -3221534.3604621887 0 -3221534.3604621887 806572.23189544678 0 0 0 0 -7227539.2777854204 -2825637.5868024826 0 -2825637.5868024826 6168504.5724334717 0 0 0 0 -5147297.6436703205 -8445174.6595630646 0 -8445174.6595630646 559785.69928741455 0 0 0 0 -3796781.2989192009 -7830148.171661377 0 -7830148.171661377 -7867113.4362640381 0 0 0 0 -873450.85362589359 881357.15518951416 0 881357.15518951416 345602.74243354797 0 0 0 0 913286.48224560381 -579516.95160395466 0 -579516.95160395466 -3115995.6523768567 0 0 0 0 -3098140.8887147903 -1121317.7616186142 0 -1121317.7616186142 1013757.7164611816 0 0 0 0 -133275.60261501861 -343014.16344590345 0 -343014.16344590345 179140.16331890225 0 0 0 0 2187734.7117407322 -1364479.7305717468 0 -1364479.7305717468 -3169079.7485370636 0 0 0 0 -38802.251893629851 -2154840.4399979217 0 -2154840.4399979217 -2041749.4619349316 0 0 0 0 401167.253661111 -5782496.8037567139 0 -5782496.8037567139 -3289190.1889266968 0 0 0 0 2538807.0473956587 -1282885.2182681602 0 -1282885.2182681602 -3038614.6531187743 0 0 0 0 -1785531.9227337828 -2405094.2486418821 0 -2405094.2486418821 -2148058.0711949226 0 0 0 0 2690516.8104662895 -3385027.0632305145 0 -3385027.0632305145 -11363731.448242188 0 0 0 0 -7474933.8630638123 -935749.10841369629 0 -935749.10841369629 -5037121.2209663391 0 0 0 0 -1348584.4706616402 -1589049.5325279236 0 -1589049.5325279236 -8079819.0050811768 0 0 0 0 -519519.40972560004 -1006208.7782356632 0 -1006208.7782356632 283466.70835416764 0 0 0 0 -114176.78476769151 -437841.0321550034 0 -437841.0321550034 -634075.38959994912 0 0 0 0 3077587.7800146989 65266.073951439932 0 65266.073951439932 -4881363.0216700919 0 0 0 0 1286757.5887846947 -182280.11854553223 0 -182280.11854553223 -1945473.1834526062 0 0 0 0 -21417142.658794284 -10675204.782412529 0 -10675204.782412529 -7894907.19947052 0 0 0 0 4106952.0042554503 -5903711.6863723751 0 -5903711.6863723751 -6119466.5310665369 0 0 0 0 -6847836.2696352005 -564457.01770782471 0 -564457.01770782471 -9511082.3458628654 0 0 0 0 -17973618.389688492 -6534526.9314575195 0 -6534526.9314575195 -19506344.251502991 0 0 0 0 1666194.4474613667 -14783559.092874527 0 -14783559.092874527 9357492.2586212158 0 0 0 0 4158056.4572760761 -2580587.7936635986 0 -2580587.7936635986 -1639364.8427947387 0 0 0 0 -15345722.487276077 -8841383.7863388062 0 -8841383.7863388062 52415137.377197266 0 0 0 0 3897663.165163517 -7473084.4457492828 0 -7473084.4457492828 -22381509.749633789 0 0 0 0 7945547.7080593109 -65108682.999008179 0 -65108682.999008179 -54954947.371109009 0 0 0 0 1954291.7218227386 -16587699.00460434 0 -16587699.00460434 29773248.465856552 0 0 0 0 1097253.4123532579 -1625649.7979421194 0 -1625649.7979421194 825599.4747274518 0 0 0 0 22288900.12664938 -33432134.172291756 0 -33432134.172291756 40690796.377334595 0 0 0 0 -32506617.48413372 -22442863.312479019 0 -22442863.312479019 -4472962.002456665 0 0 0 0 -10106816.527125359 -29191309.491989136 0 -29191309.491989136 45672216.020435333 0 0 0 0 -16401644.745769501 -28971775.16614151 0 -28971775.16614151 36151448.500205994 0 0 0 0 -8780572.6396493912 -22080360.006946564 0 -22080360.006946564 39599408.329284668 0 0 0 0 114113781.48619413 -129446720.72365952 0 -129446720.72365952 47410991.656562805 0 0 0 0 -142563448.52814484 -76054404.635932446 0 -76054404.635932446 71735672.255088806 0 0 0 0 -83874987.910956383 39220915.156692505 0 39220915.156692505 -10556465.306346893 0 0 0 0 -77132108.767089367 16500504.263278961 0 16500504.263278961 34552410.58442688 0 0 0 0 -73743962.417748928 33396356.918498993 0 33396356.918498993 -18568500.846590042 0 0 0 0 -81514438.075267792 -107626210.02687454 0 -107626210.02687454 68137935.066459656 0 0 0 0 -224512371.22800255 -9278099.9590377808 0 -9278099.9590377808 58184834.44449234 0 0 0 0 9847264.5896515846 43751835.251533508 0 43751835.251533508 -77040066.937217712 0 0 0 0 -94687871.670885563 63871323.880298615 0 63871323.880298615 -36362059.641819954 0 0 0 0 -34467513.396375179 102862843.9514122 0 102862843.9514122 -142508541.43758011 0 0 0 0 -48864017.509008408 41470149.870022774 0 41470149.870022774 -14748568.409828186 0 0 0 0 -36013960.093607903 25362444.652210236 0 25362444.652210236 -28447928.397525787 0 0 0 0 10233813.64511168 40313549.473167062 0 40313549.473167062 -103669714.6838913 0 0 0 0 -19334270.120132923 -5961762.4477863312 0 -5961762.4477863312 29102483.662811279 0 0 0 0 -6578973.1945518255 18193745.943131447 0 18193745.943131447 -20731051.673171997 0 0 0 0 -22930982.348531246 10984140.457782745 0 10984140.457782745 -10159049.282277107 0 0 0 0 -39031083.009706974 -14905598.222040176 0 -14905598.222040176 41491877.939567566 0 0 0 0 -20936889.651895523 -16994149.917060852 0 -16994149.917060852 52343984.722763062 0 0 0 0 -9208472.8464457393 -17358904.067267537 0 -17358904.067267537 40301104.380096436 0 0 0 0 -7899795.7939767838 3105700.8958263397 0 3105700.8958263397 32345854.818695068 0 0 0 0 -2408115.0431489944 -14368227.673141479 0 -14368227.673141479 57216492.822769165 0 0 0 0 8136857.5181148052 15925181.008209229 0 15925181.008209229 48186095.65145874 0 0 0 0 13720885.734536529 -9373481.3056640625 0 -9373481.3056640625 39458179.890846252 0 0 0 0 5047936.1923288107 17069661.081692219 0 17069661.081692219 15877962.661598206 0 0 0 0 3233068.8105077744 -18684828.029014587 0 -18684828.029014587 -7772799.8620452881 0 0 0 0 -4591215.1055459976 -12112622.940284729 0 -12112622.940284729 36285364.217119217 0 0 0 0 16146072.058010697 -30130236.995548248 0 -30130236.995548248 10248882.034767151 0 0 0 0 -7307556.1219871044 9135946.4021606445 0 9135946.4021606445 115732085.84035969 0 0 0 0 32515408.589177027 48238850.915033817 0 48238850.915033817 -129753316.33686066 0 0 0 0 3591319.3976777792 -13268293.137542725 0 -13268293.137542725 7909313.8862681389 0 0 0 0 29746010.217310905 -4925461.5340843201 0 -4925461.5340843201 -53858312.771652222 0 0 0 0 15599816.496724129 -21950909.430652618 0 -21950909.430652618 -46689643.028916359 0 0 0 0 -20039762.443379045 44091519.348182678 0 44091519.348182678 -346835530.20881462 0 0 0 0 224711.21146605269 -162042.35782204382 0 -162042.35782204382 -329785.20403639972 0 0 0 0 -1448696.7094714642 101598890.91876221 0 101598890.91876221 -331513553.602211 0 0 0 0 8710480.0112453997 18079768.809348106 0 18079768.809348106 -63966227.316169739 0 0 0 0 6154633.4079070091 -6353737.7810173035 0 -6353737.7810173035 -42336984.897558212 0 0 0 0 27844655.670831203 -34119710.539831161 0 -34119710.539831161 -132280543.64276886 0 0 0 0 39292931.382866383 45604145.992618561 0 45604145.992618561 -211633868.91643906 0 0 0 0 39541888.548625946 26688577.988365173 0 26688577.988365173 -138311199.83171463 0 0 0 0 14024759.705880404 40984207.965387344 0 40984207.965387344 -130654196.5296669 0 0 0 0 593610.39690160751 80032275.595550537 0 80032275.595550537 -165174557.7352066 0 0 0 0 1090750.1327991672 52236.611540304497 0 52236.611540304497 -231625.4782027863 0 0 0 0 68463961.111899436 111205356.32997513 0 111205356.32997513 -117320060.46525574 0 0 0 0 20463546.33898139 31667931.054868221 0 31667931.054868221 -170390387.22196198 0 0 0 0 -29333672.189971924 -2468063.2025756836 0 -2468063.2025756836 42762178.940454483 0 0 0 0 54602017.724152923 82103805.896835327 0 82103805.896835327 -28503663.77306366 0 0 0 0 407244.97144069651 252985.68819112703 0 252985.68819112703 -314482.74280414823 0 0 0 0 33762083.19056201 61506366.804073334 0 61506366.804073334 -436694365.1873703 0 0 0 0 -123328454.4561584 -22601949.115245819 0 -22601949.115245819 154979383.25654221 0 0 0 0 139035.49389560753 -11129.222141839564 0 -11129.222141839564 -143634.79834552761 0 0 0 0 31645098.751643598 82615273.332966805 0 82615273.332966805 -432044200.88572311 0 0 0 0 3623196.9687380791 -44430451.452598572 0 -44430451.452598572 -64341497.672885895 0 0 0 0 987500.51944130636 41395.72580149956 0 41395.72580149956 -194073.23774167523 0 0 0 0 14976187.149285793 1926796.1918869019 0 1926796.1918869019 -98741224.111606598 0 0 0 0 -9971867.5080854893 -24328327.05969429 0 -24328327.05969429 8846370.0799102783 0 0 0 0 -2644219.837002039 -52232184.147954941 0 -52232184.147954941 1849883.6866378784 0 0 0 0 -10906489.822949886 1763002.5608062744 0 1763002.5608062744 40230837.145399094 0 0 0 0 -26150.678713168483 -281924.53767991625 0 -281924.53767991625 78583.477473009378 0 0 0 0 87980715.967251062 12926459.639686584 0 12926459.639686584 -5027046.7559165955 0 0 0 0 365017.46864622831 -5524191.4682663083 0 -5524191.4682663083 2232563.5737304688 0 0 0 0 -6767985.8474638462 -10135287.678672791 0 -10135287.678672791 2741621.4913406372 0 0 0 0 -4738404.3128590584 -7991556.9711761475 0 -7991556.9711761475 1083643.1270751953 0 0 0 0 -40403815.600569636 79817900.132899046 0 79817900.132899046 -16674726.043331146 0 0 0 0 492770.14679034799 -14334.49235249497 0 -14334.49235249497 -133719.89718624204 0 0 0 0 -28262142.20947361 997461.07935714722 0 997461.07935714722 27627092.674442291 0 0 0 0 89574485.920984745 80696413.331626892 0 80696413.331626892 -136391901.97237778 0 0 0 0 25155744.403458834 27263427.980971336 0 27263427.980971336 -37763133.322925568 0 0 0 0 79120306.68223691 -30391563.650074005 0 -30391563.650074005 -1081580.3945007324 0 0 0 0 27502963.418762684 40417991.885105133 0 40417991.885105133 2305621.4696826935 0 0 0 0 51401713.853209972 -84533141.75399971 0 -84533141.75399971 -108883291.94200134 0 0 0 0 57797882.585838109 40998301.38560456 0 40998301.38560456 -54114888.655281067 0 0 0 0 -40495585.137030602 46870350.594482422 0 46870350.594482422 -71624964.747639418 0 0 0 0 -62109165.427231789 -111523098.12791061 0 -111523098.12791061 -60269537.179145813 0 0 0 0 -124040655.40156174 -71961559.300872803 0 -71961559.300872803 -53421808.046591043 0 0 0 0 -137196127.28296518 -121705782.81663513 0 -121705782.81663513 -56605633.356719255 0 0 0 0 43846815.34812212 -1237345.4747304916 0 -1237345.4747304916 -71403943.334934235 0 0 0 0 -135526397.28397274 -123609186.10695648 0 -123609186.10695648 -77893527.735076904 0 0 0 0 -2866935.7570126215 2680182.1232531033 0 2680182.1232531033 -1993785.3585987538 0 0 0 0 1282822.195128873 -160050.34292178601 0 -160050.34292178601 -1339197.8621645253 0 0 0 0 -115455238.39949226 -70318636.938961029 0 -70318636.938961029 85587353.337871552 0 0 0 0 -537248372.52713966 80356058.905672073 0 80356058.905672073 46610822.76606369 0 0 0 0 -274323010.80017471 -122899165.22862434 0 -122899165.22862434 -16561312.393531799 0 0 0 0 -1366279.821150118 1009797.3621006273 0 1009797.3621006273 -399884.37812136486 0 0 0 0 -196143605.20319843 -208821503.76787186 0 -208821503.76787186 -288311716.03412247 0 0 0 0 -123297921.99278164 -76524932.460647583 0 -76524932.460647583 -108722504.91112518 0 0 0 0 -48719087.99543047 -11567689.108146667 0 -11567689.108146667 -486687141.11590576 0 0 0 0 -230005078.31063461 272760803.81219101 0 272760803.81219101 -386297933.49477005 0 0 0 0 -627082006.57934189 116404762.31469727 0 116404762.31469727 -43665502.205905914 0 0 0 0 -189428126.86884546 -30236732.92373085 0 -30236732.92373085 -17016533.251876831 0 0 0 0 -265543145.64659882 156317441.20160389 0 156317441.20160389 -87282893.726379395 0 0 0 0 -33549639.21175766 78573731.522602081 0 78573731.522602081 -210471544.65511703 0 0 0 0 -28280965.094796181 113705560.15037727 0 113705560.15037727 -188062443.19265747 0 0 0 0 43497928.268410206 48144851.983016968 0 48144851.983016968 -158659396.78090477 0 0 0 0 45342949.877130032 69334521.474121094 0 69334521.474121094 -162847116.13593388 0 0 0 0 106036601.28449579 76916937.569904506 0 76916937.569904506 -218637245.20415115 0 0 0 0 103850354.31311321 -22964225.360559464 0 -22964225.360559464 -134783450.07778549 0 0 0 0 -182235.85636076744 -96585219.354446843 0 -96585219.354446843 -207355788.92202759 0 0 0 0 -23939.534516102038 -309683.71291648597 0 -309683.71291648597 -870991.79766355082 0 0 0 0 -20835019.406449154 -12586635.708946228 0 -12586635.708946228 77109906.379476547 0 0 0 0 45334669.570998996 -57152743.67214191 0 -57152743.67214191 -386330588.89672089 0 0 0 0 44396072.096873403 -4541719.4838943481 0 -4541719.4838943481 -506883627.82292509 0 0 0 0 -44430448.320560366 -142345432.24276352 0 -142345432.24276352 -211981031.35039139 0 0 0 0 -56759914.70062466 -99750524.098764658 0 -99750524.098764658 3872595.2510108948 0 0 0 0 145200474.15323478 105373499.13282204 0 105373499.13282204 -141850765.57361794 0 0 0 0 9201.7988800618623 -57735.82593731489 0 -57735.82593731489 -544545.04859942943 0 0 0 0 -42375860.395970672 -188946671.9411869 0 -188946671.9411869 -181356243.19355011 0 0 0 0 -76675488.288820505 -77683475.354627609 0 -77683475.354627609 19395277.706970215 0 0 0 0 27960.409481855764 -163122.96906805318 0 -163122.96906805318 -1170404.9744673781 0 0 0 0 -126344588.26546705 -40363334.630313873 0 -40363334.630313873 -73571.756164550781 0 0 0 0 -167533051.41742069 -86322417.998197556 0 -86322417.998197556 -60772741.810760498 0 0 0 0 -128708196.53115273 -14480131.797863007 0 -14480131.797863007 -18219332.56817627 0 0 0 0 -42789736.584462523 2663129.4258499146 0 2663129.4258499146 -262885008.81526947 0 0 0 0 -17661057.323447466 5836050.2124786377 0 5836050.2124786377 -337410046.44946289 0 0 0 0 -39343685.347829819 -12584943.391662598 0 -12584943.391662598 -295242470.71511841 0 0 0 0 -39733674.429894976 -34987830.977398574 0 -34987830.977398574 -367631231.8339386 0 0 0 0 20352132.560016394 -39134857.040420532 0 -39134857.040420532 -512772268.75849915 0 0 0 0 -221660044.64323759 -197301652.67545509 0 -197301652.67545509 -284234901.10347748 0 0 0 0 -60023336.349001169 -39806735.791286469 0 -39806735.791286469 -375559357.32382202 0 0 0 0 -201273.77628579419 -420955.65923320502 0 -420955.65923320502 -1053904.5486089145 0 0 0 0 -1846701.5621581078 -7919307.475692749 0 -7919307.475692749 50248672.924438477 0 0 0 0 20137604.786130846 83936399.03852272 0 83936399.03852272 -426795147.43222046 0 0 0 0 -126495.34960711002 -9530065.5260009766 0 -9530065.5260009766 51468509.144332886 0 0 0 0 -121195.65408868156 -9511834.2002000809 0 -9511834.2002000809 17215971.768783569 0 0 0 0 -36245889.916443825 40758360.859283447 0 40758360.859283447 -257294894.81430817 0 0 0 0 -203188.01186285279 -451206.89535982162 0 -451206.89535982162 -1473475.3224010691 0 0 0 0 4068066.1350187063 -12010204.11365509 0 -12010204.11365509 11419419.521247864 0 0 0 0 226025.24203538895 26942093.397094727 0 26942093.397094727 -297234668.79586411 0 0 0 0 53540425.517965317 10093944.826965332 0 10093944.826965332 -324116545.29711914 0 0 0 0 -15101433.763648272 38432250.261116028 0 38432250.261116028 -294575557.79577637 0 0 0 0 -14616663.678113461 49389752.369544983 0 49389752.369544983 -305820280.39753723 0 0 0 0 -4065928.2403223515 47277239.467681885 0 47277239.467681885 -323309268.77513123 0 0 0 0 2827847.9371204376 43609743.746749878 0 43609743.746749878 -310681074.1661377 0 0 0 0 -14475790.666455507 38729470.428878784 0 38729470.428878784 -391264986.06744194 0 0 0 0 -23202001.518452048 91556560.341022491 0 91556560.341022491 -287224204.20033264 0 0 0 0 3926033.313267231 66558456.106842041 0 66558456.106842041 -338779505.43366241 0 0 0 0 354301.19571270968 589876.73208849132 0 589876.73208849132 -792074.41893291287 0 0 0 0 -1274652.8693740368 62608445.293701172 0 62608445.293701172 -297969832.42184448 0 0 0 0 -4203405.7236537933 43603126.921844482 0 43603126.921844482 -291567169.0728302 0 0 0 0 -2647347.591016531 51494943.012428284 0 51494943.012428284 -304056998.52915955 0 0 0 0 -13516633.510225534 52586476.831359863 0 52586476.831359863 -290194268.55448914 0 0 0 0 -13560673.990215302 40527130.752105713 0 40527130.752105713 -310898332.20532227 0 0 0 0 -12584804.641935229 45653864.903768539 0 45653864.903768539 -300783923.89584351 0 0 0 0 -14966565.380181074 54293392.885772705 0 54293392.885772705 -308995377.76747131 0 0 0 0 -13240870.082689762 45474014.707077026 0 45474014.707077026 -305973043.83160782 0 0 0 0 -14565381.196393728 50225820.665031433 0 50225820.665031433 -327805438.87568665 0 0 0 0 -9563508.3419480324 48252007.127929688 0 48252007.127929688 -312407472.74397278 0 0 0 0 29666459.038566113 37020183.093841553 0 37020183.093841553 -329412315.84210205 0 0 0 0 -9334589.0438036919 51354431.018707275 0 51354431.018707275 -321289544.2444458 0 0 0 0 -49393380.627448082 74390153.904937744 0 74390153.904937744 -340735248.97267151 0 0 0 0 1401993.0692410469 77811741.686569214 0 77811741.686569214 -365217985.97381592 0 0 0 0 -30427419.453702927 44696038.857635498 0 44696038.857635498 -323344599.3421936 0 0 0 0 9211.0256831399165 13437.062090760097 0 13437.062090760097 -22112.833431728184 0 0 0 0 -68330523.841629028 126443674.19851685 0 126443674.19851685 -386377069.16571045 0 0 0 0 1099857.0545501709 51849428.467048645 0 51849428.467048645 -327929827.3522644 0 0 0 0 -13172178.087865353 79498403.247901917 0 79498403.247901917 -321611953.11097145 0 0 0 0 5883205.8580927849 62428788.884277344 0 62428788.884277344 -318470318.82976151 0 0 0 0 -41871531.713254333 25754464.349395752 0 25754464.349395752 -310189869.60193634 0 0 0 0 -31261108.717652559 75556182.214294434 0 75556182.214294434 -303531302.82415009 0 0 0 0 -24560549.030219436 47848935.806488037 0 47848935.806488037 -213391707.57212067 0 0 0 0 -16031478.423266888 63520567.426277161 0 63520567.426277161 -258674829.55204773 0 0 0 0 -19743783.439071655 61494437.617980957 0 61494437.617980957 -290593529.37955475 0 0 0 0 7106854.7090206146 63324162.72492981 0 63324162.72492981 -290815171.67144012 0 0 0 0 16535243.057898186 46920482.682877064 0 46920482.682877064 -255236839.45671082 0 0 0 0 8988554.0939061567 2991154.5418343544 0 2991154.5418343544 -212357740.96651459 0 0 0 0 -24555052.783192635 48771247.98412323 0 48771247.98412323 -205145776.64280701 0 0 0 0 -53647345.412871838 -33507049.159076691 0 -33507049.159076691 -164017179.03350258 0 0 0 0 -19295247.101100326 18376934.648399353 0 18376934.648399353 -295627393.54463196 0 0 0 0 -25842768.94350934 26857946.069602966 0 26857946.069602966 -278228877.76804543 0 0 0 0 -52899907.466926932 -38824703.230506897 0 -38824703.230506897 -265648130.5474093 0 0 0 0 -123113732.38390309 -45225343.926811457 0 -45225343.926811457 961506.26516723633 0 0 0 0 -131682428.38911462 -24106277.002742767 0 -24106277.002742767 52924477.116285324 0 0 0 0 -104118036.37122047 -31680820.357837677 0 -31680820.357837677 9370316.2947120667 0 0 0 0 -29458078.048609018 42920125.024105072 0 42920125.024105072 -79219058.086284637 0 0 0 0 74798781.699774802 145393130.36773491 0 145393130.36773491 -136819541.25024986 0 0 0 0 16336667.585304588 -65398891.26234293 0 -65398891.26234293 -46180183.667667389 0 0 0 0 125176.49107952724 -58590.297763740644 0 -58590.297763740644 -167728.58253248967 0 0 0 0 -24197185.033634573 -82203060.586145401 0 -82203060.586145401 147315819.63835907 0 0 0 0 503184.08107634581 -142560.32516979799 0 -142560.32516979799 9901.5588419605047 0 0 0 0 -12915307.031836666 11120772.188406944 0 11120772.188406944 196146963.42266464 0 0 0 0 25488953.911541581 -100915932.32444191 0 -100915932.32444191 10524456.566017151 0 0 0 0 -4092993.6670482159 -21379160.873657227 0 -21379160.873657227 -119052541.72896194 0 0 0 0 317732.35479467019 -204673.69064870104 0 -204673.69064870104 -451696.62576214597 0 0 0 0 -41419509.620988488 63515495.293113708 0 63515495.293113708 -83412618.647725105 0 0 0 0 33571018.331568778 75721999.681638718 0 75721999.681638718 -221921628.6516571 0 0 0 0 -11005248.373432875 34996847.427278519 0 34996847.427278519 -243581904.34416199 0 0 0 0 -6946976.2708940506 76653175.663497925 0 76653175.663497925 -273614820.4175415 0 0 0 0 12572572.366113842 53836859.753061295 0 53836859.753061295 -330011751.87954712 0 0 0 0 -4279898.7051371336 14116508.803283691 0 14116508.803283691 -354167477.17737198 0 0 0 0 -39726067.658713877 95248937.345666885 0 95248937.345666885 -205280984.45556641 0 0 0 0 -19725999.786856055 11420676.03427124 0 11420676.03427124 -320179693.69788742 0 0 0 0 -24802308.655653596 101751202.42559052 0 101751202.42559052 -326453478.15375137 0 0 0 0 394647.15967451036 -31926.023833453655 0 -31926.023833453655 -99000.443499047309 0 0 0 0 -54256667.463392258 -20034736.760883331 0 -20034736.760883331 33820797.559791565 0 0 0 0 56314428.451241493 -33965210.081367493 0 -33965210.081367493 -3892516.8357543945 0 0 0 0 31138651.220865726 69539145.692714691 0 69539145.692714691 -400603097.64095306 0 0 0 0 565766.17063826625 544245.79102346301 0 544245.79102346301 -468684.65863147378 0 0 0 0 210263620.48237991 46935514.05291748 0 46935514.05291748 30357261.283507347 0 0 0 0 134411006.83922505 8579520.3012428284 0 8579520.3012428284 -32302603.743026733 0 0 0 0 66322386.91076088 153250051.52872467 0 153250051.52872467 52143291.25553894 0 0 0 0 33159713.489278316 8472907.039440155 0 8472907.039440155 -31537365.47329998 0 0 0 0 19202458.109903097 3351421.510717392 0 3351421.510717392 -22663579.084568024 0 0 0 0 45885702.265018106 -10677754.282920837 0 -10677754.282920837 -29651390.990371704 0 0 0 0 6601740.3221082687 -22481266.744838715 0 -22481266.744838715 -6279228.1897335052 0 0 0 0 -8455495.0417478085 2792611.7793254852 0 2792611.7793254852 -33365512.148986816 0 0 0 0 -814113.08532345295 -29948066.340906143 0 -29948066.340906143 -30319200.542106628 0 0 0 0 9297913.902895689 -15586166.011310577 0 -15586166.011310577 -9945396.5314254761 0 0 0 0 2674777.2667999268 -13005252.981239319 0 -13005252.981239319 -10202287.644804478 0 0 0 0 14719799.222080231 -15733204.115745544 0 -15733204.115745544 -29916123.150334358 0 0 0 0 9643301.0956271887 -5970464.5345611572 0 -5970464.5345611572 -3943928.9917488098 0 0 0 0 281805.78535461426 -7242559.6396408081 0 -7242559.6396408081 817699.8991355896 0 0 0 0 10182710.766042471 -6214956.3410511017 0 -6214956.3410511017 -12358921.950525641 0 0 0 0 6227675.212322861 -2333906.786386013 0 -2333906.786386013 -3821851.9580459595 0 0 0 0 886533.21317649772 -704144.09153768048 0 -704144.09153768048 -3690327.2981236167 0 0 0 0 21945293.852632582 -3080496.1911087036 0 -3080496.1911087036 -12190717.034500122 0 0 0 0 6039530.0323369503 -841118.56974411011 0 -841118.56974411011 -13149555.696651459 0 0 0 0 -1300499.0275301635 -3067875.0072555542 0 -3067875.0072555542 -6434331.6672363281 0 0 0 0 -2222842.4948809147 -2866123.0871963501 0 -2866123.0871963501 -654153.53981399536 0 0 0 0 2394165.5020518303 -4637011.6605186462 0 -4637011.6605186462 -1636976.4230957031 0 0 0 0 524075.306130577 -970186.92522233725 0 -970186.92522233725 -946551.42159083113 0 0 0 0 21589046.340691626 -385345.34800720215 0 -385345.34800720215 -5744460.4463577271 0 0 0 0 11934635.209261656 -3616800.8949546814 0 -3616800.8949546814 -4360288.0347061157 0 0 0 0 5246880.4158722162 44793195.195176125 0 44793195.195176125 -2440681.0532836914 0 0 0 0 932761.11422829237 -649856.206182505 0 -649856.206182505 -3685317.9238226302 0 0 0 0 -9112713.3603711128 7837254.598274231 0 7837254.598274231 -6585421.1806945801 0 0 0 0 371153.67463720491 -252722.69814331084 0 -252722.69814331084 -719316.93904846162 0 0 0 0 -79644055.107812405 -32927251.697792053 0 -32927251.697792053 -18631163.098403931 0 0 0 0 -80876518.03516221 -12141022.051177979 0 -12141022.051177979 -1374053.9672689438 0 0 0 0 -79014482.152930498 27529284.329299927 0 27529284.329299927 5553125.7015991211 0 0 0 0 27794925.774129391 82228687.428825378 0 82228687.428825378 10203544.700408936 0 0 0 0 -65236041.747069359 78495436.139442444 0 78495436.139442444 105921966.24037552 0 0 0 0 -129237554.06175613 9296924.9130935669 0 9296924.9130935669 69928430.487800598 0 0 0 0 443734.10303553898 -985568.60592805222 0 -985568.60592805222 -2766228.980548501 0 0 0 0 831476.94395959377 -1661962.6148204803 0 -1661962.6148204803 -7040451.1784057617 0 0 0 0 4338976.6036154628 -2068755.2470779419 0 -2068755.2470779419 -74953.475509643555 0 0 0 0 5258860.7800688148 -7912353.1456756592 0 -7912353.1456756592 5382997.2005004883 0 0 0 0 9991054.1256194115 -13823044.382148743 0 -13823044.382148743 -632145.91757965088 0 0 0 0 16168352.258515358 -17509802.103546143 0 -17509802.103546143 -3562750.0020580292 0 0 0 0 15919178.956090927 -15335322.377204895 0 -15335322.377204895 -2274718.9092941284 0 0 0 0 15094065.770949602 -9508983.4857788086 0 -9508983.4857788086 -3027589.8348703384 0 0 0 0 8771923.5536615849 -8827171.8185119629 0 -8827171.8185119629 -3091009.2537879944 0 0 0 0 5158445.4357000589 -8567556.9975814819 0 -8567556.9975814819 7592114.8583068848 0 0 0 0 5499881.5101392269 -12201849.945663452 0 -12201849.945663452 11444951.454994202 0 0 0 0 10389298.061499357 -12412388.786758423 0 -12412388.786758423 4341409.5398712158 0 0 0 0 4526872.0701311827 -15163707.671028137 0 -15163707.671028137 6734047.3506469727 0 0 0 0 11367846.838321209 -17980312.840385437 0 -17980312.840385437 6833566.2782745361 0 0 0 0 8839862.51822716 -29663680.560333252 0 -29663680.560333252 20489887.080947876 0 0 0 0 6932518.4819471836 -22663088.953414917 0 -22663088.953414917 17656389.716676712 0 0 0 0 7055883.1190378442 -21602897.981590271 0 -21602897.981590271 -1476079.689743042 0 0 0 0 9974916.699187845 -24031139.645751953 0 -24031139.645751953 4514484.0668029785 0 0 0 0 10040641.952940106 -20183856.399581909 0 -20183856.399581909 1381659.0549926758 0 0 0 0 11199319.041586816 -21254217.235595703 0 -21254217.235595703 -2393624.3579864502 0 0 0 0 7866850.8797605634 -25214280.527618408 0 -25214280.527618408 -3284341.0029678345 0 0 0 0 14402006.298505068 -22127087.721359253 0 -22127087.721359253 -12207980.201202393 0 0 0 0 3865872.9083245695 -23387079.434806824 0 -23387079.434806824 -9394228.8648757935 0 0 0 0 20517639.293439686 -15953669.640434265 0 -15953669.640434265 -11962110.782653809 0 0 0 0 19468644.017261147 -5469951.901348114 0 -5469951.901348114 -15624835.526462555 0 0 0 0 20590202.565605406 -10961475.622692704 0 -10961475.622692704 -8697285.081817627 0 0 0 0 14667815.14477855 -10982791.802520752 0 -10982791.802520752 -7511072.9207229614 0 0 0 0 56333659.339684367 21219997.758377075 0 21219997.758377075 -1727888.6848526001 0 0 0 0 -88703.353853105858 -366395.51056366973 0 -366395.51056366973 -139764.48769417405 0 0 0 0 971265.67260479927 -17479297.913988113 0 -17479297.913988113 -80300479.605773926 0 0 0 0 -14513074.843531132 -7136207.7100448608 0 -7136207.7100448608 -7668229.109954834 0 0 0 0 -126191.51105988081 -68694.683366077021 0 -68694.683366077021 29686.968387328088 0 0 0 0 24353838.435257792 111932608.39421463 0 111932608.39421463 -1899618.8670449257 0 0 0 0 5335770.9171791375 -1949525.8245773315 0 -1949525.8245773315 10735011.865797043 0 0 0 0 47560351.124163546 -14852864.680855274 0 -14852864.680855274 -36648151.174041748 0 0 0 0 -40173095.198480986 -18493139.521408081 0 -18493139.521408081 -35127470.930358887 0 0 0 0 7329824.343900729 10092079.975406885 0 10092079.975406885 -99860475.725257874 0 0 0 0 -90442616.200716972 67220948.425868988 0 67220948.425868988 -64189047.862838745 0 0 0 0 -101179195.91668458 167845709.25958252 0 167845709.25958252 -201890499.13309956 0 0 0 0 84882.092340785632 86247.157646294683 0 86247.157646294683 -544505.77111842483 0 0 0 0 -17101694.49750904 30766155.434047699 0 30766155.434047699 -164712316.24230194 0 0 0 0 -645384.22924361168 -26382566.04983902 0 -26382566.04983902 -54964768.686286926 0 0 0 0 -24952738.285726421 16604246.977325439 0 16604246.977325439 -56410097.180323124 0 0 0 0 -25147.785002701261 -21944091.859077454 0 -21944091.859077454 -21103126.361953735 0 0 0 0 -49075.119090315144 -29398.236873779446 0 -29398.236873779446 41464.232319913805 0 0 0 0 -15917284.478386506 -22100243.151832581 0 -22100243.151832581 -6178314.6261062622 0 0 0 0 3345227.512369019 -12546780.009285927 0 -12546780.009285927 -36971662.064414978 0 0 0 0 -37058.27707867069 -20811.612781232223 0 -20811.612781232223 45365.655974853784 0 0 0 0 3803235.2807362601 -16422799.4623909 0 -16422799.4623909 -5281102.8938827515 0 0 0 0 -6640331.4890096411 -29736668.347866058 0 -29736668.347866058 37892816.621185303 0 0 0 0 -13596900.331906255 7119972.4776229858 0 7119972.4776229858 35763858.693389893 0 0 0 0 26487.087238788539 -19319788.117614746 0 -19319788.117614746 32106622.549308777 0 0 0 0 5061103.7038275162 4668786.9846343994 0 4668786.9846343994 -10513716.372451782 0 0 0 0 -287741.76887685433 24439264.507354736 0 24439264.507354736 -28247709.877519608 0 0 0 0 -61405.611360466384 139932.15013338253 0 139932.15013338253 -376120.97860881686 0 0 0 0 -9994367.2751990482 10647989.647537231 0 10647989.647537231 -26009755.483963013 0 0 0 0 -626875.37621124834 2883640.8307342529 0 2883640.8307342529 -7316938.4126434326 0 0 0 0 2318585.5496694744 1683677.5825271606 0 1683677.5825271606 -7819258.3302268982 0 0 0 0 13893.119858364889 -267.42306124791503 0 -267.42306124791503 -28456.592249765992 0 0 0 0 1262863.6907739528 -539536.10127258301 0 -539536.10127258301 -3865218.3119812012 0 0 0 0 2285978.3697962724 1147734.2339420319 0 1147734.2339420319 -1095961.0979957581 0 0 0 0 -2184826.1681486201 9614640.3362026215 0 9614640.3362026215 -13992339.465766907 0 0 0 0 21623.575672193019 2440.43214610219 0 2440.43214610219 -39724.301591347903 0 0 0 0 -36367.362390544309 -9482708.913936615 0 -9482708.913936615 -11700448.107217789 0 0 0 0 3436862.253899578 -1943288.4115543365 0 -1943288.4115543365 5185839.3801708221 0 0 0 0 -15189.953416707771 -9845605.8950449955 0 -9845605.8950449955 -7142005.2384567261 0 0 0 0 11985.915450161971 -7787185.8959890399 0 -7787185.8959890399 8000496.5363388062 0 0 0 0 3881490.6080857897 -12000481.073692501 0 -12000481.073692501 5925651.7843093872 0 0 0 0 53344.039267000102 -98651.148354221135 0 -98651.148354221135 -906775.65260977671 0 0 0 0 -53807016.385316268 54703765.931078225 0 54703765.931078225 -106542531.37052917 0 0 0 0 -51893323.377911836 150333295.66481018 0 150333295.66481018 -149990798.66311646 0 0 0 0 8209596.6424366534 53514774.750278473 0 53514774.750278473 -138400232.27625275 0 0 0 0 -32051903.618253589 65642921.675777435 0 65642921.675777435 -101568051.29650307 0 0 0 0 -33193510.76037842 60406969.916528702 0 60406969.916528702 -117054708.70407295 0 0 0 0 -122999.5364873533 -329332.2893131692 0 -329332.2893131692 -1386328.78683028 0 0 0 0 6927646.8354151919 -1008382.8262443542 0 -1008382.8262443542 -3639856.0934753418 0 0 0 0 6712657.4811398312 -8794564.2705459595 0 -8794564.2705459595 2129290.9780883789 0 0 0 0 -311719.69064241648 411439.81683921814 0 411439.81683921814 -2707493.9776992798 0 0 0 0 3988661.1147282422 1160730.0282611847 0 1160730.0282611847 -8647179.7440948486 0 0 0 0 133847.61514979601 -2344396.1876220703 0 -2344396.1876220703 -11000994.951778412 0 0 0 0 -677303.26633578539 -883827.2028465271 0 -883827.2028465271 175930.22845745087 0 0 0 0 5819288.2397391498 -4112702.6780948639 0 -4112702.6780948639 -5627347.5383262634 0 0 0 0 -6048311.608443737 34929360.714187622 0 34929360.714187622 -78929786.912578583 0 0 0 0 -436306.78897446615 -454235.93665588461 0 -454235.93665588461 -1943513.5510198288 0 0 0 0 -10559177.522251248 39445524.526721954 0 39445524.526721954 -65109914.611923218 0 0 0 0 -25156745.616422534 41772223.671646118 0 41772223.671646118 -80242123.372128487 0 0 0 0 26951.883784209378 -170962.09532801248 0 -170962.09532801248 -274199.21293349704 0 0 0 0 -28866669.990546376 76520297.347054243 0 76520297.347054243 -164680273.46318817 0 0 0 0 -11335160.824510157 14874090.148975372 0 14874090.148975372 21139103.165328979 0 0 0 0 5389657.4509769678 2501121.8151035309 0 2501121.8151035309 -22785527.752876282 0 0 0 0 5544250.4339665622 4445298.5045907497 0 4445298.5045907497 -4882055.7847900391 0 0 0 0 24023.099251706852 -332303.5844912529 0 -332303.5844912529 -823535.9831082304 0 0 0 0 2289433.310741663 4177817.4934444427 0 4177817.4934444427 -1195646.6876945496 0 0 0 0 -5341243.7652134895 59377370.626292229 0 59377370.626292229 -108908160.31990814 0 0 0 0 1613299.3993854523 182365.95897293091 0 182365.95897293091 -4170421.9129295349 0 0 0 0 -51801528.067039967 22582203.862117767 0 22582203.862117767 -14547927.451608658 0 0 0 0 -61799.509260607418 -469705.49086237326 0 -469705.49086237326 -1579784.9942400265 0 0 0 0 8632.9223711490631 1017281.3195362091 0 1017281.3195362091 -4603795.0182876587 0 0 0 0 2138587.8725342751 702552.27442169189 0 702552.27442169189 -5435829.4357948303 0 0 0 0 1900227.3222088814 -6170013.2153053284 0 -6170013.2153053284 1210921.0505170822 0 0 0 0 1775309.8866238594 -130357.37285709381 0 -130357.37285709381 -4683980.3569335938 0 0 0 0 902823.03349179472 -850630.88100468833 0 -850630.88100468833 -3584350.7251368091 0 0 0 0 1704350.3436423242 -4777039.4545347691 0 -4777039.4545347691 1967746.9963226318 0 0 0 0 -5813967.0634071827 1361945.0586547852 0 1361945.0586547852 -1364266.0072631836 0 0 0 0 47874263.390723705 -25260945.526649475 0 -25260945.526649475 197273837.32478333 0 0 0 0 2080546.2456956117 -346958.05060156342 0 -346958.05060156342 -4110588.570736438 0 0 0 0 73730870.722912073 -59963333.547404289 0 -59963333.547404289 -75082526.577384949 0 0 0 0 118514.10427891556 -290066.02150500007 0 -290066.02150500007 -468129.88887743279 0 0 0 0 35340400.606500238 91651315.729267359 0 91651315.729267359 -34187656.699623108 0 0 0 0 -164684516.92609906 -120603711.1786077 0 -120603711.1786077 -63919521.777122498 0 0 0 0 -40516056.554009773 -112553126.41828722 0 -112553126.41828722 -72094976.419418335 0 0 0 0 21753268.064968526 53940130.712636948 0 53940130.712636948 -269162471.26758575 0 0 0 0 -205906386.19216919 139553603.52922058 0 139553603.52922058 -59592994.416524887 0 0 0 0 -32442198.54892683 134942824.99067581 0 134942824.99067581 -61705252.218963623 0 0 0 0 -5005176.7554359436 55803858.541423798 0 55803858.541423798 -99324451.376434326 0 0 0 0 14045685.199268818 45431919.027671814 0 45431919.027671814 -99931657.755278587 0 0 0 0 21312412.695936263 57968750.5481143 0 57968750.5481143 -143265148.26776886 0 0 0 0 -6013542.6795740128 -49663795.167778015 0 -49663795.167778015 -100721261.41237068 0 0 0 0 -599201.38335360272 244021.57936256379 0 244021.57936256379 -34366.05212103948 0 0 0 0 -142146599.49811673 94502309.716567993 0 94502309.716567993 -32332779.983337402 0 0 0 0 -5362646.5484747887 -52893188.209747314 0 -52893188.209747314 -214063940.37027359 0 0 0 0 -31172821.396575928 -16965971.916755676 0 -16965971.916755676 8829626.4864845276 0 0 0 0 -4283511.4491147995 118668.72910690308 0 118668.72910690308 -20885740.251487732 0 0 0 0 -15014372.247043133 -10153651.048374176 0 -10153651.048374176 -29577937.996673584 0 0 0 0 -4784936.6156787872 8573523.0525665283 0 8573523.0525665283 -16127495.486099243 0 0 0 0 -3156223.9987401962 5352635.3660888672 0 5352635.3660888672 -2749062.2745742798 0 0 0 0 -1508985.0535942684 558541.44308448769 0 558541.44308448769 -293142.95249864832 0 0 0 0 -886202.27915032441 1614194.3950277772 0 1614194.3950277772 -3685068.5993159823 0 0 0 0 -603842.88816022873 1472438.9110412598 0 1472438.9110412598 -5505109.7502975464 0 0 0 0 -10072154.947262168 9003821.1990170479 0 9003821.1990170479 14983570.759521484 0 0 0 0 -12779235.507527828 -774244.61404037476 0 -774244.61404037476 -3432359.0530033112 0 0 0 0 298178.08983668685 1740451.053396225 0 1740451.053396225 -8530462.216796875 0 0 0 0 67530.106642127037 1855292.5985469818 0 1855292.5985469818 -8544898.4774856567 0 0 0 0 151899.79713296794 -1256810.1514876708 0 -1256810.1514876708 -7987854.212456625 0 0 0 0 155119.73550954461 386428.89242935181 0 386428.89242935181 -15757699.235290527 0 0 0 0 1354787.747652784 169551.60347366333 0 169551.60347366333 -13547196.865829468 0 0 0 0 -447935.03142255545 -456247.4352645874 0 -456247.4352645874 -9515873.6276512146 0 0 0 0 -1019341.4313784838 2758714.9953126907 0 2758714.9953126907 -6324596.1002960205 0 0 0 0 -1617261.2974449992 2029491.8641777039 0 2029491.8641777039 -5514706.633605957 0 0 0 0 215199.79778826164 -803645.85778240301 0 -803645.85778240301 -5487550.0235501733 0 0 0 0 909201.33707839251 -2845732.7083091736 0 -2845732.7083091736 -12617128.442054749 0 0 0 0 -508565.02249540389 -6594319.4454917908 0 -6594319.4454917908 -19130897.192237854 0 0 0 0 1613757.60177055 4227946.9696578979 0 4227946.9696578979 -15788071.590812683 0 0 0 0 270886.44509762491 312168.50673507527 0 312168.50673507527 -2409158.2757863291 0 0 0 0 2324919.1825769097 -1598768.1576004028 0 -1598768.1576004028 -6674232.9399299622 0 0 0 0 -2049758.0808120817 4416827.6037998199 0 4416827.6037998199 -8700449.8483276367 0 0 0 0 593772.11871651432 -516475.36126389541 0 -516475.36126389541 -1036400.2324587703 0 0 0 0 900769.82479981333 2354261.9894399643 0 2354261.9894399643 -6932429.5366668701 0 0 0 0 -799997.93624216318 2264227.1404533386 0 2264227.1404533386 -6444893.8643226624 0 0 0 0 -619530.06531059637 1411769.5885180533 0 1411769.5885180533 -4042790.5869695731 0 0 0 0 -420738.03638789058 2248131.772806406 0 2248131.772806406 -6140071.3182296753 0 0 0 0 424418.41877263784 1437762.092628479 0 1437762.092628479 -5777927.2241973877 0 0 0 0 -8622570.83675313 -8841565.4201507568 0 -8841565.4201507568 -26733944.188230515 0 0 0 0 -675939.69348525722 -334117.23543656431 0 -334117.23543656431 -2932108.9366961755 0 0 0 0 2559436.4505258799 -840394.60620117188 0 -840394.60620117188 -5168268.3699951172 0 0 0 0 2438793.6079483661 1552452.8317712545 0 1552452.8317712545 -7787991.8281707764 0 0 0 0 -638929.27436771989 1357167.15234375 0 1357167.15234375 -5507610.5838916302 0 0 0 0 2370185.8030586615 179123.62069320679 0 179123.62069320679 -10649900.569545746 0 0 0 0 -3457217.2953365706 9919394.5857219696 0 9919394.5857219696 -20511764.155548096 0 0 0 0 3192323.2427103249 1048187.5741229057 0 1048187.5741229057 -11082691.655479431 0 0 0 0 -68986.177068042496 265081.06868098862 0 265081.06868098862 -1083829.0688223243 0 0 0 0 -752382.21207275987 5956988.4520988464 0 5956988.4520988464 -12566356.768959045 0 0 0 0 1983916.0638586134 -3875380.7205619812 0 -3875380.7205619812 -3193408.6534080505 0 0 0 0 1688855.2765223943 2789431.1686291695 0 2789431.1686291695 -12482912.943908691 0 0 0 0 3394716.1077405512 1158510.9892845154 0 1158510.9892845154 -18783189.283874512 0 0 0 0 2203355.68632688 1337062.8472862244 0 1337062.8472862244 -13029560.29499054 0 0 0 0 -4928.6151100743191 -36805.908281913027 0 -36805.908281913027 -39907.314733194187 0 0 0 0 3536942.5881059845 2448241.9618120193 0 2448241.9618120193 -21824888.605926514 0 0 0 0 -747191.63942269236 -613369.90004348755 0 -613369.90004348755 -11779917.701065063 0 0 0 0 1755386.8054439351 5948339.385055542 0 5948339.385055542 -30520490.078176498 0 0 0 0 -2839.7940190784311 251979.79907989502 0 251979.79907989502 -8557708.4770812988 0 0 0 0 -2601297.6468817508 -1257552.1202583313 0 -1257552.1202583313 -2907993.8582954407 0 0 0 0 -32.749443479541014 -13728.062788791955 0 -13728.062788791955 -17436.360961917788 0 0 0 0 3563665.3749759854 -2487844.4837036133 0 -2487844.4837036133 -17655122.440032959 0 0 0 0 -2836.7693248138021 3584954.9630584717 0 3584954.9630584717 -25446284.213409424 0 0 0 0 -1149247.3931845105 -4710057.3066775799 0 -4710057.3066775799 -10844389.662231445 0 0 0 0 966404.62674583122 1650503.2217483521 0 1650503.2217483521 -5418046.6783180237 0 0 0 0 -63109.102409797721 -5626863.7973232269 0 -5626863.7973232269 2701001.1673469543 0 0 0 0 -1158851.3169043437 7684863.3727035522 0 7684863.3727035522 -27038163.104354858 0 0 0 0 -85992.418224168636 174343.30225700885 0 174343.30225700885 -572574.21791756526 0 0 0 0 -2244.6644552918069 -4291512.4365264019 0 -4291512.4365264019 5274400.7315216064 0 0 0 0 40265168.126601219 14162629.259584427 0 14162629.259584427 -33424188.780129433 0 0 0 0 -14255298.972871542 1991203.4824399948 0 1991203.4824399948 7674963.7198982239 0 0 0 0 41532333.545474902 51528087.283083558 0 51528087.283083558 -2891041.0699768066 0 0 0 0 -4095551.5158449239 5636050.7895188462 0 5636050.7895188462 -5887807.5660627 0 0 0 0 -4011347.9056348801 -5697246.970293045 0 -5697246.970293045 4464562.2497208118 0 0 0 0 18604948.135097504 -16846798.689786911 0 -16846798.689786911 -55994008.562992096 0 0 0 0 19377152.485011101 -11237617.639066696 0 -11237617.639066696 -65284315.893785477 0 0 0 0 537959.61616230011 -9597962.6914787292 0 -9597962.6914787292 -21411083.947158813 0 0 0 0 -5601512.5436549187 4772196.017282486 0 4772196.017282486 -44361800.532459259 0 0 0 0 -552129.89993966278 -919286.30823957082 0 -919286.30823957082 -28910.179690979887 0 0 0 0 -7921397.616256386 -12396355.72254169 0 -12396355.72254169 -93349156.775760651 0 0 0 0 -81036188.979737997 15167194.464478493 0 15167194.464478493 915831.18750762939 0 0 0 0 -35285622.960400283 38396345.830606461 0 38396345.830606461 -55329620.48398304 0 0 0 0 -32763244.612926543 -15305440.379776955 0 -15305440.379776955 10635826.891464233 0 0 0 0 -75657363.752545595 30864981.897670746 0 30864981.897670746 -182283.18739485741 0 0 0 0 -111015971.09220511 107264776.20222783 0 107264776.20222783 -58698798.28471756 0 0 0 0 -66453100.868406773 30132699.001243591 0 30132699.001243591 -17795346.20967865 0 0 0 0 -121593420.33114295 48504442.558433294 0 48504442.558433294 31615580.418239594 0 0 0 0 -84239510.420520902 -33030775.268186569 0 -33030775.268186569 -51637995.535018921 0 0 0 0 -103601912.37794662 -100292332.50373268 0 -100292332.50373268 -77167619.423431396 0 0 0 0 -3569075.9118021969 4110207.1618117075 0 4110207.1618117075 -3952964.602715198 0 0 0 0 27117769.823877335 49519177.875745773 0 49519177.875745773 8370035.812084198 0 0 0 0 -82615341.859830379 -317413.92722010612 0 -317413.92722010612 -16447469.083061218 0 0 0 0 16857854.915605545 -21289840.464500427 0 -21289840.464500427 -77668890.919933319 0 0 0 0 21946501.183817744 5035532.7270002365 0 5035532.7270002365 -18599999.544956207 0 0 0 0 122520905.93657684 7075851.1703510284 0 7075851.1703510284 -37436057.315393448 0 0 0 0 -37831028.102625847 -45909562.366558075 0 -45909562.366558075 91646295.030971527 0 0 0 0 -14622921.30318594 -42530461.423894882 0 -42530461.423894882 -71401433.252653122 0 0 0 0 572868.63021087623 -1101774.4450327009 0 -1101774.4450327009 -645601.85147935525 0 0 0 0 15969268.770461082 -2727906.2243804932 0 -2727906.2243804932 -2955793.681854248 0 0 0 0 17193023.427867413 -4329022.6097183228 0 -4329022.6097183228 -7999215.3283500671 0 0 0 0 14112723.819758892 -7686715.2422904968 0 -7686715.2422904968 -5818219.1714477539 0 0 0 0 66997060.30512774 -54571045.930445671 0 -54571045.930445671 27515043.560909271 0 0 0 0 295750.12152393162 4282.1233335286379 0 4282.1233335286379 -302199.05839196593 0 0 0 0 941109.26882699318 -380913.18582256883 0 -380913.18582256883 -1149245.9549256107 0 0 0 0 14691841.963785172 -5553189.7272911072 0 -5553189.7272911072 -1665492.4971981049 0 0 0 0 12966674.213414669 1607676.4320678711 0 1607676.4320678711 -3774163.0269384384 0 0 0 0 27723.938214700669 -1153504.3714046218 0 -1153504.3714046218 -2258384.8813942522 0 0 0 0 10252631.362401962 24571751.897567749 0 24571751.897567749 32846832.820913315 0 0 0 0 -2484052.661772728 7227461.8447990417 0 7227461.8447990417 11449741.574337006 0 0 0 0 1548732.5721280575 9518445.3620357513 0 9518445.3620357513 9820469.4448394775 0 0 0 0 -14900548.877950668 -40093078.441474915 0 -40093078.441474915 -30653703.294269562 0 0 0 0 59653020.564408302 -24632173.879930496 0 -24632173.879930496 -67637460.886405945 0 0 0 0 -4044489.1205072403 -68527329.852182388 0 -68527329.852182388 -64379587.618881226 0 0 0 0 -11134539.806678772 -94635812.555393219 0 -94635812.555393219 -131643444.1164856 0 0 0 0 24176.16408470436 -376171.72729696147 0 -376171.72729696147 -901066.88063816726 0 0 0 0 -11577451.44963026 147400583.28889847 0 147400583.28889847 -157281480.72078037 0 0 0 0 -24556352.751941442 179825686.33599854 0 179825686.33599854 -227056513.72878265 0 0 0 0 -128371049.04686546 -103664773.30075455 0 -103664773.30075455 -11515557.289480209 0 0 0 0 199088081.03448248 -11852025.936508179 0 -11852025.936508179 -50850791.298980713 0 0 0 0 34790554.633687019 -35551357.271045685 0 -35551357.271045685 -46019872.943639755 0 0 0 0 31390797.993608952 -51158730.289106369 0 -51158730.289106369 -91425546.891026258 0 0 0 0 70607814.980582237 -33555368.170394897 0 -33555368.170394897 -175196977.09365082 0 0 0 0 -4777743.8007983221 7584493.9289439963 0 7584493.9289439963 -7323623.9706421252 0 0 0 0 62161094.787219048 -28714648.271961212 0 -28714648.271961212 -93652915.979537964 0 0 0 0 2657227.7090663398 475908.3041606769 0 475908.3041606769 -4350957.5181349199 0 0 0 0 23603565.320454121 16460132.541257858 0 16460132.541257858 -1101842.0475158691 0 0 0 0 27101015.463184357 15378735.481301308 0 15378735.481301308 -28521377.442306519 0 0 0 0 -2518000.7862826763 5041723.4500020593 0 5041723.4500020593 -3672556.495260926 0 0 0 0 52599505.635121822 -18407212.631129265 0 -18407212.631129265 -84388640.378379822 0 0 0 0 34297302.899251938 17562045.640613556 0 17562045.640613556 -15849479.824768066 0 0 0 0 -431322.17063373327 1549578.423614502 0 1549578.423614502 -261689.13301849365 0 0 0 0 -6080416.0489320755 3230127.5088262558 0 3230127.5088262558 -6728659.2184829712 0 0 0 0 121411.43936716393 1662654.8460125355 0 1662654.8460125355 -5132107.3435002062 0 0 0 0 -2063892.7030067444 7125205.5061683655 0 7125205.5061683655 -11801318.561325073 0 0 0 0 -2014952.3222672872 2282719.4716898445 0 2282719.4716898445 -4119794.3265006207 0 0 0 0 7407112.1296229362 15367610.932575226 0 15367610.932575226 -11283846.406552315 0 0 0 0 26910915.743123055 -12922762.663949013 0 -12922762.663949013 -16720859.971199036 0 0 0 0 118675919.14849186 1023192.2878684998 0 1023192.2878684998 -318971927.51378632 0 0 0 0 27727526.198570251 -10390460.845428467 0 -10390460.845428467 -36537642.502994537 0 0 0 0 -50872859.717070103 40566455.914728165 0 40566455.914728165 -50338367.916778564 0 0 0 0 -102228113.82594109 55801542.129119873 0 55801542.129119873 259799440.98999023 0 0 0 0 -83910767.508903503 222640809.73993683 0 222640809.73993683 24825457.471061707 0 0 0 0 -164907886.93823051 -274125338.91911316 0 -274125338.91911316 -33894038.058070779 0 0 0 0 354580114.1466589 22250628.147399902 0 22250628.147399902 -59799385.06489563 0 0 0 0 85114731.054609299 -105665334.85814667 0 -105665334.85814667 603069594.99654388 0 0 0 0 80422.752545591909 103358.31139777601 0 103358.31139777601 -369983.13480850495 0 0 0 0 -892649.15930938721 -281654550.42881775 0 -281654550.42881775 -33933371.405256569 0 0 0 0 -617717650.75331783 92051404.425369263 0 92051404.425369263 -63301429.889389038 0 0 0 0 80691404.269247055 15590255.936927795 0 15590255.936927795 -583300145.82293701 0 0 0 0 76207881.751964569 37719312.756477356 0 37719312.756477356 -94120822.85483551 0 0 0 0 26863512.903495789 90610719.101448059 0 90610719.101448059 218007034.94835663 0 0 0 0 911152.8368909331 842233.2687348891 0 842233.2687348891 -6318740.2044536583 0 0 0 0 1378149.9003391266 2124678.5053787231 0 2124678.5053787231 -15077472.515785217 0 0 0 0 3003478.1095123291 14236089.550521851 0 14236089.550521851 -17031426.076987267 0 0 0 0 -2915710.5697002411 14306274.796714783 0 14306274.796714783 -14752479.240844727 0 0 0 0 -3344533.7685724134 6012063.0450107474 0 6012063.0450107474 -10210840.23243241 0 0 0 0 4537645.5434546471 15294053.964420319 0 15294053.964420319 -33104735.977630615 0 0 0 0 861961.60804462433 -717514.65901756287 0 -717514.65901756287 -29255266.542129517 0 0 0 0 -8185586.9941253662 20644168.592487335 0 20644168.592487335 -12120164.078674316 0 0 0 0 8058348.361205101 3823945.4581050873 0 3823945.4581050873 -59833063.731155396 0 0 0 0 796570.52670785272 1188127.8877687193 0 1188127.8877687193 -2643568.0953792082 0 0 0 0 -3914903.2934989929 24971868.462768555 0 24971868.462768555 -39347607.655426025 0 0 0 0 -3773166.3848690987 11020391.017791748 0 11020391.017791748 -19299122.26436615 0 0 0 0 -1518868.5522548843 2115856.3811929487 0 2115856.3811929487 -4796039.5651941337 0 0 0 0 -4585830.5586967468 6702214.6193122864 0 6702214.6193122864 -6841553.5810756683 0 0 0 0 -7130544.650270462 9038751.8939933777 0 9038751.8939933777 -5397183.951385498 0 0 0 0 166434.61754637957 1502097.9812650681 0 1502097.9812650681 -8343977.9708709717 0 0 0 0 -6621713.8660593033 16752654.617912292 0 16752654.617912292 -17963098.677576065 0 0 0 0 -3164201.2102117538 9799484.6835517883 0 9799484.6835517883 -11581166.609174728 0 0 0 0 375505.25823496387 3426277.6978014843 0 3426277.6978014843 -7832763.7028560974 0 0 0 0 322238.30570030212 4986187.7844247818 0 4986187.7844247818 -10845376.858978271 0 0 0 0 -1725748.9309517718 1953773.1911009988 0 1953773.1911009988 -8091668.605538955 0 0 0 0 5649817.4424686432 7626922.3301620483 0 7626922.3301620483 -11176777.316001892 0 0 0 0 179122.02156701498 1229752.3442912661 0 1229752.3442912661 -1010425.3668510914 0 0 0 0 -15740.043465853552 3766365.4561088178 0 3766365.4561088178 -8652387.2441487983 0 0 0 0 1195830.7427375317 3759057.6004896164 0 3759057.6004896164 -6140387.0482292175 0 0 0 0 2821598.9055736065 1269039.2885074615 0 1269039.2885074615 -6806622.4674034119 0 0 0 0 -233915.57069969177 1617597.6890087128 0 1617597.6890087128 -8301235.4275817871 0 0 0 0 46475.533606529236 3804733.4271831512 0 3804733.4271831512 -12088840.124197006 0 0 0 0 -1196076.4797889804 232161.22988379281 0 232161.22988379281 -8441105.635657629 0 0 0 0 263045.68705848977 716834.27550617326 0 716834.27550617326 -2640887.193533754 0 0 0 0 -3684616.4625298977 9965869.3957796097 0 9965869.3957796097 -16649581.468166351 0 0 0 0 -4979212.1895647049 9169632.8426132202 0 9169632.8426132202 -12760256.434745789 0 0 0 0 -2510496.9826631546 6066838.8954849243 0 6066838.8954849243 -11211175.362095833 0 0 0 0 -1235674.5691618919 7021060.355632782 0 7021060.355632782 -11446251.30002594 0 0 0 0 -2452482.9804697037 6488831.5921936035 0 6488831.5921936035 -11024491.651565552 0 0 0 0 -621256.15951824188 4000565.2712516785 0 4000565.2712516785 -8778029.1006317139 0 0 0 0 2278653.5736727715 2409837.831952095 0 2409837.831952095 -10381658.021476746 0 0 0 0 -2123730.403689146 6377965.3299245834 0 6377965.3299245834 -10622304.911399841 0 0 0 0 -4628621.4785592556 7962514.8909082413 0 7962514.8909082413 -11987950.768274307 0 0 0 0 -2348759.011929512 5600664.4561738968 0 5600664.4561738968 -12620844.515377045 0 0 0 0 -2012324.2038657665 13952006.041250229 0 13952006.041250229 -19071507.495645523 0 0 0 0 -5787350.8128805161 6538887.0340557098 0 6538887.0340557098 -13527308.934551239 0 0 0 0 32284735.717072487 4665723.4523468018 0 4665723.4523468018 -18466945.193788528 0 0 0 0 199469.34340926167 146711.5423964113 0 146711.5423964113 -900618.58403132297 0 0 0 0 20752911.784331679 -26703493.817178726 0 -26703493.817178726 5883487.1878471375 0 0 0 0 20639668.144798279 -15653918.11312294 0 -15653918.11312294 -14428305.510997772 0 0 0 0 19514270.446536422 -17946423.653915882 0 -17946423.653915882 -16282778.567066193 0 0 0 0 22982968.756193638 -16425460.10387516 0 -16425460.10387516 -19659442.529388428 0 0 0 0 10463336.064042747 -7946659.9866833687 0 -7946659.9866833687 -10843497.66242981 0 0 0 0 -48983315.354588449 -3839407.5838341713 0 -3839407.5838341713 10767622.873493195 0 0 0 0 10207.532107303618 -1268212.7755821338 0 -1268212.7755821338 -1164180.2568513872 0 0 0 0 563007.2624240428 432810.08519774023 0 432810.08519774023 -1656185.3271581084 0 0 0 0 -787265208.60197639 254753950.29182434 0 254753950.29182434 -69208198.197105408 0 0 0 0 -13532584.56064105 -50708396.204483032 0 -50708396.204483032 16635964.533687592 0 0 0 0 78172558.114224911 -15974977.343517303 0 -15974977.343517303 -19789752.116066933 0 0 0 0 -65702267.778577805 10254086.713832378 0 10254086.713832378 -11744892.072418213 0 0 0 0 -80270317.612892866 -2891738.2441997528 0 -2891738.2441997528 100670684.71994305 0 0 0 0 -159343540.26885012 134176707.21660614 0 134176707.21660614 -50915916.524990082 0 0 0 0 936949012.09115231 72247087.579286575 0 72247087.579286575 -476886229.45572281 0 0 0 0 -49287864.385929823 6818003.0887031555 0 6818003.0887031555 -36932246.280544281 0 0 0 0 -47973380.173203468 15299135.472003937 0 15299135.472003937 -10336995.552127838 0 0 0 0 -33838969.717796803 20802716.653311729 0 20802716.653311729 -38499319.518651962 0 0 0 0 -60200530.625357389 28681223.164495945 0 28681223.164495945 -6068932.3268241882 0 0 0 0 -5145457.2435305119 7870336.2784028053 0 7870336.2784028053 6870853.6989936829 0 0 0 0 -68885737.448575616 50527266.46520853 0 50527266.46520853 -39024723.849686831 0 0 0 0 978078.43386241025 257478.55031231092 0 257478.55031231092 -4230106.9585651197 0 0 0 0 7674367.2334011793 -14575547.250555992 0 -14575547.250555992 -1388457.0746879578 0 0 0 0 -29902666.677361488 25425588.316419601 0 25425588.316419601 -22807057.54953403 0 0 0 0 -1386577.2245883942 49139285.31319809 0 49139285.31319809 -22743608.932203293 0 0 0 0 -11194415.061208725 46528964.465526581 0 46528964.465526581 -999658.02483844757 0 0 0 0 -18149967.4727211 68490699.942391396 0 68490699.942391396 6888032.5093154907 0 0 0 0 -3980037.0255031586 54154315.274947166 0 54154315.274947166 11868206.502750397 0 0 0 0 -10763049.18259573 51648449.320936263 0 51648449.320936263 18130402.931522369 0 0 0 0 5857459.1646595001 35293502.755302429 0 35293502.755302429 -3085388.0095272064 0 0 0 0 -13556811.195789337 36808708.612436295 0 36808708.612436295 6564765.7345943451 0 0 0 0 -20795115.301927567 52832651.954973221 0 52832651.954973221 -3271503.4434986115 0 0 0 0 -12435665.515055656 27086557.974404335 0 27086557.974404335 -15975420.674849033 0 0 0 0 -2304241.0351314545 45319212.721242905 0 45319212.721242905 35493526.711203575 0 0 0 0 40647560.123624802 29767565.455253601 0 29767565.455253601 10177509.000720024 0 0 0 0 8990595.1738119125 46741748.207915783 0 46741748.207915783 5500004.2126579285 0 0 0 0 49762744.365140915 40044071.184301376 0 40044071.184301376 2732308.5319976807 0 0 0 0 47899702.530277967 56771922.156411886 0 56771922.156411886 13705728.716320038 0 0 0 0 48467560.505500793 48114111.407268524 0 48114111.407268524 -12354970.915201187 0 0 0 0 26434972.272320271 47782961.804107428 0 47782961.804107428 840751.41808700562 0 0 0 0 20562492.847270966 30197819.59106636 0 30197819.59106636 -1262123.293410778 0 0 0 0 8752730.0104417801 42772141.216578484 0 42772141.216578484 -11732359.996387482 0 0 0 0 -1664690.4700832367 25008379.079193115 0 25008379.079193115 -14876297.37251091 0 0 0 0 52575404.122785568 45829471.753141403 0 45829471.753141403 -12151607.208379745 0 0 0 0 13828399.083677769 55167979.052812099 0 55167979.052812099 5533188.0236263275 0 0 0 0 -45504157.355195045 27944487.950839043 0 27944487.950839043 -20215445.077144623 0 0 0 0 -31788414.731240749 34895570.76730907 0 34895570.76730907 -10109221.7280159 0 0 0 0 -17458054.650578499 33175182.869873047 0 33175182.869873047 -2935153.4918270111 0 0 0 0 -15896781.67079258 18383292.304100037 0 18383292.304100037 -20848116.475522995 0 0 0 0 -31482646.072458267 10290514.633180618 0 10290514.633180618 -32995836.244642258 0 0 0 0 -72056885.020575285 4235788.8817687035 0 4235788.8817687035 -20986138.482540131 0 0 0 0 -30462128.283133507 22032647.5044384 0 22032647.5044384 -20711836.810716629 0 0 0 0 -26199162.079996109 15643502.813369751 0 15643502.813369751 -28063549.90935421 0 0 0 0 -26229282.502300739 24509440.549996853 0 24509440.549996853 -10669625.424594879 0 0 0 0 -8862479.0117759705 16303964.84431076 0 16303964.84431076 -28623054.992406845 0 0 0 0 1375373.5057430528 -122845.50080671581 0 -122845.50080671581 -1339507.2091665771 0 0 0 0 -16831040.265835762 29334232.524418354 0 29334232.524418354 6738023.9370040894 0 0 0 0 47944852.70442009 46068215.68659687 0 46068215.68659687 -88861199.523182869 0 0 0 0 2381818.0649858024 -196864.23776952922 0 -196864.23776952922 -2342591.0013111848 0 0 0 0 -39376740.120908618 91759290.184276581 0 91759290.184276581 -101330955.12332535 0 0 0 0 46464276.380176544 44073236.283655167 0 44073236.283655167 -91570448.385900497 0 0 0 0 -28598759.077945709 31492753.415950775 0 31492753.415950775 -62522445.901311874 0 0 0 0 46214474.079652786 6737195.1701450348 0 6737195.1701450348 -68886788.628753662 0 0 0 0 8599107.0983552933 79760936.311546326 0 79760936.311546326 -138753289.62453842 0 0 0 0 -46276302.249051094 64265885.004541397 0 64265885.004541397 -92816951.835172653 0 0 0 0 -63434657.721282959 118469279.9215889 0 118469279.9215889 -35359061.650943756 0 0 0 0 2277674.6048928443 -232085.17602707725 0 -232085.17602707725 -2331595.5692204423 0 0 0 0 -67095915.641917944 32411040.813216925 0 32411040.813216925 -23581228.247673035 0 0 0 0 119369336.04187775 20983074.074941635 0 20983074.074941635 -39528263.735076904 0 0 0 0 141969274.74462509 -29853197.356538773 0 -29853197.356538773 -17865281.772280335 0 0 0 0 -829236.07342684641 2146028.9530475298 0 2146028.9530475298 -2706602.4171266481 0 0 0 0 -30750692.830245972 26837819.305023193 0 26837819.305023193 -27810397.6927948 0 0 0 0 2025017.3241224289 4301061.3149366379 0 4301061.3149366379 -7102531.226890564 0 0 0 0 -3495560.517234345 10345389.002747905 0 10345389.002747905 -10684113.717312802 0 0 0 0 4500025.9097518921 3628906.5749664307 0 3628906.5749664307 -2333947.3471221924 0 0 0 0 7440877.8728972152 5769220.7429689169 0 5769220.7429689169 -9021630.7230110168 0 0 0 0 -13789432.272323608 40574006.410121918 0 40574006.410121918 -48677569.460968018 0 0 0 0 -2257835.7179598198 11685194.960657315 0 11685194.960657315 -8980165.4735109191 0 0 0 0 1378159.8250309071 -571212.61476781592 0 -571212.61476781592 -1093957.6904942878 0 0 0 0 16880923.997783661 35611553.597595215 0 35611553.597595215 -11832650.594104767 0 0 0 0 8820938.0216751099 7259341.8222112656 0 7259341.8222112656 -645762.9448928833 0 0 0 0 -50427923.672657013 31341883.82378006 0 31341883.82378006 4930920.3649482727 0 0 0 0 9363490.0658760071 10001766.483761787 0 10001766.483761787 -6148541.0699577332 0 0 0 0 659248.49474467337 2661720.4644662812 0 2661720.4644662812 -5121594.5069441814 0 0 0 0 -1612661.6142442911 7955829.354425285 0 7955829.354425285 -4761600.6255770661 0 0 0 0 80633013.830970764 -4651376.2068347931 0 -4651376.2068347931 -8057093.7784767151 0 0 0 0 87926199.50922966 -15615372.579425812 0 -15615372.579425812 -54339129.860217094 0 0 0 0 74089242.648939133 10008375.403054237 0 10008375.403054237 -63618022.381969452 0 0 0 0 79889011.963062286 21990663.811981201 0 21990663.811981201 -38999193.701907158 0 0 0 0 88156070.85449791 8134755.8597488403 0 8134755.8597488403 -23958781.489181519 0 0 0 0 90206995.159893036 29869045.003902435 0 29869045.003902435 -48921040.083303452 0 0 0 0 63420649.189873457 38578340.253518581 0 38578340.253518581 -27171684.484107971 0 0 0 0 50923913.743690491 66433891.708713531 0 66433891.708713531 -55181350.856370687 0 0 0 0 64296954.034261703 43578100.872040749 0 43578100.872040749 -19285436.114849091 0 0 0 0 61181645.587743759 35207995.36641407 0 35207995.36641407 -17854572.424697876 0 0 0 0 60358051.026889801 18722998.300588608 0 18722998.300588608 -12058421.972145081 0 0 0 0 87396745.980209351 1630720.3053226471 0 1630720.3053226471 -16763596.614806771 0 0 0 0 72401270.27265358 13808316.675311089 0 13808316.675311089 -24098728.608913422 0 0 0 0 4577780.1208724976 2996695.8040685654 0 2996695.8040685654 -7854281.9943389893 0 0 0 0 788468.67609706917 5544799.3901358489 0 5544799.3901358489 -9205443.0317658763 0 0 0 0 4034034.4069010019 6853484.9400316477 0 6853484.9400316477 -9636962.0996551514 0 0 0 0 -2210733.9338798523 5158398.4936733246 0 5158398.4936733246 -6961161.4378905296 0 0 0 0 -20380.610649801791 -49893.854558923282 0 -49893.854558923282 56242.359152944991 0 0 0 0 1684467.1269264221 2148620.2863988876 0 2148620.2863988876 -5544867.6632194519 0 0 0 0 6306158.3541918248 5295841.3659590706 0 5295841.3659590706 -5079651.6129283905 0 0 0 0 34342156.005163193 26593831.903902054 0 26593831.903902054 -6147181.2019577026 0 0 0 0 -2535452.8142293156 8470547.842357818 0 8470547.842357818 -7734384.682799506 0 0 0 0 43925324.031463623 36451228.712813377 0 36451228.712813377 -8067120.6023483276 0 0 0 0 44549686.059703827 34364192.152280807 0 34364192.152280807 -1261929.8713817596 0 0 0 0 37972461.305465698 31881745.535061836 0 31881745.535061836 -1088583.2023730874 0 0 0 0 277974844.35853863 -7719905.3760475051 0 -7719905.3760475051 334270211.20369053 0 0 0 0 -546172.95461082121 1564659.9656203357 0 1564659.9656203357 66398.677453407086 0 0 0 0 -62006294.018411636 -79153363.149337053 0 -79153363.149337053 304336878.84564686 0 0 0 0 46437783.902723938 192866211.88549647 0 192866211.88549647 145354996.86915302 0 0 0 0 -517419.9405199599 4933528.0702060591 0 4933528.0702060591 -9705661.8864514362 0 0 0 0 14303659.650856972 10836375.561286449 0 10836375.561286449 90167923.471254349 0 0 0 0 53540006.880678177 45582665.095258713 0 45582665.095258713 -18878330.143070221 0 0 0 0 55258769.034509659 41133558.551433563 0 41133558.551433563 -11414620.775474548 0 0 0 0 54210381.527446747 36780870.438528061 0 36780870.438528061 -13403760.86013031 0 0 0 0 52197322.914176941 43557475.285926819 0 43557475.285926819 -10627091.192603111 0 0 0 0 49924457.994066238 43740025.011419296 0 43740025.011419296 571989.19040489197 0 0 0 0 50062388.415630341 44081894.528931618 0 44081894.528931618 -2171331.4223518372 0 0 0 0 58451012.726455688 52297530.961046219 0 52297530.961046219 -1058754.8904531002 0 0 0 0 41682649.69317627 49838528.004807472 0 49838528.004807472 24524281.044008255 0 0 0 0 37168806.448467255 38716111.644747734 0 38716111.644747734 7831758.2017126083 0 0 0 0 63326468.833545685 65669465.296715736 0 65669465.296715736 23948994.856397629 0 0 0 0 -7141732.1135889674 7847320.99459201 0 7847320.99459201 -6792611.8790978277 0 0 0 0 307073088.92965412 248960481.45326352 0 248960481.45326352 -226419516.04215717 0 0 0 0 51541370.237464905 43191622.175412178 0 43191622.175412178 34162337.738347054 0 0 0 0 -589344272.46217179 -68625428.466951132 0 -68625428.466951132 99653834.492201924 0 0 0 0 55636452.887806416 115843720.63313866 0 115843720.63313866 141251207.17757559 0 0 0 0 150476944.58046341 -79681604.866945744 0 -79681604.866945744 187950055.6400919 0 0 0 0 -172882173.70415139 -28676558.274768353 0 -28676558.274768353 204697102.0806694 0 0 0 0 216112394.82720113 112383877.79182506 0 112383877.79182506 108600067.51526165 0 0 0 0 -9428381.644912811 10522368.776833946 0 10522368.776833946 -7896131.2827859065 0 0 0 0 -415821284.92407823 370092388.95885181 0 370092388.95885181 317143297.54764998 0 0 0 0 -98729637.316042423 420816309.92503166 0 420816309.92503166 273391112.64540958 0 0 0 0 273829628.71938556 -190690203.57172948 0 -190690203.57172948 -664640868.05463171 0 0 0 0 33236910.207942486 -106767224.37675965 0 -106767224.37675965 -511295555.39491534 0 0 0 0 7790322.1328530312 8000460.8825529814 0 8000460.8825529814 -71615719.285124779 0 0 0 0 79003919.709553242 -36181835.354255676 0 -36181835.354255676 -102331036.46572232 0 0 0 0 -108811884.41313183 -194176577.16936368 0 -194176577.16936368 105612362.47019053 0 0 0 0 -1769899.6998090744 -29782664.095987797 0 -29782664.095987797 -6264573.73895818 0 0 0 0 4885193.2725524902 -60272470.670907974 0 -60272470.670907974 96709803.448211193 0 0 0 0 -5987342.5774438381 -26747762.468686938 0 -26747762.468686938 27113762.392313004 0 0 0 0 -5960037.5158557892 -13964561.289704323 0 -13964561.289704323 -11140416.322793007 0 0 0 0 42887988.623463631 -12892494.248763084 0 -12892494.248763084 -85099050.43107748 0 0 0 0 3557777.4708595276 -26880347.825084209 0 -26880347.825084209 -29190395.135444641 0 0 0 0 12178295.243102074 -5124169.2499079704 0 -5124169.2499079704 7463613.6992759705 0 0 0 0 10566539.068346024 -10745034.153364182 0 -10745034.153364182 -6064198.4591932297 0 0 0 0 16018669.245241642 1306463.1908442974 0 1306463.1908442974 -12250128.142992973 0 0 0 0 6918991.993514061 -445074.41695022583 0 -445074.41695022583 8935548.4621129036 0 0 0 0 6670389.3608822823 7165540.0569267273 0 7165540.0569267273 -8047535.0391025543 0 0 0 0 84766.32276941766 571997.01248085639 0 571997.01248085639 -882447.37597267656 0 0 0 0 449637.88585281372 -16342695.038344145 0 -16342695.038344145 14584383.499942303 0 0 0 0 4594112.7263908386 -19442606.423522234 0 -19442606.423522234 10347750.2906335 0 0 0 0 242912.8030538559 -27408121.247029066 0 -27408121.247029066 -4042370.5099942088 0 0 0 0 -19831285.693979263 -22527974.611208439 0 -22527974.611208439 -16212747.913218498 0 0 0 0 -1490149.4334764481 -7926276.935313344 0 -7926276.935313344 17754435.114023209 0 0 0 0 -14953979.477592468 28612956.791053534 0 28612956.791053534 15082396.81555301 0 0 0 0 328295.75699367432 1164902.5714311565 0 1164902.5714311565 -5487196.4753986532 0 0 0 0 6756325.2701225281 -2666973.6665619612 0 -2666973.6665619612 -16288240.856465578 0 0 0 0 587591.15454662591 -279828.18636826053 0 -279828.18636826053 -963169.426892446 0 0 0 0 -2771911.6421709061 4151408.8110226393 0 4151408.8110226393 -3892363.8082357943 0 0 0 0 -18153283.303787231 609585.54857629538 0 609585.54857629538 1768110.2589263916 0 0 0 0 9502248.4735374451 13140860.000910148 0 13140860.000910148 -5778614.178866446 0 0 0 0 -2417774.2569404244 7176875.9106228426 0 7176875.9106228426 -4942329.7178598642 0 0 0 0 -8477961.7144010067 1273577.0994263887 0 1273577.0994263887 2296744.7977776527 0 0 0 0 -2983142.4036731673 2698483.0443344433 0 2698483.0443344433 2519507.1904352549 0 0 0 0 7174605.3115659952 4443168.9117103778 0 4443168.9117103778 -6494575.5659487844 0 0 0 0 -27032386.9702425 9032369.0398693085 0 9032369.0398693085 10498054.128916264 0 0 0 0 -279307.70326538617 1927741.4182652729 0 1927741.4182652729 -2588230.7132654879 0 0 0 0 -4617219.1061820984 8529195.8749306202 0 8529195.8749306202 1908559.5249533653 0 0 0 0 3363062.8184938431 441349.78636586666 0 441349.78636586666 1318338.8795208931 0 0 0 0 1434426.1087567806 5688695.9324996471 0 5688695.9324996471 -7680786.946603775 0 0 0 0 -3338293.1230354961 5428198.7949338732 0 5428198.7949338732 -6787819.3011948299 0 0 0 0 -9934088.1045598984 22261493.246756554 0 22261493.246756554 9073583.9713992178 0 0 0 0 -22937811.42858696 18942367.739810944 0 18942367.739810944 9952902.5000751019 0 0 0 0 -13989647.883281708 -71622808.867398858 0 -71622808.867398858 90977102.29614687 0 0 0 0 -860930.44039864664 744846.675496437 0 744846.675496437 752601.80261825537 0 0 0 0 11070793.101316571 27759141.313956589 0 27759141.313956589 4743105.4273991585 0 0 0 0 -44992205.550190449 -67291787.328880072 0 -67291787.328880072 145374127.71498513 0 0 0 0 2307439.1259365082 25242657.938260555 0 25242657.938260555 43682379.936217308 0 0 0 0 -2398667.1804800034 9906773.0347747803 0 9906773.0347747803 19107045.783219814 0 0 0 0 -7742187.4806084633 -4831575.1085479259 0 -4831575.1085479259 43656330.876618385 0 0 0 0 5775254.1340856552 8159333.6199276447 0 8159333.6199276447 1066438.3958008289 0 0 0 0 -1683217.8174113035 7999393.7355237901 0 7999393.7355237901 4145691.7635059357 0 0 0 0 -38084703.713099957 -4029005.5278162956 0 -4029005.5278162956 -8393551.0926156044 0 0 0 0 -69597842.610744119 -84709227.61940968 0 -84709227.61940968 -65945726.19417572 0 0 0 0 -164639799.87322712 -73153898.001598358 0 -73153898.001598358 -16635048.21587801 0 0 0 0 -114165775.27792692 -102041500.52875805 0 -102041500.52875805 -28394564.716674805 0 0 0 0 -117652368.540411 -53071252.321730614 0 -53071252.321730614 7309270.977766037 0 0 0 0 -15258774.761895657 7353841.1165561676 0 7353841.1165561676 42737764.812874794 0 0 0 0 -14327846.544968039 -17225167.033756852 0 -17225167.033756852 8372678.8924160004 0 0 0 0 13661.155958841089 80524.371112200432 0 80524.371112200432 -427097.82636816055 0 0 0 0 -95522636.531278133 -94034362.97824049 0 -94034362.97824049 -82117056.33498764 0 0 0 0 -121122993.77345562 -175821703.02048111 0 -175821703.02048111 -152096506.13461113 0 0 0 0 4536662.196269989 -5825280.6308717728 0 -5825280.6308717728 14542153.85503006 0 0 0 0 17155098.328637123 -13510593.765360355 0 -13510593.765360355 -1173952.1687870026 0 0 0 0 -33442.488411810249 176940.76517618168 0 176940.76517618168 -1250306.7717867759 0 0 0 0 -302893.02579444076 609266.18768575904 0 609266.18768575904 -3528225.5829297039 0 0 0 0 5216594.4182777405 -23040265.382484436 0 -23040265.382484436 -6236481.2782907486 0 0 0 0 18634000.211874008 871645.40781593323 0 871645.40781593323 -4107348.8557122946 0 0 0 0 45514682.108935326 -3446549.1558766663 0 -3446549.1558766663 -30298433.925279617 0 0 0 0 22831067.981787682 -3228440.2035226822 0 -3228440.2035226822 -5119986.4041976929 0 0 0 0 2569126.3855409622 -20247039.876106024 0 -20247039.876106024 -67965394.436582565 0 0 0 0 18335734.882024765 9891154.7915520668 0 9891154.7915520668 -36633589.19569397 0 0 0 0 -968793.49029493332 -27663568.344525337 0 -27663568.344525337 -30535067.289791107 0 0 0 0 -10244043.49658227 -15346010.429264069 0 -15346010.429264069 -38445623.461267471 0 0 0 0 -54657304.1454916 -32069862.315071106 0 -32069862.315071106 -33504071.844537735 0 0 0 0 -44633375.507828951 -66583066.004943132 0 -66583066.004943132 -99474653.026880264 0 0 0 0 -136937387.09247589 -109701146.50128746 0 -109701146.50128746 -30282630.100117683 0 0 0 0 -10838806.054273605 27085529.111439705 0 27085529.111439705 -29134230.954766273 0 0 0 0 -108406667.99964523 -133791070.3342514 0 -133791070.3342514 -166709723.80848789 0 0 0 0 -7936511.5390748978 11188103.174711227 0 11188103.174711227 -110672918.83561087 0 0 0 0 -259876078.99615955 -65903354.380785942 0 -65903354.380785942 -46911488.651090622 0 0 0 0 -123590418.69731188 -58653095.852885246 0 -58653095.852885246 -20654698.116746902 0 0 0 0 -136994479.19489765 9778972.4403514862 0 9778972.4403514862 -194049452.61493206 0 0 0 0 -110993606.29944134 -60278680.548557281 0 -60278680.548557281 -47216867.76546669 0 0 0 0 -1773822.8593063354 -2613962.982170105 0 -2613962.982170105 4205172.0345716476 0 0 0 0 321289.32765770622 -131239.31047413731 0 -131239.31047413731 -808634.22614708915 0 0 0 0 -15737820.326967716 11010776.630908966 0 11010776.630908966 -22853490.744878769 0 0 0 0 -20107325.927260399 -10245652.294671059 0 -10245652.294671059 1051850.7693853378 0 0 0 0 -21311563.771499515 16205272.960561991 0 16205272.960561991 360285.33910179138 0 0 0 0 -27227435.519754887 -8739065.8998131752 0 -8739065.8998131752 -21070517.493738174 0 0 0 0 -8691531.1577353477 4544704.5557250977 0 4544704.5557250977 13704211.963256836 0 0 0 0 5735355.7804131508 5031506.2522201538 0 5031506.2522201538 4207068.0325164795 0 0 0 0 7221135.2235658169 12123889.522130862 0 12123889.522130862 -340693.84457302094 0 0 0 0 16837015.682993889 38185956.892794132 0 38185956.892794132 16039614.902598858 0 0 0 0 980975.61384412646 1265503.8007530333 0 1265503.8007530333 -5436990.6970606735 0 0 0 0 12587430.621713161 1624148.1924505234 0 1624148.1924505234 -1664587.3973388672 0 0 0 0 1435488.4892696163 887885.77753292478 0 887885.77753292478 -6285656.42633898 0 0 0 0 39749023.317711353 35037952.857839584 0 35037952.857839584 -10443022.81306684 0 0 0 0 3413807.3480396271 7391873.4134287834 0 7391873.4134287834 1669652.6681981087 0 0 0 0 1631748.8309955597 419661.51626467705 0 419661.51626467705 -1429843.536775589 0 0 0 0 8467973.1429715157 5916810.1343755722 0 5916810.1343755722 -4133887.9763360023 0 0 0 0 -2289233.4785761833 3564148.9530332088 0 3564148.9530332088 -1958274.8966283798 0 0 0 0 -2728673.7617049217 5656422.3792237639 0 5656422.3792237639 -2607718.7551078796 0 0 0 0 -1366341.695433259 1602270.4166615009 0 1602270.4166615009 -9338185.6898956299 0 0 0 0 52830.197050202638 353591.06052131788 0 353591.06052131788 -815193.91027149372 0 0 0 0 -873913.60455179214 853783.51980674267 0 853783.51980674267 -11717916.395312786 0 0 0 0 1791019.1930937639 -727279.15908143029 0 -727279.15908143029 -3819906.3836581199 0 0 0 0 1353265.5486021042 -2597262.2795231342 0 -2597262.2795231342 -8521384.6615171432 0 0 0 0 7921259.5900235176 -5148345.0266654491 0 -5148345.0266654491 -12965942.725814342 0 0 0 0 5645740.9894061089 1625099.2755957842 0 1625099.2755957842 -5511580.1624159813 0 0 0 0 4449757.2655098438 3044456.8838361502 0 3044456.8838361502 -371796.35561847687 0 0 0 0 4718859.8342008591 5372582.8585810661 0 5372582.8585810661 -12447734.957736254 0 0 0 0 960696.84506748174 1374563.0939744685 0 1374563.0939744685 -5146321.3800268415 0 0 0 0 11691857.970003605 18120233.926589012 0 18120233.926589012 13517283.46648407 0 0 0 0 10498050.49966228 6010138.9368610978 0 6010138.9368610978 -5887342.3109254837 0 0 0 0 2324536.2128489017 3667959.1951892376 0 3667959.1951892376 -4007797.8708324432 0 0 0 0 7070787.6336765289 2881514.5888352394 0 2881514.5888352394 -5683585.4239909649 0 0 0 0 821962.54828500748 4803159.1933698654 0 4803159.1933698654 5540554.887068212 0 0 0 0 4743902.6264995337 10706980.750588894 0 10706980.750588894 4858464.4172801971 0 0 0 0 -665639.53837046004 944025.34984754259 0 944025.34984754259 520621.43486114126 0 0 0 0 -5057937.7885015011 -4231074.7194639444 0 -4231074.7194639444 -9210616.2124862671 0 0 0 0 -4355634.6921024323 -1106251.1067991257 0 -1106251.1067991257 -7175776.2126579285 0 0 0 0 2637909.2132158279 -2140391.7017660141 0 -2140391.7017660141 -12166612.6681633 0 0 0 0 654689.59103679657 5198478.4822325706 0 5198478.4822325706 -11721115.926737785 0 0 0 0 3695996.21210289 1690554.4648971558 0 1690554.4648971558 -8878085.8099431992 0 0 0 0 -1793328.2558685737 4057328.568888152 0 4057328.568888152 -8206246.1370059978 0 0 0 0 -1884263.5914494302 4952660.0073980782 0 4952660.0073980782 -6865720.1452579442 0 0 0 0 -757392.3171377182 1657787.2385721207 0 1657787.2385721207 -8387913.8840246201 0 0 0 0 -3143869.195702076 8393572.9620597363 0 8393572.9620597363 -7005611.0909385681 0 0 0 0 -2174894.427734375 4564389.1760501862 0 4564389.1760501862 -4340497.8831596375 0 0 0 0 -2789860.5980047747 6690748.1608783193 0 6690748.1608783193 -4158994.092129549 0 0 0 0 -586132.30896294629 3604687.6423547305 0 3604687.6423547305 -2543344.1679044659 0 0 0 0 -136646.75664339354 710062.37557207979 0 710062.37557207979 -3261244.101689985 0 0 0 0 -970323.90432357788 3089334.4052203894 0 3089334.4052203894 -2107200.3206748962 0 0 0 0 2797224.6886644363 2646429.943154335 0 2646429.943154335 -723120.85274410248 0 0 0 0 -1099581.6166505814 3391822.2191517353 0 3391822.2191517353 -6337463.9144963771 0 0 0 0 1042667.0442442894 5586214.9746499956 0 5586214.9746499956 -4349239.3608846664 0 0 0 0 257620.19204807281 6456086.5850297213 0 6456086.5850297213 -5049671.8110198379 0 0 0 0 -138613.6518681497 2951863.2153889351 0 2951863.2153889351 -1387808.267737862 0 0 0 0 1121209.7096633911 4371352.4696947336 0 4371352.4696947336 -3448856.9545595646 0 0 0 0 -154506.05335998535 3479188.5271440744 0 3479188.5271440744 -4057053.5500879586 0 0 0 0 1048084.0067481995 2921685.3806883097 0 2921685.3806883097 -2243292.5197838545 0 0 0 0 3312444.4018211365 3935493.0304416418 0 3935493.0304416418 -1799473.0733926296 0 0 0 0 1108555.5820207596 4719518.4231635332 0 4719518.4231635332 -4236656.832796827 0 0 0 0 -912210.80307445396 2460891.2390614673 0 2460891.2390614673 -4229543.5236566179 0 0 0 0 -26157746.145814896 14586712.509554386 0 14586712.509554386 6765200.9567670822 0 0 0 0 18403794.875586748 -1902759.1615250111 0 -1902759.1615250111 -4085943.5694189072 0 0 0 0 82816767.836277008 66250416.105178833 0 66250416.105178833 -82556771.020843506 0 0 0 0 5547928.3637619019 2300160.2335395813 0 2300160.2335395813 -6835024.6545667648 0 0 0 0 -189264.74174894113 1625380.4572991258 0 1625380.4572991258 -3521184.779150269 0 0 0 0 3181815.0913090706 3363964.4907969236 0 3363964.4907969236 -484122.96990585327 0 0 0 0 -73883.207385995745 2852125.7883357541 0 2852125.7883357541 -2932731.7808017591 0 0 0 0 1783632.173250251 1208619.5886943536 0 1208619.5886943536 -9274661.1494759619 0 0 0 0 372059.22168731689 2924623.9634933472 0 2924623.9634933472 -6093907.8042316437 0 0 0 0 5877699.8761576014 -1876823.6224215012 0 -1876823.6224215012 -13782899.847953252 0 0 0 0 371742.05952233874 -127988.71105693397 0 -127988.71105693397 -6523145.4279858917 0 0 0 0 5771125.3548135757 1712629.2591667175 0 1712629.2591667175 -6508899.1222169399 0 0 0 0 6004629.0853352547 1811135.5001311302 0 1811135.5001311302 -6782103.4035224915 0 0 0 0 5001469.6076073647 2373585.8471665382 0 2373585.8471665382 -6681225.3767986298 0 0 0 0 939676.95046730153 3274622.001373386 0 3274622.001373386 -7439398.5700568771 0 0 0 0 5434411.9328157902 2677882.518992424 0 2677882.518992424 -6948660.0165300369 0 0 0 0 -4966873.8232383728 2149783.6322565079 0 2149783.6322565079 -7425158.6148509979 0 0 0 0 1150015.8469457626 1445346.2744159698 0 1445346.2744159698 -12257062.643264771 0 0 0 0 -1349536.3789373199 3483992.3718168573 0 3483992.3718168573 -5171056.0487646069 0 0 0 0 -610148.07936954498 -4693194.6441731453 0 -4693194.6441731453 -13618971.639627457 0 0 0 0 -92526067.401165009 26461165.931316376 0 26461165.931316376 -21635584.819839478 0 0 0 0 5977134.6867427826 3177476.9905662537 0 3177476.9905662537 -11900644.869674683 0 0 0 0 244286.37354010157 3939001.0421233457 0 3939001.0421233457 -5387688.4663582034 0 0 0 0 -319023.96601462364 5400639.9552521706 0 5400639.9552521706 -8066977.6263771057 0 0 0 0 8473038.3997001648 3208078.5163917542 0 3208078.5163917542 -9134839.7984828949 0 0 0 0 18248224.044043541 11303138.6460495 0 11303138.6460495 -8695675.073589325 0 0 0 0 -828338.20135370921 3321090.0877740923 0 3321090.0877740923 -4245941.2804738842 0 0 0 0 3044396.4547290802 6514011.3457574844 0 6514011.3457574844 -2226733.8269786835 0 0 0 0 8169492.2483291626 6509412.4860706329 0 6509412.4860706329 -3569129.1045188904 0 0 0 0 3686998.1678352356 4427090.3357667923 0 4427090.3357667923 -3954020.6835861206 0 0 0 0 17868236.832995415 -3107814.8686485291 0 -3107814.8686485291 -47561514.466106415 0 0 0 0 5677881.4897937775 18476940.850002289 0 18476940.850002289 -375510.7961359024 0 0 0 0 7709966.9948673248 11710652.51531601 0 11710652.51531601 3708080.0075292587 0 0 0 0 4272311.6391501427 2050931.2885804176 0 2050931.2885804176 -11553868.482555389 0 0 0 0 6351161.348490715 2169857.251335144 0 2169857.251335144 -6451659.3715295792 0 0 0 0 908012.21336341579 2483561.5563815571 0 2483561.5563815571 -8008996.1877759956 0 0 0 0 -13891004.531347275 -973828.39324951172 0 -973828.39324951172 -8021770.8574438095 0 0 0 0 6923509.0981626511 2250835.7644329071 0 2250835.7644329071 -7346430.2176833153 0 0 0 0 6330099.50334692 1255069.1109063625 0 1255069.1109063625 -5884671.1633167267 0 0 0 0 618667.19140750682 205683.49722037045 0 205683.49722037045 -7605753.5483594965 0 0 0 0 11867845.061987877 1375045.7422914505 0 1375045.7422914505 -8785935.6240653992 0 0 0 0 19612059.313565969 -9687165.2302158475 0 -9687165.2302158475 -20049468.770708084 0 0 0 0 9018449.7851657867 56821.904982566833 0 56821.904982566833 -6456734.8536727428 0 0 0 0 8194586.7571486235 2762235.8560750484 0 2762235.8560750484 -8473490.91655159 0 0 0 0 93558146.169052124 162198571.7375946 0 162198571.7375946 -94271380.049171448 0 0 0 0 10995386.393830299 28168410.590526581 0 28168410.590526581 100883336.56789398 0 0 0 0 1339090.0296384783 2218326.6638990883 0 2218326.6638990883 -8838274.590851808 0 0 0 0 10924984.181217194 -9913011.5718164444 0 -9913011.5718164444 -2442777.0128936768 0 0 0 0 6457488.4643168449 1319374.9246258736 0 1319374.9246258736 -7286695.94972229 0 0 0 0 8452244.9220285416 612324.32507419586 0 612324.32507419586 -8884168.9286378622 0 0 0 0 9058100.2659502029 2224556.1458518505 0 2224556.1458518505 -6424609.6905345917 0 0 0 0 9473904.4898710251 -456740.12378406525 0 -456740.12378406525 -6900792.410415411 0 0 0 0 12657174.67440176 7703666.153137207 0 7703666.153137207 -15341362.748877048 0 0 0 0 1320097.4277077918 999613.72538170358 0 999613.72538170358 -8661172.4438511282 0 0 0 0 10395931.977462769 -781868.84117746353 0 -781868.84117746353 -9313133.0250768661 0 0 0 0 11071935.490576744 -1903096.6052792072 0 -1903096.6052792072 -7471923.9770069122 0 0 0 0 15578273.856620789 -17162166.927059174 0 -17162166.927059174 -6788907.0893249512 0 0 0 0 24184878.055992126 -19439514.054931641 0 -19439514.054931641 -15351063.896513462 0 0 0 0 8944142.3857800961 1429837.8783477545 0 1429837.8783477545 -10981625.215246201 0 0 0 0 12478146.885292053 1122894.4228887558 0 1122894.4228887558 -10861586.182991028 0 0 0 0 8933631.4511966705 -887353.61709976196 0 -887353.61709976196 -11014743.503925443 0 0 0 0 7612022.9769363403 -9029570.8136367798 0 -9029570.8136367798 -18184926.351226807 0 0 0 0 3147413.3422622681 -4271215.4623718262 0 -4271215.4623718262 1042939.1174583435 0 0 0 0 2209441.0964355469 -8776262.3101387024 0 -8776262.3101387024 3774707.8492889404 0 0 0 0 21294739.45996666 -9701390.2151622772 0 -9701390.2151622772 -18601199.337776184 0 0 0 0 5037317.3514099121 9506625.0470809937 0 9506625.0470809937 -15466936.147743225 0 0 0 0 32242196.12172699 19718587.085502625 0 19718587.085502625 -17885884.666801453 0 0 0 0 33004165.512532234 -5077135.1059427261 0 -5077135.1059427261 -10836066.439914703 0 0 0 0 897652.5095069143 -696956.223143287 0 -696956.223143287 -1029047.5288230199 0 0 0 0 -353838.01615333557 5576653.7863845825 0 5576653.7863845825 -5615443.272277832 0 0 0 0 1989124.8273109114 845969.44677869231 0 845969.44677869231 -7792959.8219103534 0 0 0 0 2958921.3127325773 4485519.4792632461 0 4485519.4792632461 -6705993.3201675415 0 0 0 0 3081095.2739477158 3255687.361987114 0 3255687.361987114 -5907585.6062049866 0 0 0 0 2890590.0581659079 2869628.486004591 0 2869628.486004591 -6379065.496925354 0 0 0 0 -984696.47623297153 3592335.8169275494 0 3592335.8169275494 -4198624.117942445 0 0 0 0 13733183.68662262 -3929405.4429221153 0 -3929405.4429221153 -3867854.0600967407 0 0 0 0 3469743.6504592896 18658069.123441696 0 18658069.123441696 58430537.59126091 0 0 0 0 622794.43059296347 347771.33991166111 0 347771.33991166111 -1346935.8427420091 0 0 0 0 21142340.075143814 -3804899.6382770538 0 -3804899.6382770538 -4400149.4242935181 0 0 0 0 37958.498645294923 235281.02952385088 0 235281.02952385088 -2569309.5965591408 0 0 0 0 -468671.64826917648 2550522.3988370895 0 2550522.3988370895 -7182404.1759061813 0 0 0 0 284218.86497424147 625984.90222019143 0 625984.90222019143 -2317829.3221508786 0 0 0 0 6449626.1441144943 -4289153.9835853577 0 -4289153.9835853577 -13046408.686105609 0 0 0 0 832994.10535860062 4380486.9107532501 0 4380486.9107532501 -11055429.380457401 0 0 0 0 994243.44513576175 1397247.776947533 0 1397247.776947533 -4952406.688325122 0 0 0 0 5626573.2366850376 358276.60154533386 0 358276.60154533386 -7718422.2862811089 0 0 0 0 12058900.981711388 -3475243.3247175217 0 -3475243.3247175217 -6093447.4860022068 0 0 0 0 12493400.360851288 6723911.7802629471 0 6723911.7802629471 -16524393.856959343 0 0 0 0 -312364.81455755234 7322913.8546824455 0 7322913.8546824455 -8336766.3115649223 0 0 0 0 -550716.32954835892 14558055.96991396 0 14558055.96991396 -18010917.319880009 0 0 0 0 -26832259.921591759 -15666651.769058228 0 -15666651.769058228 13923897.562850952 0 0 0 0 -295811.82478336291 449986.23192247842 0 449986.23192247842 -921615.79721421935 0 0 0 0 3238512.6617434025 2313017.4400110245 0 2313017.4400110245 8638387.6182394028 0 0 0 0 12622475.469588757 -6983406.4272422791 0 -6983406.4272422791 -23506014.415627003 0 0 0 0 136675.65449333191 -25687887.140001774 0 -25687887.140001774 -18495661.09113884 0 0 0 0 -326154.87795591354 1537353.5708296299 0 1537353.5708296299 -5464572.3764138818 0 0 0 0 389318.64751714654 -211957.00154943153 0 -211957.00154943153 -977229.90216111613 0 0 0 0 -5965100.2790079117 -4881664.456631422 0 -4881664.456631422 -6332225.8104047775 0 0 0 0 16594849.152730942 546494.43972396851 0 546494.43972396851 -7959206.6658039093 0 0 0 0 17486175.65116787 -4815474.3073823452 0 -4815474.3073823452 1157458.5408425331 0 0 0 0 8955063.2092189789 -7893195.8606286049 0 -7893195.8606286049 16960505.164107323 0 0 0 0 6754033.7728757858 11233714.944352627 0 11233714.944352627 -43805572.713680744 0 0 0 0 -3714178.5276660919 3524161.2124526501 0 3524161.2124526501 -10615610.984498978 0 0 0 0 -181300.56348319515 238131.05071614869 0 238131.05071614869 -181471.47897150659 0 0 0 0 -6699956.8797397614 -1550983.4904880524 0 -1550983.4904880524 12478246.526263714 0 0 0 0 2200093.0779285431 -1772021.762342453 0 -1772021.762342453 -33768337.800667763 0 0 0 0 3057187.0879206657 3383093.6459989548 0 3383093.6459989548 -10625773.251619339 0 0 0 0 4341558.0556328297 1946025.0103359222 0 1946025.0103359222 -9842070.1959133148 0 0 0 0 4232995.0400352478 774531.03281259537 0 774531.03281259537 -24978893.004839897 0 0 0 0 702283.23744821548 1822154.3014602661 0 1822154.3014602661 -11050545.421121597 0 0 0 0 1543687.1092917919 -1109.2485703229904 0 -1109.2485703229904 -20451124.317508698 0 0 0 0 619109.97550678253 2650232.091422081 0 2650232.091422081 -13931189.866373062 0 0 0 0 1979473.4674352109 -11572643.842142724 0 -11572643.842142724 -7367431.5201945305 0 0 0 0 54721.268905162811 12600150.675942898 0 12600150.675942898 -28068709.056017876 0 0 0 0 -219163.81548279035 290050.26914066682 0 290050.26914066682 -344910.8611950695 0 0 0 0 1286240.3552494049 7371490.9561223984 0 7371490.9561223984 -27594618.007065296 0 0 0 0 -3400816.2996826172 12679416.361241341 0 12679416.361241341 -24400270.380086899 0 0 0 0 -2171377.0798621178 4212010.815002203 0 4212010.815002203 -16132069.865427971 0 0 0 0 -1022241.6255216599 4077263.3902606964 0 4077263.3902606964 -20155468.416858673 0 0 0 0 2761630.4824512005 510024.33677482605 0 510024.33677482605 -18172771.959327698 0 0 0 0 -186382.73858344555 1314241.4079986811 0 1314241.4079986811 -17541708.137572289 0 0 0 0 935261.09233856201 2693361.084353447 0 2693361.084353447 -18307549.56512475 0 0 0 0 806865.84538173676 2492488.9237012863 0 2492488.9237012863 -16747428.147372246 0 0 0 0 839268.46133089066 2265578.6277337074 0 2265578.6277337074 -16786724.259897709 0 0 0 0 1938827.0958867073 1970740.4631714821 0 1970740.4631714821 -17328582.283228874 0 0 0 0 2131063.4258048534 1084889.4388508797 0 1084889.4388508797 -15463599.623583794 0 0 0 0 -41312.611634254456 3438466.5226635933 0 3438466.5226635933 -15858256.094801664 0 0 0 0 -6324824.3913959265 7703451.0201793909 0 7703451.0201793909 -8211487.9392166138 0 0 0 0 -373245.90205955505 3755947.2966423035 0 3755947.2966423035 -11256623.384188652 0 0 0 0 50501.880975484848 1929854.881918788 0 1929854.881918788 -9320390.3807506561 0 0 0 0 40125103.841811657 37007661.592646599 0 37007661.592646599 -36117985.239675522 0 0 0 0 61644358.997127771 -19709676.977873921 0 -19709676.977873921 -19605619.656574249 0 0 0 0 573185.70321044326 6545141.4427648783 0 6545141.4427648783 -16219808.125259399 0 0 0 0 -836088.54064226151 2120922.755777359 0 2120922.755777359 -11483250.08675766 0 0 0 0 2426564.0476599475 304551.93476152024 0 304551.93476152024 -4603385.3944777278 0 0 0 0 1734197.0225558914 681561.03187104175 0 681561.03187104175 -3595281.9236596739 0 0 0 0 151629.63456487656 1720899.7263660431 0 1720899.7263660431 -16514542.58413434 0 0 0 0 3495577.2845497131 2961161.9512033463 0 2961161.9512033463 -17227463.618123531 0 0 0 0 15450431.311829567 -18415558.031633854 0 -18415558.031633854 17414944.763538122 0 0 0 0 2330127.6026922348 43779.333651826455 0 43779.333651826455 -5433311.3726932369 0 0 0 0 8573249.0752904415 -6934035.3811600208 0 -6934035.3811600208 -1749197.1480178833 0 0 0 0 1174290.5756449699 663384.02047789097 0 663384.02047789097 -5363203.0669322014 0 0 0 0 1258387.4821272481 3168228.9410090591 0 3168228.9410090591 -4502023.0211068466 0 0 0 0 744657.16115665436 5650714.2288336754 0 5650714.2288336754 -8599849.2688250542 0 0 0 0 715596.01058399677 1434545.6327658035 0 1434545.6327658035 -5531164.9685742557 0 0 0 0 3570086.9521588483 -719747.37837904948 0 -719747.37837904948 -4925380.0464426801 0 0 0 0 4239455.1062507629 6195604.3126506805 0 6195604.3126506805 -13371028.443036556 0 0 0 0 2889003.4344787598 4506186.7028403282 0 4506186.7028403282 -12157942.11639595 0 0 0 0 715906.86334055965 1441846.3642270179 0 1441846.3642270179 -5712128.1682899641 0 0 0 0 361602.43419075012 1779646.747440815 0 1779646.747440815 -4582990.7467464209 0 0 0 0 3068095.3939417899 1345943.0014677048 0 1345943.0014677048 -6317174.9813280106 0 0 0 0 1536370.6497391125 1178646.6572957153 0 1178646.6572957153 -7650543.1849113898 0 0 0 0 998999.28750305739 3182237.6983170994 0 3182237.6983170994 -4961482.3958418453 0 0 0 0 2889308.5231084228 4340553.5514735281 0 4340553.5514735281 -7125346.7565841675 0 0 0 0 1296611.704426825 267625.18805170059 0 267625.18805170059 -4688372.3863425255 0 0 0 0 2870633.866271764 854776.9110506773 0 854776.9110506773 -3355687.5510501862 0 0 0 0 3148627.3014920354 -598114.00105142593 0 -598114.00105142593 -4388008.8899562359 0 0 0 0 1934734.1631517021 876649.73456531309 0 876649.73456531309 -6235144.8239258798 0 0 0 0 18103786.925951004 -5579162.80265522 0 -5579162.80265522 -10715263.100428104 0 0 0 0 17855731.413882375 -4652320.8665001392 0 -4652320.8665001392 -13998347.275129318 0 0 0 0 15587070.862330675 -8717268.1039638519 0 -8717268.1039638519 -1853716.4354219437 0 0 0 0 14776104.609459877 -5663636.131670475 0 -5663636.131670475 -10305126.381472588 0 0 0 0 20405368.441247314 -2881124.8427127898 0 -2881124.8427127898 -15945508.636035919 0 0 0 0 19412627.967461586 -12095652.29228878 0 -12095652.29228878 -11723496.673150063 0 0 0 0 17269813.175495386 -6465110.24908638 0 -6465110.24908638 -17694834.968006134 0 0 0 0 6898807.7074861526 4202486.6621856689 0 4202486.6621856689 -7887373.5090560913 0 0 0 0 3170558.6031446457 -2862938.5055551529 0 -2862938.5055551529 -13216699.364228249 0 0 0 0 16531767.226912498 -1134653.2398090363 0 -1134653.2398090363 -16563441.442186594 0 0 0 0 26870890.936420441 16721304.405966282 0 16721304.405966282 -13899531.995200157 0 0 0 0 2992875.8844841789 1015085.0065158214 0 1015085.0065158214 -11687628.682130646 0 0 0 0 3142392.4438994071 4850.0615582689643 0 4850.0615582689643 -7536937.9385400526 0 0 0 0 3372819.2134637833 1171746.019235611 0 1171746.019235611 -5241280.4711742401 0 0 0 0 7124472.5561904907 819314.18336105347 0 819314.18336105347 -10680820.845603943 0 0 0 0 -4453227.5720875859 6469772.0385035276 0 6469772.0385035276 -12112211.066925049 0 0 0 0 1336927.7440223433 4700467.1380328201 0 4700467.1380328201 -9577661.7737232298 0 0 0 0 -7912826.765460968 5290273.6271820068 0 5290273.6271820068 -9035863.4380607605 0 0 0 0 10609.776288467459 42950.549298965372 0 42950.549298965372 -674687.51833930425 0 0 0 0 4291417.8046743423 -21456556.591572136 0 -21456556.591572136 -10291647.471858978 0 0 0 0 666249.93166635092 -254846.65766158048 0 -254846.65766158048 -896994.86600550637 0 0 0 0 5039105.3415699601 9925773.6663472354 0 9925773.6663472354 -27502566.815628052 0 0 0 0 1120584.1919994354 -3318095.3587722778 0 -3318095.3587722778 -40508575.046340942 0 0 0 0 6980113.623960495 -3683660.9010257721 0 -3683660.9010257721 6263294.43309021 0 0 0 0 12414108.38835144 655866.55571937561 0 655866.55571937561 -39619985.224048615 0 0 0 0 3635566.6633958817 9728265.663738966 0 9728265.663738966 -39813733.818901062 0 0 0 0 271126.05165660568 -436019.22164548608 0 -436019.22164548608 556031.67825768143 0 0 0 0 3762852.3634796143 4145174.3437666893 0 4145174.3437666893 -5227280.4438409805 0 0 0 0 5614286.3154230118 6548009.6810836792 0 6548009.6810836792 -32462623.766799927 0 0 0 0 2406847.0908170152 1265186.1638445836 0 1265186.1638445836 -9895858.2309470885 0 0 0 0 1592547.1288819313 1122824.5605325699 0 1122824.5605325699 -5601186.8968372345 0 0 0 0 1904403.084903961 3120014.7644692166 0 3120014.7644692166 -11992906.987198854 0 0 0 0 8544256.1702394485 4819455.0827665329 0 4819455.0827665329 -11076116.12391758 0 0 0 0 -3264318.9267349243 5050360.3268680573 0 5050360.3268680573 -3924561.2002339363 0 0 0 0 360478.14177508 730344.76519259717 0 730344.76519259717 -1054976.1763098266 0 0 0 0 946050.61911808071 5257837.4894721881 0 5257837.4894721881 -4164695.4587689196 0 0 0 0 1926595.3874103259 557711.74226818199 0 557711.74226818199 -5338247.2896538321 0 0 0 0 5832419.6212152243 2205157.1950011253 0 2205157.1950011253 -6840907.0548810959 0 0 0 0 4748625.9795502126 176107.49488651752 0 176107.49488651752 -5833262.3684802055 0 0 0 0 4010521.0049452782 908992.06338500977 0 908992.06338500977 -7095879.1695933342 0 0 0 0 1844219.802226305 1835312.2685194016 0 1835312.2685194016 -5241339.3935394287 0 0 0 0 1075600.6808776711 898126.95179117867 0 898126.95179117867 -4796523.5267034769 0 0 0 0 3154263.9930012226 2604336.3284931183 0 2604336.3284931183 -5403571.9737157822 0 0 0 0 6458222.3618564308 67620.152792930603 0 67620.152792930603 -5046193.0988461971 0 0 0 0 1412104.459741076 169302.08028894046 0 169302.08028894046 -3880916.1328454427 0 0 0 0 8643999.5888202935 -356154.41946238279 0 -356154.41946238279 -7211693.4066066742 0 0 0 0 1465755.4830450995 560822.73165090976 0 560822.73165090976 -7656313.9157197969 0 0 0 0 5018649.1727688313 -2347301.8059806824 0 -2347301.8059806824 -6278303.0339882374 0 0 0 0 9180753.6801039949 -514010.6087462306 0 -514010.6087462306 -6538713.7426548004 0 0 0 0 2889069.5440921914 -1763434.2939223507 0 -1763434.2939223507 -7173212.0107912393 0 0 0 0 6141066.5622765273 837425.25925689936 0 837425.25925689936 -10925336.434064865 0 0 0 0 7040913.5974264145 1943479.8146953583 0 1943479.8146953583 -10678928.983657837 0 0 0 0 5982652.5194058418 1840076.9533920288 0 1840076.9533920288 -10260223.707538605 0 0 0 0 5359115.3990225792 534659.97021484375 0 534659.97021484375 -10547230.691319942 0 0 0 0 5777847.3156690598 732237.11674976349 0 732237.11674976349 -13611923.48009491 0 0 0 0 3669936.1292071342 -921863.50715255737 0 -921863.50715255737 -10643153.113871574 0 0 0 0 17360699.871531487 -6465337.841047287 0 -6465337.841047287 -4597952.6017794609 0 0 0 0 3168869.5637536049 -1455264.8157424927 0 -1455264.8157424927 -11118691.130605698 0 0 0 0 3038100.7570492649 -2880870.5284144105 0 -2880870.5284144105 -7572404.0637748521 0 0 0 0 16030828.645872116 -3205880.6461009979 0 -3205880.6461009979 -2430614.1522216797 0 0 0 0 2353207.0928689819 952050.59177344094 0 952050.59177344094 -7684758.585931126 0 0 0 0 -356009.85891694389 2432199.2553392835 0 2432199.2553392835 -4952440.8388754763 0 0 0 0 8410239.2498703003 5835350.0975418091 0 5835350.0975418091 -14721186.653999329 0 0 0 0 -3449202.212846756 17982727.927333832 0 17982727.927333832 -18807827.177700996 0 0 0 0 2670425.5609741211 16298352.466014862 0 16298352.466014862 -27402486.104522705 0 0 0 0 -5364609.6790237427 6874302.8036422729 0 6874302.8036422729 -14620640.104515076 0 0 0 0 -17139463.354045868 10021681.370487213 0 10021681.370487213 -14959640.300750732 0 0 0 0 663168.90498388489 -2797206.3830194734 0 -2797206.3830194734 674767.58537557721 0 0 0 0 2969408.2081668056 1440449.5748210307 0 1440449.5748210307 -12384050.265298981 0 0 0 0 41058850.66021347 -4202916.1967353821 0 -4202916.1967353821 -14350291.839958191 0 0 0 0 9879502.6254348755 9879643.7812595367 0 9879643.7812595367 -13218551.663204193 0 0 0 0 -25541327.413992882 19606716.055992126 0 19606716.055992126 -20937491.191192627 0 0 0 0 2167052.9975438411 6398317.4714412177 0 6398317.4714412177 -20001252.758909903 0 0 0 0 637699.9196021175 4639558.7763768369 0 4639558.7763768369 -11553956.28623344 0 0 0 0 23205743.095405579 -31032481.48664856 0 -31032481.48664856 240949300.42480469 0 0 0 0 24108546.175172806 -1391076.4377880096 0 -1391076.4377880096 -18961916.154290676 0 0 0 0 -5094390.384436667 13945075.543937683 0 13945075.543937683 -12730542.743896484 0 0 0 0 14167437.961740494 53295436.67647934 0 53295436.67647934 -388475862.02383423 0 0 0 0 6688891.1538963318 8196179.8799819946 0 8196179.8799819946 -28156075.29209137 0 0 0 0 -6363090.5255661011 20885936.144706726 0 20885936.144706726 -40461209.854476929 0 0 0 0 8972342.5284004211 -21899201.537155151 0 -21899201.537155151 -45773580.222306252 0 0 0 0 348112.38983076811 -5779890.0492173433 0 -5779890.0492173433 -10946946.801231384 0 0 0 0 1247741.2301127352 752248.33723364957 0 752248.33723364957 -3529393.4656211622 0 0 0 0 3220614.8408904076 15433375.901058197 0 15433375.901058197 -24261554.398757935 0 0 0 0 2979615.9071866162 1826610.9663646515 0 1826610.9663646515 -13004338.162149286 0 0 0 0 9906897.4306516647 18642278.487178802 0 18642278.487178802 11701052.912174225 0 0 0 0 404499.1737626791 -6831358.9470026493 0 -6831358.9470026493 -17862706.2135849 0 0 0 0 4763878.9842853546 -4698515.2217559814 0 -4698515.2217559814 -17182773.138355255 0 0 0 0 16941463.964111328 16268088.772632599 0 16268088.772632599 -27949938.687253952 0 0 0 0 29864706.166234851 10472628.150828123 0 10472628.150828123 -29057080.014541626 0 0 0 0 29495619.861533999 13246113.925878763 0 13246113.925878763 -25464279.978378296 0 0 0 0 44759343.900587082 16371007.682128906 0 16371007.682128906 -29002177.776237488 0 0 0 0 14112714.749876022 13704031.057739258 0 13704031.057739258 -24006117.876026154 0 0 0 0 27899832.303564072 9617420.8132972717 0 9617420.8132972717 -22973105.524822235 0 0 0 0 15538239.556999207 11681260.578102112 0 11681260.578102112 -26409689.971359253 0 0 0 0 9804061.511423111 10302863.512077332 0 10302863.512077332 -15838606.00994873 0 0 0 0 22895904.623474121 -3991790.569770813 0 -3991790.569770813 -255398.87904262543 0 0 0 0 28464839.894979954 9256820.1657896042 0 9256820.1657896042 -28327505.64125061 0 0 0 0 27968217.725248337 907457.68060684204 0 907457.68060684204 -25450524.92924881 0 0 0 0 34019502.85203743 3395813.4976921082 0 3395813.4976921082 -24975954.204238892 0 0 0 0 36199339.786736488 -2862386.3023376465 0 -2862386.3023376465 -35504939.938728333 0 0 0 0 37588670.672311783 -2829455.994682312 0 -2829455.994682312 -36453210.737846375 0 0 0 0 41272254.529975891 -19505558.342983246 0 -19505558.342983246 -45035731.837081909 0 0 0 0 14603593.386678696 -22139712.189872742 0 -22139712.189872742 -35850760.465480804 0 0 0 0 15166961.909804761 -36089838.218302906 0 -36089838.218302906 -26163571.843223572 0 0 0 0 98520252.863384247 -43922316.966453552 0 -43922316.966453552 -53207408.169668198 0 0 0 0 60958173.294387341 -13997530.971446991 0 -13997530.971446991 -44661282.62335968 0 0 0 0 44673308.292367458 -52259429.477861404 0 -52259429.477861404 -52964462.872383118 0 0 0 0 51191962.152029037 -6348972.9323501587 0 -6348972.9323501587 -49106611.942712784 0 0 0 0 56353279.87700367 454312.14843559265 0 454312.14843559265 -40139073.642219543 0 0 0 0 -5672854.532160759 -45246386.63634491 0 -45246386.63634491 -8064453.9605140686 0 0 0 0 -18572101.845070362 -32130924.533588409 0 -32130924.533588409 -15187403.395202637 0 0 0 0 -5579352.9292583466 -46616485.387699127 0 -46616485.387699127 -31495020.665752411 0 0 0 0 -162027379.10874081 -62783966.911109924 0 -62783966.911109924 15157469.032268524 0 0 0 0 528871.56394987134 -31224.535328784492 0 -31224.535328784492 -14695.887597210705 0 0 0 0 -99395076.220006943 -156850354.36239243 0 -156850354.36239243 135703556.51144409 0 0 0 0 18497291.433065414 -126231027.24222946 0 -126231027.24222946 11296588.818675995 0 0 0 0 107696154.53533363 -172985500.35380173 0 -172985500.35380173 2120966.0368289948 0 0 0 0 90456223.520809174 -46389105.110443115 0 -46389105.110443115 98247032.807415009 0 0 0 0 104937689.81901932 -136057355.66013336 0 -136057355.66013336 -123120640.81594086 0 0 0 0 53807494.590280533 28779459.039388657 0 28779459.039388657 -19429987.553611755 0 0 0 0 103410256.27949905 3040351.090473175 0 3040351.090473175 -48919054.07782656 0 0 0 0 77046480.427928925 -26914539.344104767 0 -26914539.344104767 -66558047.612308502 0 0 0 0 250385572.35615349 90095.119583129883 0 90095.119583129883 -63053655.497241974 0 0 0 0 283892976.76445389 113944093.62928772 0 113944093.62928772 -10705415.156330109 0 0 0 0 415711287.8307724 -72563670.085998535 0 -72563670.085998535 -115538922.14584303 0 0 0 0 74697376.730640411 45887830.205612183 0 45887830.205612183 -32692293.086471558 0 0 0 0 54617637.918701172 24932467.923500061 0 24932467.923500061 -19632248.453015804 0 0 0 0 153575106.53156471 -312365892.45614624 0 -312365892.45614624 365933560.25009346 0 0 0 0 50028130.583163261 80683432.811611176 0 80683432.811611176 54702107.089286804 0 0 0 0 1598456.5832683165 -473081.40394543856 0 -473081.40394543856 -777303.04193232395 0 0 0 0 395688451.56431293 -490899296.5444963 0 -490899296.5444963 -415516031.84130096 0 0 0 0 197462793.25224304 -50215117.740346909 0 -50215117.740346909 38932066.295406342 0 0 0 0 1440701.8488128022 1387715.715793171 0 1387715.715793171 -1296223.2154487222 0 0 0 0 385026474.38566351 -48683022.829572678 0 -48683022.829572678 -166185193.86228943 0 0 0 0 209763846.6769824 -66048172.874425888 0 -66048172.874425888 -4215286.8777236938 0 0 0 0 73738481.200410843 -66360167.452573776 0 -66360167.452573776 71383068.542610168 0 0 0 0 -152692754.98817873 -225748280.02706146 0 -225748280.02706146 19723601.764053345 0 0 0 0 69303171.774324417 -78270510.883728027 0 -78270510.883728027 -98404139.634773254 0 0 0 0 713432.30941929296 663800.12615862861 0 663800.12615862861 -541780.71017551422 0 0 0 0 274158729.62498569 -242092281.00063515 0 -242092281.00063515 -37789348.696220398 0 0 0 0 289601783.01863289 115862960.47517395 0 115862960.47517395 746030489.6338501 0 0 0 0 35048248.97961235 -175170359.74821472 0 -175170359.74821472 134215444.15959549 0 0 0 0 67601546.368800163 -5373335.719078064 0 -5373335.719078064 -60837830.446479797 0 0 0 0 284623341.26770306 82770057.046125412 0 82770057.046125412 -79454477.553421021 0 0 0 0 -286951695.84781265 -263918106.42953968 0 -263918106.42953968 -189990139.19245911 0 0 0 0 66563158.976511002 68303368.69411087 0 68303368.69411087 -511556878.75955772 0 0 0 0 -269482798.95286608 373056920.31654835 0 373056920.31654835 -270793046.50257874 0 0 0 0 5950019.1312942505 168088609.5705204 0 168088609.5705204 -118513746.18579674 0 0 0 0 -9424960.0916452408 150255778.69937134 0 150255778.69937134 -59270206.813301086 0 0 0 0 267415432.9873991 -74484374.153217316 0 -74484374.153217316 -121170608.50491714 0 0 0 0 -142272073.11876982 174356204.00806308 0 174356204.00806308 -64895870.674438477 0 0 0 0 175322292.98876905 -100040668.22335148 0 -100040668.22335148 7677055.2341079712 0 0 0 0 896604.21858578082 903590.92335362034 0 903590.92335362034 -911559.80249667168 0 0 0 0 60737008.227593422 124129769.86190796 0 124129769.86190796 -130139600.24412537 0 0 0 0 84200509.28732872 2749848.0718002319 0 2749848.0718002319 -85208740.04523468 0 0 0 0 134487910.9978714 -44284406.309772491 0 -44284406.309772491 -55515942.615987778 0 0 0 0 81973930.827586174 -66848401.540133476 0 -66848401.540133476 13092707.354846954 0 0 0 0 97676767.087831974 -36824906.365145683 0 -36824906.365145683 -28236466.199028015 0 0 0 0 52353318.064180374 -33667976.698265076 0 -33667976.698265076 -21575056.692047119 0 0 0 0 56613109.096565008 -5876777.9799249172 0 -5876777.9799249172 -20974710.506462097 0 0 0 0 78069234.474565506 -10321198.711831093 0 -10321198.711831093 -20178014.878837585 0 0 0 0 7329077.8540706635 3892581.9196147919 0 3892581.9196147919 -4930146.608707428 0 0 0 0 728920.18128284148 6127182.9200118091 0 6127182.9200118091 -6370855.8589546829 0 0 0 0 6032466.4076566696 4868114.3935775757 0 4868114.3935775757 -4657401.8273735046 0 0 0 0 17513335.522830963 -2082753.9378395081 0 -2082753.9378395081 -2025083.1409912109 0 0 0 0 5600205.5190460235 1536584.2907713689 0 1536584.2907713689 -4093396.6343525983 0 0 0 0 32122859.657991409 -2105763.4893245697 0 -2105763.4893245697 -7983374.7374534607 0 0 0 0 7350660.931678772 -432041.14944839478 0 -432041.14944839478 -6757419.1474304199 0 0 0 0 6786981.2306518555 3188499.1023960114 0 3188499.1023960114 -6368185.8501281738 0 0 0 0 7872985.7076129913 5719343.6568546295 0 5719343.6568546295 -8634250.6599884033 0 0 0 0 -40741.996404293925 127804.74798768386 0 127804.74798768386 -354556.58027759194 0 0 0 0 3050248.0290759029 -297951.84925232781 0 -297951.84925232781 -7971956.2061745152 0 0 0 0 2924535.7681460758 1487548.0706824902 0 1487548.0706824902 -10000013.712197931 0 0 0 0 5842075.2152452469 661631.86872291565 0 661631.86872291565 -7435307.2348384857 0 0 0 0 1844968.6589717865 -1076769.1688480377 0 -1076769.1688480377 -16511013.647666931 0 0 0 0 4274315.5620861053 1509661.1578845978 0 1509661.1578845978 -13881637.151817322 0 0 0 0 -316000.50731086731 2691005.9530982971 0 2691005.9530982971 -20359945.602497101 0 0 0 0 14913889.198705673 2299450.3906288147 0 2299450.3906288147 -47133330.451869965 0 0 0 0 4074101.3525726348 -248682.60176006705 0 -248682.60176006705 -2193354.4039350115 0 0 0 0 -12175788.370297909 -21566024.31979084 0 -21566024.31979084 -14102157.72202301 0 0 0 0 82534310.72000742 -50649579.945978642 0 -50649579.945978642 28398427.81332016 0 0 0 0 17902179.679513931 -26469367.592536926 0 -26469367.592536926 28170522.363396645 0 0 0 0 
</DataArray>
<DataArray type="Float64" Name="cross_section_updated" format="ascii">
1 1 0.049653984538709221 1 1 1 1 0.049654731737255729 1 1 1 1 1 1 1 1 1 1 1 1 0.048680807301683462 1 1 1 1 0.048678310984772273 1 1 1 1 1 1 1 0.04868144446375898 1 1 1 1 1 1 1 1 0.047216044284083096 1 1 1 1 1 1 1 1 1 1 1 0.046972854501514644 0.050440763716080764 1 1 1 1 1 1 1 1 0.044056293105961909 1 1 1 1 1 1 1 1 1 1 1 1 1 1 1 1 1 1 1 1 1 1 0.045697343486538589 1 1 1 1 1 1 1 1 1 1 1 0.048781177326255143 1 1 1 0.049498086282656797 1 1 1 1 1 1 1 1 1 1 1 1 1 1 1 1 1 1 1 1 1 1 1 1 1 1 1 1 1 1 1 1 1 1 1 1 1 1 1 1 1 1 1 1 1 0.05007886653867602 1 0.04859590443239379 1 1 1 1 1 1 1 1 1 1 1 1 1 1 1 1 1 1 1 1 1 1 1 1 1 1 0.049230849548765755 1 1 0.049887134529574537 1 0.049583382850788615 1 1 1 1 1 1 1 1 1 1 1 1 1 1 0.050272628732903071 1 0.046453538542175384 1 1 1 1 1 1 1 0.047323747101677541 1 0.046371986906568637 1 1 1 1 1 1 0.050510382262151335 1 1 0.044507284062491825 1 1 1 1 1 1 0.044601054993067567 0.040282372793697112 1 1 0.050012073300079264 1 0.044337518778022889 1 0.04990445886751689 0.046993015727476287 1 1 1 0.043056830253966623 1 1 1 1 1 1 1 1 1 1 1 1 1 0.036862939858683816 1 1 1 1 1 1 1 0.033479695661366632 1 1 1 1 1 1 1 0.030400412476508466 1 1 1 1 0.049385884368225587 1 1 1 1 1 1 0.049926714548353818 1 1 1 0.048251039690910234 1 1 1 1 1 1 1 0.047297757311344606 1 1 1 1 1 1 0.049961068513717011 1 1 1 1 1 1 0.049573461216265068 1 1 1 1 1 1 1 0.050096171094678933 1 1 1 1 1 1 1 1 1 1 1 1 1 1 1 1 1 1 1 1 1 0.050404163653055001 0.049957245111313747 1 1 1 1 1 0.051390710310968861 1 1 1 1 1 1 1 0.045029938562658509 1 0.055330984196713798 1 1 1 0.044781809075331747 1 1 1 0.0498136269632381 1 0.049987414444528276 1 1 1 1 1 1 1 0.038692126065516211 1 1 1 1 1 1 1 0.02807984523083526 1 1 1 0.050019999003609074 1 1 1 1 1 1 1 1 1 1 1 1 1 1 1 1 1 1 1 1 1 1 1 1 1 1 1 1 1 1 1 1 0.036227304544245907 1 1 1 1 1 1 1 1 1 1 1 1 1 1 1 1 1 1 1 1 1 1 1 1 1 1 1 1 1 1 1 1 0.050023279128870009 1 1 1 1 1 1 1 1 1 1 1 1 1 1 1 1 1 1 1 1 0.050025011065763722 1 1 1 1 1 1 1 0.049955860303396771 1 1 1 1 1 0.049893155083559217 1 1 0.049996986419132083 1 0.049577739759660358 1 1 1 1 0.049117997842980647 1 1 0.048634208636577719 1 1 1 1 1 1 0.048396825441924099 1 1 1 1 1 1 1 1 1 1 1 1 1 1 1 1 1 1 1 0.048856421730016669 1 1 1 1 1 1 1 1 1 1 1 0.049691330947538706 0.049067165125026131 1 1 1 1 1 1 1 1 1 1 1 1 1 1 1 1 1 1 1 1 1 0.050039889454098346 1 0.050027902388602427 0.050220746956348962 1 1 0.049725997852076077 1 1 1 1 1 1 1 1 1 1 1 1 1 0.050571636404151549 1 1 1 1 1 1 1 0.050403117328927584 0.050391169444659559 1 1 1 1 1 1 1 1 0.049695136853443823 0.049826160738538829 1 1 1 0.050091846882124175 1 1 1 1 1 1 1 1 1 1 1 1 1 1 1 1 1 1 1 1 1 1 1 1 1 1 1 1 1 1 1 1 1 1 1 0.050008620843922914 1 1 0.049946718301801973 1 1 1 1 0.049865251128177614 1 1 1 0.050024342722026133 1 1 1 0.050013929084186608 1 1 0.050010422553318966 1 1 1 1 1 1 1 1 1 1 1 1 1 1 1 1 1 1 1 1 1 0.049934965075463231 1 1 1 0.049949430050340735 1 1 1 1 1 0.049922335938300588 1 1 1 1 1 1 0.049986325790799757 1 1 1 1 1 1 1 1 1 1 1 1 1 1 1 1 1 1 0.04997186028303862 1 1 1 1 1 1 1 1 1 1 1 1 1 1 1 1 1 1 1 1 1 0.049918532826375643 1 1 1 1 1 1 1 1 1 1 1 1 1 1 1 0.04993013313719976 1 1 1 1 1 1 1 1 1 1 1 1 1 1 1 1 1 1 0.046308473030000533 1 1 1 1 1 1 1 0.04994080526284176 1 1 1 1 1 1 1 1 1 1 1 1 1 1 1 1 1 1 1 1 1 0.049191100764846611 1 1 1 1 1 1 1 1 1 0.047675984340928255 1 1 1 1 1 1 1 1 0.033883739657127473 1 1 1 1 1 1 1 1 1 1 1 1 1 1 1 1 1 1 1 0.035291191100030726 1 1 1 1 1 0.031667416113451301 1 1 1 0.050050981147212882 1 1 1 1 1 1 0.051557495069451086 1 1 1 1 1 1 1 1 1 1 0.049266646408898135 1 1 1 1 1 1 1 1 1 1 1 1 0.050270969213308737 1 0.04766322283044868 1 1 1 1 1 1 1 0.035336482967623158 1 0.047863352582730646 1 1 1 1 1 1 1 1 1 1 1 1 1 1 1 1 1 1 1 1 1 1 1 1 1 1 1 1 1 1 1 1 1 1 1 1 1 1 1 1 1 1 1 1 1 0.048804269130841155 0.048372116878177676 1 1 0.05006648631211618 1 1 1 1 1 1 1 1 1 1 1 1 1 1 1 1 0.050704475981200391 1 1 1 1 0.034401885157462536 1 1 0.049808432872771854 1 1 1 1 1 1 0.03652274430031982 1 0.037946827518711389 1 1 0.050042541581681269 1 1 1 1 1 1 1 1 1 1 0.050225181972985124 1 1 1 1 1 0.048281097139170337 0.049981968130143037 1 1 1 1 0.044378257226848544 1 1 0.043847627448878684 1 0.045026721726517276 1 1 1 1 1 0.048715745759524198 1 1 0.049995050410335078 1 1 1 1 1 1 1 1 1 1 1 1 0.049336759881168882 1 1 1 1 1 1 1 1 1 1 1 1 1 1 1 0.049430995530842688 1 0.049998950260787878 1 0.048691790632702202 0.048713635977656537 1 0.048928306514695624 1 1 0.049986486012580947 1 1 1 1 1 1 0.052652705196182238 1 0.050068456955152288 1 1 0.053080902698338699 1 1 1 0.043623363747545454 1 1 0.049983694599227912 1 1 1 1 1 0.046803695060004522 1 1 0.04858868884063168 1 1 1 1 1 0.049797287784870518 1 0.044809665956922255 1 1 0.044138056375403148 1 1 0.047622695478279929 1 1 1 1 1 1 1 1 0.048318530144668602 1 1 1 1 1 1 1 1 1 1 0.048980400645265314 1 1 1 1 0.050546050444739726 1 1 0.051962821480697696 1 1 1 1 1 0.045283487044951637 1 1 1 1 1 0.050001999968024333 1 0.050086426784837011 1 1 1 1 1 1 0.049765587391979171 1 1 1 1 1 1 1 1 0.046047386281219689 0.047220396319468214 0.049600181555338775 1 1 1 1 0.046417442743207242 1 0.049921861975165426 1 1 1 0.043342072476156714 0.049988554344644776 1 1 1 0.049120817330883221 1 1 1 0.047262780560492129 1 0.050005791597623465 1 0.049243204840761098 0.044936224358276496 1 0.049999951585179933 1 1 1 1 0.046989284644189153 1 1 1 0.04981327086107757 1 0.049020397021963091 1 0.044834584204691261 1 1 1 1 1 1 1 0.049907815198121319 1 1 1 1 0.044633124103199737 1 1 1 1 1 1 1 1 0.050004383730193544 1 0.049697880774940986 0.049519558092556384 1 1 1 0.049461017529467605 1 1 1 1 0.049551212054892449 0.048764355063641983 1 1 0.044667511304812391 0.049952964939276534 1 1 1 1 1 0.049981718447491802 1 1 1 1 1 1 1 1 0.049981816189837852 1 0.049965441138000867 1 1 1 1 1 1 1 1 1 1 1 1 1 1 1 1 1 0.049984371764807523 1 1 1 1 1 1 1 1 1 1 1 1 1 1 1 1 1 1 1 1 1 1 1 1 1 0.0500145994978674 1 0.049949916829432631 1 1 1 1 1 0.050001058336678963 0.049996224041415446 1 1 1 1 0.049361210533029151 0.050167235958021222 1 0.050559465920126799 1 1 0.049385627048129627 1 1 0.049880371492047056 1 1 1 1 0.049617408246513284 0.050018502680366742 1 1 1 1 1 1 1 1 0.050001294097930186 1 1 0.050005350948207489 1 1 1 0.049983078004303579 1 1 0.049996758963150895 1 1 1 1 1 1 0.050029657079319001 1 1 1 1 1 1 0.049788899007709123 1 1 1 1 1 0.050107726711706983 1 1 0.049722393128868544 0.049696780453224211 1 1 0.049465031979699862 1 1 0.049997670721208726 1 1 1 1 1 1 1 1 1 1 1 1 0.050078887025411294 1 0.048784254789441525 1 1 0.049409282904687116 1 1 1 1 1 1 0.050002779502603872 1 1 1 0.049866285040628289 0.049816874306133171 0.04999873547071141 1 1 1 0.046280854767916699 0.050444259302543794 1 0.049046111031101014 0.048459269156420882 1 1 0.049771487706748135 1 1 0.049823998946723499 1 0.049780128537074454 1 0.050408871835771807 1 1 1 0.049152656585652703 0.049857808336486537 1 1 0.048897723170762707 0.050521360911997479 0.050163238994121583 0.050051828429608106 1 1 1 0.050285184890438706 0.049318533683730445 1 1 0.049887446286431249 0.049838961390720436 0.049401013155561765 1 0.051008693344304093 0.049257732293424727 1 1 0.047586754728451301 1 0.049638082008596679 0.048822216056206749 1 0.048036818968159749 1 1 0.050172546431508397 1 0.048924468579394233 0.049978134895092383 1 1 1 1 0.049827168160363637 0.049570827589140207 1 1 0.050011822175988548 1 1 1 0.049875503662053532 1 1 1 1 1 1 1 1 1 1 1 1 1 1 1 1 1 1 1 1 1 1 1 1 1 1 1 1 1 1 1 1 1 1 1 1 1 1 1 1 1 1 1 1 1 1 1 1 1 1 1 1 1 1 1 1 1 1 0.047705932623792961 1 0.049407634095159705 1 1 1 1 1 1 1 1 1 1 1 1 1 1 0.048175363310900457 1 1 1 1 1 1 1 1 1 1 0.049154316032408781 1 1 1 1 1 1 1 1 1 1 1 1 1 1 1 1 1 1 1 1 1 1 1 1 1 1 1 1 1 1 1 1 1 1 1 1 1 1 1 1 1 1 1 1 1 1 0.050061158805530775 1 1 1 0.050251633032829875 1 0.049659121920536585 1 1 1 1 1 0.049113840973714309 1 0.048879242513738576 1 1 1 1 1 1 1 1 1 1 1 1 1 1 1 1 1 1 1 1 1 1 1 1 1 0.049561492659624035 1 1 1 1 1 1 0.046187416798291352 1 0.048669157644835169 1 1 1 0.042856568076834675 1 1 0.044077993002443271 1 1 1 1 1 1 1 1 1 1 1 1 1 1 1 1 1 1 1 1 1 1 1 1 1 1 1 1 1 1 1 1 1 1 1 1 1 0.051155644009121967 1 0.047630812593887843 1 1 1 1 1 1 1 1 1 1 0.050033933865359322 1 1 1 1 1 1 1 1 1 1 1 1 1 1 1 1 1 0.046968283365196095 1 1 1 0.050004426394748724 0.04807847314116321 1 0.050214397298752503 1 1 1 1 1 1 1 1 0.049103201122185976 1 1 1 1 0.049367210525742382 1 1 1 1 1 1 1 0.049985609359467553 1 1 0.04210453951161712 1 0.04459751794903985 1 1 0.049936588377131885 1 1 0.053737489502379797 0.050011037984361677 1 1 1 1 1 1 1 1 1 1 1 1 1 1 1 0.042219153594345818 1 0.051701426118875043 1 1 1 0.047412597108020496 1 0.050927101116975515 1 1 1 1 1 1 1 1 1 1 1 1 0.050100201938381446 1 0.049212312114697981 1 1 1 1 1 1 1 1 0.050110951042738987 1 1 0.050061202446866661 1 1 1 0.047421165717705965 0.048236384597624207 1 1 1 1 1 1 1 1 1 1 1 1 1 1 1 1 1 1 1 1 1 0.04991167008930017 1 1 1 1 1 0.050001382538054751 1 0.050157485849759077 1 1 1 1 0.049799982682940017 1 1 0.048127854627615499 1 1 1 1 1 0.047103529518276809 1 1 1 1 0.04513384099515147 1 1 1 1 1 1 1 0.049539383070203113 1 1 1 0.04879053854902448 1 1 1 1 1 1 1 1 1 1 1 0.049223310706222115 1 1 1 1 1 1 1 1 0.050038026816403777 1 1 1 1 1 1 0.050073702217430176 1 1 1 1 1 1 0.050022241692828484 1 1 1 1 1 1 1 1 1 1 1 0.050475586695103873 1 1 1 0.050043935128681383 1 1 1 0.048172098882838604 1 0.04830427683199584 1 1 1 1 1 1 0.049986566291802093 1 1 1 1 1 1 1 1 1 1 1 1 1 1 1 0.048459172960272259 1 1 1 1 1 0.047570930003313805 1 1 1 1 1 1 1 1 0.049002691139619622 1 1 1 1 1 1 1 1 1 1 1 1 1 1 1 1 0.050231356208347476 1 1 1 1 0.049500007311545385 1 1 1 1 1 1 1 1 1 1 1 1 1 1 1 1 1 1 1 1 1 1 1 1 1 1 0.047824570815783042 1 1 1 0.050010816910255454 1 0.049706258752155681 1 1 1 1 0.048936787765346844 1 0.04957617733423459 1 1 1 1 1 0.049809667846710565 1 1 1 1 1 1 1 1 1 0.047221169431843089 1 1 1 1 1 1 1 1 1 1 1 1 1 1 1 1 1 1 1 1 1 1 1 1 0.05058966337693438 0.049523996774240492 1 1 1 1 1 0.050003608016415013 1 1 1 0.050245859065623774 1 1 1 0.050738070858775262 1 1 0.0486575982223258 1 0.05014837486997991 1 1 1 1 0.050128172370931194 1 1 1 1 0.050199925780179601 0.050004253151062168 1 1 1 1 1 1 1 1 1 1 1 1 0.050018092045894219 1 1 1 1 0.049999635223334532 1 1 1 1 1 0.049563227784998408 1 1 0.049849304865759433 1 1 1 1 1 1 1 1 1 1 1 1 1 1 1 1 0.050002590370079543 1 1 0.049879563976514087 1 1 1 0.049771457616416735 1 1 1 1 1 1 1 1 1 1 1 0.049891893639902651 1 1 1 1 1 1 1 1 1 1 1 1 1 1 1 1 0.049946650435338857 1 1 0.046925636015077425 1 0.048189775337891087 1 1 0.048212466582812946 1 0.049833614123669143 1 0.048511410715987011 1 1 1 1 1 1 1 1 1 1 1 1 1 0.049049572547356708 1 0.049085505455228551 0.050021092950482668 1 1 0.049240755449166465 0.049906749702261471 1 1 0.05000052317394299 0.049879526585444527 1 1 1 0.049265670142467903 1 0.049576765557961894 1 1 0.049031714329192337 1 1 1 1 0.048985805766331242 0.049978309817312848 1 0.047396777024521178 1 1 0.050059133439224343 0.04999180634203107 1 1 0.049831783188963148 1 1 1 0.049735959197490312 1 1 1 0.049083697441631491 0.047973827093636442 0.049857452128777541 1 1 0.050178680432507998 1 0.045394961504154695 0.049996606781839724 1 1 1 1 1 1 1 1 1 1 1 0.049718374536934694 0.049440370446788229 1 0.049381826330793334 1 0.049542978021118372 1 0.049987725901150665 1 1 1 0.049989861850611238 1 1 1 1 1 0.049782971685537199 1 1 1 1 1 1 1 1 1 1 1 1 1 1 1 1 1 1 1 1 1 1 1 1 0.049180810688669183 1 1 1 1 1 1 1 1 1 1 1 1 1 1 1 1 1 1 0.048536570611061924 1 1 1 1 1 1 1 1 1 1 1 0.048667106377796726 1 1 1 1 1 0.049279592484107175 1 1 1 1 1 1 1 1 1 1 1 1 1 1 0.049382762622109638 1 1 1 1 1 1 1 1 1 1 1 1 1 1 0.050441771132703733 1 0.047302415313518364 1 1 1 1 0.048261904288967782 1 1 1 1 1 1 1 1 1 1 1 1 0.050522235362077048 1 0.050014045271238518 1 1 1 1 0.050271810875307625 1 1 1 1 1 1 1 0.047420957958247259 1 1 1 1 1 1 1 0.049998192281612827 1 1 1 0.050853259000673834 1 0.050000117402607257 1 1 1 1 1 1 1 1 1 0.050343885267790253 1 1 1 1 1 1 1 1 1 1 1 1 1 1 1 1 1 1 1 1 1 1 1 1 1 1 1 1 1 1 1 1 1 1 1 1 1 1 1 1 1 1 1 0.050028200035606339 1 1 0.050465235656270521 1 1 1 1 1 1 1 1 1 1 0.050008843442032498 1 1 1 1 1 0.049864465559238111 1 1 0.050157688913537127 1 1 1 1 1 1 0.050694089345490113 1 1 1 1 0.049996401234002667 1 1 0.050447338062100409 1 0.050240090248032339 1 1 1 1 1 1 1 1 1 1 1 0.050096055316497926 1 0.050476012811833566 1 1 1 1 0.050022174302044725 1 1 1 1 1 1 1 1 1 1 1 1 1 1 1 1 1 1 1 1 1 0.048870783042788191 1 1 1 1 0.049569197295136057 1 1 1 1 1 1 1 0.050178284963655964 1 1 1 1 1 0.048371195375000654 1 1 1 0.049099998877288643 1 1 1 0.048977186049810814 1 1 0.04957655878711275 1 1 1 0.049937093399998932 1 1 0.049985732998871948 1 1 1 1 1 1 1 1 1 1 1 1 1 1 1 1 1 1 1 1 1 1 1 1 1 1 1 1 1 1 1 0.049547914531945556 1 1 1 1 1 1 1 1 1 1 1 0.049229498840946725 1 1 1 1 1 1 1 1 1 1 1 1 1 1 1 0.047748744614044117 0.049416861925972042 1 1 1 0.049147207836278343 1 1 1 1 0.048708158497502256 1 1 0.049086215838788846 1 1 1 1 1 1 1 1 1 1 1 1 1 0.048041816000185818 0.049250999479552568 1 1 1 1 1 1 1 1 1 1 1 0.044994490586018607 1 1 0.047825639974214795 1 1 1 1 1 1 1 1 1 1 1 1 1 1 1 1 1 1 1 0.046554980384890907 1 1 1 0.049951342008593705 1 1 1 1 1 0.050848773900738123 1 1 1 1 1 1 1 1 1 1 1 1 1 1 1 1 1 1 1 1 0.048685796967996658 1 1 0.049317259144996711 1 1 1 1 1 1 1 1 1 1 1 1 1 1 1 1 1 1 1 0.048360395790948078 1 1 1 1 1 1 1 1 1 1 1 1 1 1 1 1 1 1 1 1 1 1 1 1 1 1 1 1 1 1 1 1 0.049884660193966271 1 1 1 1 1 1 0.045396557825056916 1 1 1 1 1 0.045481407006985781 1 1 1 1 0.045809653421302832 1 1 1 1 1 1 1 1 1 1 1 1 1 1 1 1 1 1 1 1 1 1 0.046587041090345997 1 1 1 1 1 1 1 0.04855200960716681 1 1 0.048529990668222778 1 1 0.05015263216177944 1 1 1 1 1 1 0.049283151576909622 1 1 1 1 1 1 1 1 1 1 0.053388656418371323 1 0.045710006812715476 1 1 1 1 1 1 1 1 0.05003703457994179 1 1 0.053822527085792694 1 1 1 0.046208697861265857 1 1 1 0.047036170856379449 1 1 1 0.049946935801449314 0.049634813848762151 1 1 0.05131585496758883 1 1 0.051306147131740386 1 1 0.049926887696384807 1 1 1 1 1 1 1 1 1 0.049926906375447992 1 1 1 0.051210114893859543 1 1 1 0.051270771511061193 1 1 1 0.049993637241355297 1 0.049984580328874068 1 1 0.050417019785382794 1 1 1 1 1 1 1 1 0.05086588268518432 1 1 0.050616928390180699 1 1 1 1 1 1 1 1 1 1 1 1 1 0.050911536470816629 1 0.050007249109035541 1 1 1 0.050704156022352814 0.049049791157059576 1 0.050395428276067897 1 1 1 1 0.049990096615043111 1 0.049131672686267121 1 1 1 1 1 1 1 1 1 0.049740389304440275 1 1 1 1 1 1 1 1 1 1 1 1 1 1 1 1 1 1 1 1 1 1 1 1 1 1 1 1 0.050224415641503539 1 1 1 1 1 1 0.04968726484216731 1 1 1 1 1 1 0.049762792421687699 1 1 1 1 1 1 0.049915595131141313 1 1 1 0.049992589911318407 1 1 1 0.05001527215032725 1 1 0.051459792573029038 1 1 1 1 1 1 0.049802971903697917 1 1 1 0.052591981866097037 0.048403943564126695 1 1 1 1 1 1 1 1 1 1 1 1 1 1 1 1 1 0.048979456450283045 1 1 1 1 1 1 1 0.04996836830374779 1 1 1 1 1 0.050885349690843892 1 1 1 1 1 0.050052768825676462 1 1 0.046079053893803387 1 1 1 1 0.049983065567823878 1 1 1 1 1 1 0.040331108977688282 1 0.051101812482914427 1 0.04024077764123702 0.051511643112274262 1 0.05039726777630632 1 1 1 0.048900726335251193 1 1 1 1 1 0.047349444566436312 1 1 1 0.049426441251502418 1 1 1 1 0.048443717234423853 0.050320853630225953 0.047476370484764982 1 1 1 1 0.049935211714709798 0.049527353415979199 1 0.04904074348738624 1 1 1 1 1 1 0.049996012123525412 1 0.051994212864225939 1 1 0.050039422252794598 1 1 1 0.051346969778363429 1 1 0.048650997044415396 1 1 1 1 1 1 1 1 1 1 1 1 0.049853644542848394 1 1 1 1 0.051886550772786158 1 1 1 1 0.052063604889292701 1 1 1 1 1 1 1 1 1 0.049562466073230518 0.050492541761677362 0.046603032872324292 1 1 1 0.049999684236536959 0.04999012153904657 1 1 0.049866415919933876 1 0.050615660598522079 1 1 1 1 1 1 1 0.043427597132656363 1 1 1 1 1 1 1 1 1 1 1 1 1 1 1 1 0.049940589531972793 1 1 1 1 1 1 1 1 1 0.049824913397251966 1 1 0.05241921634320041 1 0.04894307975659886 1 0.049948297785422952 1 1 0.043885828243240478 1 1 1 0.049998759669942168 0.049217200231450542 1 1 0.050246888293133146 1 1 1 0.043600638165463439 1 1 1 1 0.050086722577246355 1 1 1 1 1 1 1 1 1 1 1 0.049102325799185852 0.049984056771054317 1 1 1 1 1 1 1 1 1 1 1 1 1 1 1 1 1 1 1 1 1 1 1 1 1 1 1 1 1 1 1 1 0.049960896614492878 1 1 1 1 1 1 1 1 1 1 1 1 1 1 1 1 1 1 1 0.04626873947466334 1 1 1 1 1 1 0.049986180309260324 0.04857380413630371 1 1 0.049005628128808015 0.04902187682425669 1 1 1 0.048814719739975018 1 1 1 1 1 1 1 1 1 1 1 1 1 1 1 1 1 1 1 1 1 1 1 0.047628742938674966 1 0.048712462395453342 1 0.049205380777646739 1 1 1 1 1 1 0.051807957056649201 1 0.049332808944900601 0.048852372902345217 1 1 0.041027456243535265 1 1 1 1 1 1 0.050009951796624985 0.039906946694753011 1 1 0.049241864750076782 0.050483633534043941 1 1 0.051596236566469875 0.050003541586450553 1 1 1 1 1 1 1 1 0.051672982619231332 1 1 1 1 1 0.050704519998266737 1 1 0.039884914609525035 1 1 1 0.050027331033437344 1 1 1 1 1 1 1 1 1 1 1 1 1 1 1 1 1 1 1 1 1 1 1 1 1 1 1 1 1 1 1 1 1 1 0.049769968692674638 1 1 0.053879976547807636 1 0.043905853678462718 0.051766479096550931 1 1 1 1 1 1 1 1 1 0.044683177267000468 1 1 1 1 1 0.045479943126844467 1 1 1 1 1 1 1 0.049875772249690545 1 1 1 1 1 1 1 1 0.049622510590436916 1 1 1 1 1 0.04938541968916637 1 1 1 1 1 1 1 1 1 1 1 1 1 1 1 1 1 1 1 1 1 1 1 1 1 1 1 1 1 1 0.049980109622590016 0.049931409280929678 1 1 1 1 1 1 1 0.049694821819166179 1 1 1 0.049971832891373441 1 0.049804265272231918 1 1 1 1 1 1 1 1 1 1 1 1 1 1 1 1 1 1 1 1 1 0.049938439577267457 1 1 1 1 1 1 0.049931050199349923 1 1 1 1 1 1 1 0.049996387505016372 1 1 0.049983316691599874 1 1 1 1 1 1 0.050230600791879264 1 1 1 0.048922895275795249 1 1 0.048145384980762436 0.050324093788039377 1 1 1 1 1 1 1 1 1 1 1 1 1 1 1 1 1 1 1 1 1 1 1 1 1 1 1 1 0.049840067551620931 1 1 1 1 1 1 1 1 1 1 1 1 1 1 1 1 1 1 1 0.05285506446856017 1 1 1 0.051178537209925316 0.049975843185980223 1 1 1 1 1 0.049988886592933719 1 1 1 0.049920079511340837 1 1 1 1 1 0.049876152961228021 1 1 1 1 1 1 1 1 1 1 1 1 1 1 1 1 1 1 1 1 1 0.049970192917533282 1 1 1 1 1 1 0.050072230318746067 1 1 1 1 1 1 1 1 1 1 1 1 0.049973309303851556 1 1 1 1 0.048912982527050369 1 0.04997326830900152 1 1 1 1 1 1 1 1 1 1 1 1 1 0.05032038607720335 1 1 1 1 1 0.05102499831312507 1 1 1 1 1 1 0.048915963643516462 1 1 1 1 1 1 1 1 1 1 1 1 0.048869025618172399 1 1 0.047012846816855143 1 1 0.050476212463039613 1 1 0.050127185206511715 1 1 1 1 1 1 1 1 1 1 0.045263383503254956 1 1 1 1 1 1 1 1 0.049982691592903111 1 1 1 0.050006924350853507 1 1 1 0.049619259936028899 1 1 0.043700805274363722 1 1 1 0.048407964897183076 1 1 1 1 1 0.04376331187906389 1 0.050000811614545296 1 1 1 1 0.050011003098468121 0.045367740314075318 1 1 1 0.050223752847937495 1 1 1 1 0.050049844019989742 1 1 1 1 1 1 1 1 1 1 1 1 1 1 1 0.049876906902023545 1 1 0.044235486508275024 0.045379046002281376 1 1 1 1 0.046011217594378075 1 1 1 1 1 1 0.049191158087239617 1 1 1 1 1 1 0.049735106939658248 1 1 1 1 1 1 1 1 0.05018079609526329 1 1 1 1 1 1 1 1 1 1 0.04981783645928204 1 1 0.050111046809728256 1 1 0.049041191450087784 1 1 1 1 1 0.047449311777132921 0.050016925906734233 1 1 0.050000099637389016 0.049489802227528912 1 0.049047627117224046 1 0.050454854948594391 1 0.049893016812568344 0.050404204817586985 1 1 0.049878766843343303 1 0.048434903718109101 1 0.050521273146764932 1 0.049622813905105943 1 0.048889806940244723 1 1 0.049990509694171723 1 0.047197169969697417 1 0.047324490752967671 1 1 1 1 1 1 0.045011889336768161 1 1 1 0.049988652227505703 1 1 1 1 1 1 1 1 1 0.049277411063597336 1 1 0.045590647825653793 1 0.049774137317314379 1 0.050731010349113016 1 1 1 0.051568540825534172 0.049570313130824883 1 1 1 1 1 1 1 1 1 1 1 0.049946035296904299 1 1 1 1 1 0.050017117579180675 1 1 1 1 1 1 1 1 1 1 1 1 1 1 1 1 1 0.050016833043084512 1 1 1 1 1 1 0.048342413691160754 1 1 1 0.048393686403761446 1 1 0.049690904568960345 1 1 1 0.051165045451969954 1 0.048723707556712612 0.049633161094651594 1 1 1 1 1 1 1 1 1 0.050881497526584794 1 1 1 1 1 1 1 0.049964035202368549 1 0.049978697693126538 1 0.049989544906291206 1 1 1 1 1 1 1 1 1 1 1 1 1 1 1 1 1 1 1 1 1 1 1 1 1 1 1 1 1 1 1 1 1 1 1 1 1 0.047173693126329581 1 1 0.047132255605732185 0.051327939210017243 1 1 1 1 0.051594109150053753 1 1 1 1 1 0.047169255225516925 1 1 0.050005641288987157 0.04216071305695146 1 1 1 1 1 1 0.046729432283747263 1 0.049996310212300686 1 1 0.051408541017886451 0.050021165208011233 1 0.04757702264335914 1 1 1 0.049665801634285994 1 1 1 1 0.049581609223430703 1 1 1 0.050759573010262161 1 1 0.046959750698981742 0.050033040096636644 1 1 1 0.049208882880844178 1 1 1 1 0.049896592539783985 1 1 0.049746841720517222 1 1 1 0.048499847738518488 1 1 0.048899887936502309 1 1 1 0.046104229842844034 1 0.046102310142327803 1 1 0.050330683413233407 1 1 0.048074277318881982 0.050008573451118248 1 1 0.047389772915263931 1 0.050017858055758757 0.04819899058872737 1 1 1 1 0.04310185776194668 1 1 1 1 0.04194648373282487 1 1 1 1 1 1 1 1 1 1 1 1 0.050279268034509966 1 1 1 1 0.050000482645547344 1 0.047028897064871518 1 1 1 1 1 0.046560192771996411 0.050000764843716558 0.049990407328559666 1 1 1 1 1 1 1 1 0.047678721853330414 1 1 1 1 1 1 0.05067640590490391 1 1 1 1 0.051512226031642613 1 1 1 1 1 1 1 1 1 1 1 1 1 1 1 1 1 1 0.049450895990085057 1 0.040850290342595325 1 1 0.050865265200946891 0.043614058948971551 1 0.046150522085428816 1 1 0.049655862439688905 1 0.050108694996719695 1 0.050332450430926018 1 0.049848972541589862 1 1 1 1 0.049955020013557123 1 1 1 0.049610018458912927 1 1 1 1 1 1 1 1 1 1 1 1 1 1 1 1 1 1 1 1 1 1 1 1 1 0.049936179982623841 1 1 1 1 1 0.046997990601790593 1 1 1 1 1 1 1 1 1 1 1 0.049857098434668817 1 1 1 1 1 0.049977638839621176 1 1 0.0510936551508369 0.045865805827777335 1 1 1 0.04871183834496505 1 1 0.049968180065137292 0.048614230468719842 1 0.046495506487182169 1 1 1 1 1 1 1 1 1 1 1 1 1 1 1 1 0.049846834678651808 1 1 1 1 0.049988658601918569 1 1 1 1 1 1 1 1 0.049920209936357485 0.049929026633864573 1 1 0.049995812608314913 1 1 1 1 1 1 1 1 1 0.049946165851830523 0.049952552250420279 1 1 0.050000073324840723 1 1 1 0.050003626702136539 1 1 1 1 1 1 1 1 1 1 1 1 1 1 1 1 1 1 1 1 1 1 1 1 1 1 0.049956028193819127 1 1 1 1 1 1 1 1 1 1 1 1 1 1 1 1 1 1 1 1 0.050978768556036683 1 1 1 0.047983813023337207 0.049999743599496459 1 1 1 0.052375931159785012 1 1 0.050100174306397197 1 1 1 1 1 0.049699426516513684 1 0.048448797427158928 1 1 1 1 1 1 1 1 0.050392068194409188 1 1 1 0.050666965385673404 1 1 0.050209142750783073 1 0.049999694058204973 1 1 1 0.048767434403083273 1 1 1 0.046545545701187768 1 1 1 1 1 1 1 1 1 1 1 1 1 1 1 1 1 0.04524053409103055 1 1 1 1 1 1 1 1 1 0.049250600763202937 1 1 1 1 1 1 1 1 0.044861834282619945 1 1 1 1 1 1 1 1 1 1 1 1 1 0.050005433577578862 1 1 1 0.050348445963334897 1 1 1 1 1 1 1 1 1 1 1 1 1 1 1 1 1 1 1 0.047979274398752277 1 1 1 0.049371947343101047 1 0.049990001756457625 1 1 1 0.050729600788474979 1 1 1 0.050006774927386935 0.0469641445712701 1 1 1 1 1 1 1 1 1 1 1 1 1 1 1 1 1 1 1 1 1 1 0.049690121751195492 1 1 1 1 0.049333030802139653 1 1 1 1 0.049642909050944165 1 1 1 1 1 1 1 0.048817890159907208 1 1 1 1 0.049221648495262817 1 1 1 1 1 1 0.049722423569244598 1 1 1 1 1 1 0.049857818606313997 1 1 1 0.049936982618453259 1 1 1 1 1 1 1 1 1 0.049762830225343939 1 1 1 1 1 1 0.049409825188714014 1 1 1 1 1 1 1 1 1 1 1 0.050001393182657519 1 1 0.051515933542729889 1 1 1 1 1 0.049899018019291232 1 1 0.049030450671928488 1 1 1 1 1 1 1 0.051179246739723447 0.045927340300175597 1 1 1 1 0.044891930403953978 1 1 1 1 1 1 0.050001038619419499 1 1 1 1 1 1 1 1 1 1 0.050800289998917336 1 1 1 1 1 1 1 1 1 1 1 1 0.050643602604668381 1 0.049969358819805187 1 1 1 0.05528038347196744 1 1 0.040804890877830888 1 1 1 1 0.054896270797341988 1 1 1 1 1 0.040519323943334289 1 1 1 1 1 1 1 1 0.041187308944852605 1 1 1 1 0.050432246574073164 1 1 1 1 1 1 1 0.050148633686452074 1 1 1 1 1 1 1 1 1 1 0.050365156198116788 1 1 1 0.049738626698032792 1 0.049747329169160054 1 1 1 1 1 1 0.050329920619085255 1 0.049159496196342953 1 0.049968545190220162 1 1 1 1 0.050433614537073797 1 1 1 1 1 1 1 1 1 1 1 1 1 1 0.049679462652319498 1 0.055821891342650573 1 1 1 1 1 1 1 0.050096701338179277 1 1 1 1 1 1 1 1 1 1 1 1 1 0.05433265111605632 1 1 1 1 0.05273956412644993 1 1 1 1 1 1 1 1 1 1 1 1 1 1 1 1 1 1 1 1 1 1 1 1 0.05012301724072122 1 1 1 1 0.043112058049107491 1 1 1 0.049995642267508703 1 1 0.049996231999019952 1 1 0.050002865051529267 1 1 1 1 1 1 1 1 1 1 1 1 1 1 1 0.050000082159900788 1 1 0.050008102837281652 1 1 1 1 1 1 1 0.050589234157545446 1 1 1 1 1 0.05071398042320948 1 1 1 0.04814432211083388 1 1 1 0.047556254906331911 1 1 1 1 1 1 1 0.047715884049180965 1 1 1 0.05017088740093522 1 0.049451562765347512 0.049944672496849314 1 1 1 1 1 0.049934058109189917 1 1 1 1 1 1 1 1 1 1 0.047792197123536648 1 1 1 1 1 1 1 1 1 1 1 1 1 1 1 1 1 1 1 1 1 1 1 1 1 1 1 1 1 1 1 1 1 1 1 1 1 0.049999811179070104 1 1 1 1 1 1 1 1 1 1 1 1 1 1 1 1 0.050003927756915409 1 1 1 1 1 1 1 1 1 0.049999813864039955 1 1 1 1 1 1 1 0.050001062705386137 1 1 1 1 1 1 1 1 1 1 1 1 1 1 1 1 1 1 1 1 1 0.048829547725430744 1 1 1 1 1 1 1 1 1 1 1 1 1 1 1 1 1 0.048679773896168829 1 1 1 1 1 1 1 1 1 1 1 1 1 1 1 1 1 1 1 1 1 1 1 1 1 1 1 1 1 1 1 1 1 1 1 1 1 1 1 1 1 1 1 1 1 1 0.048988131867674388 1 1 1 1 1 1 1 1 1 1 1 1 1 0.048694512244124924 1 0.050012859405445094 1 1 1 1 1 0.050041905421175141 1 1 1 1 1 0.04978297455039838 0.049693543158142589 1 1 1 1 1 1 1 1 1 1 1 1 1 1 1 1 1 0.050141650904547558 0.048719646415551807 1 1 1 1 1 1 0.049918239103116636 1 0.048777820983218381 1 1 1 1 1 1 1 1 1 0.049139320295586895 1 1 1 1 1 1 1 1 1 1 1 1 1 1 1 1 1 1 1 0.049565164990512237 1 1 1 1 1 0.05013836640933754 1 0.050309889927743649 1 1 1 1 1 1 1 0.050362636144736309 1 1 1 0.050171523518406105 1 1 1 0.051200123368710826 1 1 0.051155509110546449 1 1 1 0.043588993271168885 1 1 0.045381596991825243 1 0.042137415437253661 1 0.041963335855048939 1 1 0.046179274604647554 1 1 1 1 1 1 1 1 1 1 1 1 1 1 1 1 1 1 1 1 1 0.049967485987615176 1 0.041939305091401501 1 1 1 1 1 1 1 0.041979141995478975 1 1 1 1 1 1 1 1 1 1 1 1 1 1 1 1 1 1 1 0.049904468606068425 1 1 1 0.049835930373946152 1 1 1 1 1 1 1 1 1 1 0.04916441870328761 1 1 1 1 0.048218383211447807 1 1 0.049692351230589148 1 1 1 1 1 0.047861178559558015 1 1 1 1 0.050440099190316542 1 0.049331892012322506 1 1 0.042995005866412125 1 1 1 1 1 1 1 0.043718702304665701 1 1 0.049344994701764837 1 0.044982351418093286 1 1 1 1 1 1 1 1 1 1 1 1 1 1 1 1 1 1 0.049274615624417248 1 1 1 1 1 1 1 0.049984736390383908 1 1 1 1 0.049193402299970108 1 1 1 1 1 1 1 1 1 0.049856420856643005 1 1 1 1 0.048328580132577459 1 1 1 1 1 1 1 1 1 1 1 1 0.050233967744815047 1 1 1 1 1 1 1 1 1 0.046156773224876588 1 1 1 1 1 1 1 1 1 1 1 1 0.048117193824034281 1 1 0.049543470268651316 1 1 1 1 1 1 1 1 1 0.04984449842257703 0.04167749472895034 0.045733278574515965 1 1 1 0.049998817179650532 1 1 1 1 1 1 0.045281877335437787 1 1 1 0.050068740873961709 0.050065954703231802 1 1 1 1 1 1 1 1 1 1 1 1 0.044315181567933751 1 1 1 0.049939579497104911 0.05152836119382917 1 1 1 1 1 0.050945223277503934 1 1 1 1 0.047905484200575749 1 1 1 1 0.049969883629794772 1 1 1 1 1 0.04269007444917234 0.04858260125217978 0.049416446867472402 1 1 1 0.050497409958477624 0.051507660058372373 1 1 1 1 1 1 1 1 1 0.043329036927745646 0.049972623179392134 1 1 1 0.049913846058265494 0.049931461027677412 1 1 1 1 1 1 1 1 1 1 1 1 1 1 1 1 1 0.043147559025096871 1 0.042981968514877372 1 1 1 1 0.045258833019847525 1 1 1 1 1 1 1 0.04534079082671523 1 1 1 1 1 1 1 0.042782799347804316 1 1 0.049457389238392456 1 0.045736164045548464 0.04891185811421684 1 1 1 0.049164777026698338 0.04999582233548773 1 1 1 0.050042214574933984 0.048914597147504776 1 1 1 1 1 1 1 1 1 1 0.049415391161250308 1 1 1 1 1 1 1 0.047905629279282283 1 1 1 1 0.04833543966590071 1 1 1 1 1 1 0.044770134376516883 1 1 1 1 0.049569302730001992 1 0.046251925694472236 1 1 1 1 1 1 1 1 1 1 1 1 1 1 0.045621593971737012 1 1 1 1 1 1 1 0.04405975481231237 1 1 1 1 0.049977115119039697 1 1 1 0.051430411558215067 1 1 1 1 1 1 1 1 1 1 1 1 1 1 1 1 1 1 1 1 1 1 0.050787157122172848 1 0.050229916861185664 1 1 0.050096720980933859 1 1 1 0.050322184369541521 1 1 0.050389071581352855 1 1 1 1 1 1 1 1 1 1 1 1 1 1 1 1 1 1 1 1 0.05006324807222727 0.050594470263925502 0.050446493640592234 1 1 1 1 1 1 1 1 1 1 1 1 1 0.048747463032922086 1 1 1 0.049210116324389819 1 1 0.049492626979683235 1 1 1 1 0.049536938771221506 1 1 0.047563521207940371 0.050551600374474197 1 1 1 1 0.050015780799712167 1 1 0.049915524013617339 1 0.049970188566320524 1 1 1 1 1 1 1 1 1 1 1 1 0.048712838850411708 1 1 1 1 1 1 1 0.049785098596624312 1 0.050169724975243753 1 1 1 1 0.049104890242576943 1 1 1 1 1 1 1 1 1 1 1 1 1 1 1 1 1 1 1 1 1 1 1 0.049489714537296337 1 1 1 0.05020110495718702 1 0.048555784574352376 1 1 1 0.050913364387735846 1 1 1 1 1 0.050016282591839455 1 1 0.047887087746212989 1 1 1 1 1 1 1 1 0.049637092004506292 1 1 1 1 1 0.049780265139486829 1 1 1 1 1 1 1 1 1 1 1 1 1 1 0.049104166089029136 1 1 1 1 0.049117276453792887 1 1 1 1 1 1 1 1 1 1 1 1 0.049950608039363839 1 1 1 1 0.049870504991989535 1 1 1 1 1 1 1 1 1 1 1 1 1 0.049886758335062398 1 1 0.049868349637100677 1 1 1 0.049623981639742548 1 1 1 1 1 1 1 1 1 1 1 1 1 0.049609041132182764 0.048862434957353471 1 0.050982284647311249 0.049326773761132765 1 1 1 0.050591595436204638 0.04760774472506972 1 0.05161229330981193 1 0.049549688943429246 1 0.048586308714078472 1 1 1 0.051092475138690314 1 0.049913661367646474 1 1 1 1 0.048886267201621064 1 1 1 1 1 1 0.049948505525430988 1 1 1 1 1 0.047409204649321537 1 1 0.050000460487310876 1 1 0.048789862440753229 1 1 0.049997118349252759 1 1 1 1 1 0.047487825306357506 1 0.047149725464790224 1 1 1 1 1 1 1 1 1 1 1 1 1 0.049831908326575219 1 1 0.049951047128417837 1 1 1 1 1 1 1 1 1 0.049371246308360442 1 1 1 1 1 1 1 1 1 0.049605800605812295 1 1 0.049818502415403892 1 0.050282436477777789 1 1 1 1 1 1 1 0.046861042191502243 1 1 1 1 1 1 1 0.048937696824517568 1 0.0465637066408029 1 1 0.046637217074841766 1 1 1 0.049924623598723503 1 1 1 1 0.04980123630142063 1 1 1 1 1 0.05000348237240175 1 1 1 1 1 1 1 1 1 1 1 1 1 1 1 1 1 1 1 1 1 0.049576979213686756 1 1 0.049557737802729297 1 1 1 0.049757912989908532 1 1 1 1 0.049851263581032083 1 1 1 1 1 1 1 1 1 1 1 1 1 1 1 1 1 1 1 1 1 1 1 0.049180454880429172 1 1 1 1 1 1 0.047756224218735696 1 1 1 1 1 1 1 1 1 1 1 1 1 0.050013278758182719 1 0.044678971305695148 1 1 0.050877543622942709 1 1 1 1 0.050308246847233749 0.049206760323290688 1 0.049599570290348366 1 0.049754297904061856 1 1 1 1 1 0.05136674769791634 1 1 0.038692140772822896 0.038129303456039883 1 1 1 1 1 0.054680832578263151 1 1 0.04999949699623308 1 1 1 1 1 1 1 1 0.045047640170506283 0.054846637533741589 1 1 1 0.048618694725863054 1 0.050008099749226487 1 1 1 1 1 0.050680463812537088 1 0.05434434371732897 1 1 1 1 1 0.050420485590945502 0.050538928542234553 1 1 1 1 0.049982791466158805 1 1 1 1 0.050150751299772291 1 1 1 1 1 1 1 1 1 1 1 1 1 1 1 1 1 0.049729651415599395 1 1 0.049899256857457858 1 1 1 0.049962370387177928 1 1 1 1 1 1 1 1 1 1 1 1 1 1 1 1 1 1 1 0.049803723763959633 1 1 1 1 1 1 1 1 1 1 1 1 1 1 0.050020896824507367 0.050063765824469919 1 1 1 0.049968657987844375 1 1 1 1 1 0.049724088897738584 1 1 1 1 1 1 1 1 1 1 1 0.049938753083070109 1 1 0.049976382695892198 1 1 1 1 1 1 1 1 1 1 0.045007426861747343 1 1 1 0.048346899931114011 1 0.048683661556264454 1 0.049089467689925004 1 1 1 0.049997612030312229 0.047984043522599523 1 0.04457125729308041 1 1 0.049722689868979569 1 1 0.049353691732787988 0.044581321080957081 1 1 1 0.047927632107730461 1 1 0.048855266074983673 1 0.047686101449497677 1 1 1 0.048152865223367668 1 1 0.048123609076812512 0.048610686607637746 1 0.048506711992628529 1 1 0.046376952031024266 1 0.049320557962149202 1 1 1 1 1 1 1 1 1 0.049811009404072355 1 1 1 1 1 0.05029499371345441 1 1 1 1 1 1 1 1 1 1 0.047221135317638864 1 1 1 1 0.048708063528851923 0.048076025930566792 1 1 0.050116495008623842 1 0.049556476269606617 1 1 1 1 1 0.051444688977769923 1 1 0.046525056465167899 1 0.049989642106111148 1 1 1 1 1 1 1 0.046453320413295987 1 1 1 1 1 1 1 1 1 0.050368555974121411 1 0.049995074828980073 1 0.050005591587465127 1 0.046965991800613525 1 1 1 1 0.049976668185648748 1 1 1 1 1 0.04993750754058808 0.048723784214794695 1 1 1 1 1 1 0.050077339863857491 1 1 1 1 1 0.046759588874708144 1 1 1 1 0.05066470703438742 1 1 0.04831277226018188 1 0.043037042236163697 1 1 1 0.04819790971922526 1 0.050584625717937357 1 1 0.049845208326569967 0.049999184348017103 0.050675270666355486 1 1 1 1 1 1 0.049998466847027946 0.049009082378944045 0.050256229593192842 1 1 1 1 0.049702395119634729 1 0.049997599423547465 1 0.049499463853965808 1 1 1 1 1 1 0.049997408119932668 1 1 1 1 1 1 1 1 1 1 1 1 1 1 1 1 1 1 1 1 1 1 1 1 1 1 1 1 1 1 1 1 1 1 1 1 1 1 1 1 1 1 1 1 1 1 1 1 1 0.049327841055535865 1 1 1 0.04794477264846228 0.050014002514773961 1 1 1 1 1 1 1 1 1 1 1 1 1 1 1 1 1 1 1 0.050280668348935138 1 1 1 1 1 1 1 0.050011244646516073 1 1 0.049294758680490297 1 1 0.048900528894169987 1 1 0.050108140768762688 1 0.048332588460695651 1 1 0.047777543833133165 1 1 1 0.049991347666063876 1 0.047876046330958238 1 0.049811355261020249 0.047229766620380906 1 1 1 0.047141823250896803 0.050025850930331794 1 1 0.047352546065487229 1 1 0.047140473440092583 1 1 1 1 1 1 1 1 1 1 1 1 0.046762016079960035 1 1 1 1 0.046811452883206636 1 1 1 1 0.047324207103006805 1 1 1 1 1 1 1 1 1 0.04995643087448793 1 0.049999252777649807 1 1 1 1 0.050430120222940709 1 1 1 0.050421578057850691 1 1 1 1 1 1 0.050967322879518495 1 1 0.049918871197316417 1 1 1 0.047349194788805726 1 1 1 1 1 1 1 0.050981947416990518 1 1 1 1 1 0.050484739690868183 1 1 1 1 1 1 1 1 1 1 1 1 1 1 1 0.051686624328331363 1 1 1 1 1 0.05030914444273589 1 1 0.049439806074699458 1 0.050409244002903225 1 1 1 1 0.050240840785896676 0.049932599596821836 1 1 0.048155539520778952 1 1 1 1 1 1 1 1 1 1 1 0.049953030151409519 1 0.049532835032268255 1 1 1 1 1 0.049858412322322077 1 1 1 0.049753311584083797 1 1 1 0.049659608087818788 1 1 1 1 1 1 1 1 1 1 1 1 1 0.044258432515958887 1 1 1 1 1 1 1 0.048841808999776817 1 0.048886919774787388 1 1 1 1 1 1 1 0.050075357080983943 0.048245113832902045 1 1 1 1 1 1 1 1 1 0.04978217334571803 1 1 1 1 1 1 0.047180111948586456 0.048877129845907683 0.050006797750056023 1 0.048283736869476054 1 1 1 1 1 1 0.046656656541109703 1 0.04993039102392003 1 0.04963808296400557 1 0.049085697825646889 1 1 1 1 1 1 0.049219893546634488 1 1 0.049980157679272663 1 1 1 1 0.049898516316155737 1 1 1 1 1 1 1 1 1 1 1 1 1 1 1 1 1 1 1 1 1 0.037708843935047982 1 0.05018356502797415 1 1 1 1 1 1 1 1 1 1 1 1 1 1 1 1 1 1 1 1 1 1 1 1 1 1 1 1 1 1 1 1 1 1 1 1 1 1 1 1 1 1 1 1 1 1 1 1 1 1 1 1 1 1 1 1 1 1 0.050085373183909931 1 1 1 1 1 1 1 1 1 1 1 1 1 1 1 1 1 1 1 1 1 1 1 0.049960126400126148 1 1 1 0.050592395307103827 1 0.049877505398095108 1 1 1 1 1 1 1 1 1 1 1 1 1 1 1 1 1 1 1 1 1 1 1 1 1 1 1 1 1 1 1 1 1 1 1 1 1 1 1 0.050290362345458167 1 0.050030173192142036 1 1 1 1 1 1 1 1 1 1 1 1 1 1 1 1 1 1 1 1 1 1 1 1 1 0.04830715360526925 1 1 1 1 1 1 1 1 1 1 1 1 1 1 1 1 1 1 1 1 1 1 1 1 1 1 1 1 1 1 1 1 1 1 1 1 1 1 1 1 1 1 1 1 1 1 1 1 1 1 1 1 1 1 1 1 1 1 1 1 1 1 1 1 1 1 1 1 1 0.046663045604055133 1 1 1 1 1 1 1 0.047406188521324888 1 1 0.05002620312465704 1 1 1 1 1 1 1 1 1 1 1 1 1 1 1 1 1 1 1 1 0.045600374563057114 1 1 1 1 1 1 1 1 1 1 1 1 1 1 1 1 1 1 1 1 1 1 1 1 1 1 1 1 1 1 1 1 0.049997572331183425 1 1 1 1 0.049533511813598302 1 0.050085465848668721 1 1 1 1 1 1 0.049956663127258882 1 1 0.04985828945135546 1 1 0.050087798389338169 0.04999978858946081 1 0.049999388138852158 1 1 1 0.0499945739109037 1 1 1 1 1 1 1 1 1 1 1 1 1 1 1 0.05012748296679774 1 1 1 1 1 1 1 1 0.050151788650083184 1 1 1 1 1 1 1 1 1 1 1 1 1 1 1 1 1 1 1 1 1 1 1 1 1 1 1 1 1 1 1 1 1 1 1 1 0.046446426569899626 1 1 1 1 1 1 1 0.052211766167041651 1 1 0.050487817868015566 1 0.046181844529363109 1 1 1 1 1 1 1 1 1 1 1 0.050000098085209083 0.050005333533419349 1 1 0.050213749966241186 1 1 0.05004896236557594 0.04998330558195091 1 1 1 1 0.049702666152851009 1 0.050446371949735398 1 1 0.049587391344254612 1 0.049942588915089063 0.050304953369055397 1 0.048742071174059348 1 0.046613787892830438 1 1 1 1 1 1 1 0.050028250922132034 1 0.049998685069138696 1 1 1 1 1 0.05001649851470609 1 1 1 0.046534882785239276 1 1 0.050166613707502319 1 0.051211725325562181 1 0.0506815777677459 0.048912725573895567 1 1 0.050061261364221045 1 1 1 1 1 1 0.049372418037162032 1 1 1 1 1 1 1 1 0.052573548957899285 0.05003416211713279 1 1 1 0.050602768106769724 1 1 1 1 0.046939127945196016 0.053181047618012872 1 0.051852310007906251 1 1 1 0.050602434918244808 1 1 1 1 1 1 1 1 1 1 1 1 1 1 1 1 0.05330347122508218 1 1 1 1 1 1 0.049290107275450447 1 0.047936463775762314 1 1 1 0.04939167245258079 0.046921637773724517 1 1 0.05001129805099401 1 0.049930395509859962 1 1 1 1 1 1 1 1 1 1 1 1 0.049977638750921698 0.050002988947957058 1 1 1 1 1 0.051162023035781823 1 1 1 1 1 1 1 0.050318121959472981 1 1 1 0.049999255840083023 1 0.04828652247766952 1 1 0.050005094401944991 1 1 1 1 1 1 1 1 1 0.052187504003000082 1 1 0.050801853470734563 1 1 1 1 1 1 1 1 1 1 1 0.049601260154779177 1 1 1 1 1 1 1 1 1 1 1 1 1 1 1 1 1 1 1 1 1 1 0.048393707674910448 1 1 1 1 1 1 1 1 1 1 1 0.045362533205705421 1 1 1 1 0.042549051037785182 1 1 1 1 1 1 1 1 1 1 1 0.049780944467289222 1 1 1 1 1 0.049297799991893675 1 0.050052379896358891 1 1 1 1 1 1 1 1 1 0.039863505786195456 1 1 0.037405284767991188 1 1 0.055484477743000339 1 1 1 1 0.048477473265204081 1 1 1 1 1 1 1 1 1 1 1 1 1 1 1 1 1 1 1 1 1 0.054627597639923198 1 1 0.045550277999693134 1 0.051633110506715978 1 1 1 1 1 1 1 1 1 0.046554361655126733 1 1 0.051671078306628697 0.047808066365120035 0.049179929806363536 1 1 1 0.049094618249128238 1 1 1 1 1 1 0.049616391984543581 0.049882970060194445 1 0.052619965751873707 1 1 0.052425408324340596 1 1 0.04658195659253362 1 1 1 1 0.046697092793718115 1 1 1 1 0.048227046707917123 1 1 1 1 1 1 1 1 1 1 1 0.049005612834915363 1 1 0.050134853530709608 1 0.047944764696261473 0.050068650457159497 1 1 0.050003378623511723 0.048813897574737961 0.050883113329116755 1 1 1 1 1 1 1 1 1 1 0.049461052248028117 1 1 1 1 1 1 1 1 1 0.045935301044481021 1 1 1 1 1 0.048533062559633258 1 1 1 1 1 1 1 1 1 1 0.049741118121294128 1 1 1 1 1 1 1 1 1 1 1 1 1 1 1 1 1 1 1 1 1 1 1 1 0.046494747764846675 0.050265788700485585 1 1 1 1 1 1 1 1 0.048571178113942307 1 1 1 1 1 1 1 1 1 1 1 1 1 1 1 1 0.049747706619288609 1 1 1 1 0.049856617080498884 1 1 1 0.04936231642366104 0.04970206280210504 1 1 1 1 1 1 0.049698817385366606 1 0.049524130529731133 1 1 1 0.048962475679593054 1 1 1 1 1 1 1 1 0.050258275487965742 1 0.050073380127497305 0.048590636934054181 1 1 1 1 1 1 1 1 1 1 1 1 0.049659278289909493 1 1 0.049431201642533569 1 0.049855858620909244 1 1 1 1 1 1 1 1 1 1 1 1 1 1 1 1 1 1 1 1 1 1 1 0.049803281297334363 1 1 1 1 1 0.039058469126512133 1 1 1 1 1 1 1 1 1 1 0.04952088936245902 1 1 1 0.049871124596394791 1 1 1 1 1 1 1 1 1 1 1 0.050086292317167554 0.041636469460987258 1 1 1 1 1 0.044101871657371762 1 1 1 0.050451641846261788 1 1 1 1 1 1 1 1 1 1 0.049217246855893682 1 1 1 1 1 1 1 0.049881545542958469 0.052697960176489096 1 0.040975863891328242 1 1 1 1 0.049336830593651501 1 1 1 1 1 0.048314591552851893 1 1 1 1 1 1 1 1 1 1 0.050007515040073044 1 1 1 1 1 1 1 1 1 1 0.046533875033661028 1 1 1 1 1 1 1 0.048896766885909479 1 1 1 1 1 1 1 1 1 1 1 1 1 1 1 1 1 1 1 1 0.049856906789059588 1 1 1 0.049698595156873027 1 1 1 1 1 1 1 1 1 1 1 1 1 0.050163481293677842 1 0.049901592977590538 0.047898958296546577 1 0.050583645239790836 0.045435901179658567 1 1 1 1 1 0.05000130790338525 1 1 1 1 1 1 1 0.048704716268722525 1 1 0.045606485027232052 1 1 0.050538376081628027 1 1 0.047070335818791428 1 1 0.049932796307509138 0.047981068061835414 0.050531774015585097 0.05016306968168123 1 1 0.049066867195113328 0.048271029671472877 1 1 0.045124176568882506 1 1 0.0506001510390095 1 1 1 1 0.047972347359032746 0.045014211209264667 0.050038357196180418 0.042868077145221797 1 1 1 0.050010959377757604 1 0.04909348863942721 1 0.046035928635712584 1 0.050089476664610236 0.045038593233081577 1 1 1 1 1 1 1 0.048993299155585132 1 1 0.03669425074277629 1 0.050097922409934256 1 1 0.044431705121475699 0.055034155748412354 1 1 1 1 1 1 1 1 1 1 1 1 1 1 1 1 1 0.050261117374647869 1 1 1 1 1 1 1 1 1 1 1 1 1 1 1 1 1 0.050741068408105466 1 1 1 1 1 1 1 1 1 1 1 1 1 1 0.049755085066993943 0.050721961410976436 1 1 1 1 0.050002660280819886 1 0.050557074929577638 1 1 1 0.049533838643175163 0.04920875460822921 1 0.049773956819050967 1 1 1 1 1 1 1 1 1 1 1 1 1 1 1 1 1 1 1 0.050387686010335123 1 0.050070531000249816 1 1 1 1 0.049924087895361527 1 1 1 1 1 1 1 1 1 1 1 1 1 1 1 1 1 1 1 1 0.050076212397960326 1 1 1 1 1 1 1 1 1 1 1 1 1 1 0.049882395993334924 1 1 1 1 1 1 1 1 1 1 1 1 1 1 1 1 1 1 1 1 1 1 1 1 1 1 1 1 1 1 1 1 1 1 1 1 1 1 1 1 1 1 1 1 1 1 1 1 1 1 1 1 1 1 1 1 1 1 1 1 1 1 0.04824078759780677 1 1 1 0.048769469863557388 1 1 0.049286560198013876 1 1 1 1 1 1 1 1 1 1 1 0.049482909665543522 1 1 1 1 0.050811204401257748 1 1 1 1 1 1 1 1 1 1 1 1 1 1 1 1 1 1 1 1 1 1 1 1 1 1 1 1 1 0.049063132430176092 1 1 1 1 0.049060673532244581 1 1 1 1 1 1 1 1 1 1 0.047653653492397613 1 1 0.044291186868003672 1 1 1 1 1 1 1 1 1 1 1 1 0.050026517476529503 1 1 1 1 1 1 1 1 0.04281362368375112 1 1 1 1 1 1 1 1 1 1 0.048164039077829159 1 0.04940380523677599 1 1 1 0.046550720218627488 1 1 1 0.050187683269920021 1 0.045519551017888238 1 0.047946646954517454 0.05003266635780728 1 1 1 1 1 0.048094860721345258 1 1 1 1 1 1 1 1 1 1 1 1 1 1 1 1 1 1 1 1 1 1 1 0.049575725411709778 1 1 0.041601874814468975 1 1 1 0.049781712256632825 1 0.042106460506557801 1 1 1 1 1 1 1 1 1 1 1 1 0.049935168889976442 1 1 1 1 1 1 1 1 1 1 1 1 1 1 1 1 1 1 1 0.047409391340453973 1 1 1 1 1 1 1 1 1 1 1 1 1 1 1 1 1 1 1 1 1 1 1 1 1 1 1 0.048881869342061526 1 1 1 1 1 1 1 1 1 1 1 1 1 1 1 1 1 1 0.047072157520547997 1 1 1 0.047423896901659532 1 1 1 0.04934903580065679 0.04947870062592874 1 1 1 1 1 0.04903727649739436 1 1 1 1 1 1 1 0.047986020867342327 0.048031537918173203 1 1 1 0.049106555837779065 1 0.049373809102379138 1 1 1 1 1 1 0.047737684897382365 0.049317290465243857 1 1 0.046028442993480162 0.046931132881121211 1 1 1 1 1 1 1 1 1 1 0.050009735806007698 1 1 1 1 1 1 0.049827888552114057 1 1 1 1 1 1 1 1 1 1 1 1 1 1 1 1 1 0.04997869016014421 1 1 1 1 0.048561016646603034 1 1 0.04993476555236806 1 1 1 1 1 1 1 1 1 1 1 0.046310985992773834 1 0.046727300450884073 1 0.04689600160828352 1 1 1 1 1 1 1 1 1 1 1 1 1 1 1 1 1 1 1 0.049849046684508666 1 1 0.049597650557716422 1 1 1 0.049997663266728026 1 1 0.049528835682353778 1 1 1 1 0.049470758022343166 1 1 1 1 1 1 1 0.048975307677792873 1 1 1 1 1 1 1 1 1 1 1 1 1 1 1 1 1 1 1 1 1 1 1 1 1 1 1 1 1 0.047649514524662935 1 1 1 1 1 1 1 1 1 1 1 1 1 1 1 1 1 1 1 1 1 1 1 1 1 1 1 1 1 1 1 1 1 1 1 1 1 0.046259826258787079 0.051633603286389974 0.048256155715883778 1 1 0.041716055840365612 1 1 1 0.049814420381571349 1 0.049971143007514804 1 1 1 1 1 0.050084301083272095 1 1 1 1 1 1 1 0.040800318097854782 1 1 1 1 1 1 1 1 1 1 1 1 1 1 0.052132140756682627 1 1 1 0.050050468223941283 1 0.039788594645622864 1 1 1 1 1 1 1 1 0.052770569533221595 1 1 1 1 1 1 1 0.050000972885272499 1 0.049987023418925886 1 0.04270396456262502 1 1 1 1 1 1 1 1 0.049668353633774448 1 1 0.047416499583291742 0.05192952614347237 0.050310372256564199 1 0.046997800644188834 1 0.043522969442310599 1 1 1 1 1 1 1 1 1 1 1 1 1 1 1 1 1 1 1 1 1 0.047084788766275816 1 1 0.050258464157141164 0.045267401164191548 1 1 1 0.050023126627857566 1 1 1 1 1 1 1 0.050708182479892727 1 0.050199090808542367 1 1 1 1 0.04989450695588455 1 1 0.051927056740273862 1 1 1 1 1 1 1 0.052483026413989636 1 1 0.05368860157601836 1 1 1 0.054716704303508334 1 1 1 1 1 1 1 1 1 0.049986900275844952 1 1 1 1 1 1 0.044408860889841542 1 1 0.04299721867244078 1 1 1 1 0.042904151613977995 1 1 1 1 1 1 0.052496446034707836 0.051752953650591182 0.043990769161719345 1 1 1 0.049972125585578224 1 0.050000136267561661 1 0.052056847643170208 1 1 1 1 1 1 0.043860900228884683 1 1 1 0.05557967910865412 1 1 1 0.051352068674315639 1 1 1 1 1 1 1 1 1 1 1 1 0.050032610399952979 1 1 1 0.049955972943028351 1 1 1 1 1 0.050090899348029391 0.043983872735589014 1 1 0.050273347849717112 1 0.047703511896640405 0.046579345278098372 0.05024245889709409 1 1 1 0.050043285696146689 1 1 1 1 1 0.045338322886627445 1 1 1 1 1 1 1 1 1 1 1 1 0.050019908097700565 1 1 1 1 1 1 0.048128835073031201 1 1 0.048214970052943742 1 1 0.049992794698597375 1 1 1 1 1 0.049986167741909268 1 1 0.052133670514602687 1 0.049991104822030702 1 0.050011091252458124 1 1 1 1 1 1 0.050030999350158686 1 1 1 1 0.050179864193717227 1 1 1 1 1 1 1 1 1 1 0.050584790600994155 1 1 1 1 1 0.051118634398809717 1 1 1 1 1 1 1 1 1 1 1 1 1 1 1 0.049889475962764211 1 1 1 1 1 0.049676121431323619 1 0.050405501517230195 1 1 1 1 1 0.050509885454578782 1 1 1 1 1 0.049644855141488649 1 1 1 1 1 0.050137899079286397 1 1 1 1 1 1 1 1 1 1 0.046554573219632675 1 0.049997844290895946 1 0.046305852016767457 1 1 0.048044770382700143 1 1 1 1 1 1 1 1 0.045570744794834049 1 0.051580702798822098 1 1 1 1 1 1 1 1 1 1 0.046458562793027978 1 1 1 1 1 1 1 1 1 1 0.048524109249139538 1 1 1 0.048026302204650165 1 0.047886580429087416 0.041763873973702348 1 1 1 0.050029335168009406 1 1 1 0.045998995376008184 0.050108941530469429 1 1 1 1 1 1 1 1 1 1 0.048591325601528068 0.05005307347049414 1 1 1 1 1 0.04938690202722576 1 1 1 1 1 1 1 1 1 1 0.049025728485868017 1 0.047862811106072843 0.050999109461497688 0.045629285278585334 1 1 1 1 1 1 1 1 0.048355348501758232 1 1 1 1 1 1 1 1 1 1 1 1 1 1 1 1 1 1 1 1 1 1 1 1 1 1 1 1 1 0.050173717329169809 1 1 1 1 0.050033514385387806 1 1 1 1 1 1 1 1 0.050101690471250085 1 1 1 1 1 1 1 1 0.050140232743871915 1 1 1 1 1 1 1 1 1 1 1 1 1 1 1 1 1 1 1 1 1 1 1 1 1 1 0.05070117486061014 1 1 1 1 1 1 0.052225817977465776 1 0.042101605689251691 1 1 0.05083832169061496 1 1 1 0.041070297505932177 1 0.051513369784124401 1 1 1 0.049971203457528576 1 1 1 0.049140736538321177 1 1 1 1 1 1 0.04981951518422563 1 1 1 1 1 1 1 1 1 1 1 1 1 1 1 1 1 1 1 1 1 1 1 1 1 1 1 0.049621333589801531 1 0.049031384240929884 1 1 1 1 0.049410050651128357 1 1 1 1 1 1 1 1 1 1 1 1 1 0.049453334298178928 1 1 0.049555024769428996 1 1 0.04785618094159768 1 1 1 1 1 0.044375158046890524 1 1 1 1 1 1 1 1 0.051127030215990577 1 0.052476164916142473 1 1 1 1 1 0.050266630052080631 0.050002682304186231 1 1 0.049179883825326856 1 1 1 0.052082476636811197 1 1 1 1 1 1 1 0.049948382955372468 1 1 1 1 1 1 1 1 1 1 1 1 1 1 1 1 0.050601797685735139 1 1 1 1 1 0.048979952585261076 1 0.049531777504736488 1 1 1 1 1 1 1 1 1 1 1 1 0.049206550149771364 1 0.048949852037325908 1 1 1 1 1 1 0.047647019350911687 0.049758375069246796 1 1 1 1 1 1 1 1 1 1 1 1 1 1 1 1 1 1 1 1 1 0.049664101727299292 1 1 0.049024404309340068 1 1 1 1 1 0.050261007423579709 1 1 1 1 1 1 0.05000907192213265 1 1 1 1 1 1 1 1 1 1 1 1 1 1 1 1 0.049988008369514628 1 1 0.049711838366967923 1 1 1 1 0.049857355428077052 1 1 1 1 1 1 1 1 1 1 1 0.049852708567629897 1 1 1 1 1 1 1 1 1 1 1 1 1 1 1 1 1 1 1 0.048697167313585789 1 1 1 1 1 1 1 1 1 1 1 1 0.049562379092386352 1 1 1 1 1 1 1 1 1 1 1 1 1 0.050026248177749102 0.048498480975397606 1 1 1 1 1 1 0.047644833843026584 1 1 1 1 1 1 1 1 1 1 1 1 1 1 1 1 1 1 1 1 1 1 1 1 1 1 1 1 1 1 1 1 1 1 1 0.049954987990230348 1 1 1 1 1 1 1 1 0.050081052559737327 1 1 1 1 1 1 1 1 1 1 1 1 0.050069060929251966 1 1 1 1 0.049174698003360696 1 0.048744732119609273 1 1 1 1 1 1 1 1 0.050106686650445077 1 1 1 1 1 1 1 1 1 1 0.050111333510892211 1 1 1 0.051340242495181584 1 1 0.050166102581127213 1 1 1 1 0.052255187750266857 1 1 0.053075224036351669 1 1 1 1 1 1 1 1 0.050502368546647206 1 1 1 0.050845695132348608 1 1 1 1 1 1 1 0.050643807219797804 1 0.049993562655198942 1 0.047850231591303201 1 0.047372966741509225 0.049781424159225936 1 1 1 0.049937538953027022 0.050031162910641559 0.048956002011311964 1 1 0.043372791384390603 1 1 1 0.053866265384971697 1 1 1 1 0.050039335490612555 1 1 1 1 1 1 1 1 1 1 1 1 1 1 1 1 1 1 1 1 1 1 1 1 1 1 1 1 1 1 1 1 1 1 1 1 1 1 0.049964035966651145 1 1 1 1 1 1 1 1 0.050775151544394041 1 1 1 1 0.050365239385356836 1 1 0.050104293114135459 1 1 0.050700212988606212 1 1 1 1 0.050248275992828585 1 1 1 1 1 0.050328707781722958 1 1 1 1 1 1 1 1 1 1 1 1 1 0.046161450108690202 0.049993060654614056 1 1 1 0.048659315892996942 1 1 1 1 1 1 1 1 1 1 1 1 1 1 0.049906415843730442 1 1 1 1 1 1 0.04960761296209671 1 1 0.049169992054483053 1 1 1 1 1 1 1 1 1 1 0.049742869958120342 1 1 1 1 1 0.049729587420307239 1 1 1 1 1 1 1 1 1 1 0.050386360959797059 1 1 1 1 1 1 1 1 1 1 1 1 1 1 1 0.049998656357755716 1 1 1 1 1 1 1 1 1 1 1 1 1 1 1 1 1 1 1 1 1 1 1 0.050004398933070446 1 0.050426398569277914 1 1 1 0.049968434899721581 1 1 1 1 1 1 1 1 1 0.050253769225935128 1 1 1 0.050546365501838803 1 1 1 1 1 1 1 1 1 1 1 1 1 1 1 1 0.047557835713046254 1 1 1 1 1 0.050451468653122805 1 1 1 0.047608954110504094 1 0.049960018970620919 1 1 1 1 1 1 0.047799108194500992 1 1 1 1 1 1 1 1 1 1 1 1 1 1 1 1 1 1 1 1 1 1 1 1 1 1 1 0.050188133396668777 1 1 0.05002873240511016 1 1 1 1 1 1 1 0.049907122526649222 1 1 1 1 0.050016239694433529 1 1 0.050016135050490816 1 1 1 1 1 1 0.049985544561766113 1 1 1 0.049992327981357609 1 1 1 0.049992308205135762 1 1 1 1 1 0.049615839385260728 1 1 1 1 1 0.049183417748519913 1 1 1 1 1 1 1 1 0.048747474318462082 1 1 0.049984269397664496 1 1 1 1 0.049943704266861191 1 1 1 1 0.04990713271299152 1 1 1 1 0.047519363802321413 1 1 1 0.047823011592168257 1 0.050036674412794462 1 1 1 1 1 1 1 1 1 1 0.049643801833240096 1 1 1 1 1 1 1 0.049034524402597077 0.049557213080037958 1 1 1 1 1 0.047676288198712745 1 1 1 1 1 0.048510847045121208 1 1 1 0.049906130486983002 1 1 0.049986811730944887 1 1 0.046630624471567385 1 1 1 0.048380428193041058 1 1 1 1 1 1 0.049928625811165875 1 1 1 1 1 0.049975608720949589 1 1 1 1 1 0.049991983772786582 1 1 1 1 1 1 0.04995605627768461 1 1 1 1 0.041568980135454396 1 1 1 1 1 0.049917478045119312 1 1 1 1 1 1 1 1 1 1 0.043871078049951003 1 1 1 1 1 1 1 0.050722667717438996 1 1 1 1 0.050228242578180121 0.050646835335779211 1 1 0.047885241899788919 1 1 1 1 1 1 1 0.049218341958176211 1 1 1 1 1 1 1 0.03916663864844229 1 0.051630408250348508 1 1 0.046125851411763771 1 1 1 1 0.050187347881593215 1 0.045583018176504446 1 1 1 1 1 1 1 1 1 1 0.05004456771665889 1 1 1 1 1 0.04984989949960799 1 1 1 0.039234020086307872 1 1 1 1 0.050051743934861941 1 1 0.049278182172125887 1 1 1 1 1 0.046562483465751162 1 0.043836777296415122 1 0.050002630260904415 0.049830998283791693 1 1 1 1 0.045095207217401061 0.050119425240581834 1 1 1 1 1 1 1 1 1 1 1 1 1 0.050038254234350585 1 1 1 1 1 1 0.050415928835542773 0.049120268962354427 1 1 1 1 1 1 1 1 1 1 1 1 1 0.047271782878766266 1 1 1 1 1 1 1 1 1 1 1 1 1 1 1 1 1 1 1 1 1 1 1 1 1 1 1 1 1 1 1 1 1 0.050063922310904188 1 1 0.050115332333645693 1 1 1 1 1 1 1 0.050044470677355582 1 1 1 0.050066196340720473 1 1 0.051636909987601461 1 1 1 0.042973802997905292 0.049993779053440962 1 1 1 1 0.045235086984575068 0.046289628459335284 1 1 1 1 1 1 1 1 1 1 1 1 1 1 0.042742139513320163 1 1 0.049999940798720804 1 1 1 0.043934762447503682 1 1 1 1 0.050066175019231031 1 1 0.042156092293400574 1 1 1 1 1 1 1 1 1 1 1 0.038241398825725768 1 1 1 1 1 1 1 0.034758080270643858 1 1 1 1 1 1 1 1 1 1 1 1 1 1 1 1 1 1 0.050029784371442391 1 1 1 1 1 1 0.045715192619697462 1 0.049941495697162677 1 1 1 1 1 0.050303491799866457 1 1 0.050121532276334341 1 1 1 0.041723496528434482 1 1 1 0.050121810157342968 1 1 1 1 1 1 1 1 1 1 1 1 1 1 0.049885252008626209 1 1 1 1 0.049656067512377944 0.047236667646885201 1 1 1 1 1 1 1 1 1 1 1 1 1 1 1 1 1 1 1 0.049595761536073528 1 1 1 1 1 1 1 1 0.046724202138677264 1 0.046754514587914867 1 1 1 1 1 1 1 0.049995817053792434 1 0.049848708455173939 1 1 1 1 1 0.046772224322411758 1 1 1 1 1 1 0.049876979934525695 1 1 1 1 1 0.048531940980799382 0.049855725977471704 1 1 1 0.052258553874466263 0.046435811736093707 0.048131283993681245 1 1 1 1 1 0.04906318829463574 1 1 1 1 1 0.046053201933448917 1 1 1 1 0.047284087667923629 1 0.047833092884436323 0.050871431176438879 1 0.048621340836437023 0.044822479401599925 1 1 1 0.044262307383094737 1 1 1 0.047728728125649406 1 1 1 0.048932447235621311 1 1 1 0.045029028946275612 1 1 1 1 1 1 1 1 0.043771936593852354 1 1 1 0.043983023891901812 1 1 1 1 1 1 0.043101750063493018 1 1 1 1 1 1 0.043191040180332721 1 1 1 1 1 1 1 1 1 1 1 1 1 1 0.050026165925493596 1 0.048994353815011646 1 1 1 0.044843252287649793 1 1 0.050112817573322588 1 0.04991083573058723 1 0.050043445702523011 1 1 0.046857980592091938 1 1 1 1 1 1 0.049936082824622793 1 1 1 1 0.049953565319320284 1 1 1 1 1 1 0.049976812437204157 1 1 1 1 1 1 1 1 1 1 0.050008132816660611 1 1 1 1 1 1 1 1 1 1 1 1 1 1 1 1 1 1 1 0.051845513583922337 0.050980546472124522 1 1 1 0.047043477113489801 1 1 0.051709236509747375 1 1 0.047073513081336699 1 1 0.049893070052499405 1 1 0.051322009024497073 0.049578185158087491 1 1 1 1 0.047020040294897675 1 1 1 1 1 1 1 1 1 1 1 0.052385878242465135 0.047370178569051472 1 1 1 0.050730102533060296 1 0.049994723188118172 1 0.049977127610757996 1 1 1 1 1 0.04997566042555833 1 1 0.042217355229692513 1 0.052022379218055886 1 1 0.050005729330091828 0.046990701448097666 0.0458011929112647 1 1 1 1 0.046241625447267322 1 1 0.046934396553712884 1 0.043957896884951594 1 1 0.04883761744628206 1 1 1 1 1 1 1 1 0.043965562392690824 1 0.044282783328623704 0.049936631726766878 1 1 1 1 1 0.049901201369714869 0.040184169239991865 1 1 1 0.048553886830098016 0.049652599536116615 1 1 1 1 1 1 1 1 0.049993717388792866 1 0.039695221881458631 1 1 1 1 1 1 1 1 1 1 1 1 1 1 1 1 1 1 1 1 1 1 1 1 1 1 1 1 1 0.050003670527105588 1 1 1 1 1 1 1 1 1 1 1 1 1 1 1 0.050976529583928655 1 1 0.049955138682902051 1 1 1 1 1 0.050035441081290238 1 1 1 1 1 1 1 1 1 1 1 1 1 0.049919697601611829 1 1 1 1 1 1 1 1 1 0.044996765955664417 1 1 0.054561640534075168 1 1 1 1 0.05000092319559761 0.043670739571825525 0.049196087378778119 1 1 1 1 1 0.05284013763923865 1 1 1 
</DataArray>
</CellData>
</Piece>
</UnstructuredGrid>
</VTKFile>
